# vtk DataFile Version 3.0
vtk output
ASCII
DATASET UNSTRUCTURED_GRID
POINTS      5151 double 
  0.00000000E+00  0.00000000E+00  0.00000000E+00
  1.00000000E+01  0.00000000E+00  0.00000000E+00
  2.00000000E+01  0.00000000E+00  0.00000000E+00
  3.00000000E+01  0.00000000E+00  0.00000000E+00
  4.00000000E+01  0.00000000E+00  0.00000000E+00
  5.00000000E+01  0.00000000E+00  0.00000000E+00
  6.00000000E+01  0.00000000E+00  0.00000000E+00
  7.00000000E+01  0.00000000E+00  0.00000000E+00
  8.00000000E+01  0.00000000E+00  0.00000000E+00
  9.00000000E+01  0.00000000E+00  0.00000000E+00
  1.00000000E+02  0.00000000E+00  0.00000000E+00
  1.10000000E+02  0.00000000E+00  0.00000000E+00
  1.20000000E+02  0.00000000E+00  0.00000000E+00
  1.30000000E+02  0.00000000E+00  0.00000000E+00
  1.40000000E+02  0.00000000E+00  0.00000000E+00
  1.50000000E+02  0.00000000E+00  0.00000000E+00
  1.60000000E+02  0.00000000E+00  0.00000000E+00
  1.70000000E+02  0.00000000E+00  0.00000000E+00
  1.80000000E+02  0.00000000E+00  0.00000000E+00
  1.90000000E+02  0.00000000E+00  0.00000000E+00
  2.00000000E+02  0.00000000E+00  0.00000000E+00
  2.10000000E+02  0.00000000E+00  0.00000000E+00
  2.20000000E+02  0.00000000E+00  0.00000000E+00
  2.30000000E+02  0.00000000E+00  0.00000000E+00
  2.40000000E+02  0.00000000E+00  0.00000000E+00
  2.50000000E+02  0.00000000E+00  0.00000000E+00
  2.60000000E+02  0.00000000E+00  0.00000000E+00
  2.70000000E+02  0.00000000E+00  0.00000000E+00
  2.80000000E+02  0.00000000E+00  0.00000000E+00
  2.90000000E+02  0.00000000E+00  0.00000000E+00
  3.00000000E+02  0.00000000E+00  0.00000000E+00
  3.10000000E+02  0.00000000E+00  0.00000000E+00
  3.20000000E+02  0.00000000E+00  0.00000000E+00
  3.30000000E+02  0.00000000E+00  0.00000000E+00
  3.40000000E+02  0.00000000E+00  0.00000000E+00
  3.50000000E+02  0.00000000E+00  0.00000000E+00
  3.60000000E+02  0.00000000E+00  0.00000000E+00
  3.70000000E+02  0.00000000E+00  0.00000000E+00
  3.80000000E+02  0.00000000E+00  0.00000000E+00
  3.90000000E+02  0.00000000E+00  0.00000000E+00
  4.00000000E+02  0.00000000E+00  0.00000000E+00
  4.10000000E+02  0.00000000E+00  0.00000000E+00
  4.20000000E+02  0.00000000E+00  0.00000000E+00
  4.30000000E+02  0.00000000E+00  0.00000000E+00
  4.40000000E+02  0.00000000E+00  0.00000000E+00
  4.50000000E+02  0.00000000E+00  0.00000000E+00
  4.60000000E+02  0.00000000E+00  0.00000000E+00
  4.70000000E+02  0.00000000E+00  0.00000000E+00
  4.80000000E+02  0.00000000E+00  0.00000000E+00
  4.90000000E+02  0.00000000E+00  0.00000000E+00
  5.00000000E+02  0.00000000E+00  0.00000000E+00
  5.10000000E+02  0.00000000E+00  0.00000000E+00
  5.20000000E+02  0.00000000E+00  0.00000000E+00
  5.30000000E+02  0.00000000E+00  0.00000000E+00
  5.40000000E+02  0.00000000E+00  0.00000000E+00
  5.50000000E+02  0.00000000E+00  0.00000000E+00
  5.60000000E+02  0.00000000E+00  0.00000000E+00
  5.70000000E+02  0.00000000E+00  0.00000000E+00
  5.80000000E+02  0.00000000E+00  0.00000000E+00
  5.90000000E+02  0.00000000E+00  0.00000000E+00
  6.00000000E+02  0.00000000E+00  0.00000000E+00
  6.10000000E+02  0.00000000E+00  0.00000000E+00
  6.20000000E+02  0.00000000E+00  0.00000000E+00
  6.30000000E+02  0.00000000E+00  0.00000000E+00
  6.40000000E+02  0.00000000E+00  0.00000000E+00
  6.50000000E+02  0.00000000E+00  0.00000000E+00
  6.60000000E+02  0.00000000E+00  0.00000000E+00
  6.70000000E+02  0.00000000E+00  0.00000000E+00
  6.80000000E+02  0.00000000E+00  0.00000000E+00
  6.90000000E+02  0.00000000E+00  0.00000000E+00
  7.00000000E+02  0.00000000E+00  0.00000000E+00
  7.10000000E+02  0.00000000E+00  0.00000000E+00
  7.20000000E+02  0.00000000E+00  0.00000000E+00
  7.30000000E+02  0.00000000E+00  0.00000000E+00
  7.40000000E+02  0.00000000E+00  0.00000000E+00
  7.50000000E+02  0.00000000E+00  0.00000000E+00
  7.60000000E+02  0.00000000E+00  0.00000000E+00
  7.70000000E+02  0.00000000E+00  0.00000000E+00
  7.80000000E+02  0.00000000E+00  0.00000000E+00
  7.90000000E+02  0.00000000E+00  0.00000000E+00
  8.00000000E+02  0.00000000E+00  0.00000000E+00
  8.10000000E+02  0.00000000E+00  0.00000000E+00
  8.20000000E+02  0.00000000E+00  0.00000000E+00
  8.30000000E+02  0.00000000E+00  0.00000000E+00
  8.40000000E+02  0.00000000E+00  0.00000000E+00
  8.50000000E+02  0.00000000E+00  0.00000000E+00
  8.60000000E+02  0.00000000E+00  0.00000000E+00
  8.70000000E+02  0.00000000E+00  0.00000000E+00
  8.80000000E+02  0.00000000E+00  0.00000000E+00
  8.90000000E+02  0.00000000E+00  0.00000000E+00
  9.00000000E+02  0.00000000E+00  0.00000000E+00
  9.10000000E+02  0.00000000E+00  0.00000000E+00
  9.20000000E+02  0.00000000E+00  0.00000000E+00
  9.30000000E+02  0.00000000E+00  0.00000000E+00
  9.40000000E+02  0.00000000E+00  0.00000000E+00
  9.50000000E+02  0.00000000E+00  0.00000000E+00
  9.60000000E+02  0.00000000E+00  0.00000000E+00
  9.70000000E+02  0.00000000E+00  0.00000000E+00
  9.80000000E+02  0.00000000E+00  0.00000000E+00
  9.90000000E+02  0.00000000E+00  0.00000000E+00
  1.00000000E+03  0.00000000E+00  0.00000000E+00
  0.00000000E+00  2.00000000E+00  0.00000000E+00
  1.00000000E+01  2.00000000E+00  0.00000000E+00
  2.00000000E+01  2.00000000E+00  0.00000000E+00
  3.00000000E+01  2.00000000E+00  0.00000000E+00
  4.00000000E+01  2.00000000E+00  0.00000000E+00
  5.00000000E+01  2.00000000E+00  0.00000000E+00
  6.00000000E+01  2.00000000E+00  0.00000000E+00
  7.00000000E+01  2.00000000E+00  0.00000000E+00
  8.00000000E+01  2.00000000E+00  0.00000000E+00
  9.00000000E+01  2.00000000E+00  0.00000000E+00
  1.00000000E+02  2.00000000E+00  0.00000000E+00
  1.10000000E+02  2.00000000E+00  0.00000000E+00
  1.20000000E+02  2.00000000E+00  0.00000000E+00
  1.30000000E+02  2.00000000E+00  0.00000000E+00
  1.40000000E+02  2.00000000E+00  0.00000000E+00
  1.50000000E+02  2.00000000E+00  0.00000000E+00
  1.60000000E+02  2.00000000E+00  0.00000000E+00
  1.70000000E+02  2.00000000E+00  0.00000000E+00
  1.80000000E+02  2.00000000E+00  0.00000000E+00
  1.90000000E+02  2.00000000E+00  0.00000000E+00
  2.00000000E+02  2.00000000E+00  0.00000000E+00
  2.10000000E+02  2.00000000E+00  0.00000000E+00
  2.20000000E+02  2.00000000E+00  0.00000000E+00
  2.30000000E+02  2.00000000E+00  0.00000000E+00
  2.40000000E+02  2.00000000E+00  0.00000000E+00
  2.50000000E+02  2.00000000E+00  0.00000000E+00
  2.60000000E+02  2.00000000E+00  0.00000000E+00
  2.70000000E+02  2.00000000E+00  0.00000000E+00
  2.80000000E+02  2.00000000E+00  0.00000000E+00
  2.90000000E+02  2.00000000E+00  0.00000000E+00
  3.00000000E+02  2.00000000E+00  0.00000000E+00
  3.10000000E+02  2.00000000E+00  0.00000000E+00
  3.20000000E+02  2.00000000E+00  0.00000000E+00
  3.30000000E+02  2.00000000E+00  0.00000000E+00
  3.40000000E+02  2.00000000E+00  0.00000000E+00
  3.50000000E+02  2.00000000E+00  0.00000000E+00
  3.60000000E+02  2.00000000E+00  0.00000000E+00
  3.70000000E+02  2.00000000E+00  0.00000000E+00
  3.80000000E+02  2.00000000E+00  0.00000000E+00
  3.90000000E+02  2.00000000E+00  0.00000000E+00
  4.00000000E+02  2.00000000E+00  0.00000000E+00
  4.10000000E+02  2.00000000E+00  0.00000000E+00
  4.20000000E+02  2.00000000E+00  0.00000000E+00
  4.30000000E+02  2.00000000E+00  0.00000000E+00
  4.40000000E+02  2.00000000E+00  0.00000000E+00
  4.50000000E+02  2.00000000E+00  0.00000000E+00
  4.60000000E+02  2.00000000E+00  0.00000000E+00
  4.70000000E+02  2.00000000E+00  0.00000000E+00
  4.80000000E+02  2.00000000E+00  0.00000000E+00
  4.90000000E+02  2.00000000E+00  0.00000000E+00
  5.00000000E+02  2.00000000E+00  0.00000000E+00
  5.10000000E+02  2.00000000E+00  0.00000000E+00
  5.20000000E+02  2.00000000E+00  0.00000000E+00
  5.30000000E+02  2.00000000E+00  0.00000000E+00
  5.40000000E+02  2.00000000E+00  0.00000000E+00
  5.50000000E+02  2.00000000E+00  0.00000000E+00
  5.60000000E+02  2.00000000E+00  0.00000000E+00
  5.70000000E+02  2.00000000E+00  0.00000000E+00
  5.80000000E+02  2.00000000E+00  0.00000000E+00
  5.90000000E+02  2.00000000E+00  0.00000000E+00
  6.00000000E+02  2.00000000E+00  0.00000000E+00
  6.10000000E+02  2.00000000E+00  0.00000000E+00
  6.20000000E+02  2.00000000E+00  0.00000000E+00
  6.30000000E+02  2.00000000E+00  0.00000000E+00
  6.40000000E+02  2.00000000E+00  0.00000000E+00
  6.50000000E+02  2.00000000E+00  0.00000000E+00
  6.60000000E+02  2.00000000E+00  0.00000000E+00
  6.70000000E+02  2.00000000E+00  0.00000000E+00
  6.80000000E+02  2.00000000E+00  0.00000000E+00
  6.90000000E+02  2.00000000E+00  0.00000000E+00
  7.00000000E+02  2.00000000E+00  0.00000000E+00
  7.10000000E+02  2.00000000E+00  0.00000000E+00
  7.20000000E+02  2.00000000E+00  0.00000000E+00
  7.30000000E+02  2.00000000E+00  0.00000000E+00
  7.40000000E+02  2.00000000E+00  0.00000000E+00
  7.50000000E+02  2.00000000E+00  0.00000000E+00
  7.60000000E+02  2.00000000E+00  0.00000000E+00
  7.70000000E+02  2.00000000E+00  0.00000000E+00
  7.80000000E+02  2.00000000E+00  0.00000000E+00
  7.90000000E+02  2.00000000E+00  0.00000000E+00
  8.00000000E+02  2.00000000E+00  0.00000000E+00
  8.10000000E+02  2.00000000E+00  0.00000000E+00
  8.20000000E+02  2.00000000E+00  0.00000000E+00
  8.30000000E+02  2.00000000E+00  0.00000000E+00
  8.40000000E+02  2.00000000E+00  0.00000000E+00
  8.50000000E+02  2.00000000E+00  0.00000000E+00
  8.60000000E+02  2.00000000E+00  0.00000000E+00
  8.70000000E+02  2.00000000E+00  0.00000000E+00
  8.80000000E+02  2.00000000E+00  0.00000000E+00
  8.90000000E+02  2.00000000E+00  0.00000000E+00
  9.00000000E+02  2.00000000E+00  0.00000000E+00
  9.10000000E+02  2.00000000E+00  0.00000000E+00
  9.20000000E+02  2.00000000E+00  0.00000000E+00
  9.30000000E+02  2.00000000E+00  0.00000000E+00
  9.40000000E+02  2.00000000E+00  0.00000000E+00
  9.50000000E+02  2.00000000E+00  0.00000000E+00
  9.60000000E+02  2.00000000E+00  0.00000000E+00
  9.70000000E+02  2.00000000E+00  0.00000000E+00
  9.80000000E+02  2.00000000E+00  0.00000000E+00
  9.90000000E+02  2.00000000E+00  0.00000000E+00
  1.00000000E+03  2.00000000E+00  0.00000000E+00
  0.00000000E+00  4.00000000E+00  0.00000000E+00
  1.00000000E+01  4.00000000E+00  0.00000000E+00
  2.00000000E+01  4.00000000E+00  0.00000000E+00
  3.00000000E+01  4.00000000E+00  0.00000000E+00
  4.00000000E+01  4.00000000E+00  0.00000000E+00
  5.00000000E+01  4.00000000E+00  0.00000000E+00
  6.00000000E+01  4.00000000E+00  0.00000000E+00
  7.00000000E+01  4.00000000E+00  0.00000000E+00
  8.00000000E+01  4.00000000E+00  0.00000000E+00
  9.00000000E+01  4.00000000E+00  0.00000000E+00
  1.00000000E+02  4.00000000E+00  0.00000000E+00
  1.10000000E+02  4.00000000E+00  0.00000000E+00
  1.20000000E+02  4.00000000E+00  0.00000000E+00
  1.30000000E+02  4.00000000E+00  0.00000000E+00
  1.40000000E+02  4.00000000E+00  0.00000000E+00
  1.50000000E+02  4.00000000E+00  0.00000000E+00
  1.60000000E+02  4.00000000E+00  0.00000000E+00
  1.70000000E+02  4.00000000E+00  0.00000000E+00
  1.80000000E+02  4.00000000E+00  0.00000000E+00
  1.90000000E+02  4.00000000E+00  0.00000000E+00
  2.00000000E+02  4.00000000E+00  0.00000000E+00
  2.10000000E+02  4.00000000E+00  0.00000000E+00
  2.20000000E+02  4.00000000E+00  0.00000000E+00
  2.30000000E+02  4.00000000E+00  0.00000000E+00
  2.40000000E+02  4.00000000E+00  0.00000000E+00
  2.50000000E+02  4.00000000E+00  0.00000000E+00
  2.60000000E+02  4.00000000E+00  0.00000000E+00
  2.70000000E+02  4.00000000E+00  0.00000000E+00
  2.80000000E+02  4.00000000E+00  0.00000000E+00
  2.90000000E+02  4.00000000E+00  0.00000000E+00
  3.00000000E+02  4.00000000E+00  0.00000000E+00
  3.10000000E+02  4.00000000E+00  0.00000000E+00
  3.20000000E+02  4.00000000E+00  0.00000000E+00
  3.30000000E+02  4.00000000E+00  0.00000000E+00
  3.40000000E+02  4.00000000E+00  0.00000000E+00
  3.50000000E+02  4.00000000E+00  0.00000000E+00
  3.60000000E+02  4.00000000E+00  0.00000000E+00
  3.70000000E+02  4.00000000E+00  0.00000000E+00
  3.80000000E+02  4.00000000E+00  0.00000000E+00
  3.90000000E+02  4.00000000E+00  0.00000000E+00
  4.00000000E+02  4.00000000E+00  0.00000000E+00
  4.10000000E+02  4.00000000E+00  0.00000000E+00
  4.20000000E+02  4.00000000E+00  0.00000000E+00
  4.30000000E+02  4.00000000E+00  0.00000000E+00
  4.40000000E+02  4.00000000E+00  0.00000000E+00
  4.50000000E+02  4.00000000E+00  0.00000000E+00
  4.60000000E+02  4.00000000E+00  0.00000000E+00
  4.70000000E+02  4.00000000E+00  0.00000000E+00
  4.80000000E+02  4.00000000E+00  0.00000000E+00
  4.90000000E+02  4.00000000E+00  0.00000000E+00
  5.00000000E+02  4.00000000E+00  0.00000000E+00
  5.10000000E+02  4.00000000E+00  0.00000000E+00
  5.20000000E+02  4.00000000E+00  0.00000000E+00
  5.30000000E+02  4.00000000E+00  0.00000000E+00
  5.40000000E+02  4.00000000E+00  0.00000000E+00
  5.50000000E+02  4.00000000E+00  0.00000000E+00
  5.60000000E+02  4.00000000E+00  0.00000000E+00
  5.70000000E+02  4.00000000E+00  0.00000000E+00
  5.80000000E+02  4.00000000E+00  0.00000000E+00
  5.90000000E+02  4.00000000E+00  0.00000000E+00
  6.00000000E+02  4.00000000E+00  0.00000000E+00
  6.10000000E+02  4.00000000E+00  0.00000000E+00
  6.20000000E+02  4.00000000E+00  0.00000000E+00
  6.30000000E+02  4.00000000E+00  0.00000000E+00
  6.40000000E+02  4.00000000E+00  0.00000000E+00
  6.50000000E+02  4.00000000E+00  0.00000000E+00
  6.60000000E+02  4.00000000E+00  0.00000000E+00
  6.70000000E+02  4.00000000E+00  0.00000000E+00
  6.80000000E+02  4.00000000E+00  0.00000000E+00
  6.90000000E+02  4.00000000E+00  0.00000000E+00
  7.00000000E+02  4.00000000E+00  0.00000000E+00
  7.10000000E+02  4.00000000E+00  0.00000000E+00
  7.20000000E+02  4.00000000E+00  0.00000000E+00
  7.30000000E+02  4.00000000E+00  0.00000000E+00
  7.40000000E+02  4.00000000E+00  0.00000000E+00
  7.50000000E+02  4.00000000E+00  0.00000000E+00
  7.60000000E+02  4.00000000E+00  0.00000000E+00
  7.70000000E+02  4.00000000E+00  0.00000000E+00
  7.80000000E+02  4.00000000E+00  0.00000000E+00
  7.90000000E+02  4.00000000E+00  0.00000000E+00
  8.00000000E+02  4.00000000E+00  0.00000000E+00
  8.10000000E+02  4.00000000E+00  0.00000000E+00
  8.20000000E+02  4.00000000E+00  0.00000000E+00
  8.30000000E+02  4.00000000E+00  0.00000000E+00
  8.40000000E+02  4.00000000E+00  0.00000000E+00
  8.50000000E+02  4.00000000E+00  0.00000000E+00
  8.60000000E+02  4.00000000E+00  0.00000000E+00
  8.70000000E+02  4.00000000E+00  0.00000000E+00
  8.80000000E+02  4.00000000E+00  0.00000000E+00
  8.90000000E+02  4.00000000E+00  0.00000000E+00
  9.00000000E+02  4.00000000E+00  0.00000000E+00
  9.10000000E+02  4.00000000E+00  0.00000000E+00
  9.20000000E+02  4.00000000E+00  0.00000000E+00
  9.30000000E+02  4.00000000E+00  0.00000000E+00
  9.40000000E+02  4.00000000E+00  0.00000000E+00
  9.50000000E+02  4.00000000E+00  0.00000000E+00
  9.60000000E+02  4.00000000E+00  0.00000000E+00
  9.70000000E+02  4.00000000E+00  0.00000000E+00
  9.80000000E+02  4.00000000E+00  0.00000000E+00
  9.90000000E+02  4.00000000E+00  0.00000000E+00
  1.00000000E+03  4.00000000E+00  0.00000000E+00
  0.00000000E+00  6.00000000E+00  0.00000000E+00
  1.00000000E+01  6.00000000E+00  0.00000000E+00
  2.00000000E+01  6.00000000E+00  0.00000000E+00
  3.00000000E+01  6.00000000E+00  0.00000000E+00
  4.00000000E+01  6.00000000E+00  0.00000000E+00
  5.00000000E+01  6.00000000E+00  0.00000000E+00
  6.00000000E+01  6.00000000E+00  0.00000000E+00
  7.00000000E+01  6.00000000E+00  0.00000000E+00
  8.00000000E+01  6.00000000E+00  0.00000000E+00
  9.00000000E+01  6.00000000E+00  0.00000000E+00
  1.00000000E+02  6.00000000E+00  0.00000000E+00
  1.10000000E+02  6.00000000E+00  0.00000000E+00
  1.20000000E+02  6.00000000E+00  0.00000000E+00
  1.30000000E+02  6.00000000E+00  0.00000000E+00
  1.40000000E+02  6.00000000E+00  0.00000000E+00
  1.50000000E+02  6.00000000E+00  0.00000000E+00
  1.60000000E+02  6.00000000E+00  0.00000000E+00
  1.70000000E+02  6.00000000E+00  0.00000000E+00
  1.80000000E+02  6.00000000E+00  0.00000000E+00
  1.90000000E+02  6.00000000E+00  0.00000000E+00
  2.00000000E+02  6.00000000E+00  0.00000000E+00
  2.10000000E+02  6.00000000E+00  0.00000000E+00
  2.20000000E+02  6.00000000E+00  0.00000000E+00
  2.30000000E+02  6.00000000E+00  0.00000000E+00
  2.40000000E+02  6.00000000E+00  0.00000000E+00
  2.50000000E+02  6.00000000E+00  0.00000000E+00
  2.60000000E+02  6.00000000E+00  0.00000000E+00
  2.70000000E+02  6.00000000E+00  0.00000000E+00
  2.80000000E+02  6.00000000E+00  0.00000000E+00
  2.90000000E+02  6.00000000E+00  0.00000000E+00
  3.00000000E+02  6.00000000E+00  0.00000000E+00
  3.10000000E+02  6.00000000E+00  0.00000000E+00
  3.20000000E+02  6.00000000E+00  0.00000000E+00
  3.30000000E+02  6.00000000E+00  0.00000000E+00
  3.40000000E+02  6.00000000E+00  0.00000000E+00
  3.50000000E+02  6.00000000E+00  0.00000000E+00
  3.60000000E+02  6.00000000E+00  0.00000000E+00
  3.70000000E+02  6.00000000E+00  0.00000000E+00
  3.80000000E+02  6.00000000E+00  0.00000000E+00
  3.90000000E+02  6.00000000E+00  0.00000000E+00
  4.00000000E+02  6.00000000E+00  0.00000000E+00
  4.10000000E+02  6.00000000E+00  0.00000000E+00
  4.20000000E+02  6.00000000E+00  0.00000000E+00
  4.30000000E+02  6.00000000E+00  0.00000000E+00
  4.40000000E+02  6.00000000E+00  0.00000000E+00
  4.50000000E+02  6.00000000E+00  0.00000000E+00
  4.60000000E+02  6.00000000E+00  0.00000000E+00
  4.70000000E+02  6.00000000E+00  0.00000000E+00
  4.80000000E+02  6.00000000E+00  0.00000000E+00
  4.90000000E+02  6.00000000E+00  0.00000000E+00
  5.00000000E+02  6.00000000E+00  0.00000000E+00
  5.10000000E+02  6.00000000E+00  0.00000000E+00
  5.20000000E+02  6.00000000E+00  0.00000000E+00
  5.30000000E+02  6.00000000E+00  0.00000000E+00
  5.40000000E+02  6.00000000E+00  0.00000000E+00
  5.50000000E+02  6.00000000E+00  0.00000000E+00
  5.60000000E+02  6.00000000E+00  0.00000000E+00
  5.70000000E+02  6.00000000E+00  0.00000000E+00
  5.80000000E+02  6.00000000E+00  0.00000000E+00
  5.90000000E+02  6.00000000E+00  0.00000000E+00
  6.00000000E+02  6.00000000E+00  0.00000000E+00
  6.10000000E+02  6.00000000E+00  0.00000000E+00
  6.20000000E+02  6.00000000E+00  0.00000000E+00
  6.30000000E+02  6.00000000E+00  0.00000000E+00
  6.40000000E+02  6.00000000E+00  0.00000000E+00
  6.50000000E+02  6.00000000E+00  0.00000000E+00
  6.60000000E+02  6.00000000E+00  0.00000000E+00
  6.70000000E+02  6.00000000E+00  0.00000000E+00
  6.80000000E+02  6.00000000E+00  0.00000000E+00
  6.90000000E+02  6.00000000E+00  0.00000000E+00
  7.00000000E+02  6.00000000E+00  0.00000000E+00
  7.10000000E+02  6.00000000E+00  0.00000000E+00
  7.20000000E+02  6.00000000E+00  0.00000000E+00
  7.30000000E+02  6.00000000E+00  0.00000000E+00
  7.40000000E+02  6.00000000E+00  0.00000000E+00
  7.50000000E+02  6.00000000E+00  0.00000000E+00
  7.60000000E+02  6.00000000E+00  0.00000000E+00
  7.70000000E+02  6.00000000E+00  0.00000000E+00
  7.80000000E+02  6.00000000E+00  0.00000000E+00
  7.90000000E+02  6.00000000E+00  0.00000000E+00
  8.00000000E+02  6.00000000E+00  0.00000000E+00
  8.10000000E+02  6.00000000E+00  0.00000000E+00
  8.20000000E+02  6.00000000E+00  0.00000000E+00
  8.30000000E+02  6.00000000E+00  0.00000000E+00
  8.40000000E+02  6.00000000E+00  0.00000000E+00
  8.50000000E+02  6.00000000E+00  0.00000000E+00
  8.60000000E+02  6.00000000E+00  0.00000000E+00
  8.70000000E+02  6.00000000E+00  0.00000000E+00
  8.80000000E+02  6.00000000E+00  0.00000000E+00
  8.90000000E+02  6.00000000E+00  0.00000000E+00
  9.00000000E+02  6.00000000E+00  0.00000000E+00
  9.10000000E+02  6.00000000E+00  0.00000000E+00
  9.20000000E+02  6.00000000E+00  0.00000000E+00
  9.30000000E+02  6.00000000E+00  0.00000000E+00
  9.40000000E+02  6.00000000E+00  0.00000000E+00
  9.50000000E+02  6.00000000E+00  0.00000000E+00
  9.60000000E+02  6.00000000E+00  0.00000000E+00
  9.70000000E+02  6.00000000E+00  0.00000000E+00
  9.80000000E+02  6.00000000E+00  0.00000000E+00
  9.90000000E+02  6.00000000E+00  0.00000000E+00
  1.00000000E+03  6.00000000E+00  0.00000000E+00
  0.00000000E+00  8.00000000E+00  0.00000000E+00
  1.00000000E+01  8.00000000E+00  0.00000000E+00
  2.00000000E+01  8.00000000E+00  0.00000000E+00
  3.00000000E+01  8.00000000E+00  0.00000000E+00
  4.00000000E+01  8.00000000E+00  0.00000000E+00
  5.00000000E+01  8.00000000E+00  0.00000000E+00
  6.00000000E+01  8.00000000E+00  0.00000000E+00
  7.00000000E+01  8.00000000E+00  0.00000000E+00
  8.00000000E+01  8.00000000E+00  0.00000000E+00
  9.00000000E+01  8.00000000E+00  0.00000000E+00
  1.00000000E+02  8.00000000E+00  0.00000000E+00
  1.10000000E+02  8.00000000E+00  0.00000000E+00
  1.20000000E+02  8.00000000E+00  0.00000000E+00
  1.30000000E+02  8.00000000E+00  0.00000000E+00
  1.40000000E+02  8.00000000E+00  0.00000000E+00
  1.50000000E+02  8.00000000E+00  0.00000000E+00
  1.60000000E+02  8.00000000E+00  0.00000000E+00
  1.70000000E+02  8.00000000E+00  0.00000000E+00
  1.80000000E+02  8.00000000E+00  0.00000000E+00
  1.90000000E+02  8.00000000E+00  0.00000000E+00
  2.00000000E+02  8.00000000E+00  0.00000000E+00
  2.10000000E+02  8.00000000E+00  0.00000000E+00
  2.20000000E+02  8.00000000E+00  0.00000000E+00
  2.30000000E+02  8.00000000E+00  0.00000000E+00
  2.40000000E+02  8.00000000E+00  0.00000000E+00
  2.50000000E+02  8.00000000E+00  0.00000000E+00
  2.60000000E+02  8.00000000E+00  0.00000000E+00
  2.70000000E+02  8.00000000E+00  0.00000000E+00
  2.80000000E+02  8.00000000E+00  0.00000000E+00
  2.90000000E+02  8.00000000E+00  0.00000000E+00
  3.00000000E+02  8.00000000E+00  0.00000000E+00
  3.10000000E+02  8.00000000E+00  0.00000000E+00
  3.20000000E+02  8.00000000E+00  0.00000000E+00
  3.30000000E+02  8.00000000E+00  0.00000000E+00
  3.40000000E+02  8.00000000E+00  0.00000000E+00
  3.50000000E+02  8.00000000E+00  0.00000000E+00
  3.60000000E+02  8.00000000E+00  0.00000000E+00
  3.70000000E+02  8.00000000E+00  0.00000000E+00
  3.80000000E+02  8.00000000E+00  0.00000000E+00
  3.90000000E+02  8.00000000E+00  0.00000000E+00
  4.00000000E+02  8.00000000E+00  0.00000000E+00
  4.10000000E+02  8.00000000E+00  0.00000000E+00
  4.20000000E+02  8.00000000E+00  0.00000000E+00
  4.30000000E+02  8.00000000E+00  0.00000000E+00
  4.40000000E+02  8.00000000E+00  0.00000000E+00
  4.50000000E+02  8.00000000E+00  0.00000000E+00
  4.60000000E+02  8.00000000E+00  0.00000000E+00
  4.70000000E+02  8.00000000E+00  0.00000000E+00
  4.80000000E+02  8.00000000E+00  0.00000000E+00
  4.90000000E+02  8.00000000E+00  0.00000000E+00
  5.00000000E+02  8.00000000E+00  0.00000000E+00
  5.10000000E+02  8.00000000E+00  0.00000000E+00
  5.20000000E+02  8.00000000E+00  0.00000000E+00
  5.30000000E+02  8.00000000E+00  0.00000000E+00
  5.40000000E+02  8.00000000E+00  0.00000000E+00
  5.50000000E+02  8.00000000E+00  0.00000000E+00
  5.60000000E+02  8.00000000E+00  0.00000000E+00
  5.70000000E+02  8.00000000E+00  0.00000000E+00
  5.80000000E+02  8.00000000E+00  0.00000000E+00
  5.90000000E+02  8.00000000E+00  0.00000000E+00
  6.00000000E+02  8.00000000E+00  0.00000000E+00
  6.10000000E+02  8.00000000E+00  0.00000000E+00
  6.20000000E+02  8.00000000E+00  0.00000000E+00
  6.30000000E+02  8.00000000E+00  0.00000000E+00
  6.40000000E+02  8.00000000E+00  0.00000000E+00
  6.50000000E+02  8.00000000E+00  0.00000000E+00
  6.60000000E+02  8.00000000E+00  0.00000000E+00
  6.70000000E+02  8.00000000E+00  0.00000000E+00
  6.80000000E+02  8.00000000E+00  0.00000000E+00
  6.90000000E+02  8.00000000E+00  0.00000000E+00
  7.00000000E+02  8.00000000E+00  0.00000000E+00
  7.10000000E+02  8.00000000E+00  0.00000000E+00
  7.20000000E+02  8.00000000E+00  0.00000000E+00
  7.30000000E+02  8.00000000E+00  0.00000000E+00
  7.40000000E+02  8.00000000E+00  0.00000000E+00
  7.50000000E+02  8.00000000E+00  0.00000000E+00
  7.60000000E+02  8.00000000E+00  0.00000000E+00
  7.70000000E+02  8.00000000E+00  0.00000000E+00
  7.80000000E+02  8.00000000E+00  0.00000000E+00
  7.90000000E+02  8.00000000E+00  0.00000000E+00
  8.00000000E+02  8.00000000E+00  0.00000000E+00
  8.10000000E+02  8.00000000E+00  0.00000000E+00
  8.20000000E+02  8.00000000E+00  0.00000000E+00
  8.30000000E+02  8.00000000E+00  0.00000000E+00
  8.40000000E+02  8.00000000E+00  0.00000000E+00
  8.50000000E+02  8.00000000E+00  0.00000000E+00
  8.60000000E+02  8.00000000E+00  0.00000000E+00
  8.70000000E+02  8.00000000E+00  0.00000000E+00
  8.80000000E+02  8.00000000E+00  0.00000000E+00
  8.90000000E+02  8.00000000E+00  0.00000000E+00
  9.00000000E+02  8.00000000E+00  0.00000000E+00
  9.10000000E+02  8.00000000E+00  0.00000000E+00
  9.20000000E+02  8.00000000E+00  0.00000000E+00
  9.30000000E+02  8.00000000E+00  0.00000000E+00
  9.40000000E+02  8.00000000E+00  0.00000000E+00
  9.50000000E+02  8.00000000E+00  0.00000000E+00
  9.60000000E+02  8.00000000E+00  0.00000000E+00
  9.70000000E+02  8.00000000E+00  0.00000000E+00
  9.80000000E+02  8.00000000E+00  0.00000000E+00
  9.90000000E+02  8.00000000E+00  0.00000000E+00
  1.00000000E+03  8.00000000E+00  0.00000000E+00
  0.00000000E+00  1.00000000E+01  0.00000000E+00
  1.00000000E+01  1.00000000E+01  0.00000000E+00
  2.00000000E+01  1.00000000E+01  0.00000000E+00
  3.00000000E+01  1.00000000E+01  0.00000000E+00
  4.00000000E+01  1.00000000E+01  0.00000000E+00
  5.00000000E+01  1.00000000E+01  0.00000000E+00
  6.00000000E+01  1.00000000E+01  0.00000000E+00
  7.00000000E+01  1.00000000E+01  0.00000000E+00
  8.00000000E+01  1.00000000E+01  0.00000000E+00
  9.00000000E+01  1.00000000E+01  0.00000000E+00
  1.00000000E+02  1.00000000E+01  0.00000000E+00
  1.10000000E+02  1.00000000E+01  0.00000000E+00
  1.20000000E+02  1.00000000E+01  0.00000000E+00
  1.30000000E+02  1.00000000E+01  0.00000000E+00
  1.40000000E+02  1.00000000E+01  0.00000000E+00
  1.50000000E+02  1.00000000E+01  0.00000000E+00
  1.60000000E+02  1.00000000E+01  0.00000000E+00
  1.70000000E+02  1.00000000E+01  0.00000000E+00
  1.80000000E+02  1.00000000E+01  0.00000000E+00
  1.90000000E+02  1.00000000E+01  0.00000000E+00
  2.00000000E+02  1.00000000E+01  0.00000000E+00
  2.10000000E+02  1.00000000E+01  0.00000000E+00
  2.20000000E+02  1.00000000E+01  0.00000000E+00
  2.30000000E+02  1.00000000E+01  0.00000000E+00
  2.40000000E+02  1.00000000E+01  0.00000000E+00
  2.50000000E+02  1.00000000E+01  0.00000000E+00
  2.60000000E+02  1.00000000E+01  0.00000000E+00
  2.70000000E+02  1.00000000E+01  0.00000000E+00
  2.80000000E+02  1.00000000E+01  0.00000000E+00
  2.90000000E+02  1.00000000E+01  0.00000000E+00
  3.00000000E+02  1.00000000E+01  0.00000000E+00
  3.10000000E+02  1.00000000E+01  0.00000000E+00
  3.20000000E+02  1.00000000E+01  0.00000000E+00
  3.30000000E+02  1.00000000E+01  0.00000000E+00
  3.40000000E+02  1.00000000E+01  0.00000000E+00
  3.50000000E+02  1.00000000E+01  0.00000000E+00
  3.60000000E+02  1.00000000E+01  0.00000000E+00
  3.70000000E+02  1.00000000E+01  0.00000000E+00
  3.80000000E+02  1.00000000E+01  0.00000000E+00
  3.90000000E+02  1.00000000E+01  0.00000000E+00
  4.00000000E+02  1.00000000E+01  0.00000000E+00
  4.10000000E+02  1.00000000E+01  0.00000000E+00
  4.20000000E+02  1.00000000E+01  0.00000000E+00
  4.30000000E+02  1.00000000E+01  0.00000000E+00
  4.40000000E+02  1.00000000E+01  0.00000000E+00
  4.50000000E+02  1.00000000E+01  0.00000000E+00
  4.60000000E+02  1.00000000E+01  0.00000000E+00
  4.70000000E+02  1.00000000E+01  0.00000000E+00
  4.80000000E+02  1.00000000E+01  0.00000000E+00
  4.90000000E+02  1.00000000E+01  0.00000000E+00
  5.00000000E+02  1.00000000E+01  0.00000000E+00
  5.10000000E+02  1.00000000E+01  0.00000000E+00
  5.20000000E+02  1.00000000E+01  0.00000000E+00
  5.30000000E+02  1.00000000E+01  0.00000000E+00
  5.40000000E+02  1.00000000E+01  0.00000000E+00
  5.50000000E+02  1.00000000E+01  0.00000000E+00
  5.60000000E+02  1.00000000E+01  0.00000000E+00
  5.70000000E+02  1.00000000E+01  0.00000000E+00
  5.80000000E+02  1.00000000E+01  0.00000000E+00
  5.90000000E+02  1.00000000E+01  0.00000000E+00
  6.00000000E+02  1.00000000E+01  0.00000000E+00
  6.10000000E+02  1.00000000E+01  0.00000000E+00
  6.20000000E+02  1.00000000E+01  0.00000000E+00
  6.30000000E+02  1.00000000E+01  0.00000000E+00
  6.40000000E+02  1.00000000E+01  0.00000000E+00
  6.50000000E+02  1.00000000E+01  0.00000000E+00
  6.60000000E+02  1.00000000E+01  0.00000000E+00
  6.70000000E+02  1.00000000E+01  0.00000000E+00
  6.80000000E+02  1.00000000E+01  0.00000000E+00
  6.90000000E+02  1.00000000E+01  0.00000000E+00
  7.00000000E+02  1.00000000E+01  0.00000000E+00
  7.10000000E+02  1.00000000E+01  0.00000000E+00
  7.20000000E+02  1.00000000E+01  0.00000000E+00
  7.30000000E+02  1.00000000E+01  0.00000000E+00
  7.40000000E+02  1.00000000E+01  0.00000000E+00
  7.50000000E+02  1.00000000E+01  0.00000000E+00
  7.60000000E+02  1.00000000E+01  0.00000000E+00
  7.70000000E+02  1.00000000E+01  0.00000000E+00
  7.80000000E+02  1.00000000E+01  0.00000000E+00
  7.90000000E+02  1.00000000E+01  0.00000000E+00
  8.00000000E+02  1.00000000E+01  0.00000000E+00
  8.10000000E+02  1.00000000E+01  0.00000000E+00
  8.20000000E+02  1.00000000E+01  0.00000000E+00
  8.30000000E+02  1.00000000E+01  0.00000000E+00
  8.40000000E+02  1.00000000E+01  0.00000000E+00
  8.50000000E+02  1.00000000E+01  0.00000000E+00
  8.60000000E+02  1.00000000E+01  0.00000000E+00
  8.70000000E+02  1.00000000E+01  0.00000000E+00
  8.80000000E+02  1.00000000E+01  0.00000000E+00
  8.90000000E+02  1.00000000E+01  0.00000000E+00
  9.00000000E+02  1.00000000E+01  0.00000000E+00
  9.10000000E+02  1.00000000E+01  0.00000000E+00
  9.20000000E+02  1.00000000E+01  0.00000000E+00
  9.30000000E+02  1.00000000E+01  0.00000000E+00
  9.40000000E+02  1.00000000E+01  0.00000000E+00
  9.50000000E+02  1.00000000E+01  0.00000000E+00
  9.60000000E+02  1.00000000E+01  0.00000000E+00
  9.70000000E+02  1.00000000E+01  0.00000000E+00
  9.80000000E+02  1.00000000E+01  0.00000000E+00
  9.90000000E+02  1.00000000E+01  0.00000000E+00
  1.00000000E+03  1.00000000E+01  0.00000000E+00
  0.00000000E+00  1.20000000E+01  0.00000000E+00
  1.00000000E+01  1.20000000E+01  0.00000000E+00
  2.00000000E+01  1.20000000E+01  0.00000000E+00
  3.00000000E+01  1.20000000E+01  0.00000000E+00
  4.00000000E+01  1.20000000E+01  0.00000000E+00
  5.00000000E+01  1.20000000E+01  0.00000000E+00
  6.00000000E+01  1.20000000E+01  0.00000000E+00
  7.00000000E+01  1.20000000E+01  0.00000000E+00
  8.00000000E+01  1.20000000E+01  0.00000000E+00
  9.00000000E+01  1.20000000E+01  0.00000000E+00
  1.00000000E+02  1.20000000E+01  0.00000000E+00
  1.10000000E+02  1.20000000E+01  0.00000000E+00
  1.20000000E+02  1.20000000E+01  0.00000000E+00
  1.30000000E+02  1.20000000E+01  0.00000000E+00
  1.40000000E+02  1.20000000E+01  0.00000000E+00
  1.50000000E+02  1.20000000E+01  0.00000000E+00
  1.60000000E+02  1.20000000E+01  0.00000000E+00
  1.70000000E+02  1.20000000E+01  0.00000000E+00
  1.80000000E+02  1.20000000E+01  0.00000000E+00
  1.90000000E+02  1.20000000E+01  0.00000000E+00
  2.00000000E+02  1.20000000E+01  0.00000000E+00
  2.10000000E+02  1.20000000E+01  0.00000000E+00
  2.20000000E+02  1.20000000E+01  0.00000000E+00
  2.30000000E+02  1.20000000E+01  0.00000000E+00
  2.40000000E+02  1.20000000E+01  0.00000000E+00
  2.50000000E+02  1.20000000E+01  0.00000000E+00
  2.60000000E+02  1.20000000E+01  0.00000000E+00
  2.70000000E+02  1.20000000E+01  0.00000000E+00
  2.80000000E+02  1.20000000E+01  0.00000000E+00
  2.90000000E+02  1.20000000E+01  0.00000000E+00
  3.00000000E+02  1.20000000E+01  0.00000000E+00
  3.10000000E+02  1.20000000E+01  0.00000000E+00
  3.20000000E+02  1.20000000E+01  0.00000000E+00
  3.30000000E+02  1.20000000E+01  0.00000000E+00
  3.40000000E+02  1.20000000E+01  0.00000000E+00
  3.50000000E+02  1.20000000E+01  0.00000000E+00
  3.60000000E+02  1.20000000E+01  0.00000000E+00
  3.70000000E+02  1.20000000E+01  0.00000000E+00
  3.80000000E+02  1.20000000E+01  0.00000000E+00
  3.90000000E+02  1.20000000E+01  0.00000000E+00
  4.00000000E+02  1.20000000E+01  0.00000000E+00
  4.10000000E+02  1.20000000E+01  0.00000000E+00
  4.20000000E+02  1.20000000E+01  0.00000000E+00
  4.30000000E+02  1.20000000E+01  0.00000000E+00
  4.40000000E+02  1.20000000E+01  0.00000000E+00
  4.50000000E+02  1.20000000E+01  0.00000000E+00
  4.60000000E+02  1.20000000E+01  0.00000000E+00
  4.70000000E+02  1.20000000E+01  0.00000000E+00
  4.80000000E+02  1.20000000E+01  0.00000000E+00
  4.90000000E+02  1.20000000E+01  0.00000000E+00
  5.00000000E+02  1.20000000E+01  0.00000000E+00
  5.10000000E+02  1.20000000E+01  0.00000000E+00
  5.20000000E+02  1.20000000E+01  0.00000000E+00
  5.30000000E+02  1.20000000E+01  0.00000000E+00
  5.40000000E+02  1.20000000E+01  0.00000000E+00
  5.50000000E+02  1.20000000E+01  0.00000000E+00
  5.60000000E+02  1.20000000E+01  0.00000000E+00
  5.70000000E+02  1.20000000E+01  0.00000000E+00
  5.80000000E+02  1.20000000E+01  0.00000000E+00
  5.90000000E+02  1.20000000E+01  0.00000000E+00
  6.00000000E+02  1.20000000E+01  0.00000000E+00
  6.10000000E+02  1.20000000E+01  0.00000000E+00
  6.20000000E+02  1.20000000E+01  0.00000000E+00
  6.30000000E+02  1.20000000E+01  0.00000000E+00
  6.40000000E+02  1.20000000E+01  0.00000000E+00
  6.50000000E+02  1.20000000E+01  0.00000000E+00
  6.60000000E+02  1.20000000E+01  0.00000000E+00
  6.70000000E+02  1.20000000E+01  0.00000000E+00
  6.80000000E+02  1.20000000E+01  0.00000000E+00
  6.90000000E+02  1.20000000E+01  0.00000000E+00
  7.00000000E+02  1.20000000E+01  0.00000000E+00
  7.10000000E+02  1.20000000E+01  0.00000000E+00
  7.20000000E+02  1.20000000E+01  0.00000000E+00
  7.30000000E+02  1.20000000E+01  0.00000000E+00
  7.40000000E+02  1.20000000E+01  0.00000000E+00
  7.50000000E+02  1.20000000E+01  0.00000000E+00
  7.60000000E+02  1.20000000E+01  0.00000000E+00
  7.70000000E+02  1.20000000E+01  0.00000000E+00
  7.80000000E+02  1.20000000E+01  0.00000000E+00
  7.90000000E+02  1.20000000E+01  0.00000000E+00
  8.00000000E+02  1.20000000E+01  0.00000000E+00
  8.10000000E+02  1.20000000E+01  0.00000000E+00
  8.20000000E+02  1.20000000E+01  0.00000000E+00
  8.30000000E+02  1.20000000E+01  0.00000000E+00
  8.40000000E+02  1.20000000E+01  0.00000000E+00
  8.50000000E+02  1.20000000E+01  0.00000000E+00
  8.60000000E+02  1.20000000E+01  0.00000000E+00
  8.70000000E+02  1.20000000E+01  0.00000000E+00
  8.80000000E+02  1.20000000E+01  0.00000000E+00
  8.90000000E+02  1.20000000E+01  0.00000000E+00
  9.00000000E+02  1.20000000E+01  0.00000000E+00
  9.10000000E+02  1.20000000E+01  0.00000000E+00
  9.20000000E+02  1.20000000E+01  0.00000000E+00
  9.30000000E+02  1.20000000E+01  0.00000000E+00
  9.40000000E+02  1.20000000E+01  0.00000000E+00
  9.50000000E+02  1.20000000E+01  0.00000000E+00
  9.60000000E+02  1.20000000E+01  0.00000000E+00
  9.70000000E+02  1.20000000E+01  0.00000000E+00
  9.80000000E+02  1.20000000E+01  0.00000000E+00
  9.90000000E+02  1.20000000E+01  0.00000000E+00
  1.00000000E+03  1.20000000E+01  0.00000000E+00
  0.00000000E+00  1.40000000E+01  0.00000000E+00
  1.00000000E+01  1.40000000E+01  0.00000000E+00
  2.00000000E+01  1.40000000E+01  0.00000000E+00
  3.00000000E+01  1.40000000E+01  0.00000000E+00
  4.00000000E+01  1.40000000E+01  0.00000000E+00
  5.00000000E+01  1.40000000E+01  0.00000000E+00
  6.00000000E+01  1.40000000E+01  0.00000000E+00
  7.00000000E+01  1.40000000E+01  0.00000000E+00
  8.00000000E+01  1.40000000E+01  0.00000000E+00
  9.00000000E+01  1.40000000E+01  0.00000000E+00
  1.00000000E+02  1.40000000E+01  0.00000000E+00
  1.10000000E+02  1.40000000E+01  0.00000000E+00
  1.20000000E+02  1.40000000E+01  0.00000000E+00
  1.30000000E+02  1.40000000E+01  0.00000000E+00
  1.40000000E+02  1.40000000E+01  0.00000000E+00
  1.50000000E+02  1.40000000E+01  0.00000000E+00
  1.60000000E+02  1.40000000E+01  0.00000000E+00
  1.70000000E+02  1.40000000E+01  0.00000000E+00
  1.80000000E+02  1.40000000E+01  0.00000000E+00
  1.90000000E+02  1.40000000E+01  0.00000000E+00
  2.00000000E+02  1.40000000E+01  0.00000000E+00
  2.10000000E+02  1.40000000E+01  0.00000000E+00
  2.20000000E+02  1.40000000E+01  0.00000000E+00
  2.30000000E+02  1.40000000E+01  0.00000000E+00
  2.40000000E+02  1.40000000E+01  0.00000000E+00
  2.50000000E+02  1.40000000E+01  0.00000000E+00
  2.60000000E+02  1.40000000E+01  0.00000000E+00
  2.70000000E+02  1.40000000E+01  0.00000000E+00
  2.80000000E+02  1.40000000E+01  0.00000000E+00
  2.90000000E+02  1.40000000E+01  0.00000000E+00
  3.00000000E+02  1.40000000E+01  0.00000000E+00
  3.10000000E+02  1.40000000E+01  0.00000000E+00
  3.20000000E+02  1.40000000E+01  0.00000000E+00
  3.30000000E+02  1.40000000E+01  0.00000000E+00
  3.40000000E+02  1.40000000E+01  0.00000000E+00
  3.50000000E+02  1.40000000E+01  0.00000000E+00
  3.60000000E+02  1.40000000E+01  0.00000000E+00
  3.70000000E+02  1.40000000E+01  0.00000000E+00
  3.80000000E+02  1.40000000E+01  0.00000000E+00
  3.90000000E+02  1.40000000E+01  0.00000000E+00
  4.00000000E+02  1.40000000E+01  0.00000000E+00
  4.10000000E+02  1.40000000E+01  0.00000000E+00
  4.20000000E+02  1.40000000E+01  0.00000000E+00
  4.30000000E+02  1.40000000E+01  0.00000000E+00
  4.40000000E+02  1.40000000E+01  0.00000000E+00
  4.50000000E+02  1.40000000E+01  0.00000000E+00
  4.60000000E+02  1.40000000E+01  0.00000000E+00
  4.70000000E+02  1.40000000E+01  0.00000000E+00
  4.80000000E+02  1.40000000E+01  0.00000000E+00
  4.90000000E+02  1.40000000E+01  0.00000000E+00
  5.00000000E+02  1.40000000E+01  0.00000000E+00
  5.10000000E+02  1.40000000E+01  0.00000000E+00
  5.20000000E+02  1.40000000E+01  0.00000000E+00
  5.30000000E+02  1.40000000E+01  0.00000000E+00
  5.40000000E+02  1.40000000E+01  0.00000000E+00
  5.50000000E+02  1.40000000E+01  0.00000000E+00
  5.60000000E+02  1.40000000E+01  0.00000000E+00
  5.70000000E+02  1.40000000E+01  0.00000000E+00
  5.80000000E+02  1.40000000E+01  0.00000000E+00
  5.90000000E+02  1.40000000E+01  0.00000000E+00
  6.00000000E+02  1.40000000E+01  0.00000000E+00
  6.10000000E+02  1.40000000E+01  0.00000000E+00
  6.20000000E+02  1.40000000E+01  0.00000000E+00
  6.30000000E+02  1.40000000E+01  0.00000000E+00
  6.40000000E+02  1.40000000E+01  0.00000000E+00
  6.50000000E+02  1.40000000E+01  0.00000000E+00
  6.60000000E+02  1.40000000E+01  0.00000000E+00
  6.70000000E+02  1.40000000E+01  0.00000000E+00
  6.80000000E+02  1.40000000E+01  0.00000000E+00
  6.90000000E+02  1.40000000E+01  0.00000000E+00
  7.00000000E+02  1.40000000E+01  0.00000000E+00
  7.10000000E+02  1.40000000E+01  0.00000000E+00
  7.20000000E+02  1.40000000E+01  0.00000000E+00
  7.30000000E+02  1.40000000E+01  0.00000000E+00
  7.40000000E+02  1.40000000E+01  0.00000000E+00
  7.50000000E+02  1.40000000E+01  0.00000000E+00
  7.60000000E+02  1.40000000E+01  0.00000000E+00
  7.70000000E+02  1.40000000E+01  0.00000000E+00
  7.80000000E+02  1.40000000E+01  0.00000000E+00
  7.90000000E+02  1.40000000E+01  0.00000000E+00
  8.00000000E+02  1.40000000E+01  0.00000000E+00
  8.10000000E+02  1.40000000E+01  0.00000000E+00
  8.20000000E+02  1.40000000E+01  0.00000000E+00
  8.30000000E+02  1.40000000E+01  0.00000000E+00
  8.40000000E+02  1.40000000E+01  0.00000000E+00
  8.50000000E+02  1.40000000E+01  0.00000000E+00
  8.60000000E+02  1.40000000E+01  0.00000000E+00
  8.70000000E+02  1.40000000E+01  0.00000000E+00
  8.80000000E+02  1.40000000E+01  0.00000000E+00
  8.90000000E+02  1.40000000E+01  0.00000000E+00
  9.00000000E+02  1.40000000E+01  0.00000000E+00
  9.10000000E+02  1.40000000E+01  0.00000000E+00
  9.20000000E+02  1.40000000E+01  0.00000000E+00
  9.30000000E+02  1.40000000E+01  0.00000000E+00
  9.40000000E+02  1.40000000E+01  0.00000000E+00
  9.50000000E+02  1.40000000E+01  0.00000000E+00
  9.60000000E+02  1.40000000E+01  0.00000000E+00
  9.70000000E+02  1.40000000E+01  0.00000000E+00
  9.80000000E+02  1.40000000E+01  0.00000000E+00
  9.90000000E+02  1.40000000E+01  0.00000000E+00
  1.00000000E+03  1.40000000E+01  0.00000000E+00
  0.00000000E+00  1.60000000E+01  0.00000000E+00
  1.00000000E+01  1.60000000E+01  0.00000000E+00
  2.00000000E+01  1.60000000E+01  0.00000000E+00
  3.00000000E+01  1.60000000E+01  0.00000000E+00
  4.00000000E+01  1.60000000E+01  0.00000000E+00
  5.00000000E+01  1.60000000E+01  0.00000000E+00
  6.00000000E+01  1.60000000E+01  0.00000000E+00
  7.00000000E+01  1.60000000E+01  0.00000000E+00
  8.00000000E+01  1.60000000E+01  0.00000000E+00
  9.00000000E+01  1.60000000E+01  0.00000000E+00
  1.00000000E+02  1.60000000E+01  0.00000000E+00
  1.10000000E+02  1.60000000E+01  0.00000000E+00
  1.20000000E+02  1.60000000E+01  0.00000000E+00
  1.30000000E+02  1.60000000E+01  0.00000000E+00
  1.40000000E+02  1.60000000E+01  0.00000000E+00
  1.50000000E+02  1.60000000E+01  0.00000000E+00
  1.60000000E+02  1.60000000E+01  0.00000000E+00
  1.70000000E+02  1.60000000E+01  0.00000000E+00
  1.80000000E+02  1.60000000E+01  0.00000000E+00
  1.90000000E+02  1.60000000E+01  0.00000000E+00
  2.00000000E+02  1.60000000E+01  0.00000000E+00
  2.10000000E+02  1.60000000E+01  0.00000000E+00
  2.20000000E+02  1.60000000E+01  0.00000000E+00
  2.30000000E+02  1.60000000E+01  0.00000000E+00
  2.40000000E+02  1.60000000E+01  0.00000000E+00
  2.50000000E+02  1.60000000E+01  0.00000000E+00
  2.60000000E+02  1.60000000E+01  0.00000000E+00
  2.70000000E+02  1.60000000E+01  0.00000000E+00
  2.80000000E+02  1.60000000E+01  0.00000000E+00
  2.90000000E+02  1.60000000E+01  0.00000000E+00
  3.00000000E+02  1.60000000E+01  0.00000000E+00
  3.10000000E+02  1.60000000E+01  0.00000000E+00
  3.20000000E+02  1.60000000E+01  0.00000000E+00
  3.30000000E+02  1.60000000E+01  0.00000000E+00
  3.40000000E+02  1.60000000E+01  0.00000000E+00
  3.50000000E+02  1.60000000E+01  0.00000000E+00
  3.60000000E+02  1.60000000E+01  0.00000000E+00
  3.70000000E+02  1.60000000E+01  0.00000000E+00
  3.80000000E+02  1.60000000E+01  0.00000000E+00
  3.90000000E+02  1.60000000E+01  0.00000000E+00
  4.00000000E+02  1.60000000E+01  0.00000000E+00
  4.10000000E+02  1.60000000E+01  0.00000000E+00
  4.20000000E+02  1.60000000E+01  0.00000000E+00
  4.30000000E+02  1.60000000E+01  0.00000000E+00
  4.40000000E+02  1.60000000E+01  0.00000000E+00
  4.50000000E+02  1.60000000E+01  0.00000000E+00
  4.60000000E+02  1.60000000E+01  0.00000000E+00
  4.70000000E+02  1.60000000E+01  0.00000000E+00
  4.80000000E+02  1.60000000E+01  0.00000000E+00
  4.90000000E+02  1.60000000E+01  0.00000000E+00
  5.00000000E+02  1.60000000E+01  0.00000000E+00
  5.10000000E+02  1.60000000E+01  0.00000000E+00
  5.20000000E+02  1.60000000E+01  0.00000000E+00
  5.30000000E+02  1.60000000E+01  0.00000000E+00
  5.40000000E+02  1.60000000E+01  0.00000000E+00
  5.50000000E+02  1.60000000E+01  0.00000000E+00
  5.60000000E+02  1.60000000E+01  0.00000000E+00
  5.70000000E+02  1.60000000E+01  0.00000000E+00
  5.80000000E+02  1.60000000E+01  0.00000000E+00
  5.90000000E+02  1.60000000E+01  0.00000000E+00
  6.00000000E+02  1.60000000E+01  0.00000000E+00
  6.10000000E+02  1.60000000E+01  0.00000000E+00
  6.20000000E+02  1.60000000E+01  0.00000000E+00
  6.30000000E+02  1.60000000E+01  0.00000000E+00
  6.40000000E+02  1.60000000E+01  0.00000000E+00
  6.50000000E+02  1.60000000E+01  0.00000000E+00
  6.60000000E+02  1.60000000E+01  0.00000000E+00
  6.70000000E+02  1.60000000E+01  0.00000000E+00
  6.80000000E+02  1.60000000E+01  0.00000000E+00
  6.90000000E+02  1.60000000E+01  0.00000000E+00
  7.00000000E+02  1.60000000E+01  0.00000000E+00
  7.10000000E+02  1.60000000E+01  0.00000000E+00
  7.20000000E+02  1.60000000E+01  0.00000000E+00
  7.30000000E+02  1.60000000E+01  0.00000000E+00
  7.40000000E+02  1.60000000E+01  0.00000000E+00
  7.50000000E+02  1.60000000E+01  0.00000000E+00
  7.60000000E+02  1.60000000E+01  0.00000000E+00
  7.70000000E+02  1.60000000E+01  0.00000000E+00
  7.80000000E+02  1.60000000E+01  0.00000000E+00
  7.90000000E+02  1.60000000E+01  0.00000000E+00
  8.00000000E+02  1.60000000E+01  0.00000000E+00
  8.10000000E+02  1.60000000E+01  0.00000000E+00
  8.20000000E+02  1.60000000E+01  0.00000000E+00
  8.30000000E+02  1.60000000E+01  0.00000000E+00
  8.40000000E+02  1.60000000E+01  0.00000000E+00
  8.50000000E+02  1.60000000E+01  0.00000000E+00
  8.60000000E+02  1.60000000E+01  0.00000000E+00
  8.70000000E+02  1.60000000E+01  0.00000000E+00
  8.80000000E+02  1.60000000E+01  0.00000000E+00
  8.90000000E+02  1.60000000E+01  0.00000000E+00
  9.00000000E+02  1.60000000E+01  0.00000000E+00
  9.10000000E+02  1.60000000E+01  0.00000000E+00
  9.20000000E+02  1.60000000E+01  0.00000000E+00
  9.30000000E+02  1.60000000E+01  0.00000000E+00
  9.40000000E+02  1.60000000E+01  0.00000000E+00
  9.50000000E+02  1.60000000E+01  0.00000000E+00
  9.60000000E+02  1.60000000E+01  0.00000000E+00
  9.70000000E+02  1.60000000E+01  0.00000000E+00
  9.80000000E+02  1.60000000E+01  0.00000000E+00
  9.90000000E+02  1.60000000E+01  0.00000000E+00
  1.00000000E+03  1.60000000E+01  0.00000000E+00
  0.00000000E+00  1.80000000E+01  0.00000000E+00
  1.00000000E+01  1.80000000E+01  0.00000000E+00
  2.00000000E+01  1.80000000E+01  0.00000000E+00
  3.00000000E+01  1.80000000E+01  0.00000000E+00
  4.00000000E+01  1.80000000E+01  0.00000000E+00
  5.00000000E+01  1.80000000E+01  0.00000000E+00
  6.00000000E+01  1.80000000E+01  0.00000000E+00
  7.00000000E+01  1.80000000E+01  0.00000000E+00
  8.00000000E+01  1.80000000E+01  0.00000000E+00
  9.00000000E+01  1.80000000E+01  0.00000000E+00
  1.00000000E+02  1.80000000E+01  0.00000000E+00
  1.10000000E+02  1.80000000E+01  0.00000000E+00
  1.20000000E+02  1.80000000E+01  0.00000000E+00
  1.30000000E+02  1.80000000E+01  0.00000000E+00
  1.40000000E+02  1.80000000E+01  0.00000000E+00
  1.50000000E+02  1.80000000E+01  0.00000000E+00
  1.60000000E+02  1.80000000E+01  0.00000000E+00
  1.70000000E+02  1.80000000E+01  0.00000000E+00
  1.80000000E+02  1.80000000E+01  0.00000000E+00
  1.90000000E+02  1.80000000E+01  0.00000000E+00
  2.00000000E+02  1.80000000E+01  0.00000000E+00
  2.10000000E+02  1.80000000E+01  0.00000000E+00
  2.20000000E+02  1.80000000E+01  0.00000000E+00
  2.30000000E+02  1.80000000E+01  0.00000000E+00
  2.40000000E+02  1.80000000E+01  0.00000000E+00
  2.50000000E+02  1.80000000E+01  0.00000000E+00
  2.60000000E+02  1.80000000E+01  0.00000000E+00
  2.70000000E+02  1.80000000E+01  0.00000000E+00
  2.80000000E+02  1.80000000E+01  0.00000000E+00
  2.90000000E+02  1.80000000E+01  0.00000000E+00
  3.00000000E+02  1.80000000E+01  0.00000000E+00
  3.10000000E+02  1.80000000E+01  0.00000000E+00
  3.20000000E+02  1.80000000E+01  0.00000000E+00
  3.30000000E+02  1.80000000E+01  0.00000000E+00
  3.40000000E+02  1.80000000E+01  0.00000000E+00
  3.50000000E+02  1.80000000E+01  0.00000000E+00
  3.60000000E+02  1.80000000E+01  0.00000000E+00
  3.70000000E+02  1.80000000E+01  0.00000000E+00
  3.80000000E+02  1.80000000E+01  0.00000000E+00
  3.90000000E+02  1.80000000E+01  0.00000000E+00
  4.00000000E+02  1.80000000E+01  0.00000000E+00
  4.10000000E+02  1.80000000E+01  0.00000000E+00
  4.20000000E+02  1.80000000E+01  0.00000000E+00
  4.30000000E+02  1.80000000E+01  0.00000000E+00
  4.40000000E+02  1.80000000E+01  0.00000000E+00
  4.50000000E+02  1.80000000E+01  0.00000000E+00
  4.60000000E+02  1.80000000E+01  0.00000000E+00
  4.70000000E+02  1.80000000E+01  0.00000000E+00
  4.80000000E+02  1.80000000E+01  0.00000000E+00
  4.90000000E+02  1.80000000E+01  0.00000000E+00
  5.00000000E+02  1.80000000E+01  0.00000000E+00
  5.10000000E+02  1.80000000E+01  0.00000000E+00
  5.20000000E+02  1.80000000E+01  0.00000000E+00
  5.30000000E+02  1.80000000E+01  0.00000000E+00
  5.40000000E+02  1.80000000E+01  0.00000000E+00
  5.50000000E+02  1.80000000E+01  0.00000000E+00
  5.60000000E+02  1.80000000E+01  0.00000000E+00
  5.70000000E+02  1.80000000E+01  0.00000000E+00
  5.80000000E+02  1.80000000E+01  0.00000000E+00
  5.90000000E+02  1.80000000E+01  0.00000000E+00
  6.00000000E+02  1.80000000E+01  0.00000000E+00
  6.10000000E+02  1.80000000E+01  0.00000000E+00
  6.20000000E+02  1.80000000E+01  0.00000000E+00
  6.30000000E+02  1.80000000E+01  0.00000000E+00
  6.40000000E+02  1.80000000E+01  0.00000000E+00
  6.50000000E+02  1.80000000E+01  0.00000000E+00
  6.60000000E+02  1.80000000E+01  0.00000000E+00
  6.70000000E+02  1.80000000E+01  0.00000000E+00
  6.80000000E+02  1.80000000E+01  0.00000000E+00
  6.90000000E+02  1.80000000E+01  0.00000000E+00
  7.00000000E+02  1.80000000E+01  0.00000000E+00
  7.10000000E+02  1.80000000E+01  0.00000000E+00
  7.20000000E+02  1.80000000E+01  0.00000000E+00
  7.30000000E+02  1.80000000E+01  0.00000000E+00
  7.40000000E+02  1.80000000E+01  0.00000000E+00
  7.50000000E+02  1.80000000E+01  0.00000000E+00
  7.60000000E+02  1.80000000E+01  0.00000000E+00
  7.70000000E+02  1.80000000E+01  0.00000000E+00
  7.80000000E+02  1.80000000E+01  0.00000000E+00
  7.90000000E+02  1.80000000E+01  0.00000000E+00
  8.00000000E+02  1.80000000E+01  0.00000000E+00
  8.10000000E+02  1.80000000E+01  0.00000000E+00
  8.20000000E+02  1.80000000E+01  0.00000000E+00
  8.30000000E+02  1.80000000E+01  0.00000000E+00
  8.40000000E+02  1.80000000E+01  0.00000000E+00
  8.50000000E+02  1.80000000E+01  0.00000000E+00
  8.60000000E+02  1.80000000E+01  0.00000000E+00
  8.70000000E+02  1.80000000E+01  0.00000000E+00
  8.80000000E+02  1.80000000E+01  0.00000000E+00
  8.90000000E+02  1.80000000E+01  0.00000000E+00
  9.00000000E+02  1.80000000E+01  0.00000000E+00
  9.10000000E+02  1.80000000E+01  0.00000000E+00
  9.20000000E+02  1.80000000E+01  0.00000000E+00
  9.30000000E+02  1.80000000E+01  0.00000000E+00
  9.40000000E+02  1.80000000E+01  0.00000000E+00
  9.50000000E+02  1.80000000E+01  0.00000000E+00
  9.60000000E+02  1.80000000E+01  0.00000000E+00
  9.70000000E+02  1.80000000E+01  0.00000000E+00
  9.80000000E+02  1.80000000E+01  0.00000000E+00
  9.90000000E+02  1.80000000E+01  0.00000000E+00
  1.00000000E+03  1.80000000E+01  0.00000000E+00
  0.00000000E+00  2.00000000E+01  0.00000000E+00
  1.00000000E+01  2.00000000E+01  0.00000000E+00
  2.00000000E+01  2.00000000E+01  0.00000000E+00
  3.00000000E+01  2.00000000E+01  0.00000000E+00
  4.00000000E+01  2.00000000E+01  0.00000000E+00
  5.00000000E+01  2.00000000E+01  0.00000000E+00
  6.00000000E+01  2.00000000E+01  0.00000000E+00
  7.00000000E+01  2.00000000E+01  0.00000000E+00
  8.00000000E+01  2.00000000E+01  0.00000000E+00
  9.00000000E+01  2.00000000E+01  0.00000000E+00
  1.00000000E+02  2.00000000E+01  0.00000000E+00
  1.10000000E+02  2.00000000E+01  0.00000000E+00
  1.20000000E+02  2.00000000E+01  0.00000000E+00
  1.30000000E+02  2.00000000E+01  0.00000000E+00
  1.40000000E+02  2.00000000E+01  0.00000000E+00
  1.50000000E+02  2.00000000E+01  0.00000000E+00
  1.60000000E+02  2.00000000E+01  0.00000000E+00
  1.70000000E+02  2.00000000E+01  0.00000000E+00
  1.80000000E+02  2.00000000E+01  0.00000000E+00
  1.90000000E+02  2.00000000E+01  0.00000000E+00
  2.00000000E+02  2.00000000E+01  0.00000000E+00
  2.10000000E+02  2.00000000E+01  0.00000000E+00
  2.20000000E+02  2.00000000E+01  0.00000000E+00
  2.30000000E+02  2.00000000E+01  0.00000000E+00
  2.40000000E+02  2.00000000E+01  0.00000000E+00
  2.50000000E+02  2.00000000E+01  0.00000000E+00
  2.60000000E+02  2.00000000E+01  0.00000000E+00
  2.70000000E+02  2.00000000E+01  0.00000000E+00
  2.80000000E+02  2.00000000E+01  0.00000000E+00
  2.90000000E+02  2.00000000E+01  0.00000000E+00
  3.00000000E+02  2.00000000E+01  0.00000000E+00
  3.10000000E+02  2.00000000E+01  0.00000000E+00
  3.20000000E+02  2.00000000E+01  0.00000000E+00
  3.30000000E+02  2.00000000E+01  0.00000000E+00
  3.40000000E+02  2.00000000E+01  0.00000000E+00
  3.50000000E+02  2.00000000E+01  0.00000000E+00
  3.60000000E+02  2.00000000E+01  0.00000000E+00
  3.70000000E+02  2.00000000E+01  0.00000000E+00
  3.80000000E+02  2.00000000E+01  0.00000000E+00
  3.90000000E+02  2.00000000E+01  0.00000000E+00
  4.00000000E+02  2.00000000E+01  0.00000000E+00
  4.10000000E+02  2.00000000E+01  0.00000000E+00
  4.20000000E+02  2.00000000E+01  0.00000000E+00
  4.30000000E+02  2.00000000E+01  0.00000000E+00
  4.40000000E+02  2.00000000E+01  0.00000000E+00
  4.50000000E+02  2.00000000E+01  0.00000000E+00
  4.60000000E+02  2.00000000E+01  0.00000000E+00
  4.70000000E+02  2.00000000E+01  0.00000000E+00
  4.80000000E+02  2.00000000E+01  0.00000000E+00
  4.90000000E+02  2.00000000E+01  0.00000000E+00
  5.00000000E+02  2.00000000E+01  0.00000000E+00
  5.10000000E+02  2.00000000E+01  0.00000000E+00
  5.20000000E+02  2.00000000E+01  0.00000000E+00
  5.30000000E+02  2.00000000E+01  0.00000000E+00
  5.40000000E+02  2.00000000E+01  0.00000000E+00
  5.50000000E+02  2.00000000E+01  0.00000000E+00
  5.60000000E+02  2.00000000E+01  0.00000000E+00
  5.70000000E+02  2.00000000E+01  0.00000000E+00
  5.80000000E+02  2.00000000E+01  0.00000000E+00
  5.90000000E+02  2.00000000E+01  0.00000000E+00
  6.00000000E+02  2.00000000E+01  0.00000000E+00
  6.10000000E+02  2.00000000E+01  0.00000000E+00
  6.20000000E+02  2.00000000E+01  0.00000000E+00
  6.30000000E+02  2.00000000E+01  0.00000000E+00
  6.40000000E+02  2.00000000E+01  0.00000000E+00
  6.50000000E+02  2.00000000E+01  0.00000000E+00
  6.60000000E+02  2.00000000E+01  0.00000000E+00
  6.70000000E+02  2.00000000E+01  0.00000000E+00
  6.80000000E+02  2.00000000E+01  0.00000000E+00
  6.90000000E+02  2.00000000E+01  0.00000000E+00
  7.00000000E+02  2.00000000E+01  0.00000000E+00
  7.10000000E+02  2.00000000E+01  0.00000000E+00
  7.20000000E+02  2.00000000E+01  0.00000000E+00
  7.30000000E+02  2.00000000E+01  0.00000000E+00
  7.40000000E+02  2.00000000E+01  0.00000000E+00
  7.50000000E+02  2.00000000E+01  0.00000000E+00
  7.60000000E+02  2.00000000E+01  0.00000000E+00
  7.70000000E+02  2.00000000E+01  0.00000000E+00
  7.80000000E+02  2.00000000E+01  0.00000000E+00
  7.90000000E+02  2.00000000E+01  0.00000000E+00
  8.00000000E+02  2.00000000E+01  0.00000000E+00
  8.10000000E+02  2.00000000E+01  0.00000000E+00
  8.20000000E+02  2.00000000E+01  0.00000000E+00
  8.30000000E+02  2.00000000E+01  0.00000000E+00
  8.40000000E+02  2.00000000E+01  0.00000000E+00
  8.50000000E+02  2.00000000E+01  0.00000000E+00
  8.60000000E+02  2.00000000E+01  0.00000000E+00
  8.70000000E+02  2.00000000E+01  0.00000000E+00
  8.80000000E+02  2.00000000E+01  0.00000000E+00
  8.90000000E+02  2.00000000E+01  0.00000000E+00
  9.00000000E+02  2.00000000E+01  0.00000000E+00
  9.10000000E+02  2.00000000E+01  0.00000000E+00
  9.20000000E+02  2.00000000E+01  0.00000000E+00
  9.30000000E+02  2.00000000E+01  0.00000000E+00
  9.40000000E+02  2.00000000E+01  0.00000000E+00
  9.50000000E+02  2.00000000E+01  0.00000000E+00
  9.60000000E+02  2.00000000E+01  0.00000000E+00
  9.70000000E+02  2.00000000E+01  0.00000000E+00
  9.80000000E+02  2.00000000E+01  0.00000000E+00
  9.90000000E+02  2.00000000E+01  0.00000000E+00
  1.00000000E+03  2.00000000E+01  0.00000000E+00
  0.00000000E+00  2.20000000E+01  0.00000000E+00
  1.00000000E+01  2.20000000E+01  0.00000000E+00
  2.00000000E+01  2.20000000E+01  0.00000000E+00
  3.00000000E+01  2.20000000E+01  0.00000000E+00
  4.00000000E+01  2.20000000E+01  0.00000000E+00
  5.00000000E+01  2.20000000E+01  0.00000000E+00
  6.00000000E+01  2.20000000E+01  0.00000000E+00
  7.00000000E+01  2.20000000E+01  0.00000000E+00
  8.00000000E+01  2.20000000E+01  0.00000000E+00
  9.00000000E+01  2.20000000E+01  0.00000000E+00
  1.00000000E+02  2.20000000E+01  0.00000000E+00
  1.10000000E+02  2.20000000E+01  0.00000000E+00
  1.20000000E+02  2.20000000E+01  0.00000000E+00
  1.30000000E+02  2.20000000E+01  0.00000000E+00
  1.40000000E+02  2.20000000E+01  0.00000000E+00
  1.50000000E+02  2.20000000E+01  0.00000000E+00
  1.60000000E+02  2.20000000E+01  0.00000000E+00
  1.70000000E+02  2.20000000E+01  0.00000000E+00
  1.80000000E+02  2.20000000E+01  0.00000000E+00
  1.90000000E+02  2.20000000E+01  0.00000000E+00
  2.00000000E+02  2.20000000E+01  0.00000000E+00
  2.10000000E+02  2.20000000E+01  0.00000000E+00
  2.20000000E+02  2.20000000E+01  0.00000000E+00
  2.30000000E+02  2.20000000E+01  0.00000000E+00
  2.40000000E+02  2.20000000E+01  0.00000000E+00
  2.50000000E+02  2.20000000E+01  0.00000000E+00
  2.60000000E+02  2.20000000E+01  0.00000000E+00
  2.70000000E+02  2.20000000E+01  0.00000000E+00
  2.80000000E+02  2.20000000E+01  0.00000000E+00
  2.90000000E+02  2.20000000E+01  0.00000000E+00
  3.00000000E+02  2.20000000E+01  0.00000000E+00
  3.10000000E+02  2.20000000E+01  0.00000000E+00
  3.20000000E+02  2.20000000E+01  0.00000000E+00
  3.30000000E+02  2.20000000E+01  0.00000000E+00
  3.40000000E+02  2.20000000E+01  0.00000000E+00
  3.50000000E+02  2.20000000E+01  0.00000000E+00
  3.60000000E+02  2.20000000E+01  0.00000000E+00
  3.70000000E+02  2.20000000E+01  0.00000000E+00
  3.80000000E+02  2.20000000E+01  0.00000000E+00
  3.90000000E+02  2.20000000E+01  0.00000000E+00
  4.00000000E+02  2.20000000E+01  0.00000000E+00
  4.10000000E+02  2.20000000E+01  0.00000000E+00
  4.20000000E+02  2.20000000E+01  0.00000000E+00
  4.30000000E+02  2.20000000E+01  0.00000000E+00
  4.40000000E+02  2.20000000E+01  0.00000000E+00
  4.50000000E+02  2.20000000E+01  0.00000000E+00
  4.60000000E+02  2.20000000E+01  0.00000000E+00
  4.70000000E+02  2.20000000E+01  0.00000000E+00
  4.80000000E+02  2.20000000E+01  0.00000000E+00
  4.90000000E+02  2.20000000E+01  0.00000000E+00
  5.00000000E+02  2.20000000E+01  0.00000000E+00
  5.10000000E+02  2.20000000E+01  0.00000000E+00
  5.20000000E+02  2.20000000E+01  0.00000000E+00
  5.30000000E+02  2.20000000E+01  0.00000000E+00
  5.40000000E+02  2.20000000E+01  0.00000000E+00
  5.50000000E+02  2.20000000E+01  0.00000000E+00
  5.60000000E+02  2.20000000E+01  0.00000000E+00
  5.70000000E+02  2.20000000E+01  0.00000000E+00
  5.80000000E+02  2.20000000E+01  0.00000000E+00
  5.90000000E+02  2.20000000E+01  0.00000000E+00
  6.00000000E+02  2.20000000E+01  0.00000000E+00
  6.10000000E+02  2.20000000E+01  0.00000000E+00
  6.20000000E+02  2.20000000E+01  0.00000000E+00
  6.30000000E+02  2.20000000E+01  0.00000000E+00
  6.40000000E+02  2.20000000E+01  0.00000000E+00
  6.50000000E+02  2.20000000E+01  0.00000000E+00
  6.60000000E+02  2.20000000E+01  0.00000000E+00
  6.70000000E+02  2.20000000E+01  0.00000000E+00
  6.80000000E+02  2.20000000E+01  0.00000000E+00
  6.90000000E+02  2.20000000E+01  0.00000000E+00
  7.00000000E+02  2.20000000E+01  0.00000000E+00
  7.10000000E+02  2.20000000E+01  0.00000000E+00
  7.20000000E+02  2.20000000E+01  0.00000000E+00
  7.30000000E+02  2.20000000E+01  0.00000000E+00
  7.40000000E+02  2.20000000E+01  0.00000000E+00
  7.50000000E+02  2.20000000E+01  0.00000000E+00
  7.60000000E+02  2.20000000E+01  0.00000000E+00
  7.70000000E+02  2.20000000E+01  0.00000000E+00
  7.80000000E+02  2.20000000E+01  0.00000000E+00
  7.90000000E+02  2.20000000E+01  0.00000000E+00
  8.00000000E+02  2.20000000E+01  0.00000000E+00
  8.10000000E+02  2.20000000E+01  0.00000000E+00
  8.20000000E+02  2.20000000E+01  0.00000000E+00
  8.30000000E+02  2.20000000E+01  0.00000000E+00
  8.40000000E+02  2.20000000E+01  0.00000000E+00
  8.50000000E+02  2.20000000E+01  0.00000000E+00
  8.60000000E+02  2.20000000E+01  0.00000000E+00
  8.70000000E+02  2.20000000E+01  0.00000000E+00
  8.80000000E+02  2.20000000E+01  0.00000000E+00
  8.90000000E+02  2.20000000E+01  0.00000000E+00
  9.00000000E+02  2.20000000E+01  0.00000000E+00
  9.10000000E+02  2.20000000E+01  0.00000000E+00
  9.20000000E+02  2.20000000E+01  0.00000000E+00
  9.30000000E+02  2.20000000E+01  0.00000000E+00
  9.40000000E+02  2.20000000E+01  0.00000000E+00
  9.50000000E+02  2.20000000E+01  0.00000000E+00
  9.60000000E+02  2.20000000E+01  0.00000000E+00
  9.70000000E+02  2.20000000E+01  0.00000000E+00
  9.80000000E+02  2.20000000E+01  0.00000000E+00
  9.90000000E+02  2.20000000E+01  0.00000000E+00
  1.00000000E+03  2.20000000E+01  0.00000000E+00
  0.00000000E+00  2.40000000E+01  0.00000000E+00
  1.00000000E+01  2.40000000E+01  0.00000000E+00
  2.00000000E+01  2.40000000E+01  0.00000000E+00
  3.00000000E+01  2.40000000E+01  0.00000000E+00
  4.00000000E+01  2.40000000E+01  0.00000000E+00
  5.00000000E+01  2.40000000E+01  0.00000000E+00
  6.00000000E+01  2.40000000E+01  0.00000000E+00
  7.00000000E+01  2.40000000E+01  0.00000000E+00
  8.00000000E+01  2.40000000E+01  0.00000000E+00
  9.00000000E+01  2.40000000E+01  0.00000000E+00
  1.00000000E+02  2.40000000E+01  0.00000000E+00
  1.10000000E+02  2.40000000E+01  0.00000000E+00
  1.20000000E+02  2.40000000E+01  0.00000000E+00
  1.30000000E+02  2.40000000E+01  0.00000000E+00
  1.40000000E+02  2.40000000E+01  0.00000000E+00
  1.50000000E+02  2.40000000E+01  0.00000000E+00
  1.60000000E+02  2.40000000E+01  0.00000000E+00
  1.70000000E+02  2.40000000E+01  0.00000000E+00
  1.80000000E+02  2.40000000E+01  0.00000000E+00
  1.90000000E+02  2.40000000E+01  0.00000000E+00
  2.00000000E+02  2.40000000E+01  0.00000000E+00
  2.10000000E+02  2.40000000E+01  0.00000000E+00
  2.20000000E+02  2.40000000E+01  0.00000000E+00
  2.30000000E+02  2.40000000E+01  0.00000000E+00
  2.40000000E+02  2.40000000E+01  0.00000000E+00
  2.50000000E+02  2.40000000E+01  0.00000000E+00
  2.60000000E+02  2.40000000E+01  0.00000000E+00
  2.70000000E+02  2.40000000E+01  0.00000000E+00
  2.80000000E+02  2.40000000E+01  0.00000000E+00
  2.90000000E+02  2.40000000E+01  0.00000000E+00
  3.00000000E+02  2.40000000E+01  0.00000000E+00
  3.10000000E+02  2.40000000E+01  0.00000000E+00
  3.20000000E+02  2.40000000E+01  0.00000000E+00
  3.30000000E+02  2.40000000E+01  0.00000000E+00
  3.40000000E+02  2.40000000E+01  0.00000000E+00
  3.50000000E+02  2.40000000E+01  0.00000000E+00
  3.60000000E+02  2.40000000E+01  0.00000000E+00
  3.70000000E+02  2.40000000E+01  0.00000000E+00
  3.80000000E+02  2.40000000E+01  0.00000000E+00
  3.90000000E+02  2.40000000E+01  0.00000000E+00
  4.00000000E+02  2.40000000E+01  0.00000000E+00
  4.10000000E+02  2.40000000E+01  0.00000000E+00
  4.20000000E+02  2.40000000E+01  0.00000000E+00
  4.30000000E+02  2.40000000E+01  0.00000000E+00
  4.40000000E+02  2.40000000E+01  0.00000000E+00
  4.50000000E+02  2.40000000E+01  0.00000000E+00
  4.60000000E+02  2.40000000E+01  0.00000000E+00
  4.70000000E+02  2.40000000E+01  0.00000000E+00
  4.80000000E+02  2.40000000E+01  0.00000000E+00
  4.90000000E+02  2.40000000E+01  0.00000000E+00
  5.00000000E+02  2.40000000E+01  0.00000000E+00
  5.10000000E+02  2.40000000E+01  0.00000000E+00
  5.20000000E+02  2.40000000E+01  0.00000000E+00
  5.30000000E+02  2.40000000E+01  0.00000000E+00
  5.40000000E+02  2.40000000E+01  0.00000000E+00
  5.50000000E+02  2.40000000E+01  0.00000000E+00
  5.60000000E+02  2.40000000E+01  0.00000000E+00
  5.70000000E+02  2.40000000E+01  0.00000000E+00
  5.80000000E+02  2.40000000E+01  0.00000000E+00
  5.90000000E+02  2.40000000E+01  0.00000000E+00
  6.00000000E+02  2.40000000E+01  0.00000000E+00
  6.10000000E+02  2.40000000E+01  0.00000000E+00
  6.20000000E+02  2.40000000E+01  0.00000000E+00
  6.30000000E+02  2.40000000E+01  0.00000000E+00
  6.40000000E+02  2.40000000E+01  0.00000000E+00
  6.50000000E+02  2.40000000E+01  0.00000000E+00
  6.60000000E+02  2.40000000E+01  0.00000000E+00
  6.70000000E+02  2.40000000E+01  0.00000000E+00
  6.80000000E+02  2.40000000E+01  0.00000000E+00
  6.90000000E+02  2.40000000E+01  0.00000000E+00
  7.00000000E+02  2.40000000E+01  0.00000000E+00
  7.10000000E+02  2.40000000E+01  0.00000000E+00
  7.20000000E+02  2.40000000E+01  0.00000000E+00
  7.30000000E+02  2.40000000E+01  0.00000000E+00
  7.40000000E+02  2.40000000E+01  0.00000000E+00
  7.50000000E+02  2.40000000E+01  0.00000000E+00
  7.60000000E+02  2.40000000E+01  0.00000000E+00
  7.70000000E+02  2.40000000E+01  0.00000000E+00
  7.80000000E+02  2.40000000E+01  0.00000000E+00
  7.90000000E+02  2.40000000E+01  0.00000000E+00
  8.00000000E+02  2.40000000E+01  0.00000000E+00
  8.10000000E+02  2.40000000E+01  0.00000000E+00
  8.20000000E+02  2.40000000E+01  0.00000000E+00
  8.30000000E+02  2.40000000E+01  0.00000000E+00
  8.40000000E+02  2.40000000E+01  0.00000000E+00
  8.50000000E+02  2.40000000E+01  0.00000000E+00
  8.60000000E+02  2.40000000E+01  0.00000000E+00
  8.70000000E+02  2.40000000E+01  0.00000000E+00
  8.80000000E+02  2.40000000E+01  0.00000000E+00
  8.90000000E+02  2.40000000E+01  0.00000000E+00
  9.00000000E+02  2.40000000E+01  0.00000000E+00
  9.10000000E+02  2.40000000E+01  0.00000000E+00
  9.20000000E+02  2.40000000E+01  0.00000000E+00
  9.30000000E+02  2.40000000E+01  0.00000000E+00
  9.40000000E+02  2.40000000E+01  0.00000000E+00
  9.50000000E+02  2.40000000E+01  0.00000000E+00
  9.60000000E+02  2.40000000E+01  0.00000000E+00
  9.70000000E+02  2.40000000E+01  0.00000000E+00
  9.80000000E+02  2.40000000E+01  0.00000000E+00
  9.90000000E+02  2.40000000E+01  0.00000000E+00
  1.00000000E+03  2.40000000E+01  0.00000000E+00
  0.00000000E+00  2.60000000E+01  0.00000000E+00
  1.00000000E+01  2.60000000E+01  0.00000000E+00
  2.00000000E+01  2.60000000E+01  0.00000000E+00
  3.00000000E+01  2.60000000E+01  0.00000000E+00
  4.00000000E+01  2.60000000E+01  0.00000000E+00
  5.00000000E+01  2.60000000E+01  0.00000000E+00
  6.00000000E+01  2.60000000E+01  0.00000000E+00
  7.00000000E+01  2.60000000E+01  0.00000000E+00
  8.00000000E+01  2.60000000E+01  0.00000000E+00
  9.00000000E+01  2.60000000E+01  0.00000000E+00
  1.00000000E+02  2.60000000E+01  0.00000000E+00
  1.10000000E+02  2.60000000E+01  0.00000000E+00
  1.20000000E+02  2.60000000E+01  0.00000000E+00
  1.30000000E+02  2.60000000E+01  0.00000000E+00
  1.40000000E+02  2.60000000E+01  0.00000000E+00
  1.50000000E+02  2.60000000E+01  0.00000000E+00
  1.60000000E+02  2.60000000E+01  0.00000000E+00
  1.70000000E+02  2.60000000E+01  0.00000000E+00
  1.80000000E+02  2.60000000E+01  0.00000000E+00
  1.90000000E+02  2.60000000E+01  0.00000000E+00
  2.00000000E+02  2.60000000E+01  0.00000000E+00
  2.10000000E+02  2.60000000E+01  0.00000000E+00
  2.20000000E+02  2.60000000E+01  0.00000000E+00
  2.30000000E+02  2.60000000E+01  0.00000000E+00
  2.40000000E+02  2.60000000E+01  0.00000000E+00
  2.50000000E+02  2.60000000E+01  0.00000000E+00
  2.60000000E+02  2.60000000E+01  0.00000000E+00
  2.70000000E+02  2.60000000E+01  0.00000000E+00
  2.80000000E+02  2.60000000E+01  0.00000000E+00
  2.90000000E+02  2.60000000E+01  0.00000000E+00
  3.00000000E+02  2.60000000E+01  0.00000000E+00
  3.10000000E+02  2.60000000E+01  0.00000000E+00
  3.20000000E+02  2.60000000E+01  0.00000000E+00
  3.30000000E+02  2.60000000E+01  0.00000000E+00
  3.40000000E+02  2.60000000E+01  0.00000000E+00
  3.50000000E+02  2.60000000E+01  0.00000000E+00
  3.60000000E+02  2.60000000E+01  0.00000000E+00
  3.70000000E+02  2.60000000E+01  0.00000000E+00
  3.80000000E+02  2.60000000E+01  0.00000000E+00
  3.90000000E+02  2.60000000E+01  0.00000000E+00
  4.00000000E+02  2.60000000E+01  0.00000000E+00
  4.10000000E+02  2.60000000E+01  0.00000000E+00
  4.20000000E+02  2.60000000E+01  0.00000000E+00
  4.30000000E+02  2.60000000E+01  0.00000000E+00
  4.40000000E+02  2.60000000E+01  0.00000000E+00
  4.50000000E+02  2.60000000E+01  0.00000000E+00
  4.60000000E+02  2.60000000E+01  0.00000000E+00
  4.70000000E+02  2.60000000E+01  0.00000000E+00
  4.80000000E+02  2.60000000E+01  0.00000000E+00
  4.90000000E+02  2.60000000E+01  0.00000000E+00
  5.00000000E+02  2.60000000E+01  0.00000000E+00
  5.10000000E+02  2.60000000E+01  0.00000000E+00
  5.20000000E+02  2.60000000E+01  0.00000000E+00
  5.30000000E+02  2.60000000E+01  0.00000000E+00
  5.40000000E+02  2.60000000E+01  0.00000000E+00
  5.50000000E+02  2.60000000E+01  0.00000000E+00
  5.60000000E+02  2.60000000E+01  0.00000000E+00
  5.70000000E+02  2.60000000E+01  0.00000000E+00
  5.80000000E+02  2.60000000E+01  0.00000000E+00
  5.90000000E+02  2.60000000E+01  0.00000000E+00
  6.00000000E+02  2.60000000E+01  0.00000000E+00
  6.10000000E+02  2.60000000E+01  0.00000000E+00
  6.20000000E+02  2.60000000E+01  0.00000000E+00
  6.30000000E+02  2.60000000E+01  0.00000000E+00
  6.40000000E+02  2.60000000E+01  0.00000000E+00
  6.50000000E+02  2.60000000E+01  0.00000000E+00
  6.60000000E+02  2.60000000E+01  0.00000000E+00
  6.70000000E+02  2.60000000E+01  0.00000000E+00
  6.80000000E+02  2.60000000E+01  0.00000000E+00
  6.90000000E+02  2.60000000E+01  0.00000000E+00
  7.00000000E+02  2.60000000E+01  0.00000000E+00
  7.10000000E+02  2.60000000E+01  0.00000000E+00
  7.20000000E+02  2.60000000E+01  0.00000000E+00
  7.30000000E+02  2.60000000E+01  0.00000000E+00
  7.40000000E+02  2.60000000E+01  0.00000000E+00
  7.50000000E+02  2.60000000E+01  0.00000000E+00
  7.60000000E+02  2.60000000E+01  0.00000000E+00
  7.70000000E+02  2.60000000E+01  0.00000000E+00
  7.80000000E+02  2.60000000E+01  0.00000000E+00
  7.90000000E+02  2.60000000E+01  0.00000000E+00
  8.00000000E+02  2.60000000E+01  0.00000000E+00
  8.10000000E+02  2.60000000E+01  0.00000000E+00
  8.20000000E+02  2.60000000E+01  0.00000000E+00
  8.30000000E+02  2.60000000E+01  0.00000000E+00
  8.40000000E+02  2.60000000E+01  0.00000000E+00
  8.50000000E+02  2.60000000E+01  0.00000000E+00
  8.60000000E+02  2.60000000E+01  0.00000000E+00
  8.70000000E+02  2.60000000E+01  0.00000000E+00
  8.80000000E+02  2.60000000E+01  0.00000000E+00
  8.90000000E+02  2.60000000E+01  0.00000000E+00
  9.00000000E+02  2.60000000E+01  0.00000000E+00
  9.10000000E+02  2.60000000E+01  0.00000000E+00
  9.20000000E+02  2.60000000E+01  0.00000000E+00
  9.30000000E+02  2.60000000E+01  0.00000000E+00
  9.40000000E+02  2.60000000E+01  0.00000000E+00
  9.50000000E+02  2.60000000E+01  0.00000000E+00
  9.60000000E+02  2.60000000E+01  0.00000000E+00
  9.70000000E+02  2.60000000E+01  0.00000000E+00
  9.80000000E+02  2.60000000E+01  0.00000000E+00
  9.90000000E+02  2.60000000E+01  0.00000000E+00
  1.00000000E+03  2.60000000E+01  0.00000000E+00
  0.00000000E+00  2.80000000E+01  0.00000000E+00
  1.00000000E+01  2.80000000E+01  0.00000000E+00
  2.00000000E+01  2.80000000E+01  0.00000000E+00
  3.00000000E+01  2.80000000E+01  0.00000000E+00
  4.00000000E+01  2.80000000E+01  0.00000000E+00
  5.00000000E+01  2.80000000E+01  0.00000000E+00
  6.00000000E+01  2.80000000E+01  0.00000000E+00
  7.00000000E+01  2.80000000E+01  0.00000000E+00
  8.00000000E+01  2.80000000E+01  0.00000000E+00
  9.00000000E+01  2.80000000E+01  0.00000000E+00
  1.00000000E+02  2.80000000E+01  0.00000000E+00
  1.10000000E+02  2.80000000E+01  0.00000000E+00
  1.20000000E+02  2.80000000E+01  0.00000000E+00
  1.30000000E+02  2.80000000E+01  0.00000000E+00
  1.40000000E+02  2.80000000E+01  0.00000000E+00
  1.50000000E+02  2.80000000E+01  0.00000000E+00
  1.60000000E+02  2.80000000E+01  0.00000000E+00
  1.70000000E+02  2.80000000E+01  0.00000000E+00
  1.80000000E+02  2.80000000E+01  0.00000000E+00
  1.90000000E+02  2.80000000E+01  0.00000000E+00
  2.00000000E+02  2.80000000E+01  0.00000000E+00
  2.10000000E+02  2.80000000E+01  0.00000000E+00
  2.20000000E+02  2.80000000E+01  0.00000000E+00
  2.30000000E+02  2.80000000E+01  0.00000000E+00
  2.40000000E+02  2.80000000E+01  0.00000000E+00
  2.50000000E+02  2.80000000E+01  0.00000000E+00
  2.60000000E+02  2.80000000E+01  0.00000000E+00
  2.70000000E+02  2.80000000E+01  0.00000000E+00
  2.80000000E+02  2.80000000E+01  0.00000000E+00
  2.90000000E+02  2.80000000E+01  0.00000000E+00
  3.00000000E+02  2.80000000E+01  0.00000000E+00
  3.10000000E+02  2.80000000E+01  0.00000000E+00
  3.20000000E+02  2.80000000E+01  0.00000000E+00
  3.30000000E+02  2.80000000E+01  0.00000000E+00
  3.40000000E+02  2.80000000E+01  0.00000000E+00
  3.50000000E+02  2.80000000E+01  0.00000000E+00
  3.60000000E+02  2.80000000E+01  0.00000000E+00
  3.70000000E+02  2.80000000E+01  0.00000000E+00
  3.80000000E+02  2.80000000E+01  0.00000000E+00
  3.90000000E+02  2.80000000E+01  0.00000000E+00
  4.00000000E+02  2.80000000E+01  0.00000000E+00
  4.10000000E+02  2.80000000E+01  0.00000000E+00
  4.20000000E+02  2.80000000E+01  0.00000000E+00
  4.30000000E+02  2.80000000E+01  0.00000000E+00
  4.40000000E+02  2.80000000E+01  0.00000000E+00
  4.50000000E+02  2.80000000E+01  0.00000000E+00
  4.60000000E+02  2.80000000E+01  0.00000000E+00
  4.70000000E+02  2.80000000E+01  0.00000000E+00
  4.80000000E+02  2.80000000E+01  0.00000000E+00
  4.90000000E+02  2.80000000E+01  0.00000000E+00
  5.00000000E+02  2.80000000E+01  0.00000000E+00
  5.10000000E+02  2.80000000E+01  0.00000000E+00
  5.20000000E+02  2.80000000E+01  0.00000000E+00
  5.30000000E+02  2.80000000E+01  0.00000000E+00
  5.40000000E+02  2.80000000E+01  0.00000000E+00
  5.50000000E+02  2.80000000E+01  0.00000000E+00
  5.60000000E+02  2.80000000E+01  0.00000000E+00
  5.70000000E+02  2.80000000E+01  0.00000000E+00
  5.80000000E+02  2.80000000E+01  0.00000000E+00
  5.90000000E+02  2.80000000E+01  0.00000000E+00
  6.00000000E+02  2.80000000E+01  0.00000000E+00
  6.10000000E+02  2.80000000E+01  0.00000000E+00
  6.20000000E+02  2.80000000E+01  0.00000000E+00
  6.30000000E+02  2.80000000E+01  0.00000000E+00
  6.40000000E+02  2.80000000E+01  0.00000000E+00
  6.50000000E+02  2.80000000E+01  0.00000000E+00
  6.60000000E+02  2.80000000E+01  0.00000000E+00
  6.70000000E+02  2.80000000E+01  0.00000000E+00
  6.80000000E+02  2.80000000E+01  0.00000000E+00
  6.90000000E+02  2.80000000E+01  0.00000000E+00
  7.00000000E+02  2.80000000E+01  0.00000000E+00
  7.10000000E+02  2.80000000E+01  0.00000000E+00
  7.20000000E+02  2.80000000E+01  0.00000000E+00
  7.30000000E+02  2.80000000E+01  0.00000000E+00
  7.40000000E+02  2.80000000E+01  0.00000000E+00
  7.50000000E+02  2.80000000E+01  0.00000000E+00
  7.60000000E+02  2.80000000E+01  0.00000000E+00
  7.70000000E+02  2.80000000E+01  0.00000000E+00
  7.80000000E+02  2.80000000E+01  0.00000000E+00
  7.90000000E+02  2.80000000E+01  0.00000000E+00
  8.00000000E+02  2.80000000E+01  0.00000000E+00
  8.10000000E+02  2.80000000E+01  0.00000000E+00
  8.20000000E+02  2.80000000E+01  0.00000000E+00
  8.30000000E+02  2.80000000E+01  0.00000000E+00
  8.40000000E+02  2.80000000E+01  0.00000000E+00
  8.50000000E+02  2.80000000E+01  0.00000000E+00
  8.60000000E+02  2.80000000E+01  0.00000000E+00
  8.70000000E+02  2.80000000E+01  0.00000000E+00
  8.80000000E+02  2.80000000E+01  0.00000000E+00
  8.90000000E+02  2.80000000E+01  0.00000000E+00
  9.00000000E+02  2.80000000E+01  0.00000000E+00
  9.10000000E+02  2.80000000E+01  0.00000000E+00
  9.20000000E+02  2.80000000E+01  0.00000000E+00
  9.30000000E+02  2.80000000E+01  0.00000000E+00
  9.40000000E+02  2.80000000E+01  0.00000000E+00
  9.50000000E+02  2.80000000E+01  0.00000000E+00
  9.60000000E+02  2.80000000E+01  0.00000000E+00
  9.70000000E+02  2.80000000E+01  0.00000000E+00
  9.80000000E+02  2.80000000E+01  0.00000000E+00
  9.90000000E+02  2.80000000E+01  0.00000000E+00
  1.00000000E+03  2.80000000E+01  0.00000000E+00
  0.00000000E+00  3.00000000E+01  0.00000000E+00
  1.00000000E+01  3.00000000E+01  0.00000000E+00
  2.00000000E+01  3.00000000E+01  0.00000000E+00
  3.00000000E+01  3.00000000E+01  0.00000000E+00
  4.00000000E+01  3.00000000E+01  0.00000000E+00
  5.00000000E+01  3.00000000E+01  0.00000000E+00
  6.00000000E+01  3.00000000E+01  0.00000000E+00
  7.00000000E+01  3.00000000E+01  0.00000000E+00
  8.00000000E+01  3.00000000E+01  0.00000000E+00
  9.00000000E+01  3.00000000E+01  0.00000000E+00
  1.00000000E+02  3.00000000E+01  0.00000000E+00
  1.10000000E+02  3.00000000E+01  0.00000000E+00
  1.20000000E+02  3.00000000E+01  0.00000000E+00
  1.30000000E+02  3.00000000E+01  0.00000000E+00
  1.40000000E+02  3.00000000E+01  0.00000000E+00
  1.50000000E+02  3.00000000E+01  0.00000000E+00
  1.60000000E+02  3.00000000E+01  0.00000000E+00
  1.70000000E+02  3.00000000E+01  0.00000000E+00
  1.80000000E+02  3.00000000E+01  0.00000000E+00
  1.90000000E+02  3.00000000E+01  0.00000000E+00
  2.00000000E+02  3.00000000E+01  0.00000000E+00
  2.10000000E+02  3.00000000E+01  0.00000000E+00
  2.20000000E+02  3.00000000E+01  0.00000000E+00
  2.30000000E+02  3.00000000E+01  0.00000000E+00
  2.40000000E+02  3.00000000E+01  0.00000000E+00
  2.50000000E+02  3.00000000E+01  0.00000000E+00
  2.60000000E+02  3.00000000E+01  0.00000000E+00
  2.70000000E+02  3.00000000E+01  0.00000000E+00
  2.80000000E+02  3.00000000E+01  0.00000000E+00
  2.90000000E+02  3.00000000E+01  0.00000000E+00
  3.00000000E+02  3.00000000E+01  0.00000000E+00
  3.10000000E+02  3.00000000E+01  0.00000000E+00
  3.20000000E+02  3.00000000E+01  0.00000000E+00
  3.30000000E+02  3.00000000E+01  0.00000000E+00
  3.40000000E+02  3.00000000E+01  0.00000000E+00
  3.50000000E+02  3.00000000E+01  0.00000000E+00
  3.60000000E+02  3.00000000E+01  0.00000000E+00
  3.70000000E+02  3.00000000E+01  0.00000000E+00
  3.80000000E+02  3.00000000E+01  0.00000000E+00
  3.90000000E+02  3.00000000E+01  0.00000000E+00
  4.00000000E+02  3.00000000E+01  0.00000000E+00
  4.10000000E+02  3.00000000E+01  0.00000000E+00
  4.20000000E+02  3.00000000E+01  0.00000000E+00
  4.30000000E+02  3.00000000E+01  0.00000000E+00
  4.40000000E+02  3.00000000E+01  0.00000000E+00
  4.50000000E+02  3.00000000E+01  0.00000000E+00
  4.60000000E+02  3.00000000E+01  0.00000000E+00
  4.70000000E+02  3.00000000E+01  0.00000000E+00
  4.80000000E+02  3.00000000E+01  0.00000000E+00
  4.90000000E+02  3.00000000E+01  0.00000000E+00
  5.00000000E+02  3.00000000E+01  0.00000000E+00
  5.10000000E+02  3.00000000E+01  0.00000000E+00
  5.20000000E+02  3.00000000E+01  0.00000000E+00
  5.30000000E+02  3.00000000E+01  0.00000000E+00
  5.40000000E+02  3.00000000E+01  0.00000000E+00
  5.50000000E+02  3.00000000E+01  0.00000000E+00
  5.60000000E+02  3.00000000E+01  0.00000000E+00
  5.70000000E+02  3.00000000E+01  0.00000000E+00
  5.80000000E+02  3.00000000E+01  0.00000000E+00
  5.90000000E+02  3.00000000E+01  0.00000000E+00
  6.00000000E+02  3.00000000E+01  0.00000000E+00
  6.10000000E+02  3.00000000E+01  0.00000000E+00
  6.20000000E+02  3.00000000E+01  0.00000000E+00
  6.30000000E+02  3.00000000E+01  0.00000000E+00
  6.40000000E+02  3.00000000E+01  0.00000000E+00
  6.50000000E+02  3.00000000E+01  0.00000000E+00
  6.60000000E+02  3.00000000E+01  0.00000000E+00
  6.70000000E+02  3.00000000E+01  0.00000000E+00
  6.80000000E+02  3.00000000E+01  0.00000000E+00
  6.90000000E+02  3.00000000E+01  0.00000000E+00
  7.00000000E+02  3.00000000E+01  0.00000000E+00
  7.10000000E+02  3.00000000E+01  0.00000000E+00
  7.20000000E+02  3.00000000E+01  0.00000000E+00
  7.30000000E+02  3.00000000E+01  0.00000000E+00
  7.40000000E+02  3.00000000E+01  0.00000000E+00
  7.50000000E+02  3.00000000E+01  0.00000000E+00
  7.60000000E+02  3.00000000E+01  0.00000000E+00
  7.70000000E+02  3.00000000E+01  0.00000000E+00
  7.80000000E+02  3.00000000E+01  0.00000000E+00
  7.90000000E+02  3.00000000E+01  0.00000000E+00
  8.00000000E+02  3.00000000E+01  0.00000000E+00
  8.10000000E+02  3.00000000E+01  0.00000000E+00
  8.20000000E+02  3.00000000E+01  0.00000000E+00
  8.30000000E+02  3.00000000E+01  0.00000000E+00
  8.40000000E+02  3.00000000E+01  0.00000000E+00
  8.50000000E+02  3.00000000E+01  0.00000000E+00
  8.60000000E+02  3.00000000E+01  0.00000000E+00
  8.70000000E+02  3.00000000E+01  0.00000000E+00
  8.80000000E+02  3.00000000E+01  0.00000000E+00
  8.90000000E+02  3.00000000E+01  0.00000000E+00
  9.00000000E+02  3.00000000E+01  0.00000000E+00
  9.10000000E+02  3.00000000E+01  0.00000000E+00
  9.20000000E+02  3.00000000E+01  0.00000000E+00
  9.30000000E+02  3.00000000E+01  0.00000000E+00
  9.40000000E+02  3.00000000E+01  0.00000000E+00
  9.50000000E+02  3.00000000E+01  0.00000000E+00
  9.60000000E+02  3.00000000E+01  0.00000000E+00
  9.70000000E+02  3.00000000E+01  0.00000000E+00
  9.80000000E+02  3.00000000E+01  0.00000000E+00
  9.90000000E+02  3.00000000E+01  0.00000000E+00
  1.00000000E+03  3.00000000E+01  0.00000000E+00
  0.00000000E+00  3.20000000E+01  0.00000000E+00
  1.00000000E+01  3.20000000E+01  0.00000000E+00
  2.00000000E+01  3.20000000E+01  0.00000000E+00
  3.00000000E+01  3.20000000E+01  0.00000000E+00
  4.00000000E+01  3.20000000E+01  0.00000000E+00
  5.00000000E+01  3.20000000E+01  0.00000000E+00
  6.00000000E+01  3.20000000E+01  0.00000000E+00
  7.00000000E+01  3.20000000E+01  0.00000000E+00
  8.00000000E+01  3.20000000E+01  0.00000000E+00
  9.00000000E+01  3.20000000E+01  0.00000000E+00
  1.00000000E+02  3.20000000E+01  0.00000000E+00
  1.10000000E+02  3.20000000E+01  0.00000000E+00
  1.20000000E+02  3.20000000E+01  0.00000000E+00
  1.30000000E+02  3.20000000E+01  0.00000000E+00
  1.40000000E+02  3.20000000E+01  0.00000000E+00
  1.50000000E+02  3.20000000E+01  0.00000000E+00
  1.60000000E+02  3.20000000E+01  0.00000000E+00
  1.70000000E+02  3.20000000E+01  0.00000000E+00
  1.80000000E+02  3.20000000E+01  0.00000000E+00
  1.90000000E+02  3.20000000E+01  0.00000000E+00
  2.00000000E+02  3.20000000E+01  0.00000000E+00
  2.10000000E+02  3.20000000E+01  0.00000000E+00
  2.20000000E+02  3.20000000E+01  0.00000000E+00
  2.30000000E+02  3.20000000E+01  0.00000000E+00
  2.40000000E+02  3.20000000E+01  0.00000000E+00
  2.50000000E+02  3.20000000E+01  0.00000000E+00
  2.60000000E+02  3.20000000E+01  0.00000000E+00
  2.70000000E+02  3.20000000E+01  0.00000000E+00
  2.80000000E+02  3.20000000E+01  0.00000000E+00
  2.90000000E+02  3.20000000E+01  0.00000000E+00
  3.00000000E+02  3.20000000E+01  0.00000000E+00
  3.10000000E+02  3.20000000E+01  0.00000000E+00
  3.20000000E+02  3.20000000E+01  0.00000000E+00
  3.30000000E+02  3.20000000E+01  0.00000000E+00
  3.40000000E+02  3.20000000E+01  0.00000000E+00
  3.50000000E+02  3.20000000E+01  0.00000000E+00
  3.60000000E+02  3.20000000E+01  0.00000000E+00
  3.70000000E+02  3.20000000E+01  0.00000000E+00
  3.80000000E+02  3.20000000E+01  0.00000000E+00
  3.90000000E+02  3.20000000E+01  0.00000000E+00
  4.00000000E+02  3.20000000E+01  0.00000000E+00
  4.10000000E+02  3.20000000E+01  0.00000000E+00
  4.20000000E+02  3.20000000E+01  0.00000000E+00
  4.30000000E+02  3.20000000E+01  0.00000000E+00
  4.40000000E+02  3.20000000E+01  0.00000000E+00
  4.50000000E+02  3.20000000E+01  0.00000000E+00
  4.60000000E+02  3.20000000E+01  0.00000000E+00
  4.70000000E+02  3.20000000E+01  0.00000000E+00
  4.80000000E+02  3.20000000E+01  0.00000000E+00
  4.90000000E+02  3.20000000E+01  0.00000000E+00
  5.00000000E+02  3.20000000E+01  0.00000000E+00
  5.10000000E+02  3.20000000E+01  0.00000000E+00
  5.20000000E+02  3.20000000E+01  0.00000000E+00
  5.30000000E+02  3.20000000E+01  0.00000000E+00
  5.40000000E+02  3.20000000E+01  0.00000000E+00
  5.50000000E+02  3.20000000E+01  0.00000000E+00
  5.60000000E+02  3.20000000E+01  0.00000000E+00
  5.70000000E+02  3.20000000E+01  0.00000000E+00
  5.80000000E+02  3.20000000E+01  0.00000000E+00
  5.90000000E+02  3.20000000E+01  0.00000000E+00
  6.00000000E+02  3.20000000E+01  0.00000000E+00
  6.10000000E+02  3.20000000E+01  0.00000000E+00
  6.20000000E+02  3.20000000E+01  0.00000000E+00
  6.30000000E+02  3.20000000E+01  0.00000000E+00
  6.40000000E+02  3.20000000E+01  0.00000000E+00
  6.50000000E+02  3.20000000E+01  0.00000000E+00
  6.60000000E+02  3.20000000E+01  0.00000000E+00
  6.70000000E+02  3.20000000E+01  0.00000000E+00
  6.80000000E+02  3.20000000E+01  0.00000000E+00
  6.90000000E+02  3.20000000E+01  0.00000000E+00
  7.00000000E+02  3.20000000E+01  0.00000000E+00
  7.10000000E+02  3.20000000E+01  0.00000000E+00
  7.20000000E+02  3.20000000E+01  0.00000000E+00
  7.30000000E+02  3.20000000E+01  0.00000000E+00
  7.40000000E+02  3.20000000E+01  0.00000000E+00
  7.50000000E+02  3.20000000E+01  0.00000000E+00
  7.60000000E+02  3.20000000E+01  0.00000000E+00
  7.70000000E+02  3.20000000E+01  0.00000000E+00
  7.80000000E+02  3.20000000E+01  0.00000000E+00
  7.90000000E+02  3.20000000E+01  0.00000000E+00
  8.00000000E+02  3.20000000E+01  0.00000000E+00
  8.10000000E+02  3.20000000E+01  0.00000000E+00
  8.20000000E+02  3.20000000E+01  0.00000000E+00
  8.30000000E+02  3.20000000E+01  0.00000000E+00
  8.40000000E+02  3.20000000E+01  0.00000000E+00
  8.50000000E+02  3.20000000E+01  0.00000000E+00
  8.60000000E+02  3.20000000E+01  0.00000000E+00
  8.70000000E+02  3.20000000E+01  0.00000000E+00
  8.80000000E+02  3.20000000E+01  0.00000000E+00
  8.90000000E+02  3.20000000E+01  0.00000000E+00
  9.00000000E+02  3.20000000E+01  0.00000000E+00
  9.10000000E+02  3.20000000E+01  0.00000000E+00
  9.20000000E+02  3.20000000E+01  0.00000000E+00
  9.30000000E+02  3.20000000E+01  0.00000000E+00
  9.40000000E+02  3.20000000E+01  0.00000000E+00
  9.50000000E+02  3.20000000E+01  0.00000000E+00
  9.60000000E+02  3.20000000E+01  0.00000000E+00
  9.70000000E+02  3.20000000E+01  0.00000000E+00
  9.80000000E+02  3.20000000E+01  0.00000000E+00
  9.90000000E+02  3.20000000E+01  0.00000000E+00
  1.00000000E+03  3.20000000E+01  0.00000000E+00
  0.00000000E+00  3.40000000E+01  0.00000000E+00
  1.00000000E+01  3.40000000E+01  0.00000000E+00
  2.00000000E+01  3.40000000E+01  0.00000000E+00
  3.00000000E+01  3.40000000E+01  0.00000000E+00
  4.00000000E+01  3.40000000E+01  0.00000000E+00
  5.00000000E+01  3.40000000E+01  0.00000000E+00
  6.00000000E+01  3.40000000E+01  0.00000000E+00
  7.00000000E+01  3.40000000E+01  0.00000000E+00
  8.00000000E+01  3.40000000E+01  0.00000000E+00
  9.00000000E+01  3.40000000E+01  0.00000000E+00
  1.00000000E+02  3.40000000E+01  0.00000000E+00
  1.10000000E+02  3.40000000E+01  0.00000000E+00
  1.20000000E+02  3.40000000E+01  0.00000000E+00
  1.30000000E+02  3.40000000E+01  0.00000000E+00
  1.40000000E+02  3.40000000E+01  0.00000000E+00
  1.50000000E+02  3.40000000E+01  0.00000000E+00
  1.60000000E+02  3.40000000E+01  0.00000000E+00
  1.70000000E+02  3.40000000E+01  0.00000000E+00
  1.80000000E+02  3.40000000E+01  0.00000000E+00
  1.90000000E+02  3.40000000E+01  0.00000000E+00
  2.00000000E+02  3.40000000E+01  0.00000000E+00
  2.10000000E+02  3.40000000E+01  0.00000000E+00
  2.20000000E+02  3.40000000E+01  0.00000000E+00
  2.30000000E+02  3.40000000E+01  0.00000000E+00
  2.40000000E+02  3.40000000E+01  0.00000000E+00
  2.50000000E+02  3.40000000E+01  0.00000000E+00
  2.60000000E+02  3.40000000E+01  0.00000000E+00
  2.70000000E+02  3.40000000E+01  0.00000000E+00
  2.80000000E+02  3.40000000E+01  0.00000000E+00
  2.90000000E+02  3.40000000E+01  0.00000000E+00
  3.00000000E+02  3.40000000E+01  0.00000000E+00
  3.10000000E+02  3.40000000E+01  0.00000000E+00
  3.20000000E+02  3.40000000E+01  0.00000000E+00
  3.30000000E+02  3.40000000E+01  0.00000000E+00
  3.40000000E+02  3.40000000E+01  0.00000000E+00
  3.50000000E+02  3.40000000E+01  0.00000000E+00
  3.60000000E+02  3.40000000E+01  0.00000000E+00
  3.70000000E+02  3.40000000E+01  0.00000000E+00
  3.80000000E+02  3.40000000E+01  0.00000000E+00
  3.90000000E+02  3.40000000E+01  0.00000000E+00
  4.00000000E+02  3.40000000E+01  0.00000000E+00
  4.10000000E+02  3.40000000E+01  0.00000000E+00
  4.20000000E+02  3.40000000E+01  0.00000000E+00
  4.30000000E+02  3.40000000E+01  0.00000000E+00
  4.40000000E+02  3.40000000E+01  0.00000000E+00
  4.50000000E+02  3.40000000E+01  0.00000000E+00
  4.60000000E+02  3.40000000E+01  0.00000000E+00
  4.70000000E+02  3.40000000E+01  0.00000000E+00
  4.80000000E+02  3.40000000E+01  0.00000000E+00
  4.90000000E+02  3.40000000E+01  0.00000000E+00
  5.00000000E+02  3.40000000E+01  0.00000000E+00
  5.10000000E+02  3.40000000E+01  0.00000000E+00
  5.20000000E+02  3.40000000E+01  0.00000000E+00
  5.30000000E+02  3.40000000E+01  0.00000000E+00
  5.40000000E+02  3.40000000E+01  0.00000000E+00
  5.50000000E+02  3.40000000E+01  0.00000000E+00
  5.60000000E+02  3.40000000E+01  0.00000000E+00
  5.70000000E+02  3.40000000E+01  0.00000000E+00
  5.80000000E+02  3.40000000E+01  0.00000000E+00
  5.90000000E+02  3.40000000E+01  0.00000000E+00
  6.00000000E+02  3.40000000E+01  0.00000000E+00
  6.10000000E+02  3.40000000E+01  0.00000000E+00
  6.20000000E+02  3.40000000E+01  0.00000000E+00
  6.30000000E+02  3.40000000E+01  0.00000000E+00
  6.40000000E+02  3.40000000E+01  0.00000000E+00
  6.50000000E+02  3.40000000E+01  0.00000000E+00
  6.60000000E+02  3.40000000E+01  0.00000000E+00
  6.70000000E+02  3.40000000E+01  0.00000000E+00
  6.80000000E+02  3.40000000E+01  0.00000000E+00
  6.90000000E+02  3.40000000E+01  0.00000000E+00
  7.00000000E+02  3.40000000E+01  0.00000000E+00
  7.10000000E+02  3.40000000E+01  0.00000000E+00
  7.20000000E+02  3.40000000E+01  0.00000000E+00
  7.30000000E+02  3.40000000E+01  0.00000000E+00
  7.40000000E+02  3.40000000E+01  0.00000000E+00
  7.50000000E+02  3.40000000E+01  0.00000000E+00
  7.60000000E+02  3.40000000E+01  0.00000000E+00
  7.70000000E+02  3.40000000E+01  0.00000000E+00
  7.80000000E+02  3.40000000E+01  0.00000000E+00
  7.90000000E+02  3.40000000E+01  0.00000000E+00
  8.00000000E+02  3.40000000E+01  0.00000000E+00
  8.10000000E+02  3.40000000E+01  0.00000000E+00
  8.20000000E+02  3.40000000E+01  0.00000000E+00
  8.30000000E+02  3.40000000E+01  0.00000000E+00
  8.40000000E+02  3.40000000E+01  0.00000000E+00
  8.50000000E+02  3.40000000E+01  0.00000000E+00
  8.60000000E+02  3.40000000E+01  0.00000000E+00
  8.70000000E+02  3.40000000E+01  0.00000000E+00
  8.80000000E+02  3.40000000E+01  0.00000000E+00
  8.90000000E+02  3.40000000E+01  0.00000000E+00
  9.00000000E+02  3.40000000E+01  0.00000000E+00
  9.10000000E+02  3.40000000E+01  0.00000000E+00
  9.20000000E+02  3.40000000E+01  0.00000000E+00
  9.30000000E+02  3.40000000E+01  0.00000000E+00
  9.40000000E+02  3.40000000E+01  0.00000000E+00
  9.50000000E+02  3.40000000E+01  0.00000000E+00
  9.60000000E+02  3.40000000E+01  0.00000000E+00
  9.70000000E+02  3.40000000E+01  0.00000000E+00
  9.80000000E+02  3.40000000E+01  0.00000000E+00
  9.90000000E+02  3.40000000E+01  0.00000000E+00
  1.00000000E+03  3.40000000E+01  0.00000000E+00
  0.00000000E+00  3.60000000E+01  0.00000000E+00
  1.00000000E+01  3.60000000E+01  0.00000000E+00
  2.00000000E+01  3.60000000E+01  0.00000000E+00
  3.00000000E+01  3.60000000E+01  0.00000000E+00
  4.00000000E+01  3.60000000E+01  0.00000000E+00
  5.00000000E+01  3.60000000E+01  0.00000000E+00
  6.00000000E+01  3.60000000E+01  0.00000000E+00
  7.00000000E+01  3.60000000E+01  0.00000000E+00
  8.00000000E+01  3.60000000E+01  0.00000000E+00
  9.00000000E+01  3.60000000E+01  0.00000000E+00
  1.00000000E+02  3.60000000E+01  0.00000000E+00
  1.10000000E+02  3.60000000E+01  0.00000000E+00
  1.20000000E+02  3.60000000E+01  0.00000000E+00
  1.30000000E+02  3.60000000E+01  0.00000000E+00
  1.40000000E+02  3.60000000E+01  0.00000000E+00
  1.50000000E+02  3.60000000E+01  0.00000000E+00
  1.60000000E+02  3.60000000E+01  0.00000000E+00
  1.70000000E+02  3.60000000E+01  0.00000000E+00
  1.80000000E+02  3.60000000E+01  0.00000000E+00
  1.90000000E+02  3.60000000E+01  0.00000000E+00
  2.00000000E+02  3.60000000E+01  0.00000000E+00
  2.10000000E+02  3.60000000E+01  0.00000000E+00
  2.20000000E+02  3.60000000E+01  0.00000000E+00
  2.30000000E+02  3.60000000E+01  0.00000000E+00
  2.40000000E+02  3.60000000E+01  0.00000000E+00
  2.50000000E+02  3.60000000E+01  0.00000000E+00
  2.60000000E+02  3.60000000E+01  0.00000000E+00
  2.70000000E+02  3.60000000E+01  0.00000000E+00
  2.80000000E+02  3.60000000E+01  0.00000000E+00
  2.90000000E+02  3.60000000E+01  0.00000000E+00
  3.00000000E+02  3.60000000E+01  0.00000000E+00
  3.10000000E+02  3.60000000E+01  0.00000000E+00
  3.20000000E+02  3.60000000E+01  0.00000000E+00
  3.30000000E+02  3.60000000E+01  0.00000000E+00
  3.40000000E+02  3.60000000E+01  0.00000000E+00
  3.50000000E+02  3.60000000E+01  0.00000000E+00
  3.60000000E+02  3.60000000E+01  0.00000000E+00
  3.70000000E+02  3.60000000E+01  0.00000000E+00
  3.80000000E+02  3.60000000E+01  0.00000000E+00
  3.90000000E+02  3.60000000E+01  0.00000000E+00
  4.00000000E+02  3.60000000E+01  0.00000000E+00
  4.10000000E+02  3.60000000E+01  0.00000000E+00
  4.20000000E+02  3.60000000E+01  0.00000000E+00
  4.30000000E+02  3.60000000E+01  0.00000000E+00
  4.40000000E+02  3.60000000E+01  0.00000000E+00
  4.50000000E+02  3.60000000E+01  0.00000000E+00
  4.60000000E+02  3.60000000E+01  0.00000000E+00
  4.70000000E+02  3.60000000E+01  0.00000000E+00
  4.80000000E+02  3.60000000E+01  0.00000000E+00
  4.90000000E+02  3.60000000E+01  0.00000000E+00
  5.00000000E+02  3.60000000E+01  0.00000000E+00
  5.10000000E+02  3.60000000E+01  0.00000000E+00
  5.20000000E+02  3.60000000E+01  0.00000000E+00
  5.30000000E+02  3.60000000E+01  0.00000000E+00
  5.40000000E+02  3.60000000E+01  0.00000000E+00
  5.50000000E+02  3.60000000E+01  0.00000000E+00
  5.60000000E+02  3.60000000E+01  0.00000000E+00
  5.70000000E+02  3.60000000E+01  0.00000000E+00
  5.80000000E+02  3.60000000E+01  0.00000000E+00
  5.90000000E+02  3.60000000E+01  0.00000000E+00
  6.00000000E+02  3.60000000E+01  0.00000000E+00
  6.10000000E+02  3.60000000E+01  0.00000000E+00
  6.20000000E+02  3.60000000E+01  0.00000000E+00
  6.30000000E+02  3.60000000E+01  0.00000000E+00
  6.40000000E+02  3.60000000E+01  0.00000000E+00
  6.50000000E+02  3.60000000E+01  0.00000000E+00
  6.60000000E+02  3.60000000E+01  0.00000000E+00
  6.70000000E+02  3.60000000E+01  0.00000000E+00
  6.80000000E+02  3.60000000E+01  0.00000000E+00
  6.90000000E+02  3.60000000E+01  0.00000000E+00
  7.00000000E+02  3.60000000E+01  0.00000000E+00
  7.10000000E+02  3.60000000E+01  0.00000000E+00
  7.20000000E+02  3.60000000E+01  0.00000000E+00
  7.30000000E+02  3.60000000E+01  0.00000000E+00
  7.40000000E+02  3.60000000E+01  0.00000000E+00
  7.50000000E+02  3.60000000E+01  0.00000000E+00
  7.60000000E+02  3.60000000E+01  0.00000000E+00
  7.70000000E+02  3.60000000E+01  0.00000000E+00
  7.80000000E+02  3.60000000E+01  0.00000000E+00
  7.90000000E+02  3.60000000E+01  0.00000000E+00
  8.00000000E+02  3.60000000E+01  0.00000000E+00
  8.10000000E+02  3.60000000E+01  0.00000000E+00
  8.20000000E+02  3.60000000E+01  0.00000000E+00
  8.30000000E+02  3.60000000E+01  0.00000000E+00
  8.40000000E+02  3.60000000E+01  0.00000000E+00
  8.50000000E+02  3.60000000E+01  0.00000000E+00
  8.60000000E+02  3.60000000E+01  0.00000000E+00
  8.70000000E+02  3.60000000E+01  0.00000000E+00
  8.80000000E+02  3.60000000E+01  0.00000000E+00
  8.90000000E+02  3.60000000E+01  0.00000000E+00
  9.00000000E+02  3.60000000E+01  0.00000000E+00
  9.10000000E+02  3.60000000E+01  0.00000000E+00
  9.20000000E+02  3.60000000E+01  0.00000000E+00
  9.30000000E+02  3.60000000E+01  0.00000000E+00
  9.40000000E+02  3.60000000E+01  0.00000000E+00
  9.50000000E+02  3.60000000E+01  0.00000000E+00
  9.60000000E+02  3.60000000E+01  0.00000000E+00
  9.70000000E+02  3.60000000E+01  0.00000000E+00
  9.80000000E+02  3.60000000E+01  0.00000000E+00
  9.90000000E+02  3.60000000E+01  0.00000000E+00
  1.00000000E+03  3.60000000E+01  0.00000000E+00
  0.00000000E+00  3.80000000E+01  0.00000000E+00
  1.00000000E+01  3.80000000E+01  0.00000000E+00
  2.00000000E+01  3.80000000E+01  0.00000000E+00
  3.00000000E+01  3.80000000E+01  0.00000000E+00
  4.00000000E+01  3.80000000E+01  0.00000000E+00
  5.00000000E+01  3.80000000E+01  0.00000000E+00
  6.00000000E+01  3.80000000E+01  0.00000000E+00
  7.00000000E+01  3.80000000E+01  0.00000000E+00
  8.00000000E+01  3.80000000E+01  0.00000000E+00
  9.00000000E+01  3.80000000E+01  0.00000000E+00
  1.00000000E+02  3.80000000E+01  0.00000000E+00
  1.10000000E+02  3.80000000E+01  0.00000000E+00
  1.20000000E+02  3.80000000E+01  0.00000000E+00
  1.30000000E+02  3.80000000E+01  0.00000000E+00
  1.40000000E+02  3.80000000E+01  0.00000000E+00
  1.50000000E+02  3.80000000E+01  0.00000000E+00
  1.60000000E+02  3.80000000E+01  0.00000000E+00
  1.70000000E+02  3.80000000E+01  0.00000000E+00
  1.80000000E+02  3.80000000E+01  0.00000000E+00
  1.90000000E+02  3.80000000E+01  0.00000000E+00
  2.00000000E+02  3.80000000E+01  0.00000000E+00
  2.10000000E+02  3.80000000E+01  0.00000000E+00
  2.20000000E+02  3.80000000E+01  0.00000000E+00
  2.30000000E+02  3.80000000E+01  0.00000000E+00
  2.40000000E+02  3.80000000E+01  0.00000000E+00
  2.50000000E+02  3.80000000E+01  0.00000000E+00
  2.60000000E+02  3.80000000E+01  0.00000000E+00
  2.70000000E+02  3.80000000E+01  0.00000000E+00
  2.80000000E+02  3.80000000E+01  0.00000000E+00
  2.90000000E+02  3.80000000E+01  0.00000000E+00
  3.00000000E+02  3.80000000E+01  0.00000000E+00
  3.10000000E+02  3.80000000E+01  0.00000000E+00
  3.20000000E+02  3.80000000E+01  0.00000000E+00
  3.30000000E+02  3.80000000E+01  0.00000000E+00
  3.40000000E+02  3.80000000E+01  0.00000000E+00
  3.50000000E+02  3.80000000E+01  0.00000000E+00
  3.60000000E+02  3.80000000E+01  0.00000000E+00
  3.70000000E+02  3.80000000E+01  0.00000000E+00
  3.80000000E+02  3.80000000E+01  0.00000000E+00
  3.90000000E+02  3.80000000E+01  0.00000000E+00
  4.00000000E+02  3.80000000E+01  0.00000000E+00
  4.10000000E+02  3.80000000E+01  0.00000000E+00
  4.20000000E+02  3.80000000E+01  0.00000000E+00
  4.30000000E+02  3.80000000E+01  0.00000000E+00
  4.40000000E+02  3.80000000E+01  0.00000000E+00
  4.50000000E+02  3.80000000E+01  0.00000000E+00
  4.60000000E+02  3.80000000E+01  0.00000000E+00
  4.70000000E+02  3.80000000E+01  0.00000000E+00
  4.80000000E+02  3.80000000E+01  0.00000000E+00
  4.90000000E+02  3.80000000E+01  0.00000000E+00
  5.00000000E+02  3.80000000E+01  0.00000000E+00
  5.10000000E+02  3.80000000E+01  0.00000000E+00
  5.20000000E+02  3.80000000E+01  0.00000000E+00
  5.30000000E+02  3.80000000E+01  0.00000000E+00
  5.40000000E+02  3.80000000E+01  0.00000000E+00
  5.50000000E+02  3.80000000E+01  0.00000000E+00
  5.60000000E+02  3.80000000E+01  0.00000000E+00
  5.70000000E+02  3.80000000E+01  0.00000000E+00
  5.80000000E+02  3.80000000E+01  0.00000000E+00
  5.90000000E+02  3.80000000E+01  0.00000000E+00
  6.00000000E+02  3.80000000E+01  0.00000000E+00
  6.10000000E+02  3.80000000E+01  0.00000000E+00
  6.20000000E+02  3.80000000E+01  0.00000000E+00
  6.30000000E+02  3.80000000E+01  0.00000000E+00
  6.40000000E+02  3.80000000E+01  0.00000000E+00
  6.50000000E+02  3.80000000E+01  0.00000000E+00
  6.60000000E+02  3.80000000E+01  0.00000000E+00
  6.70000000E+02  3.80000000E+01  0.00000000E+00
  6.80000000E+02  3.80000000E+01  0.00000000E+00
  6.90000000E+02  3.80000000E+01  0.00000000E+00
  7.00000000E+02  3.80000000E+01  0.00000000E+00
  7.10000000E+02  3.80000000E+01  0.00000000E+00
  7.20000000E+02  3.80000000E+01  0.00000000E+00
  7.30000000E+02  3.80000000E+01  0.00000000E+00
  7.40000000E+02  3.80000000E+01  0.00000000E+00
  7.50000000E+02  3.80000000E+01  0.00000000E+00
  7.60000000E+02  3.80000000E+01  0.00000000E+00
  7.70000000E+02  3.80000000E+01  0.00000000E+00
  7.80000000E+02  3.80000000E+01  0.00000000E+00
  7.90000000E+02  3.80000000E+01  0.00000000E+00
  8.00000000E+02  3.80000000E+01  0.00000000E+00
  8.10000000E+02  3.80000000E+01  0.00000000E+00
  8.20000000E+02  3.80000000E+01  0.00000000E+00
  8.30000000E+02  3.80000000E+01  0.00000000E+00
  8.40000000E+02  3.80000000E+01  0.00000000E+00
  8.50000000E+02  3.80000000E+01  0.00000000E+00
  8.60000000E+02  3.80000000E+01  0.00000000E+00
  8.70000000E+02  3.80000000E+01  0.00000000E+00
  8.80000000E+02  3.80000000E+01  0.00000000E+00
  8.90000000E+02  3.80000000E+01  0.00000000E+00
  9.00000000E+02  3.80000000E+01  0.00000000E+00
  9.10000000E+02  3.80000000E+01  0.00000000E+00
  9.20000000E+02  3.80000000E+01  0.00000000E+00
  9.30000000E+02  3.80000000E+01  0.00000000E+00
  9.40000000E+02  3.80000000E+01  0.00000000E+00
  9.50000000E+02  3.80000000E+01  0.00000000E+00
  9.60000000E+02  3.80000000E+01  0.00000000E+00
  9.70000000E+02  3.80000000E+01  0.00000000E+00
  9.80000000E+02  3.80000000E+01  0.00000000E+00
  9.90000000E+02  3.80000000E+01  0.00000000E+00
  1.00000000E+03  3.80000000E+01  0.00000000E+00
  0.00000000E+00  4.00000000E+01  0.00000000E+00
  1.00000000E+01  4.00000000E+01  0.00000000E+00
  2.00000000E+01  4.00000000E+01  0.00000000E+00
  3.00000000E+01  4.00000000E+01  0.00000000E+00
  4.00000000E+01  4.00000000E+01  0.00000000E+00
  5.00000000E+01  4.00000000E+01  0.00000000E+00
  6.00000000E+01  4.00000000E+01  0.00000000E+00
  7.00000000E+01  4.00000000E+01  0.00000000E+00
  8.00000000E+01  4.00000000E+01  0.00000000E+00
  9.00000000E+01  4.00000000E+01  0.00000000E+00
  1.00000000E+02  4.00000000E+01  0.00000000E+00
  1.10000000E+02  4.00000000E+01  0.00000000E+00
  1.20000000E+02  4.00000000E+01  0.00000000E+00
  1.30000000E+02  4.00000000E+01  0.00000000E+00
  1.40000000E+02  4.00000000E+01  0.00000000E+00
  1.50000000E+02  4.00000000E+01  0.00000000E+00
  1.60000000E+02  4.00000000E+01  0.00000000E+00
  1.70000000E+02  4.00000000E+01  0.00000000E+00
  1.80000000E+02  4.00000000E+01  0.00000000E+00
  1.90000000E+02  4.00000000E+01  0.00000000E+00
  2.00000000E+02  4.00000000E+01  0.00000000E+00
  2.10000000E+02  4.00000000E+01  0.00000000E+00
  2.20000000E+02  4.00000000E+01  0.00000000E+00
  2.30000000E+02  4.00000000E+01  0.00000000E+00
  2.40000000E+02  4.00000000E+01  0.00000000E+00
  2.50000000E+02  4.00000000E+01  0.00000000E+00
  2.60000000E+02  4.00000000E+01  0.00000000E+00
  2.70000000E+02  4.00000000E+01  0.00000000E+00
  2.80000000E+02  4.00000000E+01  0.00000000E+00
  2.90000000E+02  4.00000000E+01  0.00000000E+00
  3.00000000E+02  4.00000000E+01  0.00000000E+00
  3.10000000E+02  4.00000000E+01  0.00000000E+00
  3.20000000E+02  4.00000000E+01  0.00000000E+00
  3.30000000E+02  4.00000000E+01  0.00000000E+00
  3.40000000E+02  4.00000000E+01  0.00000000E+00
  3.50000000E+02  4.00000000E+01  0.00000000E+00
  3.60000000E+02  4.00000000E+01  0.00000000E+00
  3.70000000E+02  4.00000000E+01  0.00000000E+00
  3.80000000E+02  4.00000000E+01  0.00000000E+00
  3.90000000E+02  4.00000000E+01  0.00000000E+00
  4.00000000E+02  4.00000000E+01  0.00000000E+00
  4.10000000E+02  4.00000000E+01  0.00000000E+00
  4.20000000E+02  4.00000000E+01  0.00000000E+00
  4.30000000E+02  4.00000000E+01  0.00000000E+00
  4.40000000E+02  4.00000000E+01  0.00000000E+00
  4.50000000E+02  4.00000000E+01  0.00000000E+00
  4.60000000E+02  4.00000000E+01  0.00000000E+00
  4.70000000E+02  4.00000000E+01  0.00000000E+00
  4.80000000E+02  4.00000000E+01  0.00000000E+00
  4.90000000E+02  4.00000000E+01  0.00000000E+00
  5.00000000E+02  4.00000000E+01  0.00000000E+00
  5.10000000E+02  4.00000000E+01  0.00000000E+00
  5.20000000E+02  4.00000000E+01  0.00000000E+00
  5.30000000E+02  4.00000000E+01  0.00000000E+00
  5.40000000E+02  4.00000000E+01  0.00000000E+00
  5.50000000E+02  4.00000000E+01  0.00000000E+00
  5.60000000E+02  4.00000000E+01  0.00000000E+00
  5.70000000E+02  4.00000000E+01  0.00000000E+00
  5.80000000E+02  4.00000000E+01  0.00000000E+00
  5.90000000E+02  4.00000000E+01  0.00000000E+00
  6.00000000E+02  4.00000000E+01  0.00000000E+00
  6.10000000E+02  4.00000000E+01  0.00000000E+00
  6.20000000E+02  4.00000000E+01  0.00000000E+00
  6.30000000E+02  4.00000000E+01  0.00000000E+00
  6.40000000E+02  4.00000000E+01  0.00000000E+00
  6.50000000E+02  4.00000000E+01  0.00000000E+00
  6.60000000E+02  4.00000000E+01  0.00000000E+00
  6.70000000E+02  4.00000000E+01  0.00000000E+00
  6.80000000E+02  4.00000000E+01  0.00000000E+00
  6.90000000E+02  4.00000000E+01  0.00000000E+00
  7.00000000E+02  4.00000000E+01  0.00000000E+00
  7.10000000E+02  4.00000000E+01  0.00000000E+00
  7.20000000E+02  4.00000000E+01  0.00000000E+00
  7.30000000E+02  4.00000000E+01  0.00000000E+00
  7.40000000E+02  4.00000000E+01  0.00000000E+00
  7.50000000E+02  4.00000000E+01  0.00000000E+00
  7.60000000E+02  4.00000000E+01  0.00000000E+00
  7.70000000E+02  4.00000000E+01  0.00000000E+00
  7.80000000E+02  4.00000000E+01  0.00000000E+00
  7.90000000E+02  4.00000000E+01  0.00000000E+00
  8.00000000E+02  4.00000000E+01  0.00000000E+00
  8.10000000E+02  4.00000000E+01  0.00000000E+00
  8.20000000E+02  4.00000000E+01  0.00000000E+00
  8.30000000E+02  4.00000000E+01  0.00000000E+00
  8.40000000E+02  4.00000000E+01  0.00000000E+00
  8.50000000E+02  4.00000000E+01  0.00000000E+00
  8.60000000E+02  4.00000000E+01  0.00000000E+00
  8.70000000E+02  4.00000000E+01  0.00000000E+00
  8.80000000E+02  4.00000000E+01  0.00000000E+00
  8.90000000E+02  4.00000000E+01  0.00000000E+00
  9.00000000E+02  4.00000000E+01  0.00000000E+00
  9.10000000E+02  4.00000000E+01  0.00000000E+00
  9.20000000E+02  4.00000000E+01  0.00000000E+00
  9.30000000E+02  4.00000000E+01  0.00000000E+00
  9.40000000E+02  4.00000000E+01  0.00000000E+00
  9.50000000E+02  4.00000000E+01  0.00000000E+00
  9.60000000E+02  4.00000000E+01  0.00000000E+00
  9.70000000E+02  4.00000000E+01  0.00000000E+00
  9.80000000E+02  4.00000000E+01  0.00000000E+00
  9.90000000E+02  4.00000000E+01  0.00000000E+00
  1.00000000E+03  4.00000000E+01  0.00000000E+00
  0.00000000E+00  4.20000000E+01  0.00000000E+00
  1.00000000E+01  4.20000000E+01  0.00000000E+00
  2.00000000E+01  4.20000000E+01  0.00000000E+00
  3.00000000E+01  4.20000000E+01  0.00000000E+00
  4.00000000E+01  4.20000000E+01  0.00000000E+00
  5.00000000E+01  4.20000000E+01  0.00000000E+00
  6.00000000E+01  4.20000000E+01  0.00000000E+00
  7.00000000E+01  4.20000000E+01  0.00000000E+00
  8.00000000E+01  4.20000000E+01  0.00000000E+00
  9.00000000E+01  4.20000000E+01  0.00000000E+00
  1.00000000E+02  4.20000000E+01  0.00000000E+00
  1.10000000E+02  4.20000000E+01  0.00000000E+00
  1.20000000E+02  4.20000000E+01  0.00000000E+00
  1.30000000E+02  4.20000000E+01  0.00000000E+00
  1.40000000E+02  4.20000000E+01  0.00000000E+00
  1.50000000E+02  4.20000000E+01  0.00000000E+00
  1.60000000E+02  4.20000000E+01  0.00000000E+00
  1.70000000E+02  4.20000000E+01  0.00000000E+00
  1.80000000E+02  4.20000000E+01  0.00000000E+00
  1.90000000E+02  4.20000000E+01  0.00000000E+00
  2.00000000E+02  4.20000000E+01  0.00000000E+00
  2.10000000E+02  4.20000000E+01  0.00000000E+00
  2.20000000E+02  4.20000000E+01  0.00000000E+00
  2.30000000E+02  4.20000000E+01  0.00000000E+00
  2.40000000E+02  4.20000000E+01  0.00000000E+00
  2.50000000E+02  4.20000000E+01  0.00000000E+00
  2.60000000E+02  4.20000000E+01  0.00000000E+00
  2.70000000E+02  4.20000000E+01  0.00000000E+00
  2.80000000E+02  4.20000000E+01  0.00000000E+00
  2.90000000E+02  4.20000000E+01  0.00000000E+00
  3.00000000E+02  4.20000000E+01  0.00000000E+00
  3.10000000E+02  4.20000000E+01  0.00000000E+00
  3.20000000E+02  4.20000000E+01  0.00000000E+00
  3.30000000E+02  4.20000000E+01  0.00000000E+00
  3.40000000E+02  4.20000000E+01  0.00000000E+00
  3.50000000E+02  4.20000000E+01  0.00000000E+00
  3.60000000E+02  4.20000000E+01  0.00000000E+00
  3.70000000E+02  4.20000000E+01  0.00000000E+00
  3.80000000E+02  4.20000000E+01  0.00000000E+00
  3.90000000E+02  4.20000000E+01  0.00000000E+00
  4.00000000E+02  4.20000000E+01  0.00000000E+00
  4.10000000E+02  4.20000000E+01  0.00000000E+00
  4.20000000E+02  4.20000000E+01  0.00000000E+00
  4.30000000E+02  4.20000000E+01  0.00000000E+00
  4.40000000E+02  4.20000000E+01  0.00000000E+00
  4.50000000E+02  4.20000000E+01  0.00000000E+00
  4.60000000E+02  4.20000000E+01  0.00000000E+00
  4.70000000E+02  4.20000000E+01  0.00000000E+00
  4.80000000E+02  4.20000000E+01  0.00000000E+00
  4.90000000E+02  4.20000000E+01  0.00000000E+00
  5.00000000E+02  4.20000000E+01  0.00000000E+00
  5.10000000E+02  4.20000000E+01  0.00000000E+00
  5.20000000E+02  4.20000000E+01  0.00000000E+00
  5.30000000E+02  4.20000000E+01  0.00000000E+00
  5.40000000E+02  4.20000000E+01  0.00000000E+00
  5.50000000E+02  4.20000000E+01  0.00000000E+00
  5.60000000E+02  4.20000000E+01  0.00000000E+00
  5.70000000E+02  4.20000000E+01  0.00000000E+00
  5.80000000E+02  4.20000000E+01  0.00000000E+00
  5.90000000E+02  4.20000000E+01  0.00000000E+00
  6.00000000E+02  4.20000000E+01  0.00000000E+00
  6.10000000E+02  4.20000000E+01  0.00000000E+00
  6.20000000E+02  4.20000000E+01  0.00000000E+00
  6.30000000E+02  4.20000000E+01  0.00000000E+00
  6.40000000E+02  4.20000000E+01  0.00000000E+00
  6.50000000E+02  4.20000000E+01  0.00000000E+00
  6.60000000E+02  4.20000000E+01  0.00000000E+00
  6.70000000E+02  4.20000000E+01  0.00000000E+00
  6.80000000E+02  4.20000000E+01  0.00000000E+00
  6.90000000E+02  4.20000000E+01  0.00000000E+00
  7.00000000E+02  4.20000000E+01  0.00000000E+00
  7.10000000E+02  4.20000000E+01  0.00000000E+00
  7.20000000E+02  4.20000000E+01  0.00000000E+00
  7.30000000E+02  4.20000000E+01  0.00000000E+00
  7.40000000E+02  4.20000000E+01  0.00000000E+00
  7.50000000E+02  4.20000000E+01  0.00000000E+00
  7.60000000E+02  4.20000000E+01  0.00000000E+00
  7.70000000E+02  4.20000000E+01  0.00000000E+00
  7.80000000E+02  4.20000000E+01  0.00000000E+00
  7.90000000E+02  4.20000000E+01  0.00000000E+00
  8.00000000E+02  4.20000000E+01  0.00000000E+00
  8.10000000E+02  4.20000000E+01  0.00000000E+00
  8.20000000E+02  4.20000000E+01  0.00000000E+00
  8.30000000E+02  4.20000000E+01  0.00000000E+00
  8.40000000E+02  4.20000000E+01  0.00000000E+00
  8.50000000E+02  4.20000000E+01  0.00000000E+00
  8.60000000E+02  4.20000000E+01  0.00000000E+00
  8.70000000E+02  4.20000000E+01  0.00000000E+00
  8.80000000E+02  4.20000000E+01  0.00000000E+00
  8.90000000E+02  4.20000000E+01  0.00000000E+00
  9.00000000E+02  4.20000000E+01  0.00000000E+00
  9.10000000E+02  4.20000000E+01  0.00000000E+00
  9.20000000E+02  4.20000000E+01  0.00000000E+00
  9.30000000E+02  4.20000000E+01  0.00000000E+00
  9.40000000E+02  4.20000000E+01  0.00000000E+00
  9.50000000E+02  4.20000000E+01  0.00000000E+00
  9.60000000E+02  4.20000000E+01  0.00000000E+00
  9.70000000E+02  4.20000000E+01  0.00000000E+00
  9.80000000E+02  4.20000000E+01  0.00000000E+00
  9.90000000E+02  4.20000000E+01  0.00000000E+00
  1.00000000E+03  4.20000000E+01  0.00000000E+00
  0.00000000E+00  4.40000000E+01  0.00000000E+00
  1.00000000E+01  4.40000000E+01  0.00000000E+00
  2.00000000E+01  4.40000000E+01  0.00000000E+00
  3.00000000E+01  4.40000000E+01  0.00000000E+00
  4.00000000E+01  4.40000000E+01  0.00000000E+00
  5.00000000E+01  4.40000000E+01  0.00000000E+00
  6.00000000E+01  4.40000000E+01  0.00000000E+00
  7.00000000E+01  4.40000000E+01  0.00000000E+00
  8.00000000E+01  4.40000000E+01  0.00000000E+00
  9.00000000E+01  4.40000000E+01  0.00000000E+00
  1.00000000E+02  4.40000000E+01  0.00000000E+00
  1.10000000E+02  4.40000000E+01  0.00000000E+00
  1.20000000E+02  4.40000000E+01  0.00000000E+00
  1.30000000E+02  4.40000000E+01  0.00000000E+00
  1.40000000E+02  4.40000000E+01  0.00000000E+00
  1.50000000E+02  4.40000000E+01  0.00000000E+00
  1.60000000E+02  4.40000000E+01  0.00000000E+00
  1.70000000E+02  4.40000000E+01  0.00000000E+00
  1.80000000E+02  4.40000000E+01  0.00000000E+00
  1.90000000E+02  4.40000000E+01  0.00000000E+00
  2.00000000E+02  4.40000000E+01  0.00000000E+00
  2.10000000E+02  4.40000000E+01  0.00000000E+00
  2.20000000E+02  4.40000000E+01  0.00000000E+00
  2.30000000E+02  4.40000000E+01  0.00000000E+00
  2.40000000E+02  4.40000000E+01  0.00000000E+00
  2.50000000E+02  4.40000000E+01  0.00000000E+00
  2.60000000E+02  4.40000000E+01  0.00000000E+00
  2.70000000E+02  4.40000000E+01  0.00000000E+00
  2.80000000E+02  4.40000000E+01  0.00000000E+00
  2.90000000E+02  4.40000000E+01  0.00000000E+00
  3.00000000E+02  4.40000000E+01  0.00000000E+00
  3.10000000E+02  4.40000000E+01  0.00000000E+00
  3.20000000E+02  4.40000000E+01  0.00000000E+00
  3.30000000E+02  4.40000000E+01  0.00000000E+00
  3.40000000E+02  4.40000000E+01  0.00000000E+00
  3.50000000E+02  4.40000000E+01  0.00000000E+00
  3.60000000E+02  4.40000000E+01  0.00000000E+00
  3.70000000E+02  4.40000000E+01  0.00000000E+00
  3.80000000E+02  4.40000000E+01  0.00000000E+00
  3.90000000E+02  4.40000000E+01  0.00000000E+00
  4.00000000E+02  4.40000000E+01  0.00000000E+00
  4.10000000E+02  4.40000000E+01  0.00000000E+00
  4.20000000E+02  4.40000000E+01  0.00000000E+00
  4.30000000E+02  4.40000000E+01  0.00000000E+00
  4.40000000E+02  4.40000000E+01  0.00000000E+00
  4.50000000E+02  4.40000000E+01  0.00000000E+00
  4.60000000E+02  4.40000000E+01  0.00000000E+00
  4.70000000E+02  4.40000000E+01  0.00000000E+00
  4.80000000E+02  4.40000000E+01  0.00000000E+00
  4.90000000E+02  4.40000000E+01  0.00000000E+00
  5.00000000E+02  4.40000000E+01  0.00000000E+00
  5.10000000E+02  4.40000000E+01  0.00000000E+00
  5.20000000E+02  4.40000000E+01  0.00000000E+00
  5.30000000E+02  4.40000000E+01  0.00000000E+00
  5.40000000E+02  4.40000000E+01  0.00000000E+00
  5.50000000E+02  4.40000000E+01  0.00000000E+00
  5.60000000E+02  4.40000000E+01  0.00000000E+00
  5.70000000E+02  4.40000000E+01  0.00000000E+00
  5.80000000E+02  4.40000000E+01  0.00000000E+00
  5.90000000E+02  4.40000000E+01  0.00000000E+00
  6.00000000E+02  4.40000000E+01  0.00000000E+00
  6.10000000E+02  4.40000000E+01  0.00000000E+00
  6.20000000E+02  4.40000000E+01  0.00000000E+00
  6.30000000E+02  4.40000000E+01  0.00000000E+00
  6.40000000E+02  4.40000000E+01  0.00000000E+00
  6.50000000E+02  4.40000000E+01  0.00000000E+00
  6.60000000E+02  4.40000000E+01  0.00000000E+00
  6.70000000E+02  4.40000000E+01  0.00000000E+00
  6.80000000E+02  4.40000000E+01  0.00000000E+00
  6.90000000E+02  4.40000000E+01  0.00000000E+00
  7.00000000E+02  4.40000000E+01  0.00000000E+00
  7.10000000E+02  4.40000000E+01  0.00000000E+00
  7.20000000E+02  4.40000000E+01  0.00000000E+00
  7.30000000E+02  4.40000000E+01  0.00000000E+00
  7.40000000E+02  4.40000000E+01  0.00000000E+00
  7.50000000E+02  4.40000000E+01  0.00000000E+00
  7.60000000E+02  4.40000000E+01  0.00000000E+00
  7.70000000E+02  4.40000000E+01  0.00000000E+00
  7.80000000E+02  4.40000000E+01  0.00000000E+00
  7.90000000E+02  4.40000000E+01  0.00000000E+00
  8.00000000E+02  4.40000000E+01  0.00000000E+00
  8.10000000E+02  4.40000000E+01  0.00000000E+00
  8.20000000E+02  4.40000000E+01  0.00000000E+00
  8.30000000E+02  4.40000000E+01  0.00000000E+00
  8.40000000E+02  4.40000000E+01  0.00000000E+00
  8.50000000E+02  4.40000000E+01  0.00000000E+00
  8.60000000E+02  4.40000000E+01  0.00000000E+00
  8.70000000E+02  4.40000000E+01  0.00000000E+00
  8.80000000E+02  4.40000000E+01  0.00000000E+00
  8.90000000E+02  4.40000000E+01  0.00000000E+00
  9.00000000E+02  4.40000000E+01  0.00000000E+00
  9.10000000E+02  4.40000000E+01  0.00000000E+00
  9.20000000E+02  4.40000000E+01  0.00000000E+00
  9.30000000E+02  4.40000000E+01  0.00000000E+00
  9.40000000E+02  4.40000000E+01  0.00000000E+00
  9.50000000E+02  4.40000000E+01  0.00000000E+00
  9.60000000E+02  4.40000000E+01  0.00000000E+00
  9.70000000E+02  4.40000000E+01  0.00000000E+00
  9.80000000E+02  4.40000000E+01  0.00000000E+00
  9.90000000E+02  4.40000000E+01  0.00000000E+00
  1.00000000E+03  4.40000000E+01  0.00000000E+00
  0.00000000E+00  4.60000000E+01  0.00000000E+00
  1.00000000E+01  4.60000000E+01  0.00000000E+00
  2.00000000E+01  4.60000000E+01  0.00000000E+00
  3.00000000E+01  4.60000000E+01  0.00000000E+00
  4.00000000E+01  4.60000000E+01  0.00000000E+00
  5.00000000E+01  4.60000000E+01  0.00000000E+00
  6.00000000E+01  4.60000000E+01  0.00000000E+00
  7.00000000E+01  4.60000000E+01  0.00000000E+00
  8.00000000E+01  4.60000000E+01  0.00000000E+00
  9.00000000E+01  4.60000000E+01  0.00000000E+00
  1.00000000E+02  4.60000000E+01  0.00000000E+00
  1.10000000E+02  4.60000000E+01  0.00000000E+00
  1.20000000E+02  4.60000000E+01  0.00000000E+00
  1.30000000E+02  4.60000000E+01  0.00000000E+00
  1.40000000E+02  4.60000000E+01  0.00000000E+00
  1.50000000E+02  4.60000000E+01  0.00000000E+00
  1.60000000E+02  4.60000000E+01  0.00000000E+00
  1.70000000E+02  4.60000000E+01  0.00000000E+00
  1.80000000E+02  4.60000000E+01  0.00000000E+00
  1.90000000E+02  4.60000000E+01  0.00000000E+00
  2.00000000E+02  4.60000000E+01  0.00000000E+00
  2.10000000E+02  4.60000000E+01  0.00000000E+00
  2.20000000E+02  4.60000000E+01  0.00000000E+00
  2.30000000E+02  4.60000000E+01  0.00000000E+00
  2.40000000E+02  4.60000000E+01  0.00000000E+00
  2.50000000E+02  4.60000000E+01  0.00000000E+00
  2.60000000E+02  4.60000000E+01  0.00000000E+00
  2.70000000E+02  4.60000000E+01  0.00000000E+00
  2.80000000E+02  4.60000000E+01  0.00000000E+00
  2.90000000E+02  4.60000000E+01  0.00000000E+00
  3.00000000E+02  4.60000000E+01  0.00000000E+00
  3.10000000E+02  4.60000000E+01  0.00000000E+00
  3.20000000E+02  4.60000000E+01  0.00000000E+00
  3.30000000E+02  4.60000000E+01  0.00000000E+00
  3.40000000E+02  4.60000000E+01  0.00000000E+00
  3.50000000E+02  4.60000000E+01  0.00000000E+00
  3.60000000E+02  4.60000000E+01  0.00000000E+00
  3.70000000E+02  4.60000000E+01  0.00000000E+00
  3.80000000E+02  4.60000000E+01  0.00000000E+00
  3.90000000E+02  4.60000000E+01  0.00000000E+00
  4.00000000E+02  4.60000000E+01  0.00000000E+00
  4.10000000E+02  4.60000000E+01  0.00000000E+00
  4.20000000E+02  4.60000000E+01  0.00000000E+00
  4.30000000E+02  4.60000000E+01  0.00000000E+00
  4.40000000E+02  4.60000000E+01  0.00000000E+00
  4.50000000E+02  4.60000000E+01  0.00000000E+00
  4.60000000E+02  4.60000000E+01  0.00000000E+00
  4.70000000E+02  4.60000000E+01  0.00000000E+00
  4.80000000E+02  4.60000000E+01  0.00000000E+00
  4.90000000E+02  4.60000000E+01  0.00000000E+00
  5.00000000E+02  4.60000000E+01  0.00000000E+00
  5.10000000E+02  4.60000000E+01  0.00000000E+00
  5.20000000E+02  4.60000000E+01  0.00000000E+00
  5.30000000E+02  4.60000000E+01  0.00000000E+00
  5.40000000E+02  4.60000000E+01  0.00000000E+00
  5.50000000E+02  4.60000000E+01  0.00000000E+00
  5.60000000E+02  4.60000000E+01  0.00000000E+00
  5.70000000E+02  4.60000000E+01  0.00000000E+00
  5.80000000E+02  4.60000000E+01  0.00000000E+00
  5.90000000E+02  4.60000000E+01  0.00000000E+00
  6.00000000E+02  4.60000000E+01  0.00000000E+00
  6.10000000E+02  4.60000000E+01  0.00000000E+00
  6.20000000E+02  4.60000000E+01  0.00000000E+00
  6.30000000E+02  4.60000000E+01  0.00000000E+00
  6.40000000E+02  4.60000000E+01  0.00000000E+00
  6.50000000E+02  4.60000000E+01  0.00000000E+00
  6.60000000E+02  4.60000000E+01  0.00000000E+00
  6.70000000E+02  4.60000000E+01  0.00000000E+00
  6.80000000E+02  4.60000000E+01  0.00000000E+00
  6.90000000E+02  4.60000000E+01  0.00000000E+00
  7.00000000E+02  4.60000000E+01  0.00000000E+00
  7.10000000E+02  4.60000000E+01  0.00000000E+00
  7.20000000E+02  4.60000000E+01  0.00000000E+00
  7.30000000E+02  4.60000000E+01  0.00000000E+00
  7.40000000E+02  4.60000000E+01  0.00000000E+00
  7.50000000E+02  4.60000000E+01  0.00000000E+00
  7.60000000E+02  4.60000000E+01  0.00000000E+00
  7.70000000E+02  4.60000000E+01  0.00000000E+00
  7.80000000E+02  4.60000000E+01  0.00000000E+00
  7.90000000E+02  4.60000000E+01  0.00000000E+00
  8.00000000E+02  4.60000000E+01  0.00000000E+00
  8.10000000E+02  4.60000000E+01  0.00000000E+00
  8.20000000E+02  4.60000000E+01  0.00000000E+00
  8.30000000E+02  4.60000000E+01  0.00000000E+00
  8.40000000E+02  4.60000000E+01  0.00000000E+00
  8.50000000E+02  4.60000000E+01  0.00000000E+00
  8.60000000E+02  4.60000000E+01  0.00000000E+00
  8.70000000E+02  4.60000000E+01  0.00000000E+00
  8.80000000E+02  4.60000000E+01  0.00000000E+00
  8.90000000E+02  4.60000000E+01  0.00000000E+00
  9.00000000E+02  4.60000000E+01  0.00000000E+00
  9.10000000E+02  4.60000000E+01  0.00000000E+00
  9.20000000E+02  4.60000000E+01  0.00000000E+00
  9.30000000E+02  4.60000000E+01  0.00000000E+00
  9.40000000E+02  4.60000000E+01  0.00000000E+00
  9.50000000E+02  4.60000000E+01  0.00000000E+00
  9.60000000E+02  4.60000000E+01  0.00000000E+00
  9.70000000E+02  4.60000000E+01  0.00000000E+00
  9.80000000E+02  4.60000000E+01  0.00000000E+00
  9.90000000E+02  4.60000000E+01  0.00000000E+00
  1.00000000E+03  4.60000000E+01  0.00000000E+00
  0.00000000E+00  4.80000000E+01  0.00000000E+00
  1.00000000E+01  4.80000000E+01  0.00000000E+00
  2.00000000E+01  4.80000000E+01  0.00000000E+00
  3.00000000E+01  4.80000000E+01  0.00000000E+00
  4.00000000E+01  4.80000000E+01  0.00000000E+00
  5.00000000E+01  4.80000000E+01  0.00000000E+00
  6.00000000E+01  4.80000000E+01  0.00000000E+00
  7.00000000E+01  4.80000000E+01  0.00000000E+00
  8.00000000E+01  4.80000000E+01  0.00000000E+00
  9.00000000E+01  4.80000000E+01  0.00000000E+00
  1.00000000E+02  4.80000000E+01  0.00000000E+00
  1.10000000E+02  4.80000000E+01  0.00000000E+00
  1.20000000E+02  4.80000000E+01  0.00000000E+00
  1.30000000E+02  4.80000000E+01  0.00000000E+00
  1.40000000E+02  4.80000000E+01  0.00000000E+00
  1.50000000E+02  4.80000000E+01  0.00000000E+00
  1.60000000E+02  4.80000000E+01  0.00000000E+00
  1.70000000E+02  4.80000000E+01  0.00000000E+00
  1.80000000E+02  4.80000000E+01  0.00000000E+00
  1.90000000E+02  4.80000000E+01  0.00000000E+00
  2.00000000E+02  4.80000000E+01  0.00000000E+00
  2.10000000E+02  4.80000000E+01  0.00000000E+00
  2.20000000E+02  4.80000000E+01  0.00000000E+00
  2.30000000E+02  4.80000000E+01  0.00000000E+00
  2.40000000E+02  4.80000000E+01  0.00000000E+00
  2.50000000E+02  4.80000000E+01  0.00000000E+00
  2.60000000E+02  4.80000000E+01  0.00000000E+00
  2.70000000E+02  4.80000000E+01  0.00000000E+00
  2.80000000E+02  4.80000000E+01  0.00000000E+00
  2.90000000E+02  4.80000000E+01  0.00000000E+00
  3.00000000E+02  4.80000000E+01  0.00000000E+00
  3.10000000E+02  4.80000000E+01  0.00000000E+00
  3.20000000E+02  4.80000000E+01  0.00000000E+00
  3.30000000E+02  4.80000000E+01  0.00000000E+00
  3.40000000E+02  4.80000000E+01  0.00000000E+00
  3.50000000E+02  4.80000000E+01  0.00000000E+00
  3.60000000E+02  4.80000000E+01  0.00000000E+00
  3.70000000E+02  4.80000000E+01  0.00000000E+00
  3.80000000E+02  4.80000000E+01  0.00000000E+00
  3.90000000E+02  4.80000000E+01  0.00000000E+00
  4.00000000E+02  4.80000000E+01  0.00000000E+00
  4.10000000E+02  4.80000000E+01  0.00000000E+00
  4.20000000E+02  4.80000000E+01  0.00000000E+00
  4.30000000E+02  4.80000000E+01  0.00000000E+00
  4.40000000E+02  4.80000000E+01  0.00000000E+00
  4.50000000E+02  4.80000000E+01  0.00000000E+00
  4.60000000E+02  4.80000000E+01  0.00000000E+00
  4.70000000E+02  4.80000000E+01  0.00000000E+00
  4.80000000E+02  4.80000000E+01  0.00000000E+00
  4.90000000E+02  4.80000000E+01  0.00000000E+00
  5.00000000E+02  4.80000000E+01  0.00000000E+00
  5.10000000E+02  4.80000000E+01  0.00000000E+00
  5.20000000E+02  4.80000000E+01  0.00000000E+00
  5.30000000E+02  4.80000000E+01  0.00000000E+00
  5.40000000E+02  4.80000000E+01  0.00000000E+00
  5.50000000E+02  4.80000000E+01  0.00000000E+00
  5.60000000E+02  4.80000000E+01  0.00000000E+00
  5.70000000E+02  4.80000000E+01  0.00000000E+00
  5.80000000E+02  4.80000000E+01  0.00000000E+00
  5.90000000E+02  4.80000000E+01  0.00000000E+00
  6.00000000E+02  4.80000000E+01  0.00000000E+00
  6.10000000E+02  4.80000000E+01  0.00000000E+00
  6.20000000E+02  4.80000000E+01  0.00000000E+00
  6.30000000E+02  4.80000000E+01  0.00000000E+00
  6.40000000E+02  4.80000000E+01  0.00000000E+00
  6.50000000E+02  4.80000000E+01  0.00000000E+00
  6.60000000E+02  4.80000000E+01  0.00000000E+00
  6.70000000E+02  4.80000000E+01  0.00000000E+00
  6.80000000E+02  4.80000000E+01  0.00000000E+00
  6.90000000E+02  4.80000000E+01  0.00000000E+00
  7.00000000E+02  4.80000000E+01  0.00000000E+00
  7.10000000E+02  4.80000000E+01  0.00000000E+00
  7.20000000E+02  4.80000000E+01  0.00000000E+00
  7.30000000E+02  4.80000000E+01  0.00000000E+00
  7.40000000E+02  4.80000000E+01  0.00000000E+00
  7.50000000E+02  4.80000000E+01  0.00000000E+00
  7.60000000E+02  4.80000000E+01  0.00000000E+00
  7.70000000E+02  4.80000000E+01  0.00000000E+00
  7.80000000E+02  4.80000000E+01  0.00000000E+00
  7.90000000E+02  4.80000000E+01  0.00000000E+00
  8.00000000E+02  4.80000000E+01  0.00000000E+00
  8.10000000E+02  4.80000000E+01  0.00000000E+00
  8.20000000E+02  4.80000000E+01  0.00000000E+00
  8.30000000E+02  4.80000000E+01  0.00000000E+00
  8.40000000E+02  4.80000000E+01  0.00000000E+00
  8.50000000E+02  4.80000000E+01  0.00000000E+00
  8.60000000E+02  4.80000000E+01  0.00000000E+00
  8.70000000E+02  4.80000000E+01  0.00000000E+00
  8.80000000E+02  4.80000000E+01  0.00000000E+00
  8.90000000E+02  4.80000000E+01  0.00000000E+00
  9.00000000E+02  4.80000000E+01  0.00000000E+00
  9.10000000E+02  4.80000000E+01  0.00000000E+00
  9.20000000E+02  4.80000000E+01  0.00000000E+00
  9.30000000E+02  4.80000000E+01  0.00000000E+00
  9.40000000E+02  4.80000000E+01  0.00000000E+00
  9.50000000E+02  4.80000000E+01  0.00000000E+00
  9.60000000E+02  4.80000000E+01  0.00000000E+00
  9.70000000E+02  4.80000000E+01  0.00000000E+00
  9.80000000E+02  4.80000000E+01  0.00000000E+00
  9.90000000E+02  4.80000000E+01  0.00000000E+00
  1.00000000E+03  4.80000000E+01  0.00000000E+00
  0.00000000E+00  5.00000000E+01  0.00000000E+00
  1.00000000E+01  5.00000000E+01  0.00000000E+00
  2.00000000E+01  5.00000000E+01  0.00000000E+00
  3.00000000E+01  5.00000000E+01  0.00000000E+00
  4.00000000E+01  5.00000000E+01  0.00000000E+00
  5.00000000E+01  5.00000000E+01  0.00000000E+00
  6.00000000E+01  5.00000000E+01  0.00000000E+00
  7.00000000E+01  5.00000000E+01  0.00000000E+00
  8.00000000E+01  5.00000000E+01  0.00000000E+00
  9.00000000E+01  5.00000000E+01  0.00000000E+00
  1.00000000E+02  5.00000000E+01  0.00000000E+00
  1.10000000E+02  5.00000000E+01  0.00000000E+00
  1.20000000E+02  5.00000000E+01  0.00000000E+00
  1.30000000E+02  5.00000000E+01  0.00000000E+00
  1.40000000E+02  5.00000000E+01  0.00000000E+00
  1.50000000E+02  5.00000000E+01  0.00000000E+00
  1.60000000E+02  5.00000000E+01  0.00000000E+00
  1.70000000E+02  5.00000000E+01  0.00000000E+00
  1.80000000E+02  5.00000000E+01  0.00000000E+00
  1.90000000E+02  5.00000000E+01  0.00000000E+00
  2.00000000E+02  5.00000000E+01  0.00000000E+00
  2.10000000E+02  5.00000000E+01  0.00000000E+00
  2.20000000E+02  5.00000000E+01  0.00000000E+00
  2.30000000E+02  5.00000000E+01  0.00000000E+00
  2.40000000E+02  5.00000000E+01  0.00000000E+00
  2.50000000E+02  5.00000000E+01  0.00000000E+00
  2.60000000E+02  5.00000000E+01  0.00000000E+00
  2.70000000E+02  5.00000000E+01  0.00000000E+00
  2.80000000E+02  5.00000000E+01  0.00000000E+00
  2.90000000E+02  5.00000000E+01  0.00000000E+00
  3.00000000E+02  5.00000000E+01  0.00000000E+00
  3.10000000E+02  5.00000000E+01  0.00000000E+00
  3.20000000E+02  5.00000000E+01  0.00000000E+00
  3.30000000E+02  5.00000000E+01  0.00000000E+00
  3.40000000E+02  5.00000000E+01  0.00000000E+00
  3.50000000E+02  5.00000000E+01  0.00000000E+00
  3.60000000E+02  5.00000000E+01  0.00000000E+00
  3.70000000E+02  5.00000000E+01  0.00000000E+00
  3.80000000E+02  5.00000000E+01  0.00000000E+00
  3.90000000E+02  5.00000000E+01  0.00000000E+00
  4.00000000E+02  5.00000000E+01  0.00000000E+00
  4.10000000E+02  5.00000000E+01  0.00000000E+00
  4.20000000E+02  5.00000000E+01  0.00000000E+00
  4.30000000E+02  5.00000000E+01  0.00000000E+00
  4.40000000E+02  5.00000000E+01  0.00000000E+00
  4.50000000E+02  5.00000000E+01  0.00000000E+00
  4.60000000E+02  5.00000000E+01  0.00000000E+00
  4.70000000E+02  5.00000000E+01  0.00000000E+00
  4.80000000E+02  5.00000000E+01  0.00000000E+00
  4.90000000E+02  5.00000000E+01  0.00000000E+00
  5.00000000E+02  5.00000000E+01  0.00000000E+00
  5.10000000E+02  5.00000000E+01  0.00000000E+00
  5.20000000E+02  5.00000000E+01  0.00000000E+00
  5.30000000E+02  5.00000000E+01  0.00000000E+00
  5.40000000E+02  5.00000000E+01  0.00000000E+00
  5.50000000E+02  5.00000000E+01  0.00000000E+00
  5.60000000E+02  5.00000000E+01  0.00000000E+00
  5.70000000E+02  5.00000000E+01  0.00000000E+00
  5.80000000E+02  5.00000000E+01  0.00000000E+00
  5.90000000E+02  5.00000000E+01  0.00000000E+00
  6.00000000E+02  5.00000000E+01  0.00000000E+00
  6.10000000E+02  5.00000000E+01  0.00000000E+00
  6.20000000E+02  5.00000000E+01  0.00000000E+00
  6.30000000E+02  5.00000000E+01  0.00000000E+00
  6.40000000E+02  5.00000000E+01  0.00000000E+00
  6.50000000E+02  5.00000000E+01  0.00000000E+00
  6.60000000E+02  5.00000000E+01  0.00000000E+00
  6.70000000E+02  5.00000000E+01  0.00000000E+00
  6.80000000E+02  5.00000000E+01  0.00000000E+00
  6.90000000E+02  5.00000000E+01  0.00000000E+00
  7.00000000E+02  5.00000000E+01  0.00000000E+00
  7.10000000E+02  5.00000000E+01  0.00000000E+00
  7.20000000E+02  5.00000000E+01  0.00000000E+00
  7.30000000E+02  5.00000000E+01  0.00000000E+00
  7.40000000E+02  5.00000000E+01  0.00000000E+00
  7.50000000E+02  5.00000000E+01  0.00000000E+00
  7.60000000E+02  5.00000000E+01  0.00000000E+00
  7.70000000E+02  5.00000000E+01  0.00000000E+00
  7.80000000E+02  5.00000000E+01  0.00000000E+00
  7.90000000E+02  5.00000000E+01  0.00000000E+00
  8.00000000E+02  5.00000000E+01  0.00000000E+00
  8.10000000E+02  5.00000000E+01  0.00000000E+00
  8.20000000E+02  5.00000000E+01  0.00000000E+00
  8.30000000E+02  5.00000000E+01  0.00000000E+00
  8.40000000E+02  5.00000000E+01  0.00000000E+00
  8.50000000E+02  5.00000000E+01  0.00000000E+00
  8.60000000E+02  5.00000000E+01  0.00000000E+00
  8.70000000E+02  5.00000000E+01  0.00000000E+00
  8.80000000E+02  5.00000000E+01  0.00000000E+00
  8.90000000E+02  5.00000000E+01  0.00000000E+00
  9.00000000E+02  5.00000000E+01  0.00000000E+00
  9.10000000E+02  5.00000000E+01  0.00000000E+00
  9.20000000E+02  5.00000000E+01  0.00000000E+00
  9.30000000E+02  5.00000000E+01  0.00000000E+00
  9.40000000E+02  5.00000000E+01  0.00000000E+00
  9.50000000E+02  5.00000000E+01  0.00000000E+00
  9.60000000E+02  5.00000000E+01  0.00000000E+00
  9.70000000E+02  5.00000000E+01  0.00000000E+00
  9.80000000E+02  5.00000000E+01  0.00000000E+00
  9.90000000E+02  5.00000000E+01  0.00000000E+00
  1.00000000E+03  5.00000000E+01  0.00000000E+00
  0.00000000E+00  5.20000000E+01  0.00000000E+00
  1.00000000E+01  5.20000000E+01  0.00000000E+00
  2.00000000E+01  5.20000000E+01  0.00000000E+00
  3.00000000E+01  5.20000000E+01  0.00000000E+00
  4.00000000E+01  5.20000000E+01  0.00000000E+00
  5.00000000E+01  5.20000000E+01  0.00000000E+00
  6.00000000E+01  5.20000000E+01  0.00000000E+00
  7.00000000E+01  5.20000000E+01  0.00000000E+00
  8.00000000E+01  5.20000000E+01  0.00000000E+00
  9.00000000E+01  5.20000000E+01  0.00000000E+00
  1.00000000E+02  5.20000000E+01  0.00000000E+00
  1.10000000E+02  5.20000000E+01  0.00000000E+00
  1.20000000E+02  5.20000000E+01  0.00000000E+00
  1.30000000E+02  5.20000000E+01  0.00000000E+00
  1.40000000E+02  5.20000000E+01  0.00000000E+00
  1.50000000E+02  5.20000000E+01  0.00000000E+00
  1.60000000E+02  5.20000000E+01  0.00000000E+00
  1.70000000E+02  5.20000000E+01  0.00000000E+00
  1.80000000E+02  5.20000000E+01  0.00000000E+00
  1.90000000E+02  5.20000000E+01  0.00000000E+00
  2.00000000E+02  5.20000000E+01  0.00000000E+00
  2.10000000E+02  5.20000000E+01  0.00000000E+00
  2.20000000E+02  5.20000000E+01  0.00000000E+00
  2.30000000E+02  5.20000000E+01  0.00000000E+00
  2.40000000E+02  5.20000000E+01  0.00000000E+00
  2.50000000E+02  5.20000000E+01  0.00000000E+00
  2.60000000E+02  5.20000000E+01  0.00000000E+00
  2.70000000E+02  5.20000000E+01  0.00000000E+00
  2.80000000E+02  5.20000000E+01  0.00000000E+00
  2.90000000E+02  5.20000000E+01  0.00000000E+00
  3.00000000E+02  5.20000000E+01  0.00000000E+00
  3.10000000E+02  5.20000000E+01  0.00000000E+00
  3.20000000E+02  5.20000000E+01  0.00000000E+00
  3.30000000E+02  5.20000000E+01  0.00000000E+00
  3.40000000E+02  5.20000000E+01  0.00000000E+00
  3.50000000E+02  5.20000000E+01  0.00000000E+00
  3.60000000E+02  5.20000000E+01  0.00000000E+00
  3.70000000E+02  5.20000000E+01  0.00000000E+00
  3.80000000E+02  5.20000000E+01  0.00000000E+00
  3.90000000E+02  5.20000000E+01  0.00000000E+00
  4.00000000E+02  5.20000000E+01  0.00000000E+00
  4.10000000E+02  5.20000000E+01  0.00000000E+00
  4.20000000E+02  5.20000000E+01  0.00000000E+00
  4.30000000E+02  5.20000000E+01  0.00000000E+00
  4.40000000E+02  5.20000000E+01  0.00000000E+00
  4.50000000E+02  5.20000000E+01  0.00000000E+00
  4.60000000E+02  5.20000000E+01  0.00000000E+00
  4.70000000E+02  5.20000000E+01  0.00000000E+00
  4.80000000E+02  5.20000000E+01  0.00000000E+00
  4.90000000E+02  5.20000000E+01  0.00000000E+00
  5.00000000E+02  5.20000000E+01  0.00000000E+00
  5.10000000E+02  5.20000000E+01  0.00000000E+00
  5.20000000E+02  5.20000000E+01  0.00000000E+00
  5.30000000E+02  5.20000000E+01  0.00000000E+00
  5.40000000E+02  5.20000000E+01  0.00000000E+00
  5.50000000E+02  5.20000000E+01  0.00000000E+00
  5.60000000E+02  5.20000000E+01  0.00000000E+00
  5.70000000E+02  5.20000000E+01  0.00000000E+00
  5.80000000E+02  5.20000000E+01  0.00000000E+00
  5.90000000E+02  5.20000000E+01  0.00000000E+00
  6.00000000E+02  5.20000000E+01  0.00000000E+00
  6.10000000E+02  5.20000000E+01  0.00000000E+00
  6.20000000E+02  5.20000000E+01  0.00000000E+00
  6.30000000E+02  5.20000000E+01  0.00000000E+00
  6.40000000E+02  5.20000000E+01  0.00000000E+00
  6.50000000E+02  5.20000000E+01  0.00000000E+00
  6.60000000E+02  5.20000000E+01  0.00000000E+00
  6.70000000E+02  5.20000000E+01  0.00000000E+00
  6.80000000E+02  5.20000000E+01  0.00000000E+00
  6.90000000E+02  5.20000000E+01  0.00000000E+00
  7.00000000E+02  5.20000000E+01  0.00000000E+00
  7.10000000E+02  5.20000000E+01  0.00000000E+00
  7.20000000E+02  5.20000000E+01  0.00000000E+00
  7.30000000E+02  5.20000000E+01  0.00000000E+00
  7.40000000E+02  5.20000000E+01  0.00000000E+00
  7.50000000E+02  5.20000000E+01  0.00000000E+00
  7.60000000E+02  5.20000000E+01  0.00000000E+00
  7.70000000E+02  5.20000000E+01  0.00000000E+00
  7.80000000E+02  5.20000000E+01  0.00000000E+00
  7.90000000E+02  5.20000000E+01  0.00000000E+00
  8.00000000E+02  5.20000000E+01  0.00000000E+00
  8.10000000E+02  5.20000000E+01  0.00000000E+00
  8.20000000E+02  5.20000000E+01  0.00000000E+00
  8.30000000E+02  5.20000000E+01  0.00000000E+00
  8.40000000E+02  5.20000000E+01  0.00000000E+00
  8.50000000E+02  5.20000000E+01  0.00000000E+00
  8.60000000E+02  5.20000000E+01  0.00000000E+00
  8.70000000E+02  5.20000000E+01  0.00000000E+00
  8.80000000E+02  5.20000000E+01  0.00000000E+00
  8.90000000E+02  5.20000000E+01  0.00000000E+00
  9.00000000E+02  5.20000000E+01  0.00000000E+00
  9.10000000E+02  5.20000000E+01  0.00000000E+00
  9.20000000E+02  5.20000000E+01  0.00000000E+00
  9.30000000E+02  5.20000000E+01  0.00000000E+00
  9.40000000E+02  5.20000000E+01  0.00000000E+00
  9.50000000E+02  5.20000000E+01  0.00000000E+00
  9.60000000E+02  5.20000000E+01  0.00000000E+00
  9.70000000E+02  5.20000000E+01  0.00000000E+00
  9.80000000E+02  5.20000000E+01  0.00000000E+00
  9.90000000E+02  5.20000000E+01  0.00000000E+00
  1.00000000E+03  5.20000000E+01  0.00000000E+00
  0.00000000E+00  5.40000000E+01  0.00000000E+00
  1.00000000E+01  5.40000000E+01  0.00000000E+00
  2.00000000E+01  5.40000000E+01  0.00000000E+00
  3.00000000E+01  5.40000000E+01  0.00000000E+00
  4.00000000E+01  5.40000000E+01  0.00000000E+00
  5.00000000E+01  5.40000000E+01  0.00000000E+00
  6.00000000E+01  5.40000000E+01  0.00000000E+00
  7.00000000E+01  5.40000000E+01  0.00000000E+00
  8.00000000E+01  5.40000000E+01  0.00000000E+00
  9.00000000E+01  5.40000000E+01  0.00000000E+00
  1.00000000E+02  5.40000000E+01  0.00000000E+00
  1.10000000E+02  5.40000000E+01  0.00000000E+00
  1.20000000E+02  5.40000000E+01  0.00000000E+00
  1.30000000E+02  5.40000000E+01  0.00000000E+00
  1.40000000E+02  5.40000000E+01  0.00000000E+00
  1.50000000E+02  5.40000000E+01  0.00000000E+00
  1.60000000E+02  5.40000000E+01  0.00000000E+00
  1.70000000E+02  5.40000000E+01  0.00000000E+00
  1.80000000E+02  5.40000000E+01  0.00000000E+00
  1.90000000E+02  5.40000000E+01  0.00000000E+00
  2.00000000E+02  5.40000000E+01  0.00000000E+00
  2.10000000E+02  5.40000000E+01  0.00000000E+00
  2.20000000E+02  5.40000000E+01  0.00000000E+00
  2.30000000E+02  5.40000000E+01  0.00000000E+00
  2.40000000E+02  5.40000000E+01  0.00000000E+00
  2.50000000E+02  5.40000000E+01  0.00000000E+00
  2.60000000E+02  5.40000000E+01  0.00000000E+00
  2.70000000E+02  5.40000000E+01  0.00000000E+00
  2.80000000E+02  5.40000000E+01  0.00000000E+00
  2.90000000E+02  5.40000000E+01  0.00000000E+00
  3.00000000E+02  5.40000000E+01  0.00000000E+00
  3.10000000E+02  5.40000000E+01  0.00000000E+00
  3.20000000E+02  5.40000000E+01  0.00000000E+00
  3.30000000E+02  5.40000000E+01  0.00000000E+00
  3.40000000E+02  5.40000000E+01  0.00000000E+00
  3.50000000E+02  5.40000000E+01  0.00000000E+00
  3.60000000E+02  5.40000000E+01  0.00000000E+00
  3.70000000E+02  5.40000000E+01  0.00000000E+00
  3.80000000E+02  5.40000000E+01  0.00000000E+00
  3.90000000E+02  5.40000000E+01  0.00000000E+00
  4.00000000E+02  5.40000000E+01  0.00000000E+00
  4.10000000E+02  5.40000000E+01  0.00000000E+00
  4.20000000E+02  5.40000000E+01  0.00000000E+00
  4.30000000E+02  5.40000000E+01  0.00000000E+00
  4.40000000E+02  5.40000000E+01  0.00000000E+00
  4.50000000E+02  5.40000000E+01  0.00000000E+00
  4.60000000E+02  5.40000000E+01  0.00000000E+00
  4.70000000E+02  5.40000000E+01  0.00000000E+00
  4.80000000E+02  5.40000000E+01  0.00000000E+00
  4.90000000E+02  5.40000000E+01  0.00000000E+00
  5.00000000E+02  5.40000000E+01  0.00000000E+00
  5.10000000E+02  5.40000000E+01  0.00000000E+00
  5.20000000E+02  5.40000000E+01  0.00000000E+00
  5.30000000E+02  5.40000000E+01  0.00000000E+00
  5.40000000E+02  5.40000000E+01  0.00000000E+00
  5.50000000E+02  5.40000000E+01  0.00000000E+00
  5.60000000E+02  5.40000000E+01  0.00000000E+00
  5.70000000E+02  5.40000000E+01  0.00000000E+00
  5.80000000E+02  5.40000000E+01  0.00000000E+00
  5.90000000E+02  5.40000000E+01  0.00000000E+00
  6.00000000E+02  5.40000000E+01  0.00000000E+00
  6.10000000E+02  5.40000000E+01  0.00000000E+00
  6.20000000E+02  5.40000000E+01  0.00000000E+00
  6.30000000E+02  5.40000000E+01  0.00000000E+00
  6.40000000E+02  5.40000000E+01  0.00000000E+00
  6.50000000E+02  5.40000000E+01  0.00000000E+00
  6.60000000E+02  5.40000000E+01  0.00000000E+00
  6.70000000E+02  5.40000000E+01  0.00000000E+00
  6.80000000E+02  5.40000000E+01  0.00000000E+00
  6.90000000E+02  5.40000000E+01  0.00000000E+00
  7.00000000E+02  5.40000000E+01  0.00000000E+00
  7.10000000E+02  5.40000000E+01  0.00000000E+00
  7.20000000E+02  5.40000000E+01  0.00000000E+00
  7.30000000E+02  5.40000000E+01  0.00000000E+00
  7.40000000E+02  5.40000000E+01  0.00000000E+00
  7.50000000E+02  5.40000000E+01  0.00000000E+00
  7.60000000E+02  5.40000000E+01  0.00000000E+00
  7.70000000E+02  5.40000000E+01  0.00000000E+00
  7.80000000E+02  5.40000000E+01  0.00000000E+00
  7.90000000E+02  5.40000000E+01  0.00000000E+00
  8.00000000E+02  5.40000000E+01  0.00000000E+00
  8.10000000E+02  5.40000000E+01  0.00000000E+00
  8.20000000E+02  5.40000000E+01  0.00000000E+00
  8.30000000E+02  5.40000000E+01  0.00000000E+00
  8.40000000E+02  5.40000000E+01  0.00000000E+00
  8.50000000E+02  5.40000000E+01  0.00000000E+00
  8.60000000E+02  5.40000000E+01  0.00000000E+00
  8.70000000E+02  5.40000000E+01  0.00000000E+00
  8.80000000E+02  5.40000000E+01  0.00000000E+00
  8.90000000E+02  5.40000000E+01  0.00000000E+00
  9.00000000E+02  5.40000000E+01  0.00000000E+00
  9.10000000E+02  5.40000000E+01  0.00000000E+00
  9.20000000E+02  5.40000000E+01  0.00000000E+00
  9.30000000E+02  5.40000000E+01  0.00000000E+00
  9.40000000E+02  5.40000000E+01  0.00000000E+00
  9.50000000E+02  5.40000000E+01  0.00000000E+00
  9.60000000E+02  5.40000000E+01  0.00000000E+00
  9.70000000E+02  5.40000000E+01  0.00000000E+00
  9.80000000E+02  5.40000000E+01  0.00000000E+00
  9.90000000E+02  5.40000000E+01  0.00000000E+00
  1.00000000E+03  5.40000000E+01  0.00000000E+00
  0.00000000E+00  5.60000000E+01  0.00000000E+00
  1.00000000E+01  5.60000000E+01  0.00000000E+00
  2.00000000E+01  5.60000000E+01  0.00000000E+00
  3.00000000E+01  5.60000000E+01  0.00000000E+00
  4.00000000E+01  5.60000000E+01  0.00000000E+00
  5.00000000E+01  5.60000000E+01  0.00000000E+00
  6.00000000E+01  5.60000000E+01  0.00000000E+00
  7.00000000E+01  5.60000000E+01  0.00000000E+00
  8.00000000E+01  5.60000000E+01  0.00000000E+00
  9.00000000E+01  5.60000000E+01  0.00000000E+00
  1.00000000E+02  5.60000000E+01  0.00000000E+00
  1.10000000E+02  5.60000000E+01  0.00000000E+00
  1.20000000E+02  5.60000000E+01  0.00000000E+00
  1.30000000E+02  5.60000000E+01  0.00000000E+00
  1.40000000E+02  5.60000000E+01  0.00000000E+00
  1.50000000E+02  5.60000000E+01  0.00000000E+00
  1.60000000E+02  5.60000000E+01  0.00000000E+00
  1.70000000E+02  5.60000000E+01  0.00000000E+00
  1.80000000E+02  5.60000000E+01  0.00000000E+00
  1.90000000E+02  5.60000000E+01  0.00000000E+00
  2.00000000E+02  5.60000000E+01  0.00000000E+00
  2.10000000E+02  5.60000000E+01  0.00000000E+00
  2.20000000E+02  5.60000000E+01  0.00000000E+00
  2.30000000E+02  5.60000000E+01  0.00000000E+00
  2.40000000E+02  5.60000000E+01  0.00000000E+00
  2.50000000E+02  5.60000000E+01  0.00000000E+00
  2.60000000E+02  5.60000000E+01  0.00000000E+00
  2.70000000E+02  5.60000000E+01  0.00000000E+00
  2.80000000E+02  5.60000000E+01  0.00000000E+00
  2.90000000E+02  5.60000000E+01  0.00000000E+00
  3.00000000E+02  5.60000000E+01  0.00000000E+00
  3.10000000E+02  5.60000000E+01  0.00000000E+00
  3.20000000E+02  5.60000000E+01  0.00000000E+00
  3.30000000E+02  5.60000000E+01  0.00000000E+00
  3.40000000E+02  5.60000000E+01  0.00000000E+00
  3.50000000E+02  5.60000000E+01  0.00000000E+00
  3.60000000E+02  5.60000000E+01  0.00000000E+00
  3.70000000E+02  5.60000000E+01  0.00000000E+00
  3.80000000E+02  5.60000000E+01  0.00000000E+00
  3.90000000E+02  5.60000000E+01  0.00000000E+00
  4.00000000E+02  5.60000000E+01  0.00000000E+00
  4.10000000E+02  5.60000000E+01  0.00000000E+00
  4.20000000E+02  5.60000000E+01  0.00000000E+00
  4.30000000E+02  5.60000000E+01  0.00000000E+00
  4.40000000E+02  5.60000000E+01  0.00000000E+00
  4.50000000E+02  5.60000000E+01  0.00000000E+00
  4.60000000E+02  5.60000000E+01  0.00000000E+00
  4.70000000E+02  5.60000000E+01  0.00000000E+00
  4.80000000E+02  5.60000000E+01  0.00000000E+00
  4.90000000E+02  5.60000000E+01  0.00000000E+00
  5.00000000E+02  5.60000000E+01  0.00000000E+00
  5.10000000E+02  5.60000000E+01  0.00000000E+00
  5.20000000E+02  5.60000000E+01  0.00000000E+00
  5.30000000E+02  5.60000000E+01  0.00000000E+00
  5.40000000E+02  5.60000000E+01  0.00000000E+00
  5.50000000E+02  5.60000000E+01  0.00000000E+00
  5.60000000E+02  5.60000000E+01  0.00000000E+00
  5.70000000E+02  5.60000000E+01  0.00000000E+00
  5.80000000E+02  5.60000000E+01  0.00000000E+00
  5.90000000E+02  5.60000000E+01  0.00000000E+00
  6.00000000E+02  5.60000000E+01  0.00000000E+00
  6.10000000E+02  5.60000000E+01  0.00000000E+00
  6.20000000E+02  5.60000000E+01  0.00000000E+00
  6.30000000E+02  5.60000000E+01  0.00000000E+00
  6.40000000E+02  5.60000000E+01  0.00000000E+00
  6.50000000E+02  5.60000000E+01  0.00000000E+00
  6.60000000E+02  5.60000000E+01  0.00000000E+00
  6.70000000E+02  5.60000000E+01  0.00000000E+00
  6.80000000E+02  5.60000000E+01  0.00000000E+00
  6.90000000E+02  5.60000000E+01  0.00000000E+00
  7.00000000E+02  5.60000000E+01  0.00000000E+00
  7.10000000E+02  5.60000000E+01  0.00000000E+00
  7.20000000E+02  5.60000000E+01  0.00000000E+00
  7.30000000E+02  5.60000000E+01  0.00000000E+00
  7.40000000E+02  5.60000000E+01  0.00000000E+00
  7.50000000E+02  5.60000000E+01  0.00000000E+00
  7.60000000E+02  5.60000000E+01  0.00000000E+00
  7.70000000E+02  5.60000000E+01  0.00000000E+00
  7.80000000E+02  5.60000000E+01  0.00000000E+00
  7.90000000E+02  5.60000000E+01  0.00000000E+00
  8.00000000E+02  5.60000000E+01  0.00000000E+00
  8.10000000E+02  5.60000000E+01  0.00000000E+00
  8.20000000E+02  5.60000000E+01  0.00000000E+00
  8.30000000E+02  5.60000000E+01  0.00000000E+00
  8.40000000E+02  5.60000000E+01  0.00000000E+00
  8.50000000E+02  5.60000000E+01  0.00000000E+00
  8.60000000E+02  5.60000000E+01  0.00000000E+00
  8.70000000E+02  5.60000000E+01  0.00000000E+00
  8.80000000E+02  5.60000000E+01  0.00000000E+00
  8.90000000E+02  5.60000000E+01  0.00000000E+00
  9.00000000E+02  5.60000000E+01  0.00000000E+00
  9.10000000E+02  5.60000000E+01  0.00000000E+00
  9.20000000E+02  5.60000000E+01  0.00000000E+00
  9.30000000E+02  5.60000000E+01  0.00000000E+00
  9.40000000E+02  5.60000000E+01  0.00000000E+00
  9.50000000E+02  5.60000000E+01  0.00000000E+00
  9.60000000E+02  5.60000000E+01  0.00000000E+00
  9.70000000E+02  5.60000000E+01  0.00000000E+00
  9.80000000E+02  5.60000000E+01  0.00000000E+00
  9.90000000E+02  5.60000000E+01  0.00000000E+00
  1.00000000E+03  5.60000000E+01  0.00000000E+00
  0.00000000E+00  5.80000000E+01  0.00000000E+00
  1.00000000E+01  5.80000000E+01  0.00000000E+00
  2.00000000E+01  5.80000000E+01  0.00000000E+00
  3.00000000E+01  5.80000000E+01  0.00000000E+00
  4.00000000E+01  5.80000000E+01  0.00000000E+00
  5.00000000E+01  5.80000000E+01  0.00000000E+00
  6.00000000E+01  5.80000000E+01  0.00000000E+00
  7.00000000E+01  5.80000000E+01  0.00000000E+00
  8.00000000E+01  5.80000000E+01  0.00000000E+00
  9.00000000E+01  5.80000000E+01  0.00000000E+00
  1.00000000E+02  5.80000000E+01  0.00000000E+00
  1.10000000E+02  5.80000000E+01  0.00000000E+00
  1.20000000E+02  5.80000000E+01  0.00000000E+00
  1.30000000E+02  5.80000000E+01  0.00000000E+00
  1.40000000E+02  5.80000000E+01  0.00000000E+00
  1.50000000E+02  5.80000000E+01  0.00000000E+00
  1.60000000E+02  5.80000000E+01  0.00000000E+00
  1.70000000E+02  5.80000000E+01  0.00000000E+00
  1.80000000E+02  5.80000000E+01  0.00000000E+00
  1.90000000E+02  5.80000000E+01  0.00000000E+00
  2.00000000E+02  5.80000000E+01  0.00000000E+00
  2.10000000E+02  5.80000000E+01  0.00000000E+00
  2.20000000E+02  5.80000000E+01  0.00000000E+00
  2.30000000E+02  5.80000000E+01  0.00000000E+00
  2.40000000E+02  5.80000000E+01  0.00000000E+00
  2.50000000E+02  5.80000000E+01  0.00000000E+00
  2.60000000E+02  5.80000000E+01  0.00000000E+00
  2.70000000E+02  5.80000000E+01  0.00000000E+00
  2.80000000E+02  5.80000000E+01  0.00000000E+00
  2.90000000E+02  5.80000000E+01  0.00000000E+00
  3.00000000E+02  5.80000000E+01  0.00000000E+00
  3.10000000E+02  5.80000000E+01  0.00000000E+00
  3.20000000E+02  5.80000000E+01  0.00000000E+00
  3.30000000E+02  5.80000000E+01  0.00000000E+00
  3.40000000E+02  5.80000000E+01  0.00000000E+00
  3.50000000E+02  5.80000000E+01  0.00000000E+00
  3.60000000E+02  5.80000000E+01  0.00000000E+00
  3.70000000E+02  5.80000000E+01  0.00000000E+00
  3.80000000E+02  5.80000000E+01  0.00000000E+00
  3.90000000E+02  5.80000000E+01  0.00000000E+00
  4.00000000E+02  5.80000000E+01  0.00000000E+00
  4.10000000E+02  5.80000000E+01  0.00000000E+00
  4.20000000E+02  5.80000000E+01  0.00000000E+00
  4.30000000E+02  5.80000000E+01  0.00000000E+00
  4.40000000E+02  5.80000000E+01  0.00000000E+00
  4.50000000E+02  5.80000000E+01  0.00000000E+00
  4.60000000E+02  5.80000000E+01  0.00000000E+00
  4.70000000E+02  5.80000000E+01  0.00000000E+00
  4.80000000E+02  5.80000000E+01  0.00000000E+00
  4.90000000E+02  5.80000000E+01  0.00000000E+00
  5.00000000E+02  5.80000000E+01  0.00000000E+00
  5.10000000E+02  5.80000000E+01  0.00000000E+00
  5.20000000E+02  5.80000000E+01  0.00000000E+00
  5.30000000E+02  5.80000000E+01  0.00000000E+00
  5.40000000E+02  5.80000000E+01  0.00000000E+00
  5.50000000E+02  5.80000000E+01  0.00000000E+00
  5.60000000E+02  5.80000000E+01  0.00000000E+00
  5.70000000E+02  5.80000000E+01  0.00000000E+00
  5.80000000E+02  5.80000000E+01  0.00000000E+00
  5.90000000E+02  5.80000000E+01  0.00000000E+00
  6.00000000E+02  5.80000000E+01  0.00000000E+00
  6.10000000E+02  5.80000000E+01  0.00000000E+00
  6.20000000E+02  5.80000000E+01  0.00000000E+00
  6.30000000E+02  5.80000000E+01  0.00000000E+00
  6.40000000E+02  5.80000000E+01  0.00000000E+00
  6.50000000E+02  5.80000000E+01  0.00000000E+00
  6.60000000E+02  5.80000000E+01  0.00000000E+00
  6.70000000E+02  5.80000000E+01  0.00000000E+00
  6.80000000E+02  5.80000000E+01  0.00000000E+00
  6.90000000E+02  5.80000000E+01  0.00000000E+00
  7.00000000E+02  5.80000000E+01  0.00000000E+00
  7.10000000E+02  5.80000000E+01  0.00000000E+00
  7.20000000E+02  5.80000000E+01  0.00000000E+00
  7.30000000E+02  5.80000000E+01  0.00000000E+00
  7.40000000E+02  5.80000000E+01  0.00000000E+00
  7.50000000E+02  5.80000000E+01  0.00000000E+00
  7.60000000E+02  5.80000000E+01  0.00000000E+00
  7.70000000E+02  5.80000000E+01  0.00000000E+00
  7.80000000E+02  5.80000000E+01  0.00000000E+00
  7.90000000E+02  5.80000000E+01  0.00000000E+00
  8.00000000E+02  5.80000000E+01  0.00000000E+00
  8.10000000E+02  5.80000000E+01  0.00000000E+00
  8.20000000E+02  5.80000000E+01  0.00000000E+00
  8.30000000E+02  5.80000000E+01  0.00000000E+00
  8.40000000E+02  5.80000000E+01  0.00000000E+00
  8.50000000E+02  5.80000000E+01  0.00000000E+00
  8.60000000E+02  5.80000000E+01  0.00000000E+00
  8.70000000E+02  5.80000000E+01  0.00000000E+00
  8.80000000E+02  5.80000000E+01  0.00000000E+00
  8.90000000E+02  5.80000000E+01  0.00000000E+00
  9.00000000E+02  5.80000000E+01  0.00000000E+00
  9.10000000E+02  5.80000000E+01  0.00000000E+00
  9.20000000E+02  5.80000000E+01  0.00000000E+00
  9.30000000E+02  5.80000000E+01  0.00000000E+00
  9.40000000E+02  5.80000000E+01  0.00000000E+00
  9.50000000E+02  5.80000000E+01  0.00000000E+00
  9.60000000E+02  5.80000000E+01  0.00000000E+00
  9.70000000E+02  5.80000000E+01  0.00000000E+00
  9.80000000E+02  5.80000000E+01  0.00000000E+00
  9.90000000E+02  5.80000000E+01  0.00000000E+00
  1.00000000E+03  5.80000000E+01  0.00000000E+00
  0.00000000E+00  6.00000000E+01  0.00000000E+00
  1.00000000E+01  6.00000000E+01  0.00000000E+00
  2.00000000E+01  6.00000000E+01  0.00000000E+00
  3.00000000E+01  6.00000000E+01  0.00000000E+00
  4.00000000E+01  6.00000000E+01  0.00000000E+00
  5.00000000E+01  6.00000000E+01  0.00000000E+00
  6.00000000E+01  6.00000000E+01  0.00000000E+00
  7.00000000E+01  6.00000000E+01  0.00000000E+00
  8.00000000E+01  6.00000000E+01  0.00000000E+00
  9.00000000E+01  6.00000000E+01  0.00000000E+00
  1.00000000E+02  6.00000000E+01  0.00000000E+00
  1.10000000E+02  6.00000000E+01  0.00000000E+00
  1.20000000E+02  6.00000000E+01  0.00000000E+00
  1.30000000E+02  6.00000000E+01  0.00000000E+00
  1.40000000E+02  6.00000000E+01  0.00000000E+00
  1.50000000E+02  6.00000000E+01  0.00000000E+00
  1.60000000E+02  6.00000000E+01  0.00000000E+00
  1.70000000E+02  6.00000000E+01  0.00000000E+00
  1.80000000E+02  6.00000000E+01  0.00000000E+00
  1.90000000E+02  6.00000000E+01  0.00000000E+00
  2.00000000E+02  6.00000000E+01  0.00000000E+00
  2.10000000E+02  6.00000000E+01  0.00000000E+00
  2.20000000E+02  6.00000000E+01  0.00000000E+00
  2.30000000E+02  6.00000000E+01  0.00000000E+00
  2.40000000E+02  6.00000000E+01  0.00000000E+00
  2.50000000E+02  6.00000000E+01  0.00000000E+00
  2.60000000E+02  6.00000000E+01  0.00000000E+00
  2.70000000E+02  6.00000000E+01  0.00000000E+00
  2.80000000E+02  6.00000000E+01  0.00000000E+00
  2.90000000E+02  6.00000000E+01  0.00000000E+00
  3.00000000E+02  6.00000000E+01  0.00000000E+00
  3.10000000E+02  6.00000000E+01  0.00000000E+00
  3.20000000E+02  6.00000000E+01  0.00000000E+00
  3.30000000E+02  6.00000000E+01  0.00000000E+00
  3.40000000E+02  6.00000000E+01  0.00000000E+00
  3.50000000E+02  6.00000000E+01  0.00000000E+00
  3.60000000E+02  6.00000000E+01  0.00000000E+00
  3.70000000E+02  6.00000000E+01  0.00000000E+00
  3.80000000E+02  6.00000000E+01  0.00000000E+00
  3.90000000E+02  6.00000000E+01  0.00000000E+00
  4.00000000E+02  6.00000000E+01  0.00000000E+00
  4.10000000E+02  6.00000000E+01  0.00000000E+00
  4.20000000E+02  6.00000000E+01  0.00000000E+00
  4.30000000E+02  6.00000000E+01  0.00000000E+00
  4.40000000E+02  6.00000000E+01  0.00000000E+00
  4.50000000E+02  6.00000000E+01  0.00000000E+00
  4.60000000E+02  6.00000000E+01  0.00000000E+00
  4.70000000E+02  6.00000000E+01  0.00000000E+00
  4.80000000E+02  6.00000000E+01  0.00000000E+00
  4.90000000E+02  6.00000000E+01  0.00000000E+00
  5.00000000E+02  6.00000000E+01  0.00000000E+00
  5.10000000E+02  6.00000000E+01  0.00000000E+00
  5.20000000E+02  6.00000000E+01  0.00000000E+00
  5.30000000E+02  6.00000000E+01  0.00000000E+00
  5.40000000E+02  6.00000000E+01  0.00000000E+00
  5.50000000E+02  6.00000000E+01  0.00000000E+00
  5.60000000E+02  6.00000000E+01  0.00000000E+00
  5.70000000E+02  6.00000000E+01  0.00000000E+00
  5.80000000E+02  6.00000000E+01  0.00000000E+00
  5.90000000E+02  6.00000000E+01  0.00000000E+00
  6.00000000E+02  6.00000000E+01  0.00000000E+00
  6.10000000E+02  6.00000000E+01  0.00000000E+00
  6.20000000E+02  6.00000000E+01  0.00000000E+00
  6.30000000E+02  6.00000000E+01  0.00000000E+00
  6.40000000E+02  6.00000000E+01  0.00000000E+00
  6.50000000E+02  6.00000000E+01  0.00000000E+00
  6.60000000E+02  6.00000000E+01  0.00000000E+00
  6.70000000E+02  6.00000000E+01  0.00000000E+00
  6.80000000E+02  6.00000000E+01  0.00000000E+00
  6.90000000E+02  6.00000000E+01  0.00000000E+00
  7.00000000E+02  6.00000000E+01  0.00000000E+00
  7.10000000E+02  6.00000000E+01  0.00000000E+00
  7.20000000E+02  6.00000000E+01  0.00000000E+00
  7.30000000E+02  6.00000000E+01  0.00000000E+00
  7.40000000E+02  6.00000000E+01  0.00000000E+00
  7.50000000E+02  6.00000000E+01  0.00000000E+00
  7.60000000E+02  6.00000000E+01  0.00000000E+00
  7.70000000E+02  6.00000000E+01  0.00000000E+00
  7.80000000E+02  6.00000000E+01  0.00000000E+00
  7.90000000E+02  6.00000000E+01  0.00000000E+00
  8.00000000E+02  6.00000000E+01  0.00000000E+00
  8.10000000E+02  6.00000000E+01  0.00000000E+00
  8.20000000E+02  6.00000000E+01  0.00000000E+00
  8.30000000E+02  6.00000000E+01  0.00000000E+00
  8.40000000E+02  6.00000000E+01  0.00000000E+00
  8.50000000E+02  6.00000000E+01  0.00000000E+00
  8.60000000E+02  6.00000000E+01  0.00000000E+00
  8.70000000E+02  6.00000000E+01  0.00000000E+00
  8.80000000E+02  6.00000000E+01  0.00000000E+00
  8.90000000E+02  6.00000000E+01  0.00000000E+00
  9.00000000E+02  6.00000000E+01  0.00000000E+00
  9.10000000E+02  6.00000000E+01  0.00000000E+00
  9.20000000E+02  6.00000000E+01  0.00000000E+00
  9.30000000E+02  6.00000000E+01  0.00000000E+00
  9.40000000E+02  6.00000000E+01  0.00000000E+00
  9.50000000E+02  6.00000000E+01  0.00000000E+00
  9.60000000E+02  6.00000000E+01  0.00000000E+00
  9.70000000E+02  6.00000000E+01  0.00000000E+00
  9.80000000E+02  6.00000000E+01  0.00000000E+00
  9.90000000E+02  6.00000000E+01  0.00000000E+00
  1.00000000E+03  6.00000000E+01  0.00000000E+00
  0.00000000E+00  6.20000000E+01  0.00000000E+00
  1.00000000E+01  6.20000000E+01  0.00000000E+00
  2.00000000E+01  6.20000000E+01  0.00000000E+00
  3.00000000E+01  6.20000000E+01  0.00000000E+00
  4.00000000E+01  6.20000000E+01  0.00000000E+00
  5.00000000E+01  6.20000000E+01  0.00000000E+00
  6.00000000E+01  6.20000000E+01  0.00000000E+00
  7.00000000E+01  6.20000000E+01  0.00000000E+00
  8.00000000E+01  6.20000000E+01  0.00000000E+00
  9.00000000E+01  6.20000000E+01  0.00000000E+00
  1.00000000E+02  6.20000000E+01  0.00000000E+00
  1.10000000E+02  6.20000000E+01  0.00000000E+00
  1.20000000E+02  6.20000000E+01  0.00000000E+00
  1.30000000E+02  6.20000000E+01  0.00000000E+00
  1.40000000E+02  6.20000000E+01  0.00000000E+00
  1.50000000E+02  6.20000000E+01  0.00000000E+00
  1.60000000E+02  6.20000000E+01  0.00000000E+00
  1.70000000E+02  6.20000000E+01  0.00000000E+00
  1.80000000E+02  6.20000000E+01  0.00000000E+00
  1.90000000E+02  6.20000000E+01  0.00000000E+00
  2.00000000E+02  6.20000000E+01  0.00000000E+00
  2.10000000E+02  6.20000000E+01  0.00000000E+00
  2.20000000E+02  6.20000000E+01  0.00000000E+00
  2.30000000E+02  6.20000000E+01  0.00000000E+00
  2.40000000E+02  6.20000000E+01  0.00000000E+00
  2.50000000E+02  6.20000000E+01  0.00000000E+00
  2.60000000E+02  6.20000000E+01  0.00000000E+00
  2.70000000E+02  6.20000000E+01  0.00000000E+00
  2.80000000E+02  6.20000000E+01  0.00000000E+00
  2.90000000E+02  6.20000000E+01  0.00000000E+00
  3.00000000E+02  6.20000000E+01  0.00000000E+00
  3.10000000E+02  6.20000000E+01  0.00000000E+00
  3.20000000E+02  6.20000000E+01  0.00000000E+00
  3.30000000E+02  6.20000000E+01  0.00000000E+00
  3.40000000E+02  6.20000000E+01  0.00000000E+00
  3.50000000E+02  6.20000000E+01  0.00000000E+00
  3.60000000E+02  6.20000000E+01  0.00000000E+00
  3.70000000E+02  6.20000000E+01  0.00000000E+00
  3.80000000E+02  6.20000000E+01  0.00000000E+00
  3.90000000E+02  6.20000000E+01  0.00000000E+00
  4.00000000E+02  6.20000000E+01  0.00000000E+00
  4.10000000E+02  6.20000000E+01  0.00000000E+00
  4.20000000E+02  6.20000000E+01  0.00000000E+00
  4.30000000E+02  6.20000000E+01  0.00000000E+00
  4.40000000E+02  6.20000000E+01  0.00000000E+00
  4.50000000E+02  6.20000000E+01  0.00000000E+00
  4.60000000E+02  6.20000000E+01  0.00000000E+00
  4.70000000E+02  6.20000000E+01  0.00000000E+00
  4.80000000E+02  6.20000000E+01  0.00000000E+00
  4.90000000E+02  6.20000000E+01  0.00000000E+00
  5.00000000E+02  6.20000000E+01  0.00000000E+00
  5.10000000E+02  6.20000000E+01  0.00000000E+00
  5.20000000E+02  6.20000000E+01  0.00000000E+00
  5.30000000E+02  6.20000000E+01  0.00000000E+00
  5.40000000E+02  6.20000000E+01  0.00000000E+00
  5.50000000E+02  6.20000000E+01  0.00000000E+00
  5.60000000E+02  6.20000000E+01  0.00000000E+00
  5.70000000E+02  6.20000000E+01  0.00000000E+00
  5.80000000E+02  6.20000000E+01  0.00000000E+00
  5.90000000E+02  6.20000000E+01  0.00000000E+00
  6.00000000E+02  6.20000000E+01  0.00000000E+00
  6.10000000E+02  6.20000000E+01  0.00000000E+00
  6.20000000E+02  6.20000000E+01  0.00000000E+00
  6.30000000E+02  6.20000000E+01  0.00000000E+00
  6.40000000E+02  6.20000000E+01  0.00000000E+00
  6.50000000E+02  6.20000000E+01  0.00000000E+00
  6.60000000E+02  6.20000000E+01  0.00000000E+00
  6.70000000E+02  6.20000000E+01  0.00000000E+00
  6.80000000E+02  6.20000000E+01  0.00000000E+00
  6.90000000E+02  6.20000000E+01  0.00000000E+00
  7.00000000E+02  6.20000000E+01  0.00000000E+00
  7.10000000E+02  6.20000000E+01  0.00000000E+00
  7.20000000E+02  6.20000000E+01  0.00000000E+00
  7.30000000E+02  6.20000000E+01  0.00000000E+00
  7.40000000E+02  6.20000000E+01  0.00000000E+00
  7.50000000E+02  6.20000000E+01  0.00000000E+00
  7.60000000E+02  6.20000000E+01  0.00000000E+00
  7.70000000E+02  6.20000000E+01  0.00000000E+00
  7.80000000E+02  6.20000000E+01  0.00000000E+00
  7.90000000E+02  6.20000000E+01  0.00000000E+00
  8.00000000E+02  6.20000000E+01  0.00000000E+00
  8.10000000E+02  6.20000000E+01  0.00000000E+00
  8.20000000E+02  6.20000000E+01  0.00000000E+00
  8.30000000E+02  6.20000000E+01  0.00000000E+00
  8.40000000E+02  6.20000000E+01  0.00000000E+00
  8.50000000E+02  6.20000000E+01  0.00000000E+00
  8.60000000E+02  6.20000000E+01  0.00000000E+00
  8.70000000E+02  6.20000000E+01  0.00000000E+00
  8.80000000E+02  6.20000000E+01  0.00000000E+00
  8.90000000E+02  6.20000000E+01  0.00000000E+00
  9.00000000E+02  6.20000000E+01  0.00000000E+00
  9.10000000E+02  6.20000000E+01  0.00000000E+00
  9.20000000E+02  6.20000000E+01  0.00000000E+00
  9.30000000E+02  6.20000000E+01  0.00000000E+00
  9.40000000E+02  6.20000000E+01  0.00000000E+00
  9.50000000E+02  6.20000000E+01  0.00000000E+00
  9.60000000E+02  6.20000000E+01  0.00000000E+00
  9.70000000E+02  6.20000000E+01  0.00000000E+00
  9.80000000E+02  6.20000000E+01  0.00000000E+00
  9.90000000E+02  6.20000000E+01  0.00000000E+00
  1.00000000E+03  6.20000000E+01  0.00000000E+00
  0.00000000E+00  6.40000000E+01  0.00000000E+00
  1.00000000E+01  6.40000000E+01  0.00000000E+00
  2.00000000E+01  6.40000000E+01  0.00000000E+00
  3.00000000E+01  6.40000000E+01  0.00000000E+00
  4.00000000E+01  6.40000000E+01  0.00000000E+00
  5.00000000E+01  6.40000000E+01  0.00000000E+00
  6.00000000E+01  6.40000000E+01  0.00000000E+00
  7.00000000E+01  6.40000000E+01  0.00000000E+00
  8.00000000E+01  6.40000000E+01  0.00000000E+00
  9.00000000E+01  6.40000000E+01  0.00000000E+00
  1.00000000E+02  6.40000000E+01  0.00000000E+00
  1.10000000E+02  6.40000000E+01  0.00000000E+00
  1.20000000E+02  6.40000000E+01  0.00000000E+00
  1.30000000E+02  6.40000000E+01  0.00000000E+00
  1.40000000E+02  6.40000000E+01  0.00000000E+00
  1.50000000E+02  6.40000000E+01  0.00000000E+00
  1.60000000E+02  6.40000000E+01  0.00000000E+00
  1.70000000E+02  6.40000000E+01  0.00000000E+00
  1.80000000E+02  6.40000000E+01  0.00000000E+00
  1.90000000E+02  6.40000000E+01  0.00000000E+00
  2.00000000E+02  6.40000000E+01  0.00000000E+00
  2.10000000E+02  6.40000000E+01  0.00000000E+00
  2.20000000E+02  6.40000000E+01  0.00000000E+00
  2.30000000E+02  6.40000000E+01  0.00000000E+00
  2.40000000E+02  6.40000000E+01  0.00000000E+00
  2.50000000E+02  6.40000000E+01  0.00000000E+00
  2.60000000E+02  6.40000000E+01  0.00000000E+00
  2.70000000E+02  6.40000000E+01  0.00000000E+00
  2.80000000E+02  6.40000000E+01  0.00000000E+00
  2.90000000E+02  6.40000000E+01  0.00000000E+00
  3.00000000E+02  6.40000000E+01  0.00000000E+00
  3.10000000E+02  6.40000000E+01  0.00000000E+00
  3.20000000E+02  6.40000000E+01  0.00000000E+00
  3.30000000E+02  6.40000000E+01  0.00000000E+00
  3.40000000E+02  6.40000000E+01  0.00000000E+00
  3.50000000E+02  6.40000000E+01  0.00000000E+00
  3.60000000E+02  6.40000000E+01  0.00000000E+00
  3.70000000E+02  6.40000000E+01  0.00000000E+00
  3.80000000E+02  6.40000000E+01  0.00000000E+00
  3.90000000E+02  6.40000000E+01  0.00000000E+00
  4.00000000E+02  6.40000000E+01  0.00000000E+00
  4.10000000E+02  6.40000000E+01  0.00000000E+00
  4.20000000E+02  6.40000000E+01  0.00000000E+00
  4.30000000E+02  6.40000000E+01  0.00000000E+00
  4.40000000E+02  6.40000000E+01  0.00000000E+00
  4.50000000E+02  6.40000000E+01  0.00000000E+00
  4.60000000E+02  6.40000000E+01  0.00000000E+00
  4.70000000E+02  6.40000000E+01  0.00000000E+00
  4.80000000E+02  6.40000000E+01  0.00000000E+00
  4.90000000E+02  6.40000000E+01  0.00000000E+00
  5.00000000E+02  6.40000000E+01  0.00000000E+00
  5.10000000E+02  6.40000000E+01  0.00000000E+00
  5.20000000E+02  6.40000000E+01  0.00000000E+00
  5.30000000E+02  6.40000000E+01  0.00000000E+00
  5.40000000E+02  6.40000000E+01  0.00000000E+00
  5.50000000E+02  6.40000000E+01  0.00000000E+00
  5.60000000E+02  6.40000000E+01  0.00000000E+00
  5.70000000E+02  6.40000000E+01  0.00000000E+00
  5.80000000E+02  6.40000000E+01  0.00000000E+00
  5.90000000E+02  6.40000000E+01  0.00000000E+00
  6.00000000E+02  6.40000000E+01  0.00000000E+00
  6.10000000E+02  6.40000000E+01  0.00000000E+00
  6.20000000E+02  6.40000000E+01  0.00000000E+00
  6.30000000E+02  6.40000000E+01  0.00000000E+00
  6.40000000E+02  6.40000000E+01  0.00000000E+00
  6.50000000E+02  6.40000000E+01  0.00000000E+00
  6.60000000E+02  6.40000000E+01  0.00000000E+00
  6.70000000E+02  6.40000000E+01  0.00000000E+00
  6.80000000E+02  6.40000000E+01  0.00000000E+00
  6.90000000E+02  6.40000000E+01  0.00000000E+00
  7.00000000E+02  6.40000000E+01  0.00000000E+00
  7.10000000E+02  6.40000000E+01  0.00000000E+00
  7.20000000E+02  6.40000000E+01  0.00000000E+00
  7.30000000E+02  6.40000000E+01  0.00000000E+00
  7.40000000E+02  6.40000000E+01  0.00000000E+00
  7.50000000E+02  6.40000000E+01  0.00000000E+00
  7.60000000E+02  6.40000000E+01  0.00000000E+00
  7.70000000E+02  6.40000000E+01  0.00000000E+00
  7.80000000E+02  6.40000000E+01  0.00000000E+00
  7.90000000E+02  6.40000000E+01  0.00000000E+00
  8.00000000E+02  6.40000000E+01  0.00000000E+00
  8.10000000E+02  6.40000000E+01  0.00000000E+00
  8.20000000E+02  6.40000000E+01  0.00000000E+00
  8.30000000E+02  6.40000000E+01  0.00000000E+00
  8.40000000E+02  6.40000000E+01  0.00000000E+00
  8.50000000E+02  6.40000000E+01  0.00000000E+00
  8.60000000E+02  6.40000000E+01  0.00000000E+00
  8.70000000E+02  6.40000000E+01  0.00000000E+00
  8.80000000E+02  6.40000000E+01  0.00000000E+00
  8.90000000E+02  6.40000000E+01  0.00000000E+00
  9.00000000E+02  6.40000000E+01  0.00000000E+00
  9.10000000E+02  6.40000000E+01  0.00000000E+00
  9.20000000E+02  6.40000000E+01  0.00000000E+00
  9.30000000E+02  6.40000000E+01  0.00000000E+00
  9.40000000E+02  6.40000000E+01  0.00000000E+00
  9.50000000E+02  6.40000000E+01  0.00000000E+00
  9.60000000E+02  6.40000000E+01  0.00000000E+00
  9.70000000E+02  6.40000000E+01  0.00000000E+00
  9.80000000E+02  6.40000000E+01  0.00000000E+00
  9.90000000E+02  6.40000000E+01  0.00000000E+00
  1.00000000E+03  6.40000000E+01  0.00000000E+00
  0.00000000E+00  6.60000000E+01  0.00000000E+00
  1.00000000E+01  6.60000000E+01  0.00000000E+00
  2.00000000E+01  6.60000000E+01  0.00000000E+00
  3.00000000E+01  6.60000000E+01  0.00000000E+00
  4.00000000E+01  6.60000000E+01  0.00000000E+00
  5.00000000E+01  6.60000000E+01  0.00000000E+00
  6.00000000E+01  6.60000000E+01  0.00000000E+00
  7.00000000E+01  6.60000000E+01  0.00000000E+00
  8.00000000E+01  6.60000000E+01  0.00000000E+00
  9.00000000E+01  6.60000000E+01  0.00000000E+00
  1.00000000E+02  6.60000000E+01  0.00000000E+00
  1.10000000E+02  6.60000000E+01  0.00000000E+00
  1.20000000E+02  6.60000000E+01  0.00000000E+00
  1.30000000E+02  6.60000000E+01  0.00000000E+00
  1.40000000E+02  6.60000000E+01  0.00000000E+00
  1.50000000E+02  6.60000000E+01  0.00000000E+00
  1.60000000E+02  6.60000000E+01  0.00000000E+00
  1.70000000E+02  6.60000000E+01  0.00000000E+00
  1.80000000E+02  6.60000000E+01  0.00000000E+00
  1.90000000E+02  6.60000000E+01  0.00000000E+00
  2.00000000E+02  6.60000000E+01  0.00000000E+00
  2.10000000E+02  6.60000000E+01  0.00000000E+00
  2.20000000E+02  6.60000000E+01  0.00000000E+00
  2.30000000E+02  6.60000000E+01  0.00000000E+00
  2.40000000E+02  6.60000000E+01  0.00000000E+00
  2.50000000E+02  6.60000000E+01  0.00000000E+00
  2.60000000E+02  6.60000000E+01  0.00000000E+00
  2.70000000E+02  6.60000000E+01  0.00000000E+00
  2.80000000E+02  6.60000000E+01  0.00000000E+00
  2.90000000E+02  6.60000000E+01  0.00000000E+00
  3.00000000E+02  6.60000000E+01  0.00000000E+00
  3.10000000E+02  6.60000000E+01  0.00000000E+00
  3.20000000E+02  6.60000000E+01  0.00000000E+00
  3.30000000E+02  6.60000000E+01  0.00000000E+00
  3.40000000E+02  6.60000000E+01  0.00000000E+00
  3.50000000E+02  6.60000000E+01  0.00000000E+00
  3.60000000E+02  6.60000000E+01  0.00000000E+00
  3.70000000E+02  6.60000000E+01  0.00000000E+00
  3.80000000E+02  6.60000000E+01  0.00000000E+00
  3.90000000E+02  6.60000000E+01  0.00000000E+00
  4.00000000E+02  6.60000000E+01  0.00000000E+00
  4.10000000E+02  6.60000000E+01  0.00000000E+00
  4.20000000E+02  6.60000000E+01  0.00000000E+00
  4.30000000E+02  6.60000000E+01  0.00000000E+00
  4.40000000E+02  6.60000000E+01  0.00000000E+00
  4.50000000E+02  6.60000000E+01  0.00000000E+00
  4.60000000E+02  6.60000000E+01  0.00000000E+00
  4.70000000E+02  6.60000000E+01  0.00000000E+00
  4.80000000E+02  6.60000000E+01  0.00000000E+00
  4.90000000E+02  6.60000000E+01  0.00000000E+00
  5.00000000E+02  6.60000000E+01  0.00000000E+00
  5.10000000E+02  6.60000000E+01  0.00000000E+00
  5.20000000E+02  6.60000000E+01  0.00000000E+00
  5.30000000E+02  6.60000000E+01  0.00000000E+00
  5.40000000E+02  6.60000000E+01  0.00000000E+00
  5.50000000E+02  6.60000000E+01  0.00000000E+00
  5.60000000E+02  6.60000000E+01  0.00000000E+00
  5.70000000E+02  6.60000000E+01  0.00000000E+00
  5.80000000E+02  6.60000000E+01  0.00000000E+00
  5.90000000E+02  6.60000000E+01  0.00000000E+00
  6.00000000E+02  6.60000000E+01  0.00000000E+00
  6.10000000E+02  6.60000000E+01  0.00000000E+00
  6.20000000E+02  6.60000000E+01  0.00000000E+00
  6.30000000E+02  6.60000000E+01  0.00000000E+00
  6.40000000E+02  6.60000000E+01  0.00000000E+00
  6.50000000E+02  6.60000000E+01  0.00000000E+00
  6.60000000E+02  6.60000000E+01  0.00000000E+00
  6.70000000E+02  6.60000000E+01  0.00000000E+00
  6.80000000E+02  6.60000000E+01  0.00000000E+00
  6.90000000E+02  6.60000000E+01  0.00000000E+00
  7.00000000E+02  6.60000000E+01  0.00000000E+00
  7.10000000E+02  6.60000000E+01  0.00000000E+00
  7.20000000E+02  6.60000000E+01  0.00000000E+00
  7.30000000E+02  6.60000000E+01  0.00000000E+00
  7.40000000E+02  6.60000000E+01  0.00000000E+00
  7.50000000E+02  6.60000000E+01  0.00000000E+00
  7.60000000E+02  6.60000000E+01  0.00000000E+00
  7.70000000E+02  6.60000000E+01  0.00000000E+00
  7.80000000E+02  6.60000000E+01  0.00000000E+00
  7.90000000E+02  6.60000000E+01  0.00000000E+00
  8.00000000E+02  6.60000000E+01  0.00000000E+00
  8.10000000E+02  6.60000000E+01  0.00000000E+00
  8.20000000E+02  6.60000000E+01  0.00000000E+00
  8.30000000E+02  6.60000000E+01  0.00000000E+00
  8.40000000E+02  6.60000000E+01  0.00000000E+00
  8.50000000E+02  6.60000000E+01  0.00000000E+00
  8.60000000E+02  6.60000000E+01  0.00000000E+00
  8.70000000E+02  6.60000000E+01  0.00000000E+00
  8.80000000E+02  6.60000000E+01  0.00000000E+00
  8.90000000E+02  6.60000000E+01  0.00000000E+00
  9.00000000E+02  6.60000000E+01  0.00000000E+00
  9.10000000E+02  6.60000000E+01  0.00000000E+00
  9.20000000E+02  6.60000000E+01  0.00000000E+00
  9.30000000E+02  6.60000000E+01  0.00000000E+00
  9.40000000E+02  6.60000000E+01  0.00000000E+00
  9.50000000E+02  6.60000000E+01  0.00000000E+00
  9.60000000E+02  6.60000000E+01  0.00000000E+00
  9.70000000E+02  6.60000000E+01  0.00000000E+00
  9.80000000E+02  6.60000000E+01  0.00000000E+00
  9.90000000E+02  6.60000000E+01  0.00000000E+00
  1.00000000E+03  6.60000000E+01  0.00000000E+00
  0.00000000E+00  6.80000000E+01  0.00000000E+00
  1.00000000E+01  6.80000000E+01  0.00000000E+00
  2.00000000E+01  6.80000000E+01  0.00000000E+00
  3.00000000E+01  6.80000000E+01  0.00000000E+00
  4.00000000E+01  6.80000000E+01  0.00000000E+00
  5.00000000E+01  6.80000000E+01  0.00000000E+00
  6.00000000E+01  6.80000000E+01  0.00000000E+00
  7.00000000E+01  6.80000000E+01  0.00000000E+00
  8.00000000E+01  6.80000000E+01  0.00000000E+00
  9.00000000E+01  6.80000000E+01  0.00000000E+00
  1.00000000E+02  6.80000000E+01  0.00000000E+00
  1.10000000E+02  6.80000000E+01  0.00000000E+00
  1.20000000E+02  6.80000000E+01  0.00000000E+00
  1.30000000E+02  6.80000000E+01  0.00000000E+00
  1.40000000E+02  6.80000000E+01  0.00000000E+00
  1.50000000E+02  6.80000000E+01  0.00000000E+00
  1.60000000E+02  6.80000000E+01  0.00000000E+00
  1.70000000E+02  6.80000000E+01  0.00000000E+00
  1.80000000E+02  6.80000000E+01  0.00000000E+00
  1.90000000E+02  6.80000000E+01  0.00000000E+00
  2.00000000E+02  6.80000000E+01  0.00000000E+00
  2.10000000E+02  6.80000000E+01  0.00000000E+00
  2.20000000E+02  6.80000000E+01  0.00000000E+00
  2.30000000E+02  6.80000000E+01  0.00000000E+00
  2.40000000E+02  6.80000000E+01  0.00000000E+00
  2.50000000E+02  6.80000000E+01  0.00000000E+00
  2.60000000E+02  6.80000000E+01  0.00000000E+00
  2.70000000E+02  6.80000000E+01  0.00000000E+00
  2.80000000E+02  6.80000000E+01  0.00000000E+00
  2.90000000E+02  6.80000000E+01  0.00000000E+00
  3.00000000E+02  6.80000000E+01  0.00000000E+00
  3.10000000E+02  6.80000000E+01  0.00000000E+00
  3.20000000E+02  6.80000000E+01  0.00000000E+00
  3.30000000E+02  6.80000000E+01  0.00000000E+00
  3.40000000E+02  6.80000000E+01  0.00000000E+00
  3.50000000E+02  6.80000000E+01  0.00000000E+00
  3.60000000E+02  6.80000000E+01  0.00000000E+00
  3.70000000E+02  6.80000000E+01  0.00000000E+00
  3.80000000E+02  6.80000000E+01  0.00000000E+00
  3.90000000E+02  6.80000000E+01  0.00000000E+00
  4.00000000E+02  6.80000000E+01  0.00000000E+00
  4.10000000E+02  6.80000000E+01  0.00000000E+00
  4.20000000E+02  6.80000000E+01  0.00000000E+00
  4.30000000E+02  6.80000000E+01  0.00000000E+00
  4.40000000E+02  6.80000000E+01  0.00000000E+00
  4.50000000E+02  6.80000000E+01  0.00000000E+00
  4.60000000E+02  6.80000000E+01  0.00000000E+00
  4.70000000E+02  6.80000000E+01  0.00000000E+00
  4.80000000E+02  6.80000000E+01  0.00000000E+00
  4.90000000E+02  6.80000000E+01  0.00000000E+00
  5.00000000E+02  6.80000000E+01  0.00000000E+00
  5.10000000E+02  6.80000000E+01  0.00000000E+00
  5.20000000E+02  6.80000000E+01  0.00000000E+00
  5.30000000E+02  6.80000000E+01  0.00000000E+00
  5.40000000E+02  6.80000000E+01  0.00000000E+00
  5.50000000E+02  6.80000000E+01  0.00000000E+00
  5.60000000E+02  6.80000000E+01  0.00000000E+00
  5.70000000E+02  6.80000000E+01  0.00000000E+00
  5.80000000E+02  6.80000000E+01  0.00000000E+00
  5.90000000E+02  6.80000000E+01  0.00000000E+00
  6.00000000E+02  6.80000000E+01  0.00000000E+00
  6.10000000E+02  6.80000000E+01  0.00000000E+00
  6.20000000E+02  6.80000000E+01  0.00000000E+00
  6.30000000E+02  6.80000000E+01  0.00000000E+00
  6.40000000E+02  6.80000000E+01  0.00000000E+00
  6.50000000E+02  6.80000000E+01  0.00000000E+00
  6.60000000E+02  6.80000000E+01  0.00000000E+00
  6.70000000E+02  6.80000000E+01  0.00000000E+00
  6.80000000E+02  6.80000000E+01  0.00000000E+00
  6.90000000E+02  6.80000000E+01  0.00000000E+00
  7.00000000E+02  6.80000000E+01  0.00000000E+00
  7.10000000E+02  6.80000000E+01  0.00000000E+00
  7.20000000E+02  6.80000000E+01  0.00000000E+00
  7.30000000E+02  6.80000000E+01  0.00000000E+00
  7.40000000E+02  6.80000000E+01  0.00000000E+00
  7.50000000E+02  6.80000000E+01  0.00000000E+00
  7.60000000E+02  6.80000000E+01  0.00000000E+00
  7.70000000E+02  6.80000000E+01  0.00000000E+00
  7.80000000E+02  6.80000000E+01  0.00000000E+00
  7.90000000E+02  6.80000000E+01  0.00000000E+00
  8.00000000E+02  6.80000000E+01  0.00000000E+00
  8.10000000E+02  6.80000000E+01  0.00000000E+00
  8.20000000E+02  6.80000000E+01  0.00000000E+00
  8.30000000E+02  6.80000000E+01  0.00000000E+00
  8.40000000E+02  6.80000000E+01  0.00000000E+00
  8.50000000E+02  6.80000000E+01  0.00000000E+00
  8.60000000E+02  6.80000000E+01  0.00000000E+00
  8.70000000E+02  6.80000000E+01  0.00000000E+00
  8.80000000E+02  6.80000000E+01  0.00000000E+00
  8.90000000E+02  6.80000000E+01  0.00000000E+00
  9.00000000E+02  6.80000000E+01  0.00000000E+00
  9.10000000E+02  6.80000000E+01  0.00000000E+00
  9.20000000E+02  6.80000000E+01  0.00000000E+00
  9.30000000E+02  6.80000000E+01  0.00000000E+00
  9.40000000E+02  6.80000000E+01  0.00000000E+00
  9.50000000E+02  6.80000000E+01  0.00000000E+00
  9.60000000E+02  6.80000000E+01  0.00000000E+00
  9.70000000E+02  6.80000000E+01  0.00000000E+00
  9.80000000E+02  6.80000000E+01  0.00000000E+00
  9.90000000E+02  6.80000000E+01  0.00000000E+00
  1.00000000E+03  6.80000000E+01  0.00000000E+00
  0.00000000E+00  7.00000000E+01  0.00000000E+00
  1.00000000E+01  7.00000000E+01  0.00000000E+00
  2.00000000E+01  7.00000000E+01  0.00000000E+00
  3.00000000E+01  7.00000000E+01  0.00000000E+00
  4.00000000E+01  7.00000000E+01  0.00000000E+00
  5.00000000E+01  7.00000000E+01  0.00000000E+00
  6.00000000E+01  7.00000000E+01  0.00000000E+00
  7.00000000E+01  7.00000000E+01  0.00000000E+00
  8.00000000E+01  7.00000000E+01  0.00000000E+00
  9.00000000E+01  7.00000000E+01  0.00000000E+00
  1.00000000E+02  7.00000000E+01  0.00000000E+00
  1.10000000E+02  7.00000000E+01  0.00000000E+00
  1.20000000E+02  7.00000000E+01  0.00000000E+00
  1.30000000E+02  7.00000000E+01  0.00000000E+00
  1.40000000E+02  7.00000000E+01  0.00000000E+00
  1.50000000E+02  7.00000000E+01  0.00000000E+00
  1.60000000E+02  7.00000000E+01  0.00000000E+00
  1.70000000E+02  7.00000000E+01  0.00000000E+00
  1.80000000E+02  7.00000000E+01  0.00000000E+00
  1.90000000E+02  7.00000000E+01  0.00000000E+00
  2.00000000E+02  7.00000000E+01  0.00000000E+00
  2.10000000E+02  7.00000000E+01  0.00000000E+00
  2.20000000E+02  7.00000000E+01  0.00000000E+00
  2.30000000E+02  7.00000000E+01  0.00000000E+00
  2.40000000E+02  7.00000000E+01  0.00000000E+00
  2.50000000E+02  7.00000000E+01  0.00000000E+00
  2.60000000E+02  7.00000000E+01  0.00000000E+00
  2.70000000E+02  7.00000000E+01  0.00000000E+00
  2.80000000E+02  7.00000000E+01  0.00000000E+00
  2.90000000E+02  7.00000000E+01  0.00000000E+00
  3.00000000E+02  7.00000000E+01  0.00000000E+00
  3.10000000E+02  7.00000000E+01  0.00000000E+00
  3.20000000E+02  7.00000000E+01  0.00000000E+00
  3.30000000E+02  7.00000000E+01  0.00000000E+00
  3.40000000E+02  7.00000000E+01  0.00000000E+00
  3.50000000E+02  7.00000000E+01  0.00000000E+00
  3.60000000E+02  7.00000000E+01  0.00000000E+00
  3.70000000E+02  7.00000000E+01  0.00000000E+00
  3.80000000E+02  7.00000000E+01  0.00000000E+00
  3.90000000E+02  7.00000000E+01  0.00000000E+00
  4.00000000E+02  7.00000000E+01  0.00000000E+00
  4.10000000E+02  7.00000000E+01  0.00000000E+00
  4.20000000E+02  7.00000000E+01  0.00000000E+00
  4.30000000E+02  7.00000000E+01  0.00000000E+00
  4.40000000E+02  7.00000000E+01  0.00000000E+00
  4.50000000E+02  7.00000000E+01  0.00000000E+00
  4.60000000E+02  7.00000000E+01  0.00000000E+00
  4.70000000E+02  7.00000000E+01  0.00000000E+00
  4.80000000E+02  7.00000000E+01  0.00000000E+00
  4.90000000E+02  7.00000000E+01  0.00000000E+00
  5.00000000E+02  7.00000000E+01  0.00000000E+00
  5.10000000E+02  7.00000000E+01  0.00000000E+00
  5.20000000E+02  7.00000000E+01  0.00000000E+00
  5.30000000E+02  7.00000000E+01  0.00000000E+00
  5.40000000E+02  7.00000000E+01  0.00000000E+00
  5.50000000E+02  7.00000000E+01  0.00000000E+00
  5.60000000E+02  7.00000000E+01  0.00000000E+00
  5.70000000E+02  7.00000000E+01  0.00000000E+00
  5.80000000E+02  7.00000000E+01  0.00000000E+00
  5.90000000E+02  7.00000000E+01  0.00000000E+00
  6.00000000E+02  7.00000000E+01  0.00000000E+00
  6.10000000E+02  7.00000000E+01  0.00000000E+00
  6.20000000E+02  7.00000000E+01  0.00000000E+00
  6.30000000E+02  7.00000000E+01  0.00000000E+00
  6.40000000E+02  7.00000000E+01  0.00000000E+00
  6.50000000E+02  7.00000000E+01  0.00000000E+00
  6.60000000E+02  7.00000000E+01  0.00000000E+00
  6.70000000E+02  7.00000000E+01  0.00000000E+00
  6.80000000E+02  7.00000000E+01  0.00000000E+00
  6.90000000E+02  7.00000000E+01  0.00000000E+00
  7.00000000E+02  7.00000000E+01  0.00000000E+00
  7.10000000E+02  7.00000000E+01  0.00000000E+00
  7.20000000E+02  7.00000000E+01  0.00000000E+00
  7.30000000E+02  7.00000000E+01  0.00000000E+00
  7.40000000E+02  7.00000000E+01  0.00000000E+00
  7.50000000E+02  7.00000000E+01  0.00000000E+00
  7.60000000E+02  7.00000000E+01  0.00000000E+00
  7.70000000E+02  7.00000000E+01  0.00000000E+00
  7.80000000E+02  7.00000000E+01  0.00000000E+00
  7.90000000E+02  7.00000000E+01  0.00000000E+00
  8.00000000E+02  7.00000000E+01  0.00000000E+00
  8.10000000E+02  7.00000000E+01  0.00000000E+00
  8.20000000E+02  7.00000000E+01  0.00000000E+00
  8.30000000E+02  7.00000000E+01  0.00000000E+00
  8.40000000E+02  7.00000000E+01  0.00000000E+00
  8.50000000E+02  7.00000000E+01  0.00000000E+00
  8.60000000E+02  7.00000000E+01  0.00000000E+00
  8.70000000E+02  7.00000000E+01  0.00000000E+00
  8.80000000E+02  7.00000000E+01  0.00000000E+00
  8.90000000E+02  7.00000000E+01  0.00000000E+00
  9.00000000E+02  7.00000000E+01  0.00000000E+00
  9.10000000E+02  7.00000000E+01  0.00000000E+00
  9.20000000E+02  7.00000000E+01  0.00000000E+00
  9.30000000E+02  7.00000000E+01  0.00000000E+00
  9.40000000E+02  7.00000000E+01  0.00000000E+00
  9.50000000E+02  7.00000000E+01  0.00000000E+00
  9.60000000E+02  7.00000000E+01  0.00000000E+00
  9.70000000E+02  7.00000000E+01  0.00000000E+00
  9.80000000E+02  7.00000000E+01  0.00000000E+00
  9.90000000E+02  7.00000000E+01  0.00000000E+00
  1.00000000E+03  7.00000000E+01  0.00000000E+00
  0.00000000E+00  7.20000000E+01  0.00000000E+00
  1.00000000E+01  7.20000000E+01  0.00000000E+00
  2.00000000E+01  7.20000000E+01  0.00000000E+00
  3.00000000E+01  7.20000000E+01  0.00000000E+00
  4.00000000E+01  7.20000000E+01  0.00000000E+00
  5.00000000E+01  7.20000000E+01  0.00000000E+00
  6.00000000E+01  7.20000000E+01  0.00000000E+00
  7.00000000E+01  7.20000000E+01  0.00000000E+00
  8.00000000E+01  7.20000000E+01  0.00000000E+00
  9.00000000E+01  7.20000000E+01  0.00000000E+00
  1.00000000E+02  7.20000000E+01  0.00000000E+00
  1.10000000E+02  7.20000000E+01  0.00000000E+00
  1.20000000E+02  7.20000000E+01  0.00000000E+00
  1.30000000E+02  7.20000000E+01  0.00000000E+00
  1.40000000E+02  7.20000000E+01  0.00000000E+00
  1.50000000E+02  7.20000000E+01  0.00000000E+00
  1.60000000E+02  7.20000000E+01  0.00000000E+00
  1.70000000E+02  7.20000000E+01  0.00000000E+00
  1.80000000E+02  7.20000000E+01  0.00000000E+00
  1.90000000E+02  7.20000000E+01  0.00000000E+00
  2.00000000E+02  7.20000000E+01  0.00000000E+00
  2.10000000E+02  7.20000000E+01  0.00000000E+00
  2.20000000E+02  7.20000000E+01  0.00000000E+00
  2.30000000E+02  7.20000000E+01  0.00000000E+00
  2.40000000E+02  7.20000000E+01  0.00000000E+00
  2.50000000E+02  7.20000000E+01  0.00000000E+00
  2.60000000E+02  7.20000000E+01  0.00000000E+00
  2.70000000E+02  7.20000000E+01  0.00000000E+00
  2.80000000E+02  7.20000000E+01  0.00000000E+00
  2.90000000E+02  7.20000000E+01  0.00000000E+00
  3.00000000E+02  7.20000000E+01  0.00000000E+00
  3.10000000E+02  7.20000000E+01  0.00000000E+00
  3.20000000E+02  7.20000000E+01  0.00000000E+00
  3.30000000E+02  7.20000000E+01  0.00000000E+00
  3.40000000E+02  7.20000000E+01  0.00000000E+00
  3.50000000E+02  7.20000000E+01  0.00000000E+00
  3.60000000E+02  7.20000000E+01  0.00000000E+00
  3.70000000E+02  7.20000000E+01  0.00000000E+00
  3.80000000E+02  7.20000000E+01  0.00000000E+00
  3.90000000E+02  7.20000000E+01  0.00000000E+00
  4.00000000E+02  7.20000000E+01  0.00000000E+00
  4.10000000E+02  7.20000000E+01  0.00000000E+00
  4.20000000E+02  7.20000000E+01  0.00000000E+00
  4.30000000E+02  7.20000000E+01  0.00000000E+00
  4.40000000E+02  7.20000000E+01  0.00000000E+00
  4.50000000E+02  7.20000000E+01  0.00000000E+00
  4.60000000E+02  7.20000000E+01  0.00000000E+00
  4.70000000E+02  7.20000000E+01  0.00000000E+00
  4.80000000E+02  7.20000000E+01  0.00000000E+00
  4.90000000E+02  7.20000000E+01  0.00000000E+00
  5.00000000E+02  7.20000000E+01  0.00000000E+00
  5.10000000E+02  7.20000000E+01  0.00000000E+00
  5.20000000E+02  7.20000000E+01  0.00000000E+00
  5.30000000E+02  7.20000000E+01  0.00000000E+00
  5.40000000E+02  7.20000000E+01  0.00000000E+00
  5.50000000E+02  7.20000000E+01  0.00000000E+00
  5.60000000E+02  7.20000000E+01  0.00000000E+00
  5.70000000E+02  7.20000000E+01  0.00000000E+00
  5.80000000E+02  7.20000000E+01  0.00000000E+00
  5.90000000E+02  7.20000000E+01  0.00000000E+00
  6.00000000E+02  7.20000000E+01  0.00000000E+00
  6.10000000E+02  7.20000000E+01  0.00000000E+00
  6.20000000E+02  7.20000000E+01  0.00000000E+00
  6.30000000E+02  7.20000000E+01  0.00000000E+00
  6.40000000E+02  7.20000000E+01  0.00000000E+00
  6.50000000E+02  7.20000000E+01  0.00000000E+00
  6.60000000E+02  7.20000000E+01  0.00000000E+00
  6.70000000E+02  7.20000000E+01  0.00000000E+00
  6.80000000E+02  7.20000000E+01  0.00000000E+00
  6.90000000E+02  7.20000000E+01  0.00000000E+00
  7.00000000E+02  7.20000000E+01  0.00000000E+00
  7.10000000E+02  7.20000000E+01  0.00000000E+00
  7.20000000E+02  7.20000000E+01  0.00000000E+00
  7.30000000E+02  7.20000000E+01  0.00000000E+00
  7.40000000E+02  7.20000000E+01  0.00000000E+00
  7.50000000E+02  7.20000000E+01  0.00000000E+00
  7.60000000E+02  7.20000000E+01  0.00000000E+00
  7.70000000E+02  7.20000000E+01  0.00000000E+00
  7.80000000E+02  7.20000000E+01  0.00000000E+00
  7.90000000E+02  7.20000000E+01  0.00000000E+00
  8.00000000E+02  7.20000000E+01  0.00000000E+00
  8.10000000E+02  7.20000000E+01  0.00000000E+00
  8.20000000E+02  7.20000000E+01  0.00000000E+00
  8.30000000E+02  7.20000000E+01  0.00000000E+00
  8.40000000E+02  7.20000000E+01  0.00000000E+00
  8.50000000E+02  7.20000000E+01  0.00000000E+00
  8.60000000E+02  7.20000000E+01  0.00000000E+00
  8.70000000E+02  7.20000000E+01  0.00000000E+00
  8.80000000E+02  7.20000000E+01  0.00000000E+00
  8.90000000E+02  7.20000000E+01  0.00000000E+00
  9.00000000E+02  7.20000000E+01  0.00000000E+00
  9.10000000E+02  7.20000000E+01  0.00000000E+00
  9.20000000E+02  7.20000000E+01  0.00000000E+00
  9.30000000E+02  7.20000000E+01  0.00000000E+00
  9.40000000E+02  7.20000000E+01  0.00000000E+00
  9.50000000E+02  7.20000000E+01  0.00000000E+00
  9.60000000E+02  7.20000000E+01  0.00000000E+00
  9.70000000E+02  7.20000000E+01  0.00000000E+00
  9.80000000E+02  7.20000000E+01  0.00000000E+00
  9.90000000E+02  7.20000000E+01  0.00000000E+00
  1.00000000E+03  7.20000000E+01  0.00000000E+00
  0.00000000E+00  7.40000000E+01  0.00000000E+00
  1.00000000E+01  7.40000000E+01  0.00000000E+00
  2.00000000E+01  7.40000000E+01  0.00000000E+00
  3.00000000E+01  7.40000000E+01  0.00000000E+00
  4.00000000E+01  7.40000000E+01  0.00000000E+00
  5.00000000E+01  7.40000000E+01  0.00000000E+00
  6.00000000E+01  7.40000000E+01  0.00000000E+00
  7.00000000E+01  7.40000000E+01  0.00000000E+00
  8.00000000E+01  7.40000000E+01  0.00000000E+00
  9.00000000E+01  7.40000000E+01  0.00000000E+00
  1.00000000E+02  7.40000000E+01  0.00000000E+00
  1.10000000E+02  7.40000000E+01  0.00000000E+00
  1.20000000E+02  7.40000000E+01  0.00000000E+00
  1.30000000E+02  7.40000000E+01  0.00000000E+00
  1.40000000E+02  7.40000000E+01  0.00000000E+00
  1.50000000E+02  7.40000000E+01  0.00000000E+00
  1.60000000E+02  7.40000000E+01  0.00000000E+00
  1.70000000E+02  7.40000000E+01  0.00000000E+00
  1.80000000E+02  7.40000000E+01  0.00000000E+00
  1.90000000E+02  7.40000000E+01  0.00000000E+00
  2.00000000E+02  7.40000000E+01  0.00000000E+00
  2.10000000E+02  7.40000000E+01  0.00000000E+00
  2.20000000E+02  7.40000000E+01  0.00000000E+00
  2.30000000E+02  7.40000000E+01  0.00000000E+00
  2.40000000E+02  7.40000000E+01  0.00000000E+00
  2.50000000E+02  7.40000000E+01  0.00000000E+00
  2.60000000E+02  7.40000000E+01  0.00000000E+00
  2.70000000E+02  7.40000000E+01  0.00000000E+00
  2.80000000E+02  7.40000000E+01  0.00000000E+00
  2.90000000E+02  7.40000000E+01  0.00000000E+00
  3.00000000E+02  7.40000000E+01  0.00000000E+00
  3.10000000E+02  7.40000000E+01  0.00000000E+00
  3.20000000E+02  7.40000000E+01  0.00000000E+00
  3.30000000E+02  7.40000000E+01  0.00000000E+00
  3.40000000E+02  7.40000000E+01  0.00000000E+00
  3.50000000E+02  7.40000000E+01  0.00000000E+00
  3.60000000E+02  7.40000000E+01  0.00000000E+00
  3.70000000E+02  7.40000000E+01  0.00000000E+00
  3.80000000E+02  7.40000000E+01  0.00000000E+00
  3.90000000E+02  7.40000000E+01  0.00000000E+00
  4.00000000E+02  7.40000000E+01  0.00000000E+00
  4.10000000E+02  7.40000000E+01  0.00000000E+00
  4.20000000E+02  7.40000000E+01  0.00000000E+00
  4.30000000E+02  7.40000000E+01  0.00000000E+00
  4.40000000E+02  7.40000000E+01  0.00000000E+00
  4.50000000E+02  7.40000000E+01  0.00000000E+00
  4.60000000E+02  7.40000000E+01  0.00000000E+00
  4.70000000E+02  7.40000000E+01  0.00000000E+00
  4.80000000E+02  7.40000000E+01  0.00000000E+00
  4.90000000E+02  7.40000000E+01  0.00000000E+00
  5.00000000E+02  7.40000000E+01  0.00000000E+00
  5.10000000E+02  7.40000000E+01  0.00000000E+00
  5.20000000E+02  7.40000000E+01  0.00000000E+00
  5.30000000E+02  7.40000000E+01  0.00000000E+00
  5.40000000E+02  7.40000000E+01  0.00000000E+00
  5.50000000E+02  7.40000000E+01  0.00000000E+00
  5.60000000E+02  7.40000000E+01  0.00000000E+00
  5.70000000E+02  7.40000000E+01  0.00000000E+00
  5.80000000E+02  7.40000000E+01  0.00000000E+00
  5.90000000E+02  7.40000000E+01  0.00000000E+00
  6.00000000E+02  7.40000000E+01  0.00000000E+00
  6.10000000E+02  7.40000000E+01  0.00000000E+00
  6.20000000E+02  7.40000000E+01  0.00000000E+00
  6.30000000E+02  7.40000000E+01  0.00000000E+00
  6.40000000E+02  7.40000000E+01  0.00000000E+00
  6.50000000E+02  7.40000000E+01  0.00000000E+00
  6.60000000E+02  7.40000000E+01  0.00000000E+00
  6.70000000E+02  7.40000000E+01  0.00000000E+00
  6.80000000E+02  7.40000000E+01  0.00000000E+00
  6.90000000E+02  7.40000000E+01  0.00000000E+00
  7.00000000E+02  7.40000000E+01  0.00000000E+00
  7.10000000E+02  7.40000000E+01  0.00000000E+00
  7.20000000E+02  7.40000000E+01  0.00000000E+00
  7.30000000E+02  7.40000000E+01  0.00000000E+00
  7.40000000E+02  7.40000000E+01  0.00000000E+00
  7.50000000E+02  7.40000000E+01  0.00000000E+00
  7.60000000E+02  7.40000000E+01  0.00000000E+00
  7.70000000E+02  7.40000000E+01  0.00000000E+00
  7.80000000E+02  7.40000000E+01  0.00000000E+00
  7.90000000E+02  7.40000000E+01  0.00000000E+00
  8.00000000E+02  7.40000000E+01  0.00000000E+00
  8.10000000E+02  7.40000000E+01  0.00000000E+00
  8.20000000E+02  7.40000000E+01  0.00000000E+00
  8.30000000E+02  7.40000000E+01  0.00000000E+00
  8.40000000E+02  7.40000000E+01  0.00000000E+00
  8.50000000E+02  7.40000000E+01  0.00000000E+00
  8.60000000E+02  7.40000000E+01  0.00000000E+00
  8.70000000E+02  7.40000000E+01  0.00000000E+00
  8.80000000E+02  7.40000000E+01  0.00000000E+00
  8.90000000E+02  7.40000000E+01  0.00000000E+00
  9.00000000E+02  7.40000000E+01  0.00000000E+00
  9.10000000E+02  7.40000000E+01  0.00000000E+00
  9.20000000E+02  7.40000000E+01  0.00000000E+00
  9.30000000E+02  7.40000000E+01  0.00000000E+00
  9.40000000E+02  7.40000000E+01  0.00000000E+00
  9.50000000E+02  7.40000000E+01  0.00000000E+00
  9.60000000E+02  7.40000000E+01  0.00000000E+00
  9.70000000E+02  7.40000000E+01  0.00000000E+00
  9.80000000E+02  7.40000000E+01  0.00000000E+00
  9.90000000E+02  7.40000000E+01  0.00000000E+00
  1.00000000E+03  7.40000000E+01  0.00000000E+00
  0.00000000E+00  7.60000000E+01  0.00000000E+00
  1.00000000E+01  7.60000000E+01  0.00000000E+00
  2.00000000E+01  7.60000000E+01  0.00000000E+00
  3.00000000E+01  7.60000000E+01  0.00000000E+00
  4.00000000E+01  7.60000000E+01  0.00000000E+00
  5.00000000E+01  7.60000000E+01  0.00000000E+00
  6.00000000E+01  7.60000000E+01  0.00000000E+00
  7.00000000E+01  7.60000000E+01  0.00000000E+00
  8.00000000E+01  7.60000000E+01  0.00000000E+00
  9.00000000E+01  7.60000000E+01  0.00000000E+00
  1.00000000E+02  7.60000000E+01  0.00000000E+00
  1.10000000E+02  7.60000000E+01  0.00000000E+00
  1.20000000E+02  7.60000000E+01  0.00000000E+00
  1.30000000E+02  7.60000000E+01  0.00000000E+00
  1.40000000E+02  7.60000000E+01  0.00000000E+00
  1.50000000E+02  7.60000000E+01  0.00000000E+00
  1.60000000E+02  7.60000000E+01  0.00000000E+00
  1.70000000E+02  7.60000000E+01  0.00000000E+00
  1.80000000E+02  7.60000000E+01  0.00000000E+00
  1.90000000E+02  7.60000000E+01  0.00000000E+00
  2.00000000E+02  7.60000000E+01  0.00000000E+00
  2.10000000E+02  7.60000000E+01  0.00000000E+00
  2.20000000E+02  7.60000000E+01  0.00000000E+00
  2.30000000E+02  7.60000000E+01  0.00000000E+00
  2.40000000E+02  7.60000000E+01  0.00000000E+00
  2.50000000E+02  7.60000000E+01  0.00000000E+00
  2.60000000E+02  7.60000000E+01  0.00000000E+00
  2.70000000E+02  7.60000000E+01  0.00000000E+00
  2.80000000E+02  7.60000000E+01  0.00000000E+00
  2.90000000E+02  7.60000000E+01  0.00000000E+00
  3.00000000E+02  7.60000000E+01  0.00000000E+00
  3.10000000E+02  7.60000000E+01  0.00000000E+00
  3.20000000E+02  7.60000000E+01  0.00000000E+00
  3.30000000E+02  7.60000000E+01  0.00000000E+00
  3.40000000E+02  7.60000000E+01  0.00000000E+00
  3.50000000E+02  7.60000000E+01  0.00000000E+00
  3.60000000E+02  7.60000000E+01  0.00000000E+00
  3.70000000E+02  7.60000000E+01  0.00000000E+00
  3.80000000E+02  7.60000000E+01  0.00000000E+00
  3.90000000E+02  7.60000000E+01  0.00000000E+00
  4.00000000E+02  7.60000000E+01  0.00000000E+00
  4.10000000E+02  7.60000000E+01  0.00000000E+00
  4.20000000E+02  7.60000000E+01  0.00000000E+00
  4.30000000E+02  7.60000000E+01  0.00000000E+00
  4.40000000E+02  7.60000000E+01  0.00000000E+00
  4.50000000E+02  7.60000000E+01  0.00000000E+00
  4.60000000E+02  7.60000000E+01  0.00000000E+00
  4.70000000E+02  7.60000000E+01  0.00000000E+00
  4.80000000E+02  7.60000000E+01  0.00000000E+00
  4.90000000E+02  7.60000000E+01  0.00000000E+00
  5.00000000E+02  7.60000000E+01  0.00000000E+00
  5.10000000E+02  7.60000000E+01  0.00000000E+00
  5.20000000E+02  7.60000000E+01  0.00000000E+00
  5.30000000E+02  7.60000000E+01  0.00000000E+00
  5.40000000E+02  7.60000000E+01  0.00000000E+00
  5.50000000E+02  7.60000000E+01  0.00000000E+00
  5.60000000E+02  7.60000000E+01  0.00000000E+00
  5.70000000E+02  7.60000000E+01  0.00000000E+00
  5.80000000E+02  7.60000000E+01  0.00000000E+00
  5.90000000E+02  7.60000000E+01  0.00000000E+00
  6.00000000E+02  7.60000000E+01  0.00000000E+00
  6.10000000E+02  7.60000000E+01  0.00000000E+00
  6.20000000E+02  7.60000000E+01  0.00000000E+00
  6.30000000E+02  7.60000000E+01  0.00000000E+00
  6.40000000E+02  7.60000000E+01  0.00000000E+00
  6.50000000E+02  7.60000000E+01  0.00000000E+00
  6.60000000E+02  7.60000000E+01  0.00000000E+00
  6.70000000E+02  7.60000000E+01  0.00000000E+00
  6.80000000E+02  7.60000000E+01  0.00000000E+00
  6.90000000E+02  7.60000000E+01  0.00000000E+00
  7.00000000E+02  7.60000000E+01  0.00000000E+00
  7.10000000E+02  7.60000000E+01  0.00000000E+00
  7.20000000E+02  7.60000000E+01  0.00000000E+00
  7.30000000E+02  7.60000000E+01  0.00000000E+00
  7.40000000E+02  7.60000000E+01  0.00000000E+00
  7.50000000E+02  7.60000000E+01  0.00000000E+00
  7.60000000E+02  7.60000000E+01  0.00000000E+00
  7.70000000E+02  7.60000000E+01  0.00000000E+00
  7.80000000E+02  7.60000000E+01  0.00000000E+00
  7.90000000E+02  7.60000000E+01  0.00000000E+00
  8.00000000E+02  7.60000000E+01  0.00000000E+00
  8.10000000E+02  7.60000000E+01  0.00000000E+00
  8.20000000E+02  7.60000000E+01  0.00000000E+00
  8.30000000E+02  7.60000000E+01  0.00000000E+00
  8.40000000E+02  7.60000000E+01  0.00000000E+00
  8.50000000E+02  7.60000000E+01  0.00000000E+00
  8.60000000E+02  7.60000000E+01  0.00000000E+00
  8.70000000E+02  7.60000000E+01  0.00000000E+00
  8.80000000E+02  7.60000000E+01  0.00000000E+00
  8.90000000E+02  7.60000000E+01  0.00000000E+00
  9.00000000E+02  7.60000000E+01  0.00000000E+00
  9.10000000E+02  7.60000000E+01  0.00000000E+00
  9.20000000E+02  7.60000000E+01  0.00000000E+00
  9.30000000E+02  7.60000000E+01  0.00000000E+00
  9.40000000E+02  7.60000000E+01  0.00000000E+00
  9.50000000E+02  7.60000000E+01  0.00000000E+00
  9.60000000E+02  7.60000000E+01  0.00000000E+00
  9.70000000E+02  7.60000000E+01  0.00000000E+00
  9.80000000E+02  7.60000000E+01  0.00000000E+00
  9.90000000E+02  7.60000000E+01  0.00000000E+00
  1.00000000E+03  7.60000000E+01  0.00000000E+00
  0.00000000E+00  7.80000000E+01  0.00000000E+00
  1.00000000E+01  7.80000000E+01  0.00000000E+00
  2.00000000E+01  7.80000000E+01  0.00000000E+00
  3.00000000E+01  7.80000000E+01  0.00000000E+00
  4.00000000E+01  7.80000000E+01  0.00000000E+00
  5.00000000E+01  7.80000000E+01  0.00000000E+00
  6.00000000E+01  7.80000000E+01  0.00000000E+00
  7.00000000E+01  7.80000000E+01  0.00000000E+00
  8.00000000E+01  7.80000000E+01  0.00000000E+00
  9.00000000E+01  7.80000000E+01  0.00000000E+00
  1.00000000E+02  7.80000000E+01  0.00000000E+00
  1.10000000E+02  7.80000000E+01  0.00000000E+00
  1.20000000E+02  7.80000000E+01  0.00000000E+00
  1.30000000E+02  7.80000000E+01  0.00000000E+00
  1.40000000E+02  7.80000000E+01  0.00000000E+00
  1.50000000E+02  7.80000000E+01  0.00000000E+00
  1.60000000E+02  7.80000000E+01  0.00000000E+00
  1.70000000E+02  7.80000000E+01  0.00000000E+00
  1.80000000E+02  7.80000000E+01  0.00000000E+00
  1.90000000E+02  7.80000000E+01  0.00000000E+00
  2.00000000E+02  7.80000000E+01  0.00000000E+00
  2.10000000E+02  7.80000000E+01  0.00000000E+00
  2.20000000E+02  7.80000000E+01  0.00000000E+00
  2.30000000E+02  7.80000000E+01  0.00000000E+00
  2.40000000E+02  7.80000000E+01  0.00000000E+00
  2.50000000E+02  7.80000000E+01  0.00000000E+00
  2.60000000E+02  7.80000000E+01  0.00000000E+00
  2.70000000E+02  7.80000000E+01  0.00000000E+00
  2.80000000E+02  7.80000000E+01  0.00000000E+00
  2.90000000E+02  7.80000000E+01  0.00000000E+00
  3.00000000E+02  7.80000000E+01  0.00000000E+00
  3.10000000E+02  7.80000000E+01  0.00000000E+00
  3.20000000E+02  7.80000000E+01  0.00000000E+00
  3.30000000E+02  7.80000000E+01  0.00000000E+00
  3.40000000E+02  7.80000000E+01  0.00000000E+00
  3.50000000E+02  7.80000000E+01  0.00000000E+00
  3.60000000E+02  7.80000000E+01  0.00000000E+00
  3.70000000E+02  7.80000000E+01  0.00000000E+00
  3.80000000E+02  7.80000000E+01  0.00000000E+00
  3.90000000E+02  7.80000000E+01  0.00000000E+00
  4.00000000E+02  7.80000000E+01  0.00000000E+00
  4.10000000E+02  7.80000000E+01  0.00000000E+00
  4.20000000E+02  7.80000000E+01  0.00000000E+00
  4.30000000E+02  7.80000000E+01  0.00000000E+00
  4.40000000E+02  7.80000000E+01  0.00000000E+00
  4.50000000E+02  7.80000000E+01  0.00000000E+00
  4.60000000E+02  7.80000000E+01  0.00000000E+00
  4.70000000E+02  7.80000000E+01  0.00000000E+00
  4.80000000E+02  7.80000000E+01  0.00000000E+00
  4.90000000E+02  7.80000000E+01  0.00000000E+00
  5.00000000E+02  7.80000000E+01  0.00000000E+00
  5.10000000E+02  7.80000000E+01  0.00000000E+00
  5.20000000E+02  7.80000000E+01  0.00000000E+00
  5.30000000E+02  7.80000000E+01  0.00000000E+00
  5.40000000E+02  7.80000000E+01  0.00000000E+00
  5.50000000E+02  7.80000000E+01  0.00000000E+00
  5.60000000E+02  7.80000000E+01  0.00000000E+00
  5.70000000E+02  7.80000000E+01  0.00000000E+00
  5.80000000E+02  7.80000000E+01  0.00000000E+00
  5.90000000E+02  7.80000000E+01  0.00000000E+00
  6.00000000E+02  7.80000000E+01  0.00000000E+00
  6.10000000E+02  7.80000000E+01  0.00000000E+00
  6.20000000E+02  7.80000000E+01  0.00000000E+00
  6.30000000E+02  7.80000000E+01  0.00000000E+00
  6.40000000E+02  7.80000000E+01  0.00000000E+00
  6.50000000E+02  7.80000000E+01  0.00000000E+00
  6.60000000E+02  7.80000000E+01  0.00000000E+00
  6.70000000E+02  7.80000000E+01  0.00000000E+00
  6.80000000E+02  7.80000000E+01  0.00000000E+00
  6.90000000E+02  7.80000000E+01  0.00000000E+00
  7.00000000E+02  7.80000000E+01  0.00000000E+00
  7.10000000E+02  7.80000000E+01  0.00000000E+00
  7.20000000E+02  7.80000000E+01  0.00000000E+00
  7.30000000E+02  7.80000000E+01  0.00000000E+00
  7.40000000E+02  7.80000000E+01  0.00000000E+00
  7.50000000E+02  7.80000000E+01  0.00000000E+00
  7.60000000E+02  7.80000000E+01  0.00000000E+00
  7.70000000E+02  7.80000000E+01  0.00000000E+00
  7.80000000E+02  7.80000000E+01  0.00000000E+00
  7.90000000E+02  7.80000000E+01  0.00000000E+00
  8.00000000E+02  7.80000000E+01  0.00000000E+00
  8.10000000E+02  7.80000000E+01  0.00000000E+00
  8.20000000E+02  7.80000000E+01  0.00000000E+00
  8.30000000E+02  7.80000000E+01  0.00000000E+00
  8.40000000E+02  7.80000000E+01  0.00000000E+00
  8.50000000E+02  7.80000000E+01  0.00000000E+00
  8.60000000E+02  7.80000000E+01  0.00000000E+00
  8.70000000E+02  7.80000000E+01  0.00000000E+00
  8.80000000E+02  7.80000000E+01  0.00000000E+00
  8.90000000E+02  7.80000000E+01  0.00000000E+00
  9.00000000E+02  7.80000000E+01  0.00000000E+00
  9.10000000E+02  7.80000000E+01  0.00000000E+00
  9.20000000E+02  7.80000000E+01  0.00000000E+00
  9.30000000E+02  7.80000000E+01  0.00000000E+00
  9.40000000E+02  7.80000000E+01  0.00000000E+00
  9.50000000E+02  7.80000000E+01  0.00000000E+00
  9.60000000E+02  7.80000000E+01  0.00000000E+00
  9.70000000E+02  7.80000000E+01  0.00000000E+00
  9.80000000E+02  7.80000000E+01  0.00000000E+00
  9.90000000E+02  7.80000000E+01  0.00000000E+00
  1.00000000E+03  7.80000000E+01  0.00000000E+00
  0.00000000E+00  8.00000000E+01  0.00000000E+00
  1.00000000E+01  8.00000000E+01  0.00000000E+00
  2.00000000E+01  8.00000000E+01  0.00000000E+00
  3.00000000E+01  8.00000000E+01  0.00000000E+00
  4.00000000E+01  8.00000000E+01  0.00000000E+00
  5.00000000E+01  8.00000000E+01  0.00000000E+00
  6.00000000E+01  8.00000000E+01  0.00000000E+00
  7.00000000E+01  8.00000000E+01  0.00000000E+00
  8.00000000E+01  8.00000000E+01  0.00000000E+00
  9.00000000E+01  8.00000000E+01  0.00000000E+00
  1.00000000E+02  8.00000000E+01  0.00000000E+00
  1.10000000E+02  8.00000000E+01  0.00000000E+00
  1.20000000E+02  8.00000000E+01  0.00000000E+00
  1.30000000E+02  8.00000000E+01  0.00000000E+00
  1.40000000E+02  8.00000000E+01  0.00000000E+00
  1.50000000E+02  8.00000000E+01  0.00000000E+00
  1.60000000E+02  8.00000000E+01  0.00000000E+00
  1.70000000E+02  8.00000000E+01  0.00000000E+00
  1.80000000E+02  8.00000000E+01  0.00000000E+00
  1.90000000E+02  8.00000000E+01  0.00000000E+00
  2.00000000E+02  8.00000000E+01  0.00000000E+00
  2.10000000E+02  8.00000000E+01  0.00000000E+00
  2.20000000E+02  8.00000000E+01  0.00000000E+00
  2.30000000E+02  8.00000000E+01  0.00000000E+00
  2.40000000E+02  8.00000000E+01  0.00000000E+00
  2.50000000E+02  8.00000000E+01  0.00000000E+00
  2.60000000E+02  8.00000000E+01  0.00000000E+00
  2.70000000E+02  8.00000000E+01  0.00000000E+00
  2.80000000E+02  8.00000000E+01  0.00000000E+00
  2.90000000E+02  8.00000000E+01  0.00000000E+00
  3.00000000E+02  8.00000000E+01  0.00000000E+00
  3.10000000E+02  8.00000000E+01  0.00000000E+00
  3.20000000E+02  8.00000000E+01  0.00000000E+00
  3.30000000E+02  8.00000000E+01  0.00000000E+00
  3.40000000E+02  8.00000000E+01  0.00000000E+00
  3.50000000E+02  8.00000000E+01  0.00000000E+00
  3.60000000E+02  8.00000000E+01  0.00000000E+00
  3.70000000E+02  8.00000000E+01  0.00000000E+00
  3.80000000E+02  8.00000000E+01  0.00000000E+00
  3.90000000E+02  8.00000000E+01  0.00000000E+00
  4.00000000E+02  8.00000000E+01  0.00000000E+00
  4.10000000E+02  8.00000000E+01  0.00000000E+00
  4.20000000E+02  8.00000000E+01  0.00000000E+00
  4.30000000E+02  8.00000000E+01  0.00000000E+00
  4.40000000E+02  8.00000000E+01  0.00000000E+00
  4.50000000E+02  8.00000000E+01  0.00000000E+00
  4.60000000E+02  8.00000000E+01  0.00000000E+00
  4.70000000E+02  8.00000000E+01  0.00000000E+00
  4.80000000E+02  8.00000000E+01  0.00000000E+00
  4.90000000E+02  8.00000000E+01  0.00000000E+00
  5.00000000E+02  8.00000000E+01  0.00000000E+00
  5.10000000E+02  8.00000000E+01  0.00000000E+00
  5.20000000E+02  8.00000000E+01  0.00000000E+00
  5.30000000E+02  8.00000000E+01  0.00000000E+00
  5.40000000E+02  8.00000000E+01  0.00000000E+00
  5.50000000E+02  8.00000000E+01  0.00000000E+00
  5.60000000E+02  8.00000000E+01  0.00000000E+00
  5.70000000E+02  8.00000000E+01  0.00000000E+00
  5.80000000E+02  8.00000000E+01  0.00000000E+00
  5.90000000E+02  8.00000000E+01  0.00000000E+00
  6.00000000E+02  8.00000000E+01  0.00000000E+00
  6.10000000E+02  8.00000000E+01  0.00000000E+00
  6.20000000E+02  8.00000000E+01  0.00000000E+00
  6.30000000E+02  8.00000000E+01  0.00000000E+00
  6.40000000E+02  8.00000000E+01  0.00000000E+00
  6.50000000E+02  8.00000000E+01  0.00000000E+00
  6.60000000E+02  8.00000000E+01  0.00000000E+00
  6.70000000E+02  8.00000000E+01  0.00000000E+00
  6.80000000E+02  8.00000000E+01  0.00000000E+00
  6.90000000E+02  8.00000000E+01  0.00000000E+00
  7.00000000E+02  8.00000000E+01  0.00000000E+00
  7.10000000E+02  8.00000000E+01  0.00000000E+00
  7.20000000E+02  8.00000000E+01  0.00000000E+00
  7.30000000E+02  8.00000000E+01  0.00000000E+00
  7.40000000E+02  8.00000000E+01  0.00000000E+00
  7.50000000E+02  8.00000000E+01  0.00000000E+00
  7.60000000E+02  8.00000000E+01  0.00000000E+00
  7.70000000E+02  8.00000000E+01  0.00000000E+00
  7.80000000E+02  8.00000000E+01  0.00000000E+00
  7.90000000E+02  8.00000000E+01  0.00000000E+00
  8.00000000E+02  8.00000000E+01  0.00000000E+00
  8.10000000E+02  8.00000000E+01  0.00000000E+00
  8.20000000E+02  8.00000000E+01  0.00000000E+00
  8.30000000E+02  8.00000000E+01  0.00000000E+00
  8.40000000E+02  8.00000000E+01  0.00000000E+00
  8.50000000E+02  8.00000000E+01  0.00000000E+00
  8.60000000E+02  8.00000000E+01  0.00000000E+00
  8.70000000E+02  8.00000000E+01  0.00000000E+00
  8.80000000E+02  8.00000000E+01  0.00000000E+00
  8.90000000E+02  8.00000000E+01  0.00000000E+00
  9.00000000E+02  8.00000000E+01  0.00000000E+00
  9.10000000E+02  8.00000000E+01  0.00000000E+00
  9.20000000E+02  8.00000000E+01  0.00000000E+00
  9.30000000E+02  8.00000000E+01  0.00000000E+00
  9.40000000E+02  8.00000000E+01  0.00000000E+00
  9.50000000E+02  8.00000000E+01  0.00000000E+00
  9.60000000E+02  8.00000000E+01  0.00000000E+00
  9.70000000E+02  8.00000000E+01  0.00000000E+00
  9.80000000E+02  8.00000000E+01  0.00000000E+00
  9.90000000E+02  8.00000000E+01  0.00000000E+00
  1.00000000E+03  8.00000000E+01  0.00000000E+00
  0.00000000E+00  8.20000000E+01  0.00000000E+00
  1.00000000E+01  8.20000000E+01  0.00000000E+00
  2.00000000E+01  8.20000000E+01  0.00000000E+00
  3.00000000E+01  8.20000000E+01  0.00000000E+00
  4.00000000E+01  8.20000000E+01  0.00000000E+00
  5.00000000E+01  8.20000000E+01  0.00000000E+00
  6.00000000E+01  8.20000000E+01  0.00000000E+00
  7.00000000E+01  8.20000000E+01  0.00000000E+00
  8.00000000E+01  8.20000000E+01  0.00000000E+00
  9.00000000E+01  8.20000000E+01  0.00000000E+00
  1.00000000E+02  8.20000000E+01  0.00000000E+00
  1.10000000E+02  8.20000000E+01  0.00000000E+00
  1.20000000E+02  8.20000000E+01  0.00000000E+00
  1.30000000E+02  8.20000000E+01  0.00000000E+00
  1.40000000E+02  8.20000000E+01  0.00000000E+00
  1.50000000E+02  8.20000000E+01  0.00000000E+00
  1.60000000E+02  8.20000000E+01  0.00000000E+00
  1.70000000E+02  8.20000000E+01  0.00000000E+00
  1.80000000E+02  8.20000000E+01  0.00000000E+00
  1.90000000E+02  8.20000000E+01  0.00000000E+00
  2.00000000E+02  8.20000000E+01  0.00000000E+00
  2.10000000E+02  8.20000000E+01  0.00000000E+00
  2.20000000E+02  8.20000000E+01  0.00000000E+00
  2.30000000E+02  8.20000000E+01  0.00000000E+00
  2.40000000E+02  8.20000000E+01  0.00000000E+00
  2.50000000E+02  8.20000000E+01  0.00000000E+00
  2.60000000E+02  8.20000000E+01  0.00000000E+00
  2.70000000E+02  8.20000000E+01  0.00000000E+00
  2.80000000E+02  8.20000000E+01  0.00000000E+00
  2.90000000E+02  8.20000000E+01  0.00000000E+00
  3.00000000E+02  8.20000000E+01  0.00000000E+00
  3.10000000E+02  8.20000000E+01  0.00000000E+00
  3.20000000E+02  8.20000000E+01  0.00000000E+00
  3.30000000E+02  8.20000000E+01  0.00000000E+00
  3.40000000E+02  8.20000000E+01  0.00000000E+00
  3.50000000E+02  8.20000000E+01  0.00000000E+00
  3.60000000E+02  8.20000000E+01  0.00000000E+00
  3.70000000E+02  8.20000000E+01  0.00000000E+00
  3.80000000E+02  8.20000000E+01  0.00000000E+00
  3.90000000E+02  8.20000000E+01  0.00000000E+00
  4.00000000E+02  8.20000000E+01  0.00000000E+00
  4.10000000E+02  8.20000000E+01  0.00000000E+00
  4.20000000E+02  8.20000000E+01  0.00000000E+00
  4.30000000E+02  8.20000000E+01  0.00000000E+00
  4.40000000E+02  8.20000000E+01  0.00000000E+00
  4.50000000E+02  8.20000000E+01  0.00000000E+00
  4.60000000E+02  8.20000000E+01  0.00000000E+00
  4.70000000E+02  8.20000000E+01  0.00000000E+00
  4.80000000E+02  8.20000000E+01  0.00000000E+00
  4.90000000E+02  8.20000000E+01  0.00000000E+00
  5.00000000E+02  8.20000000E+01  0.00000000E+00
  5.10000000E+02  8.20000000E+01  0.00000000E+00
  5.20000000E+02  8.20000000E+01  0.00000000E+00
  5.30000000E+02  8.20000000E+01  0.00000000E+00
  5.40000000E+02  8.20000000E+01  0.00000000E+00
  5.50000000E+02  8.20000000E+01  0.00000000E+00
  5.60000000E+02  8.20000000E+01  0.00000000E+00
  5.70000000E+02  8.20000000E+01  0.00000000E+00
  5.80000000E+02  8.20000000E+01  0.00000000E+00
  5.90000000E+02  8.20000000E+01  0.00000000E+00
  6.00000000E+02  8.20000000E+01  0.00000000E+00
  6.10000000E+02  8.20000000E+01  0.00000000E+00
  6.20000000E+02  8.20000000E+01  0.00000000E+00
  6.30000000E+02  8.20000000E+01  0.00000000E+00
  6.40000000E+02  8.20000000E+01  0.00000000E+00
  6.50000000E+02  8.20000000E+01  0.00000000E+00
  6.60000000E+02  8.20000000E+01  0.00000000E+00
  6.70000000E+02  8.20000000E+01  0.00000000E+00
  6.80000000E+02  8.20000000E+01  0.00000000E+00
  6.90000000E+02  8.20000000E+01  0.00000000E+00
  7.00000000E+02  8.20000000E+01  0.00000000E+00
  7.10000000E+02  8.20000000E+01  0.00000000E+00
  7.20000000E+02  8.20000000E+01  0.00000000E+00
  7.30000000E+02  8.20000000E+01  0.00000000E+00
  7.40000000E+02  8.20000000E+01  0.00000000E+00
  7.50000000E+02  8.20000000E+01  0.00000000E+00
  7.60000000E+02  8.20000000E+01  0.00000000E+00
  7.70000000E+02  8.20000000E+01  0.00000000E+00
  7.80000000E+02  8.20000000E+01  0.00000000E+00
  7.90000000E+02  8.20000000E+01  0.00000000E+00
  8.00000000E+02  8.20000000E+01  0.00000000E+00
  8.10000000E+02  8.20000000E+01  0.00000000E+00
  8.20000000E+02  8.20000000E+01  0.00000000E+00
  8.30000000E+02  8.20000000E+01  0.00000000E+00
  8.40000000E+02  8.20000000E+01  0.00000000E+00
  8.50000000E+02  8.20000000E+01  0.00000000E+00
  8.60000000E+02  8.20000000E+01  0.00000000E+00
  8.70000000E+02  8.20000000E+01  0.00000000E+00
  8.80000000E+02  8.20000000E+01  0.00000000E+00
  8.90000000E+02  8.20000000E+01  0.00000000E+00
  9.00000000E+02  8.20000000E+01  0.00000000E+00
  9.10000000E+02  8.20000000E+01  0.00000000E+00
  9.20000000E+02  8.20000000E+01  0.00000000E+00
  9.30000000E+02  8.20000000E+01  0.00000000E+00
  9.40000000E+02  8.20000000E+01  0.00000000E+00
  9.50000000E+02  8.20000000E+01  0.00000000E+00
  9.60000000E+02  8.20000000E+01  0.00000000E+00
  9.70000000E+02  8.20000000E+01  0.00000000E+00
  9.80000000E+02  8.20000000E+01  0.00000000E+00
  9.90000000E+02  8.20000000E+01  0.00000000E+00
  1.00000000E+03  8.20000000E+01  0.00000000E+00
  0.00000000E+00  8.40000000E+01  0.00000000E+00
  1.00000000E+01  8.40000000E+01  0.00000000E+00
  2.00000000E+01  8.40000000E+01  0.00000000E+00
  3.00000000E+01  8.40000000E+01  0.00000000E+00
  4.00000000E+01  8.40000000E+01  0.00000000E+00
  5.00000000E+01  8.40000000E+01  0.00000000E+00
  6.00000000E+01  8.40000000E+01  0.00000000E+00
  7.00000000E+01  8.40000000E+01  0.00000000E+00
  8.00000000E+01  8.40000000E+01  0.00000000E+00
  9.00000000E+01  8.40000000E+01  0.00000000E+00
  1.00000000E+02  8.40000000E+01  0.00000000E+00
  1.10000000E+02  8.40000000E+01  0.00000000E+00
  1.20000000E+02  8.40000000E+01  0.00000000E+00
  1.30000000E+02  8.40000000E+01  0.00000000E+00
  1.40000000E+02  8.40000000E+01  0.00000000E+00
  1.50000000E+02  8.40000000E+01  0.00000000E+00
  1.60000000E+02  8.40000000E+01  0.00000000E+00
  1.70000000E+02  8.40000000E+01  0.00000000E+00
  1.80000000E+02  8.40000000E+01  0.00000000E+00
  1.90000000E+02  8.40000000E+01  0.00000000E+00
  2.00000000E+02  8.40000000E+01  0.00000000E+00
  2.10000000E+02  8.40000000E+01  0.00000000E+00
  2.20000000E+02  8.40000000E+01  0.00000000E+00
  2.30000000E+02  8.40000000E+01  0.00000000E+00
  2.40000000E+02  8.40000000E+01  0.00000000E+00
  2.50000000E+02  8.40000000E+01  0.00000000E+00
  2.60000000E+02  8.40000000E+01  0.00000000E+00
  2.70000000E+02  8.40000000E+01  0.00000000E+00
  2.80000000E+02  8.40000000E+01  0.00000000E+00
  2.90000000E+02  8.40000000E+01  0.00000000E+00
  3.00000000E+02  8.40000000E+01  0.00000000E+00
  3.10000000E+02  8.40000000E+01  0.00000000E+00
  3.20000000E+02  8.40000000E+01  0.00000000E+00
  3.30000000E+02  8.40000000E+01  0.00000000E+00
  3.40000000E+02  8.40000000E+01  0.00000000E+00
  3.50000000E+02  8.40000000E+01  0.00000000E+00
  3.60000000E+02  8.40000000E+01  0.00000000E+00
  3.70000000E+02  8.40000000E+01  0.00000000E+00
  3.80000000E+02  8.40000000E+01  0.00000000E+00
  3.90000000E+02  8.40000000E+01  0.00000000E+00
  4.00000000E+02  8.40000000E+01  0.00000000E+00
  4.10000000E+02  8.40000000E+01  0.00000000E+00
  4.20000000E+02  8.40000000E+01  0.00000000E+00
  4.30000000E+02  8.40000000E+01  0.00000000E+00
  4.40000000E+02  8.40000000E+01  0.00000000E+00
  4.50000000E+02  8.40000000E+01  0.00000000E+00
  4.60000000E+02  8.40000000E+01  0.00000000E+00
  4.70000000E+02  8.40000000E+01  0.00000000E+00
  4.80000000E+02  8.40000000E+01  0.00000000E+00
  4.90000000E+02  8.40000000E+01  0.00000000E+00
  5.00000000E+02  8.40000000E+01  0.00000000E+00
  5.10000000E+02  8.40000000E+01  0.00000000E+00
  5.20000000E+02  8.40000000E+01  0.00000000E+00
  5.30000000E+02  8.40000000E+01  0.00000000E+00
  5.40000000E+02  8.40000000E+01  0.00000000E+00
  5.50000000E+02  8.40000000E+01  0.00000000E+00
  5.60000000E+02  8.40000000E+01  0.00000000E+00
  5.70000000E+02  8.40000000E+01  0.00000000E+00
  5.80000000E+02  8.40000000E+01  0.00000000E+00
  5.90000000E+02  8.40000000E+01  0.00000000E+00
  6.00000000E+02  8.40000000E+01  0.00000000E+00
  6.10000000E+02  8.40000000E+01  0.00000000E+00
  6.20000000E+02  8.40000000E+01  0.00000000E+00
  6.30000000E+02  8.40000000E+01  0.00000000E+00
  6.40000000E+02  8.40000000E+01  0.00000000E+00
  6.50000000E+02  8.40000000E+01  0.00000000E+00
  6.60000000E+02  8.40000000E+01  0.00000000E+00
  6.70000000E+02  8.40000000E+01  0.00000000E+00
  6.80000000E+02  8.40000000E+01  0.00000000E+00
  6.90000000E+02  8.40000000E+01  0.00000000E+00
  7.00000000E+02  8.40000000E+01  0.00000000E+00
  7.10000000E+02  8.40000000E+01  0.00000000E+00
  7.20000000E+02  8.40000000E+01  0.00000000E+00
  7.30000000E+02  8.40000000E+01  0.00000000E+00
  7.40000000E+02  8.40000000E+01  0.00000000E+00
  7.50000000E+02  8.40000000E+01  0.00000000E+00
  7.60000000E+02  8.40000000E+01  0.00000000E+00
  7.70000000E+02  8.40000000E+01  0.00000000E+00
  7.80000000E+02  8.40000000E+01  0.00000000E+00
  7.90000000E+02  8.40000000E+01  0.00000000E+00
  8.00000000E+02  8.40000000E+01  0.00000000E+00
  8.10000000E+02  8.40000000E+01  0.00000000E+00
  8.20000000E+02  8.40000000E+01  0.00000000E+00
  8.30000000E+02  8.40000000E+01  0.00000000E+00
  8.40000000E+02  8.40000000E+01  0.00000000E+00
  8.50000000E+02  8.40000000E+01  0.00000000E+00
  8.60000000E+02  8.40000000E+01  0.00000000E+00
  8.70000000E+02  8.40000000E+01  0.00000000E+00
  8.80000000E+02  8.40000000E+01  0.00000000E+00
  8.90000000E+02  8.40000000E+01  0.00000000E+00
  9.00000000E+02  8.40000000E+01  0.00000000E+00
  9.10000000E+02  8.40000000E+01  0.00000000E+00
  9.20000000E+02  8.40000000E+01  0.00000000E+00
  9.30000000E+02  8.40000000E+01  0.00000000E+00
  9.40000000E+02  8.40000000E+01  0.00000000E+00
  9.50000000E+02  8.40000000E+01  0.00000000E+00
  9.60000000E+02  8.40000000E+01  0.00000000E+00
  9.70000000E+02  8.40000000E+01  0.00000000E+00
  9.80000000E+02  8.40000000E+01  0.00000000E+00
  9.90000000E+02  8.40000000E+01  0.00000000E+00
  1.00000000E+03  8.40000000E+01  0.00000000E+00
  0.00000000E+00  8.60000000E+01  0.00000000E+00
  1.00000000E+01  8.60000000E+01  0.00000000E+00
  2.00000000E+01  8.60000000E+01  0.00000000E+00
  3.00000000E+01  8.60000000E+01  0.00000000E+00
  4.00000000E+01  8.60000000E+01  0.00000000E+00
  5.00000000E+01  8.60000000E+01  0.00000000E+00
  6.00000000E+01  8.60000000E+01  0.00000000E+00
  7.00000000E+01  8.60000000E+01  0.00000000E+00
  8.00000000E+01  8.60000000E+01  0.00000000E+00
  9.00000000E+01  8.60000000E+01  0.00000000E+00
  1.00000000E+02  8.60000000E+01  0.00000000E+00
  1.10000000E+02  8.60000000E+01  0.00000000E+00
  1.20000000E+02  8.60000000E+01  0.00000000E+00
  1.30000000E+02  8.60000000E+01  0.00000000E+00
  1.40000000E+02  8.60000000E+01  0.00000000E+00
  1.50000000E+02  8.60000000E+01  0.00000000E+00
  1.60000000E+02  8.60000000E+01  0.00000000E+00
  1.70000000E+02  8.60000000E+01  0.00000000E+00
  1.80000000E+02  8.60000000E+01  0.00000000E+00
  1.90000000E+02  8.60000000E+01  0.00000000E+00
  2.00000000E+02  8.60000000E+01  0.00000000E+00
  2.10000000E+02  8.60000000E+01  0.00000000E+00
  2.20000000E+02  8.60000000E+01  0.00000000E+00
  2.30000000E+02  8.60000000E+01  0.00000000E+00
  2.40000000E+02  8.60000000E+01  0.00000000E+00
  2.50000000E+02  8.60000000E+01  0.00000000E+00
  2.60000000E+02  8.60000000E+01  0.00000000E+00
  2.70000000E+02  8.60000000E+01  0.00000000E+00
  2.80000000E+02  8.60000000E+01  0.00000000E+00
  2.90000000E+02  8.60000000E+01  0.00000000E+00
  3.00000000E+02  8.60000000E+01  0.00000000E+00
  3.10000000E+02  8.60000000E+01  0.00000000E+00
  3.20000000E+02  8.60000000E+01  0.00000000E+00
  3.30000000E+02  8.60000000E+01  0.00000000E+00
  3.40000000E+02  8.60000000E+01  0.00000000E+00
  3.50000000E+02  8.60000000E+01  0.00000000E+00
  3.60000000E+02  8.60000000E+01  0.00000000E+00
  3.70000000E+02  8.60000000E+01  0.00000000E+00
  3.80000000E+02  8.60000000E+01  0.00000000E+00
  3.90000000E+02  8.60000000E+01  0.00000000E+00
  4.00000000E+02  8.60000000E+01  0.00000000E+00
  4.10000000E+02  8.60000000E+01  0.00000000E+00
  4.20000000E+02  8.60000000E+01  0.00000000E+00
  4.30000000E+02  8.60000000E+01  0.00000000E+00
  4.40000000E+02  8.60000000E+01  0.00000000E+00
  4.50000000E+02  8.60000000E+01  0.00000000E+00
  4.60000000E+02  8.60000000E+01  0.00000000E+00
  4.70000000E+02  8.60000000E+01  0.00000000E+00
  4.80000000E+02  8.60000000E+01  0.00000000E+00
  4.90000000E+02  8.60000000E+01  0.00000000E+00
  5.00000000E+02  8.60000000E+01  0.00000000E+00
  5.10000000E+02  8.60000000E+01  0.00000000E+00
  5.20000000E+02  8.60000000E+01  0.00000000E+00
  5.30000000E+02  8.60000000E+01  0.00000000E+00
  5.40000000E+02  8.60000000E+01  0.00000000E+00
  5.50000000E+02  8.60000000E+01  0.00000000E+00
  5.60000000E+02  8.60000000E+01  0.00000000E+00
  5.70000000E+02  8.60000000E+01  0.00000000E+00
  5.80000000E+02  8.60000000E+01  0.00000000E+00
  5.90000000E+02  8.60000000E+01  0.00000000E+00
  6.00000000E+02  8.60000000E+01  0.00000000E+00
  6.10000000E+02  8.60000000E+01  0.00000000E+00
  6.20000000E+02  8.60000000E+01  0.00000000E+00
  6.30000000E+02  8.60000000E+01  0.00000000E+00
  6.40000000E+02  8.60000000E+01  0.00000000E+00
  6.50000000E+02  8.60000000E+01  0.00000000E+00
  6.60000000E+02  8.60000000E+01  0.00000000E+00
  6.70000000E+02  8.60000000E+01  0.00000000E+00
  6.80000000E+02  8.60000000E+01  0.00000000E+00
  6.90000000E+02  8.60000000E+01  0.00000000E+00
  7.00000000E+02  8.60000000E+01  0.00000000E+00
  7.10000000E+02  8.60000000E+01  0.00000000E+00
  7.20000000E+02  8.60000000E+01  0.00000000E+00
  7.30000000E+02  8.60000000E+01  0.00000000E+00
  7.40000000E+02  8.60000000E+01  0.00000000E+00
  7.50000000E+02  8.60000000E+01  0.00000000E+00
  7.60000000E+02  8.60000000E+01  0.00000000E+00
  7.70000000E+02  8.60000000E+01  0.00000000E+00
  7.80000000E+02  8.60000000E+01  0.00000000E+00
  7.90000000E+02  8.60000000E+01  0.00000000E+00
  8.00000000E+02  8.60000000E+01  0.00000000E+00
  8.10000000E+02  8.60000000E+01  0.00000000E+00
  8.20000000E+02  8.60000000E+01  0.00000000E+00
  8.30000000E+02  8.60000000E+01  0.00000000E+00
  8.40000000E+02  8.60000000E+01  0.00000000E+00
  8.50000000E+02  8.60000000E+01  0.00000000E+00
  8.60000000E+02  8.60000000E+01  0.00000000E+00
  8.70000000E+02  8.60000000E+01  0.00000000E+00
  8.80000000E+02  8.60000000E+01  0.00000000E+00
  8.90000000E+02  8.60000000E+01  0.00000000E+00
  9.00000000E+02  8.60000000E+01  0.00000000E+00
  9.10000000E+02  8.60000000E+01  0.00000000E+00
  9.20000000E+02  8.60000000E+01  0.00000000E+00
  9.30000000E+02  8.60000000E+01  0.00000000E+00
  9.40000000E+02  8.60000000E+01  0.00000000E+00
  9.50000000E+02  8.60000000E+01  0.00000000E+00
  9.60000000E+02  8.60000000E+01  0.00000000E+00
  9.70000000E+02  8.60000000E+01  0.00000000E+00
  9.80000000E+02  8.60000000E+01  0.00000000E+00
  9.90000000E+02  8.60000000E+01  0.00000000E+00
  1.00000000E+03  8.60000000E+01  0.00000000E+00
  0.00000000E+00  8.80000000E+01  0.00000000E+00
  1.00000000E+01  8.80000000E+01  0.00000000E+00
  2.00000000E+01  8.80000000E+01  0.00000000E+00
  3.00000000E+01  8.80000000E+01  0.00000000E+00
  4.00000000E+01  8.80000000E+01  0.00000000E+00
  5.00000000E+01  8.80000000E+01  0.00000000E+00
  6.00000000E+01  8.80000000E+01  0.00000000E+00
  7.00000000E+01  8.80000000E+01  0.00000000E+00
  8.00000000E+01  8.80000000E+01  0.00000000E+00
  9.00000000E+01  8.80000000E+01  0.00000000E+00
  1.00000000E+02  8.80000000E+01  0.00000000E+00
  1.10000000E+02  8.80000000E+01  0.00000000E+00
  1.20000000E+02  8.80000000E+01  0.00000000E+00
  1.30000000E+02  8.80000000E+01  0.00000000E+00
  1.40000000E+02  8.80000000E+01  0.00000000E+00
  1.50000000E+02  8.80000000E+01  0.00000000E+00
  1.60000000E+02  8.80000000E+01  0.00000000E+00
  1.70000000E+02  8.80000000E+01  0.00000000E+00
  1.80000000E+02  8.80000000E+01  0.00000000E+00
  1.90000000E+02  8.80000000E+01  0.00000000E+00
  2.00000000E+02  8.80000000E+01  0.00000000E+00
  2.10000000E+02  8.80000000E+01  0.00000000E+00
  2.20000000E+02  8.80000000E+01  0.00000000E+00
  2.30000000E+02  8.80000000E+01  0.00000000E+00
  2.40000000E+02  8.80000000E+01  0.00000000E+00
  2.50000000E+02  8.80000000E+01  0.00000000E+00
  2.60000000E+02  8.80000000E+01  0.00000000E+00
  2.70000000E+02  8.80000000E+01  0.00000000E+00
  2.80000000E+02  8.80000000E+01  0.00000000E+00
  2.90000000E+02  8.80000000E+01  0.00000000E+00
  3.00000000E+02  8.80000000E+01  0.00000000E+00
  3.10000000E+02  8.80000000E+01  0.00000000E+00
  3.20000000E+02  8.80000000E+01  0.00000000E+00
  3.30000000E+02  8.80000000E+01  0.00000000E+00
  3.40000000E+02  8.80000000E+01  0.00000000E+00
  3.50000000E+02  8.80000000E+01  0.00000000E+00
  3.60000000E+02  8.80000000E+01  0.00000000E+00
  3.70000000E+02  8.80000000E+01  0.00000000E+00
  3.80000000E+02  8.80000000E+01  0.00000000E+00
  3.90000000E+02  8.80000000E+01  0.00000000E+00
  4.00000000E+02  8.80000000E+01  0.00000000E+00
  4.10000000E+02  8.80000000E+01  0.00000000E+00
  4.20000000E+02  8.80000000E+01  0.00000000E+00
  4.30000000E+02  8.80000000E+01  0.00000000E+00
  4.40000000E+02  8.80000000E+01  0.00000000E+00
  4.50000000E+02  8.80000000E+01  0.00000000E+00
  4.60000000E+02  8.80000000E+01  0.00000000E+00
  4.70000000E+02  8.80000000E+01  0.00000000E+00
  4.80000000E+02  8.80000000E+01  0.00000000E+00
  4.90000000E+02  8.80000000E+01  0.00000000E+00
  5.00000000E+02  8.80000000E+01  0.00000000E+00
  5.10000000E+02  8.80000000E+01  0.00000000E+00
  5.20000000E+02  8.80000000E+01  0.00000000E+00
  5.30000000E+02  8.80000000E+01  0.00000000E+00
  5.40000000E+02  8.80000000E+01  0.00000000E+00
  5.50000000E+02  8.80000000E+01  0.00000000E+00
  5.60000000E+02  8.80000000E+01  0.00000000E+00
  5.70000000E+02  8.80000000E+01  0.00000000E+00
  5.80000000E+02  8.80000000E+01  0.00000000E+00
  5.90000000E+02  8.80000000E+01  0.00000000E+00
  6.00000000E+02  8.80000000E+01  0.00000000E+00
  6.10000000E+02  8.80000000E+01  0.00000000E+00
  6.20000000E+02  8.80000000E+01  0.00000000E+00
  6.30000000E+02  8.80000000E+01  0.00000000E+00
  6.40000000E+02  8.80000000E+01  0.00000000E+00
  6.50000000E+02  8.80000000E+01  0.00000000E+00
  6.60000000E+02  8.80000000E+01  0.00000000E+00
  6.70000000E+02  8.80000000E+01  0.00000000E+00
  6.80000000E+02  8.80000000E+01  0.00000000E+00
  6.90000000E+02  8.80000000E+01  0.00000000E+00
  7.00000000E+02  8.80000000E+01  0.00000000E+00
  7.10000000E+02  8.80000000E+01  0.00000000E+00
  7.20000000E+02  8.80000000E+01  0.00000000E+00
  7.30000000E+02  8.80000000E+01  0.00000000E+00
  7.40000000E+02  8.80000000E+01  0.00000000E+00
  7.50000000E+02  8.80000000E+01  0.00000000E+00
  7.60000000E+02  8.80000000E+01  0.00000000E+00
  7.70000000E+02  8.80000000E+01  0.00000000E+00
  7.80000000E+02  8.80000000E+01  0.00000000E+00
  7.90000000E+02  8.80000000E+01  0.00000000E+00
  8.00000000E+02  8.80000000E+01  0.00000000E+00
  8.10000000E+02  8.80000000E+01  0.00000000E+00
  8.20000000E+02  8.80000000E+01  0.00000000E+00
  8.30000000E+02  8.80000000E+01  0.00000000E+00
  8.40000000E+02  8.80000000E+01  0.00000000E+00
  8.50000000E+02  8.80000000E+01  0.00000000E+00
  8.60000000E+02  8.80000000E+01  0.00000000E+00
  8.70000000E+02  8.80000000E+01  0.00000000E+00
  8.80000000E+02  8.80000000E+01  0.00000000E+00
  8.90000000E+02  8.80000000E+01  0.00000000E+00
  9.00000000E+02  8.80000000E+01  0.00000000E+00
  9.10000000E+02  8.80000000E+01  0.00000000E+00
  9.20000000E+02  8.80000000E+01  0.00000000E+00
  9.30000000E+02  8.80000000E+01  0.00000000E+00
  9.40000000E+02  8.80000000E+01  0.00000000E+00
  9.50000000E+02  8.80000000E+01  0.00000000E+00
  9.60000000E+02  8.80000000E+01  0.00000000E+00
  9.70000000E+02  8.80000000E+01  0.00000000E+00
  9.80000000E+02  8.80000000E+01  0.00000000E+00
  9.90000000E+02  8.80000000E+01  0.00000000E+00
  1.00000000E+03  8.80000000E+01  0.00000000E+00
  0.00000000E+00  9.00000000E+01  0.00000000E+00
  1.00000000E+01  9.00000000E+01  0.00000000E+00
  2.00000000E+01  9.00000000E+01  0.00000000E+00
  3.00000000E+01  9.00000000E+01  0.00000000E+00
  4.00000000E+01  9.00000000E+01  0.00000000E+00
  5.00000000E+01  9.00000000E+01  0.00000000E+00
  6.00000000E+01  9.00000000E+01  0.00000000E+00
  7.00000000E+01  9.00000000E+01  0.00000000E+00
  8.00000000E+01  9.00000000E+01  0.00000000E+00
  9.00000000E+01  9.00000000E+01  0.00000000E+00
  1.00000000E+02  9.00000000E+01  0.00000000E+00
  1.10000000E+02  9.00000000E+01  0.00000000E+00
  1.20000000E+02  9.00000000E+01  0.00000000E+00
  1.30000000E+02  9.00000000E+01  0.00000000E+00
  1.40000000E+02  9.00000000E+01  0.00000000E+00
  1.50000000E+02  9.00000000E+01  0.00000000E+00
  1.60000000E+02  9.00000000E+01  0.00000000E+00
  1.70000000E+02  9.00000000E+01  0.00000000E+00
  1.80000000E+02  9.00000000E+01  0.00000000E+00
  1.90000000E+02  9.00000000E+01  0.00000000E+00
  2.00000000E+02  9.00000000E+01  0.00000000E+00
  2.10000000E+02  9.00000000E+01  0.00000000E+00
  2.20000000E+02  9.00000000E+01  0.00000000E+00
  2.30000000E+02  9.00000000E+01  0.00000000E+00
  2.40000000E+02  9.00000000E+01  0.00000000E+00
  2.50000000E+02  9.00000000E+01  0.00000000E+00
  2.60000000E+02  9.00000000E+01  0.00000000E+00
  2.70000000E+02  9.00000000E+01  0.00000000E+00
  2.80000000E+02  9.00000000E+01  0.00000000E+00
  2.90000000E+02  9.00000000E+01  0.00000000E+00
  3.00000000E+02  9.00000000E+01  0.00000000E+00
  3.10000000E+02  9.00000000E+01  0.00000000E+00
  3.20000000E+02  9.00000000E+01  0.00000000E+00
  3.30000000E+02  9.00000000E+01  0.00000000E+00
  3.40000000E+02  9.00000000E+01  0.00000000E+00
  3.50000000E+02  9.00000000E+01  0.00000000E+00
  3.60000000E+02  9.00000000E+01  0.00000000E+00
  3.70000000E+02  9.00000000E+01  0.00000000E+00
  3.80000000E+02  9.00000000E+01  0.00000000E+00
  3.90000000E+02  9.00000000E+01  0.00000000E+00
  4.00000000E+02  9.00000000E+01  0.00000000E+00
  4.10000000E+02  9.00000000E+01  0.00000000E+00
  4.20000000E+02  9.00000000E+01  0.00000000E+00
  4.30000000E+02  9.00000000E+01  0.00000000E+00
  4.40000000E+02  9.00000000E+01  0.00000000E+00
  4.50000000E+02  9.00000000E+01  0.00000000E+00
  4.60000000E+02  9.00000000E+01  0.00000000E+00
  4.70000000E+02  9.00000000E+01  0.00000000E+00
  4.80000000E+02  9.00000000E+01  0.00000000E+00
  4.90000000E+02  9.00000000E+01  0.00000000E+00
  5.00000000E+02  9.00000000E+01  0.00000000E+00
  5.10000000E+02  9.00000000E+01  0.00000000E+00
  5.20000000E+02  9.00000000E+01  0.00000000E+00
  5.30000000E+02  9.00000000E+01  0.00000000E+00
  5.40000000E+02  9.00000000E+01  0.00000000E+00
  5.50000000E+02  9.00000000E+01  0.00000000E+00
  5.60000000E+02  9.00000000E+01  0.00000000E+00
  5.70000000E+02  9.00000000E+01  0.00000000E+00
  5.80000000E+02  9.00000000E+01  0.00000000E+00
  5.90000000E+02  9.00000000E+01  0.00000000E+00
  6.00000000E+02  9.00000000E+01  0.00000000E+00
  6.10000000E+02  9.00000000E+01  0.00000000E+00
  6.20000000E+02  9.00000000E+01  0.00000000E+00
  6.30000000E+02  9.00000000E+01  0.00000000E+00
  6.40000000E+02  9.00000000E+01  0.00000000E+00
  6.50000000E+02  9.00000000E+01  0.00000000E+00
  6.60000000E+02  9.00000000E+01  0.00000000E+00
  6.70000000E+02  9.00000000E+01  0.00000000E+00
  6.80000000E+02  9.00000000E+01  0.00000000E+00
  6.90000000E+02  9.00000000E+01  0.00000000E+00
  7.00000000E+02  9.00000000E+01  0.00000000E+00
  7.10000000E+02  9.00000000E+01  0.00000000E+00
  7.20000000E+02  9.00000000E+01  0.00000000E+00
  7.30000000E+02  9.00000000E+01  0.00000000E+00
  7.40000000E+02  9.00000000E+01  0.00000000E+00
  7.50000000E+02  9.00000000E+01  0.00000000E+00
  7.60000000E+02  9.00000000E+01  0.00000000E+00
  7.70000000E+02  9.00000000E+01  0.00000000E+00
  7.80000000E+02  9.00000000E+01  0.00000000E+00
  7.90000000E+02  9.00000000E+01  0.00000000E+00
  8.00000000E+02  9.00000000E+01  0.00000000E+00
  8.10000000E+02  9.00000000E+01  0.00000000E+00
  8.20000000E+02  9.00000000E+01  0.00000000E+00
  8.30000000E+02  9.00000000E+01  0.00000000E+00
  8.40000000E+02  9.00000000E+01  0.00000000E+00
  8.50000000E+02  9.00000000E+01  0.00000000E+00
  8.60000000E+02  9.00000000E+01  0.00000000E+00
  8.70000000E+02  9.00000000E+01  0.00000000E+00
  8.80000000E+02  9.00000000E+01  0.00000000E+00
  8.90000000E+02  9.00000000E+01  0.00000000E+00
  9.00000000E+02  9.00000000E+01  0.00000000E+00
  9.10000000E+02  9.00000000E+01  0.00000000E+00
  9.20000000E+02  9.00000000E+01  0.00000000E+00
  9.30000000E+02  9.00000000E+01  0.00000000E+00
  9.40000000E+02  9.00000000E+01  0.00000000E+00
  9.50000000E+02  9.00000000E+01  0.00000000E+00
  9.60000000E+02  9.00000000E+01  0.00000000E+00
  9.70000000E+02  9.00000000E+01  0.00000000E+00
  9.80000000E+02  9.00000000E+01  0.00000000E+00
  9.90000000E+02  9.00000000E+01  0.00000000E+00
  1.00000000E+03  9.00000000E+01  0.00000000E+00
  0.00000000E+00  9.20000000E+01  0.00000000E+00
  1.00000000E+01  9.20000000E+01  0.00000000E+00
  2.00000000E+01  9.20000000E+01  0.00000000E+00
  3.00000000E+01  9.20000000E+01  0.00000000E+00
  4.00000000E+01  9.20000000E+01  0.00000000E+00
  5.00000000E+01  9.20000000E+01  0.00000000E+00
  6.00000000E+01  9.20000000E+01  0.00000000E+00
  7.00000000E+01  9.20000000E+01  0.00000000E+00
  8.00000000E+01  9.20000000E+01  0.00000000E+00
  9.00000000E+01  9.20000000E+01  0.00000000E+00
  1.00000000E+02  9.20000000E+01  0.00000000E+00
  1.10000000E+02  9.20000000E+01  0.00000000E+00
  1.20000000E+02  9.20000000E+01  0.00000000E+00
  1.30000000E+02  9.20000000E+01  0.00000000E+00
  1.40000000E+02  9.20000000E+01  0.00000000E+00
  1.50000000E+02  9.20000000E+01  0.00000000E+00
  1.60000000E+02  9.20000000E+01  0.00000000E+00
  1.70000000E+02  9.20000000E+01  0.00000000E+00
  1.80000000E+02  9.20000000E+01  0.00000000E+00
  1.90000000E+02  9.20000000E+01  0.00000000E+00
  2.00000000E+02  9.20000000E+01  0.00000000E+00
  2.10000000E+02  9.20000000E+01  0.00000000E+00
  2.20000000E+02  9.20000000E+01  0.00000000E+00
  2.30000000E+02  9.20000000E+01  0.00000000E+00
  2.40000000E+02  9.20000000E+01  0.00000000E+00
  2.50000000E+02  9.20000000E+01  0.00000000E+00
  2.60000000E+02  9.20000000E+01  0.00000000E+00
  2.70000000E+02  9.20000000E+01  0.00000000E+00
  2.80000000E+02  9.20000000E+01  0.00000000E+00
  2.90000000E+02  9.20000000E+01  0.00000000E+00
  3.00000000E+02  9.20000000E+01  0.00000000E+00
  3.10000000E+02  9.20000000E+01  0.00000000E+00
  3.20000000E+02  9.20000000E+01  0.00000000E+00
  3.30000000E+02  9.20000000E+01  0.00000000E+00
  3.40000000E+02  9.20000000E+01  0.00000000E+00
  3.50000000E+02  9.20000000E+01  0.00000000E+00
  3.60000000E+02  9.20000000E+01  0.00000000E+00
  3.70000000E+02  9.20000000E+01  0.00000000E+00
  3.80000000E+02  9.20000000E+01  0.00000000E+00
  3.90000000E+02  9.20000000E+01  0.00000000E+00
  4.00000000E+02  9.20000000E+01  0.00000000E+00
  4.10000000E+02  9.20000000E+01  0.00000000E+00
  4.20000000E+02  9.20000000E+01  0.00000000E+00
  4.30000000E+02  9.20000000E+01  0.00000000E+00
  4.40000000E+02  9.20000000E+01  0.00000000E+00
  4.50000000E+02  9.20000000E+01  0.00000000E+00
  4.60000000E+02  9.20000000E+01  0.00000000E+00
  4.70000000E+02  9.20000000E+01  0.00000000E+00
  4.80000000E+02  9.20000000E+01  0.00000000E+00
  4.90000000E+02  9.20000000E+01  0.00000000E+00
  5.00000000E+02  9.20000000E+01  0.00000000E+00
  5.10000000E+02  9.20000000E+01  0.00000000E+00
  5.20000000E+02  9.20000000E+01  0.00000000E+00
  5.30000000E+02  9.20000000E+01  0.00000000E+00
  5.40000000E+02  9.20000000E+01  0.00000000E+00
  5.50000000E+02  9.20000000E+01  0.00000000E+00
  5.60000000E+02  9.20000000E+01  0.00000000E+00
  5.70000000E+02  9.20000000E+01  0.00000000E+00
  5.80000000E+02  9.20000000E+01  0.00000000E+00
  5.90000000E+02  9.20000000E+01  0.00000000E+00
  6.00000000E+02  9.20000000E+01  0.00000000E+00
  6.10000000E+02  9.20000000E+01  0.00000000E+00
  6.20000000E+02  9.20000000E+01  0.00000000E+00
  6.30000000E+02  9.20000000E+01  0.00000000E+00
  6.40000000E+02  9.20000000E+01  0.00000000E+00
  6.50000000E+02  9.20000000E+01  0.00000000E+00
  6.60000000E+02  9.20000000E+01  0.00000000E+00
  6.70000000E+02  9.20000000E+01  0.00000000E+00
  6.80000000E+02  9.20000000E+01  0.00000000E+00
  6.90000000E+02  9.20000000E+01  0.00000000E+00
  7.00000000E+02  9.20000000E+01  0.00000000E+00
  7.10000000E+02  9.20000000E+01  0.00000000E+00
  7.20000000E+02  9.20000000E+01  0.00000000E+00
  7.30000000E+02  9.20000000E+01  0.00000000E+00
  7.40000000E+02  9.20000000E+01  0.00000000E+00
  7.50000000E+02  9.20000000E+01  0.00000000E+00
  7.60000000E+02  9.20000000E+01  0.00000000E+00
  7.70000000E+02  9.20000000E+01  0.00000000E+00
  7.80000000E+02  9.20000000E+01  0.00000000E+00
  7.90000000E+02  9.20000000E+01  0.00000000E+00
  8.00000000E+02  9.20000000E+01  0.00000000E+00
  8.10000000E+02  9.20000000E+01  0.00000000E+00
  8.20000000E+02  9.20000000E+01  0.00000000E+00
  8.30000000E+02  9.20000000E+01  0.00000000E+00
  8.40000000E+02  9.20000000E+01  0.00000000E+00
  8.50000000E+02  9.20000000E+01  0.00000000E+00
  8.60000000E+02  9.20000000E+01  0.00000000E+00
  8.70000000E+02  9.20000000E+01  0.00000000E+00
  8.80000000E+02  9.20000000E+01  0.00000000E+00
  8.90000000E+02  9.20000000E+01  0.00000000E+00
  9.00000000E+02  9.20000000E+01  0.00000000E+00
  9.10000000E+02  9.20000000E+01  0.00000000E+00
  9.20000000E+02  9.20000000E+01  0.00000000E+00
  9.30000000E+02  9.20000000E+01  0.00000000E+00
  9.40000000E+02  9.20000000E+01  0.00000000E+00
  9.50000000E+02  9.20000000E+01  0.00000000E+00
  9.60000000E+02  9.20000000E+01  0.00000000E+00
  9.70000000E+02  9.20000000E+01  0.00000000E+00
  9.80000000E+02  9.20000000E+01  0.00000000E+00
  9.90000000E+02  9.20000000E+01  0.00000000E+00
  1.00000000E+03  9.20000000E+01  0.00000000E+00
  0.00000000E+00  9.40000000E+01  0.00000000E+00
  1.00000000E+01  9.40000000E+01  0.00000000E+00
  2.00000000E+01  9.40000000E+01  0.00000000E+00
  3.00000000E+01  9.40000000E+01  0.00000000E+00
  4.00000000E+01  9.40000000E+01  0.00000000E+00
  5.00000000E+01  9.40000000E+01  0.00000000E+00
  6.00000000E+01  9.40000000E+01  0.00000000E+00
  7.00000000E+01  9.40000000E+01  0.00000000E+00
  8.00000000E+01  9.40000000E+01  0.00000000E+00
  9.00000000E+01  9.40000000E+01  0.00000000E+00
  1.00000000E+02  9.40000000E+01  0.00000000E+00
  1.10000000E+02  9.40000000E+01  0.00000000E+00
  1.20000000E+02  9.40000000E+01  0.00000000E+00
  1.30000000E+02  9.40000000E+01  0.00000000E+00
  1.40000000E+02  9.40000000E+01  0.00000000E+00
  1.50000000E+02  9.40000000E+01  0.00000000E+00
  1.60000000E+02  9.40000000E+01  0.00000000E+00
  1.70000000E+02  9.40000000E+01  0.00000000E+00
  1.80000000E+02  9.40000000E+01  0.00000000E+00
  1.90000000E+02  9.40000000E+01  0.00000000E+00
  2.00000000E+02  9.40000000E+01  0.00000000E+00
  2.10000000E+02  9.40000000E+01  0.00000000E+00
  2.20000000E+02  9.40000000E+01  0.00000000E+00
  2.30000000E+02  9.40000000E+01  0.00000000E+00
  2.40000000E+02  9.40000000E+01  0.00000000E+00
  2.50000000E+02  9.40000000E+01  0.00000000E+00
  2.60000000E+02  9.40000000E+01  0.00000000E+00
  2.70000000E+02  9.40000000E+01  0.00000000E+00
  2.80000000E+02  9.40000000E+01  0.00000000E+00
  2.90000000E+02  9.40000000E+01  0.00000000E+00
  3.00000000E+02  9.40000000E+01  0.00000000E+00
  3.10000000E+02  9.40000000E+01  0.00000000E+00
  3.20000000E+02  9.40000000E+01  0.00000000E+00
  3.30000000E+02  9.40000000E+01  0.00000000E+00
  3.40000000E+02  9.40000000E+01  0.00000000E+00
  3.50000000E+02  9.40000000E+01  0.00000000E+00
  3.60000000E+02  9.40000000E+01  0.00000000E+00
  3.70000000E+02  9.40000000E+01  0.00000000E+00
  3.80000000E+02  9.40000000E+01  0.00000000E+00
  3.90000000E+02  9.40000000E+01  0.00000000E+00
  4.00000000E+02  9.40000000E+01  0.00000000E+00
  4.10000000E+02  9.40000000E+01  0.00000000E+00
  4.20000000E+02  9.40000000E+01  0.00000000E+00
  4.30000000E+02  9.40000000E+01  0.00000000E+00
  4.40000000E+02  9.40000000E+01  0.00000000E+00
  4.50000000E+02  9.40000000E+01  0.00000000E+00
  4.60000000E+02  9.40000000E+01  0.00000000E+00
  4.70000000E+02  9.40000000E+01  0.00000000E+00
  4.80000000E+02  9.40000000E+01  0.00000000E+00
  4.90000000E+02  9.40000000E+01  0.00000000E+00
  5.00000000E+02  9.40000000E+01  0.00000000E+00
  5.10000000E+02  9.40000000E+01  0.00000000E+00
  5.20000000E+02  9.40000000E+01  0.00000000E+00
  5.30000000E+02  9.40000000E+01  0.00000000E+00
  5.40000000E+02  9.40000000E+01  0.00000000E+00
  5.50000000E+02  9.40000000E+01  0.00000000E+00
  5.60000000E+02  9.40000000E+01  0.00000000E+00
  5.70000000E+02  9.40000000E+01  0.00000000E+00
  5.80000000E+02  9.40000000E+01  0.00000000E+00
  5.90000000E+02  9.40000000E+01  0.00000000E+00
  6.00000000E+02  9.40000000E+01  0.00000000E+00
  6.10000000E+02  9.40000000E+01  0.00000000E+00
  6.20000000E+02  9.40000000E+01  0.00000000E+00
  6.30000000E+02  9.40000000E+01  0.00000000E+00
  6.40000000E+02  9.40000000E+01  0.00000000E+00
  6.50000000E+02  9.40000000E+01  0.00000000E+00
  6.60000000E+02  9.40000000E+01  0.00000000E+00
  6.70000000E+02  9.40000000E+01  0.00000000E+00
  6.80000000E+02  9.40000000E+01  0.00000000E+00
  6.90000000E+02  9.40000000E+01  0.00000000E+00
  7.00000000E+02  9.40000000E+01  0.00000000E+00
  7.10000000E+02  9.40000000E+01  0.00000000E+00
  7.20000000E+02  9.40000000E+01  0.00000000E+00
  7.30000000E+02  9.40000000E+01  0.00000000E+00
  7.40000000E+02  9.40000000E+01  0.00000000E+00
  7.50000000E+02  9.40000000E+01  0.00000000E+00
  7.60000000E+02  9.40000000E+01  0.00000000E+00
  7.70000000E+02  9.40000000E+01  0.00000000E+00
  7.80000000E+02  9.40000000E+01  0.00000000E+00
  7.90000000E+02  9.40000000E+01  0.00000000E+00
  8.00000000E+02  9.40000000E+01  0.00000000E+00
  8.10000000E+02  9.40000000E+01  0.00000000E+00
  8.20000000E+02  9.40000000E+01  0.00000000E+00
  8.30000000E+02  9.40000000E+01  0.00000000E+00
  8.40000000E+02  9.40000000E+01  0.00000000E+00
  8.50000000E+02  9.40000000E+01  0.00000000E+00
  8.60000000E+02  9.40000000E+01  0.00000000E+00
  8.70000000E+02  9.40000000E+01  0.00000000E+00
  8.80000000E+02  9.40000000E+01  0.00000000E+00
  8.90000000E+02  9.40000000E+01  0.00000000E+00
  9.00000000E+02  9.40000000E+01  0.00000000E+00
  9.10000000E+02  9.40000000E+01  0.00000000E+00
  9.20000000E+02  9.40000000E+01  0.00000000E+00
  9.30000000E+02  9.40000000E+01  0.00000000E+00
  9.40000000E+02  9.40000000E+01  0.00000000E+00
  9.50000000E+02  9.40000000E+01  0.00000000E+00
  9.60000000E+02  9.40000000E+01  0.00000000E+00
  9.70000000E+02  9.40000000E+01  0.00000000E+00
  9.80000000E+02  9.40000000E+01  0.00000000E+00
  9.90000000E+02  9.40000000E+01  0.00000000E+00
  1.00000000E+03  9.40000000E+01  0.00000000E+00
  0.00000000E+00  9.60000000E+01  0.00000000E+00
  1.00000000E+01  9.60000000E+01  0.00000000E+00
  2.00000000E+01  9.60000000E+01  0.00000000E+00
  3.00000000E+01  9.60000000E+01  0.00000000E+00
  4.00000000E+01  9.60000000E+01  0.00000000E+00
  5.00000000E+01  9.60000000E+01  0.00000000E+00
  6.00000000E+01  9.60000000E+01  0.00000000E+00
  7.00000000E+01  9.60000000E+01  0.00000000E+00
  8.00000000E+01  9.60000000E+01  0.00000000E+00
  9.00000000E+01  9.60000000E+01  0.00000000E+00
  1.00000000E+02  9.60000000E+01  0.00000000E+00
  1.10000000E+02  9.60000000E+01  0.00000000E+00
  1.20000000E+02  9.60000000E+01  0.00000000E+00
  1.30000000E+02  9.60000000E+01  0.00000000E+00
  1.40000000E+02  9.60000000E+01  0.00000000E+00
  1.50000000E+02  9.60000000E+01  0.00000000E+00
  1.60000000E+02  9.60000000E+01  0.00000000E+00
  1.70000000E+02  9.60000000E+01  0.00000000E+00
  1.80000000E+02  9.60000000E+01  0.00000000E+00
  1.90000000E+02  9.60000000E+01  0.00000000E+00
  2.00000000E+02  9.60000000E+01  0.00000000E+00
  2.10000000E+02  9.60000000E+01  0.00000000E+00
  2.20000000E+02  9.60000000E+01  0.00000000E+00
  2.30000000E+02  9.60000000E+01  0.00000000E+00
  2.40000000E+02  9.60000000E+01  0.00000000E+00
  2.50000000E+02  9.60000000E+01  0.00000000E+00
  2.60000000E+02  9.60000000E+01  0.00000000E+00
  2.70000000E+02  9.60000000E+01  0.00000000E+00
  2.80000000E+02  9.60000000E+01  0.00000000E+00
  2.90000000E+02  9.60000000E+01  0.00000000E+00
  3.00000000E+02  9.60000000E+01  0.00000000E+00
  3.10000000E+02  9.60000000E+01  0.00000000E+00
  3.20000000E+02  9.60000000E+01  0.00000000E+00
  3.30000000E+02  9.60000000E+01  0.00000000E+00
  3.40000000E+02  9.60000000E+01  0.00000000E+00
  3.50000000E+02  9.60000000E+01  0.00000000E+00
  3.60000000E+02  9.60000000E+01  0.00000000E+00
  3.70000000E+02  9.60000000E+01  0.00000000E+00
  3.80000000E+02  9.60000000E+01  0.00000000E+00
  3.90000000E+02  9.60000000E+01  0.00000000E+00
  4.00000000E+02  9.60000000E+01  0.00000000E+00
  4.10000000E+02  9.60000000E+01  0.00000000E+00
  4.20000000E+02  9.60000000E+01  0.00000000E+00
  4.30000000E+02  9.60000000E+01  0.00000000E+00
  4.40000000E+02  9.60000000E+01  0.00000000E+00
  4.50000000E+02  9.60000000E+01  0.00000000E+00
  4.60000000E+02  9.60000000E+01  0.00000000E+00
  4.70000000E+02  9.60000000E+01  0.00000000E+00
  4.80000000E+02  9.60000000E+01  0.00000000E+00
  4.90000000E+02  9.60000000E+01  0.00000000E+00
  5.00000000E+02  9.60000000E+01  0.00000000E+00
  5.10000000E+02  9.60000000E+01  0.00000000E+00
  5.20000000E+02  9.60000000E+01  0.00000000E+00
  5.30000000E+02  9.60000000E+01  0.00000000E+00
  5.40000000E+02  9.60000000E+01  0.00000000E+00
  5.50000000E+02  9.60000000E+01  0.00000000E+00
  5.60000000E+02  9.60000000E+01  0.00000000E+00
  5.70000000E+02  9.60000000E+01  0.00000000E+00
  5.80000000E+02  9.60000000E+01  0.00000000E+00
  5.90000000E+02  9.60000000E+01  0.00000000E+00
  6.00000000E+02  9.60000000E+01  0.00000000E+00
  6.10000000E+02  9.60000000E+01  0.00000000E+00
  6.20000000E+02  9.60000000E+01  0.00000000E+00
  6.30000000E+02  9.60000000E+01  0.00000000E+00
  6.40000000E+02  9.60000000E+01  0.00000000E+00
  6.50000000E+02  9.60000000E+01  0.00000000E+00
  6.60000000E+02  9.60000000E+01  0.00000000E+00
  6.70000000E+02  9.60000000E+01  0.00000000E+00
  6.80000000E+02  9.60000000E+01  0.00000000E+00
  6.90000000E+02  9.60000000E+01  0.00000000E+00
  7.00000000E+02  9.60000000E+01  0.00000000E+00
  7.10000000E+02  9.60000000E+01  0.00000000E+00
  7.20000000E+02  9.60000000E+01  0.00000000E+00
  7.30000000E+02  9.60000000E+01  0.00000000E+00
  7.40000000E+02  9.60000000E+01  0.00000000E+00
  7.50000000E+02  9.60000000E+01  0.00000000E+00
  7.60000000E+02  9.60000000E+01  0.00000000E+00
  7.70000000E+02  9.60000000E+01  0.00000000E+00
  7.80000000E+02  9.60000000E+01  0.00000000E+00
  7.90000000E+02  9.60000000E+01  0.00000000E+00
  8.00000000E+02  9.60000000E+01  0.00000000E+00
  8.10000000E+02  9.60000000E+01  0.00000000E+00
  8.20000000E+02  9.60000000E+01  0.00000000E+00
  8.30000000E+02  9.60000000E+01  0.00000000E+00
  8.40000000E+02  9.60000000E+01  0.00000000E+00
  8.50000000E+02  9.60000000E+01  0.00000000E+00
  8.60000000E+02  9.60000000E+01  0.00000000E+00
  8.70000000E+02  9.60000000E+01  0.00000000E+00
  8.80000000E+02  9.60000000E+01  0.00000000E+00
  8.90000000E+02  9.60000000E+01  0.00000000E+00
  9.00000000E+02  9.60000000E+01  0.00000000E+00
  9.10000000E+02  9.60000000E+01  0.00000000E+00
  9.20000000E+02  9.60000000E+01  0.00000000E+00
  9.30000000E+02  9.60000000E+01  0.00000000E+00
  9.40000000E+02  9.60000000E+01  0.00000000E+00
  9.50000000E+02  9.60000000E+01  0.00000000E+00
  9.60000000E+02  9.60000000E+01  0.00000000E+00
  9.70000000E+02  9.60000000E+01  0.00000000E+00
  9.80000000E+02  9.60000000E+01  0.00000000E+00
  9.90000000E+02  9.60000000E+01  0.00000000E+00
  1.00000000E+03  9.60000000E+01  0.00000000E+00
  0.00000000E+00  9.80000000E+01  0.00000000E+00
  1.00000000E+01  9.80000000E+01  0.00000000E+00
  2.00000000E+01  9.80000000E+01  0.00000000E+00
  3.00000000E+01  9.80000000E+01  0.00000000E+00
  4.00000000E+01  9.80000000E+01  0.00000000E+00
  5.00000000E+01  9.80000000E+01  0.00000000E+00
  6.00000000E+01  9.80000000E+01  0.00000000E+00
  7.00000000E+01  9.80000000E+01  0.00000000E+00
  8.00000000E+01  9.80000000E+01  0.00000000E+00
  9.00000000E+01  9.80000000E+01  0.00000000E+00
  1.00000000E+02  9.80000000E+01  0.00000000E+00
  1.10000000E+02  9.80000000E+01  0.00000000E+00
  1.20000000E+02  9.80000000E+01  0.00000000E+00
  1.30000000E+02  9.80000000E+01  0.00000000E+00
  1.40000000E+02  9.80000000E+01  0.00000000E+00
  1.50000000E+02  9.80000000E+01  0.00000000E+00
  1.60000000E+02  9.80000000E+01  0.00000000E+00
  1.70000000E+02  9.80000000E+01  0.00000000E+00
  1.80000000E+02  9.80000000E+01  0.00000000E+00
  1.90000000E+02  9.80000000E+01  0.00000000E+00
  2.00000000E+02  9.80000000E+01  0.00000000E+00
  2.10000000E+02  9.80000000E+01  0.00000000E+00
  2.20000000E+02  9.80000000E+01  0.00000000E+00
  2.30000000E+02  9.80000000E+01  0.00000000E+00
  2.40000000E+02  9.80000000E+01  0.00000000E+00
  2.50000000E+02  9.80000000E+01  0.00000000E+00
  2.60000000E+02  9.80000000E+01  0.00000000E+00
  2.70000000E+02  9.80000000E+01  0.00000000E+00
  2.80000000E+02  9.80000000E+01  0.00000000E+00
  2.90000000E+02  9.80000000E+01  0.00000000E+00
  3.00000000E+02  9.80000000E+01  0.00000000E+00
  3.10000000E+02  9.80000000E+01  0.00000000E+00
  3.20000000E+02  9.80000000E+01  0.00000000E+00
  3.30000000E+02  9.80000000E+01  0.00000000E+00
  3.40000000E+02  9.80000000E+01  0.00000000E+00
  3.50000000E+02  9.80000000E+01  0.00000000E+00
  3.60000000E+02  9.80000000E+01  0.00000000E+00
  3.70000000E+02  9.80000000E+01  0.00000000E+00
  3.80000000E+02  9.80000000E+01  0.00000000E+00
  3.90000000E+02  9.80000000E+01  0.00000000E+00
  4.00000000E+02  9.80000000E+01  0.00000000E+00
  4.10000000E+02  9.80000000E+01  0.00000000E+00
  4.20000000E+02  9.80000000E+01  0.00000000E+00
  4.30000000E+02  9.80000000E+01  0.00000000E+00
  4.40000000E+02  9.80000000E+01  0.00000000E+00
  4.50000000E+02  9.80000000E+01  0.00000000E+00
  4.60000000E+02  9.80000000E+01  0.00000000E+00
  4.70000000E+02  9.80000000E+01  0.00000000E+00
  4.80000000E+02  9.80000000E+01  0.00000000E+00
  4.90000000E+02  9.80000000E+01  0.00000000E+00
  5.00000000E+02  9.80000000E+01  0.00000000E+00
  5.10000000E+02  9.80000000E+01  0.00000000E+00
  5.20000000E+02  9.80000000E+01  0.00000000E+00
  5.30000000E+02  9.80000000E+01  0.00000000E+00
  5.40000000E+02  9.80000000E+01  0.00000000E+00
  5.50000000E+02  9.80000000E+01  0.00000000E+00
  5.60000000E+02  9.80000000E+01  0.00000000E+00
  5.70000000E+02  9.80000000E+01  0.00000000E+00
  5.80000000E+02  9.80000000E+01  0.00000000E+00
  5.90000000E+02  9.80000000E+01  0.00000000E+00
  6.00000000E+02  9.80000000E+01  0.00000000E+00
  6.10000000E+02  9.80000000E+01  0.00000000E+00
  6.20000000E+02  9.80000000E+01  0.00000000E+00
  6.30000000E+02  9.80000000E+01  0.00000000E+00
  6.40000000E+02  9.80000000E+01  0.00000000E+00
  6.50000000E+02  9.80000000E+01  0.00000000E+00
  6.60000000E+02  9.80000000E+01  0.00000000E+00
  6.70000000E+02  9.80000000E+01  0.00000000E+00
  6.80000000E+02  9.80000000E+01  0.00000000E+00
  6.90000000E+02  9.80000000E+01  0.00000000E+00
  7.00000000E+02  9.80000000E+01  0.00000000E+00
  7.10000000E+02  9.80000000E+01  0.00000000E+00
  7.20000000E+02  9.80000000E+01  0.00000000E+00
  7.30000000E+02  9.80000000E+01  0.00000000E+00
  7.40000000E+02  9.80000000E+01  0.00000000E+00
  7.50000000E+02  9.80000000E+01  0.00000000E+00
  7.60000000E+02  9.80000000E+01  0.00000000E+00
  7.70000000E+02  9.80000000E+01  0.00000000E+00
  7.80000000E+02  9.80000000E+01  0.00000000E+00
  7.90000000E+02  9.80000000E+01  0.00000000E+00
  8.00000000E+02  9.80000000E+01  0.00000000E+00
  8.10000000E+02  9.80000000E+01  0.00000000E+00
  8.20000000E+02  9.80000000E+01  0.00000000E+00
  8.30000000E+02  9.80000000E+01  0.00000000E+00
  8.40000000E+02  9.80000000E+01  0.00000000E+00
  8.50000000E+02  9.80000000E+01  0.00000000E+00
  8.60000000E+02  9.80000000E+01  0.00000000E+00
  8.70000000E+02  9.80000000E+01  0.00000000E+00
  8.80000000E+02  9.80000000E+01  0.00000000E+00
  8.90000000E+02  9.80000000E+01  0.00000000E+00
  9.00000000E+02  9.80000000E+01  0.00000000E+00
  9.10000000E+02  9.80000000E+01  0.00000000E+00
  9.20000000E+02  9.80000000E+01  0.00000000E+00
  9.30000000E+02  9.80000000E+01  0.00000000E+00
  9.40000000E+02  9.80000000E+01  0.00000000E+00
  9.50000000E+02  9.80000000E+01  0.00000000E+00
  9.60000000E+02  9.80000000E+01  0.00000000E+00
  9.70000000E+02  9.80000000E+01  0.00000000E+00
  9.80000000E+02  9.80000000E+01  0.00000000E+00
  9.90000000E+02  9.80000000E+01  0.00000000E+00
  1.00000000E+03  9.80000000E+01  0.00000000E+00
  0.00000000E+00  1.00000000E+02  0.00000000E+00
  1.00000000E+01  1.00000000E+02  0.00000000E+00
  2.00000000E+01  1.00000000E+02  0.00000000E+00
  3.00000000E+01  1.00000000E+02  0.00000000E+00
  4.00000000E+01  1.00000000E+02  0.00000000E+00
  5.00000000E+01  1.00000000E+02  0.00000000E+00
  6.00000000E+01  1.00000000E+02  0.00000000E+00
  7.00000000E+01  1.00000000E+02  0.00000000E+00
  8.00000000E+01  1.00000000E+02  0.00000000E+00
  9.00000000E+01  1.00000000E+02  0.00000000E+00
  1.00000000E+02  1.00000000E+02  0.00000000E+00
  1.10000000E+02  1.00000000E+02  0.00000000E+00
  1.20000000E+02  1.00000000E+02  0.00000000E+00
  1.30000000E+02  1.00000000E+02  0.00000000E+00
  1.40000000E+02  1.00000000E+02  0.00000000E+00
  1.50000000E+02  1.00000000E+02  0.00000000E+00
  1.60000000E+02  1.00000000E+02  0.00000000E+00
  1.70000000E+02  1.00000000E+02  0.00000000E+00
  1.80000000E+02  1.00000000E+02  0.00000000E+00
  1.90000000E+02  1.00000000E+02  0.00000000E+00
  2.00000000E+02  1.00000000E+02  0.00000000E+00
  2.10000000E+02  1.00000000E+02  0.00000000E+00
  2.20000000E+02  1.00000000E+02  0.00000000E+00
  2.30000000E+02  1.00000000E+02  0.00000000E+00
  2.40000000E+02  1.00000000E+02  0.00000000E+00
  2.50000000E+02  1.00000000E+02  0.00000000E+00
  2.60000000E+02  1.00000000E+02  0.00000000E+00
  2.70000000E+02  1.00000000E+02  0.00000000E+00
  2.80000000E+02  1.00000000E+02  0.00000000E+00
  2.90000000E+02  1.00000000E+02  0.00000000E+00
  3.00000000E+02  1.00000000E+02  0.00000000E+00
  3.10000000E+02  1.00000000E+02  0.00000000E+00
  3.20000000E+02  1.00000000E+02  0.00000000E+00
  3.30000000E+02  1.00000000E+02  0.00000000E+00
  3.40000000E+02  1.00000000E+02  0.00000000E+00
  3.50000000E+02  1.00000000E+02  0.00000000E+00
  3.60000000E+02  1.00000000E+02  0.00000000E+00
  3.70000000E+02  1.00000000E+02  0.00000000E+00
  3.80000000E+02  1.00000000E+02  0.00000000E+00
  3.90000000E+02  1.00000000E+02  0.00000000E+00
  4.00000000E+02  1.00000000E+02  0.00000000E+00
  4.10000000E+02  1.00000000E+02  0.00000000E+00
  4.20000000E+02  1.00000000E+02  0.00000000E+00
  4.30000000E+02  1.00000000E+02  0.00000000E+00
  4.40000000E+02  1.00000000E+02  0.00000000E+00
  4.50000000E+02  1.00000000E+02  0.00000000E+00
  4.60000000E+02  1.00000000E+02  0.00000000E+00
  4.70000000E+02  1.00000000E+02  0.00000000E+00
  4.80000000E+02  1.00000000E+02  0.00000000E+00
  4.90000000E+02  1.00000000E+02  0.00000000E+00
  5.00000000E+02  1.00000000E+02  0.00000000E+00
  5.10000000E+02  1.00000000E+02  0.00000000E+00
  5.20000000E+02  1.00000000E+02  0.00000000E+00
  5.30000000E+02  1.00000000E+02  0.00000000E+00
  5.40000000E+02  1.00000000E+02  0.00000000E+00
  5.50000000E+02  1.00000000E+02  0.00000000E+00
  5.60000000E+02  1.00000000E+02  0.00000000E+00
  5.70000000E+02  1.00000000E+02  0.00000000E+00
  5.80000000E+02  1.00000000E+02  0.00000000E+00
  5.90000000E+02  1.00000000E+02  0.00000000E+00
  6.00000000E+02  1.00000000E+02  0.00000000E+00
  6.10000000E+02  1.00000000E+02  0.00000000E+00
  6.20000000E+02  1.00000000E+02  0.00000000E+00
  6.30000000E+02  1.00000000E+02  0.00000000E+00
  6.40000000E+02  1.00000000E+02  0.00000000E+00
  6.50000000E+02  1.00000000E+02  0.00000000E+00
  6.60000000E+02  1.00000000E+02  0.00000000E+00
  6.70000000E+02  1.00000000E+02  0.00000000E+00
  6.80000000E+02  1.00000000E+02  0.00000000E+00
  6.90000000E+02  1.00000000E+02  0.00000000E+00
  7.00000000E+02  1.00000000E+02  0.00000000E+00
  7.10000000E+02  1.00000000E+02  0.00000000E+00
  7.20000000E+02  1.00000000E+02  0.00000000E+00
  7.30000000E+02  1.00000000E+02  0.00000000E+00
  7.40000000E+02  1.00000000E+02  0.00000000E+00
  7.50000000E+02  1.00000000E+02  0.00000000E+00
  7.60000000E+02  1.00000000E+02  0.00000000E+00
  7.70000000E+02  1.00000000E+02  0.00000000E+00
  7.80000000E+02  1.00000000E+02  0.00000000E+00
  7.90000000E+02  1.00000000E+02  0.00000000E+00
  8.00000000E+02  1.00000000E+02  0.00000000E+00
  8.10000000E+02  1.00000000E+02  0.00000000E+00
  8.20000000E+02  1.00000000E+02  0.00000000E+00
  8.30000000E+02  1.00000000E+02  0.00000000E+00
  8.40000000E+02  1.00000000E+02  0.00000000E+00
  8.50000000E+02  1.00000000E+02  0.00000000E+00
  8.60000000E+02  1.00000000E+02  0.00000000E+00
  8.70000000E+02  1.00000000E+02  0.00000000E+00
  8.80000000E+02  1.00000000E+02  0.00000000E+00
  8.90000000E+02  1.00000000E+02  0.00000000E+00
  9.00000000E+02  1.00000000E+02  0.00000000E+00
  9.10000000E+02  1.00000000E+02  0.00000000E+00
  9.20000000E+02  1.00000000E+02  0.00000000E+00
  9.30000000E+02  1.00000000E+02  0.00000000E+00
  9.40000000E+02  1.00000000E+02  0.00000000E+00
  9.50000000E+02  1.00000000E+02  0.00000000E+00
  9.60000000E+02  1.00000000E+02  0.00000000E+00
  9.70000000E+02  1.00000000E+02  0.00000000E+00
  9.80000000E+02  1.00000000E+02  0.00000000E+00
  9.90000000E+02  1.00000000E+02  0.00000000E+00
  1.00000000E+03  1.00000000E+02  0.00000000E+00
CELLS      5000     25000
         4           0           1         102         101
         4           1           2         103         102
         4           2           3         104         103
         4           3           4         105         104
         4           4           5         106         105
         4           5           6         107         106
         4           6           7         108         107
         4           7           8         109         108
         4           8           9         110         109
         4           9          10         111         110
         4          10          11         112         111
         4          11          12         113         112
         4          12          13         114         113
         4          13          14         115         114
         4          14          15         116         115
         4          15          16         117         116
         4          16          17         118         117
         4          17          18         119         118
         4          18          19         120         119
         4          19          20         121         120
         4          20          21         122         121
         4          21          22         123         122
         4          22          23         124         123
         4          23          24         125         124
         4          24          25         126         125
         4          25          26         127         126
         4          26          27         128         127
         4          27          28         129         128
         4          28          29         130         129
         4          29          30         131         130
         4          30          31         132         131
         4          31          32         133         132
         4          32          33         134         133
         4          33          34         135         134
         4          34          35         136         135
         4          35          36         137         136
         4          36          37         138         137
         4          37          38         139         138
         4          38          39         140         139
         4          39          40         141         140
         4          40          41         142         141
         4          41          42         143         142
         4          42          43         144         143
         4          43          44         145         144
         4          44          45         146         145
         4          45          46         147         146
         4          46          47         148         147
         4          47          48         149         148
         4          48          49         150         149
         4          49          50         151         150
         4          50          51         152         151
         4          51          52         153         152
         4          52          53         154         153
         4          53          54         155         154
         4          54          55         156         155
         4          55          56         157         156
         4          56          57         158         157
         4          57          58         159         158
         4          58          59         160         159
         4          59          60         161         160
         4          60          61         162         161
         4          61          62         163         162
         4          62          63         164         163
         4          63          64         165         164
         4          64          65         166         165
         4          65          66         167         166
         4          66          67         168         167
         4          67          68         169         168
         4          68          69         170         169
         4          69          70         171         170
         4          70          71         172         171
         4          71          72         173         172
         4          72          73         174         173
         4          73          74         175         174
         4          74          75         176         175
         4          75          76         177         176
         4          76          77         178         177
         4          77          78         179         178
         4          78          79         180         179
         4          79          80         181         180
         4          80          81         182         181
         4          81          82         183         182
         4          82          83         184         183
         4          83          84         185         184
         4          84          85         186         185
         4          85          86         187         186
         4          86          87         188         187
         4          87          88         189         188
         4          88          89         190         189
         4          89          90         191         190
         4          90          91         192         191
         4          91          92         193         192
         4          92          93         194         193
         4          93          94         195         194
         4          94          95         196         195
         4          95          96         197         196
         4          96          97         198         197
         4          97          98         199         198
         4          98          99         200         199
         4          99         100         201         200
         4         101         102         203         202
         4         102         103         204         203
         4         103         104         205         204
         4         104         105         206         205
         4         105         106         207         206
         4         106         107         208         207
         4         107         108         209         208
         4         108         109         210         209
         4         109         110         211         210
         4         110         111         212         211
         4         111         112         213         212
         4         112         113         214         213
         4         113         114         215         214
         4         114         115         216         215
         4         115         116         217         216
         4         116         117         218         217
         4         117         118         219         218
         4         118         119         220         219
         4         119         120         221         220
         4         120         121         222         221
         4         121         122         223         222
         4         122         123         224         223
         4         123         124         225         224
         4         124         125         226         225
         4         125         126         227         226
         4         126         127         228         227
         4         127         128         229         228
         4         128         129         230         229
         4         129         130         231         230
         4         130         131         232         231
         4         131         132         233         232
         4         132         133         234         233
         4         133         134         235         234
         4         134         135         236         235
         4         135         136         237         236
         4         136         137         238         237
         4         137         138         239         238
         4         138         139         240         239
         4         139         140         241         240
         4         140         141         242         241
         4         141         142         243         242
         4         142         143         244         243
         4         143         144         245         244
         4         144         145         246         245
         4         145         146         247         246
         4         146         147         248         247
         4         147         148         249         248
         4         148         149         250         249
         4         149         150         251         250
         4         150         151         252         251
         4         151         152         253         252
         4         152         153         254         253
         4         153         154         255         254
         4         154         155         256         255
         4         155         156         257         256
         4         156         157         258         257
         4         157         158         259         258
         4         158         159         260         259
         4         159         160         261         260
         4         160         161         262         261
         4         161         162         263         262
         4         162         163         264         263
         4         163         164         265         264
         4         164         165         266         265
         4         165         166         267         266
         4         166         167         268         267
         4         167         168         269         268
         4         168         169         270         269
         4         169         170         271         270
         4         170         171         272         271
         4         171         172         273         272
         4         172         173         274         273
         4         173         174         275         274
         4         174         175         276         275
         4         175         176         277         276
         4         176         177         278         277
         4         177         178         279         278
         4         178         179         280         279
         4         179         180         281         280
         4         180         181         282         281
         4         181         182         283         282
         4         182         183         284         283
         4         183         184         285         284
         4         184         185         286         285
         4         185         186         287         286
         4         186         187         288         287
         4         187         188         289         288
         4         188         189         290         289
         4         189         190         291         290
         4         190         191         292         291
         4         191         192         293         292
         4         192         193         294         293
         4         193         194         295         294
         4         194         195         296         295
         4         195         196         297         296
         4         196         197         298         297
         4         197         198         299         298
         4         198         199         300         299
         4         199         200         301         300
         4         200         201         302         301
         4         202         203         304         303
         4         203         204         305         304
         4         204         205         306         305
         4         205         206         307         306
         4         206         207         308         307
         4         207         208         309         308
         4         208         209         310         309
         4         209         210         311         310
         4         210         211         312         311
         4         211         212         313         312
         4         212         213         314         313
         4         213         214         315         314
         4         214         215         316         315
         4         215         216         317         316
         4         216         217         318         317
         4         217         218         319         318
         4         218         219         320         319
         4         219         220         321         320
         4         220         221         322         321
         4         221         222         323         322
         4         222         223         324         323
         4         223         224         325         324
         4         224         225         326         325
         4         225         226         327         326
         4         226         227         328         327
         4         227         228         329         328
         4         228         229         330         329
         4         229         230         331         330
         4         230         231         332         331
         4         231         232         333         332
         4         232         233         334         333
         4         233         234         335         334
         4         234         235         336         335
         4         235         236         337         336
         4         236         237         338         337
         4         237         238         339         338
         4         238         239         340         339
         4         239         240         341         340
         4         240         241         342         341
         4         241         242         343         342
         4         242         243         344         343
         4         243         244         345         344
         4         244         245         346         345
         4         245         246         347         346
         4         246         247         348         347
         4         247         248         349         348
         4         248         249         350         349
         4         249         250         351         350
         4         250         251         352         351
         4         251         252         353         352
         4         252         253         354         353
         4         253         254         355         354
         4         254         255         356         355
         4         255         256         357         356
         4         256         257         358         357
         4         257         258         359         358
         4         258         259         360         359
         4         259         260         361         360
         4         260         261         362         361
         4         261         262         363         362
         4         262         263         364         363
         4         263         264         365         364
         4         264         265         366         365
         4         265         266         367         366
         4         266         267         368         367
         4         267         268         369         368
         4         268         269         370         369
         4         269         270         371         370
         4         270         271         372         371
         4         271         272         373         372
         4         272         273         374         373
         4         273         274         375         374
         4         274         275         376         375
         4         275         276         377         376
         4         276         277         378         377
         4         277         278         379         378
         4         278         279         380         379
         4         279         280         381         380
         4         280         281         382         381
         4         281         282         383         382
         4         282         283         384         383
         4         283         284         385         384
         4         284         285         386         385
         4         285         286         387         386
         4         286         287         388         387
         4         287         288         389         388
         4         288         289         390         389
         4         289         290         391         390
         4         290         291         392         391
         4         291         292         393         392
         4         292         293         394         393
         4         293         294         395         394
         4         294         295         396         395
         4         295         296         397         396
         4         296         297         398         397
         4         297         298         399         398
         4         298         299         400         399
         4         299         300         401         400
         4         300         301         402         401
         4         301         302         403         402
         4         303         304         405         404
         4         304         305         406         405
         4         305         306         407         406
         4         306         307         408         407
         4         307         308         409         408
         4         308         309         410         409
         4         309         310         411         410
         4         310         311         412         411
         4         311         312         413         412
         4         312         313         414         413
         4         313         314         415         414
         4         314         315         416         415
         4         315         316         417         416
         4         316         317         418         417
         4         317         318         419         418
         4         318         319         420         419
         4         319         320         421         420
         4         320         321         422         421
         4         321         322         423         422
         4         322         323         424         423
         4         323         324         425         424
         4         324         325         426         425
         4         325         326         427         426
         4         326         327         428         427
         4         327         328         429         428
         4         328         329         430         429
         4         329         330         431         430
         4         330         331         432         431
         4         331         332         433         432
         4         332         333         434         433
         4         333         334         435         434
         4         334         335         436         435
         4         335         336         437         436
         4         336         337         438         437
         4         337         338         439         438
         4         338         339         440         439
         4         339         340         441         440
         4         340         341         442         441
         4         341         342         443         442
         4         342         343         444         443
         4         343         344         445         444
         4         344         345         446         445
         4         345         346         447         446
         4         346         347         448         447
         4         347         348         449         448
         4         348         349         450         449
         4         349         350         451         450
         4         350         351         452         451
         4         351         352         453         452
         4         352         353         454         453
         4         353         354         455         454
         4         354         355         456         455
         4         355         356         457         456
         4         356         357         458         457
         4         357         358         459         458
         4         358         359         460         459
         4         359         360         461         460
         4         360         361         462         461
         4         361         362         463         462
         4         362         363         464         463
         4         363         364         465         464
         4         364         365         466         465
         4         365         366         467         466
         4         366         367         468         467
         4         367         368         469         468
         4         368         369         470         469
         4         369         370         471         470
         4         370         371         472         471
         4         371         372         473         472
         4         372         373         474         473
         4         373         374         475         474
         4         374         375         476         475
         4         375         376         477         476
         4         376         377         478         477
         4         377         378         479         478
         4         378         379         480         479
         4         379         380         481         480
         4         380         381         482         481
         4         381         382         483         482
         4         382         383         484         483
         4         383         384         485         484
         4         384         385         486         485
         4         385         386         487         486
         4         386         387         488         487
         4         387         388         489         488
         4         388         389         490         489
         4         389         390         491         490
         4         390         391         492         491
         4         391         392         493         492
         4         392         393         494         493
         4         393         394         495         494
         4         394         395         496         495
         4         395         396         497         496
         4         396         397         498         497
         4         397         398         499         498
         4         398         399         500         499
         4         399         400         501         500
         4         400         401         502         501
         4         401         402         503         502
         4         402         403         504         503
         4         404         405         506         505
         4         405         406         507         506
         4         406         407         508         507
         4         407         408         509         508
         4         408         409         510         509
         4         409         410         511         510
         4         410         411         512         511
         4         411         412         513         512
         4         412         413         514         513
         4         413         414         515         514
         4         414         415         516         515
         4         415         416         517         516
         4         416         417         518         517
         4         417         418         519         518
         4         418         419         520         519
         4         419         420         521         520
         4         420         421         522         521
         4         421         422         523         522
         4         422         423         524         523
         4         423         424         525         524
         4         424         425         526         525
         4         425         426         527         526
         4         426         427         528         527
         4         427         428         529         528
         4         428         429         530         529
         4         429         430         531         530
         4         430         431         532         531
         4         431         432         533         532
         4         432         433         534         533
         4         433         434         535         534
         4         434         435         536         535
         4         435         436         537         536
         4         436         437         538         537
         4         437         438         539         538
         4         438         439         540         539
         4         439         440         541         540
         4         440         441         542         541
         4         441         442         543         542
         4         442         443         544         543
         4         443         444         545         544
         4         444         445         546         545
         4         445         446         547         546
         4         446         447         548         547
         4         447         448         549         548
         4         448         449         550         549
         4         449         450         551         550
         4         450         451         552         551
         4         451         452         553         552
         4         452         453         554         553
         4         453         454         555         554
         4         454         455         556         555
         4         455         456         557         556
         4         456         457         558         557
         4         457         458         559         558
         4         458         459         560         559
         4         459         460         561         560
         4         460         461         562         561
         4         461         462         563         562
         4         462         463         564         563
         4         463         464         565         564
         4         464         465         566         565
         4         465         466         567         566
         4         466         467         568         567
         4         467         468         569         568
         4         468         469         570         569
         4         469         470         571         570
         4         470         471         572         571
         4         471         472         573         572
         4         472         473         574         573
         4         473         474         575         574
         4         474         475         576         575
         4         475         476         577         576
         4         476         477         578         577
         4         477         478         579         578
         4         478         479         580         579
         4         479         480         581         580
         4         480         481         582         581
         4         481         482         583         582
         4         482         483         584         583
         4         483         484         585         584
         4         484         485         586         585
         4         485         486         587         586
         4         486         487         588         587
         4         487         488         589         588
         4         488         489         590         589
         4         489         490         591         590
         4         490         491         592         591
         4         491         492         593         592
         4         492         493         594         593
         4         493         494         595         594
         4         494         495         596         595
         4         495         496         597         596
         4         496         497         598         597
         4         497         498         599         598
         4         498         499         600         599
         4         499         500         601         600
         4         500         501         602         601
         4         501         502         603         602
         4         502         503         604         603
         4         503         504         605         604
         4         505         506         607         606
         4         506         507         608         607
         4         507         508         609         608
         4         508         509         610         609
         4         509         510         611         610
         4         510         511         612         611
         4         511         512         613         612
         4         512         513         614         613
         4         513         514         615         614
         4         514         515         616         615
         4         515         516         617         616
         4         516         517         618         617
         4         517         518         619         618
         4         518         519         620         619
         4         519         520         621         620
         4         520         521         622         621
         4         521         522         623         622
         4         522         523         624         623
         4         523         524         625         624
         4         524         525         626         625
         4         525         526         627         626
         4         526         527         628         627
         4         527         528         629         628
         4         528         529         630         629
         4         529         530         631         630
         4         530         531         632         631
         4         531         532         633         632
         4         532         533         634         633
         4         533         534         635         634
         4         534         535         636         635
         4         535         536         637         636
         4         536         537         638         637
         4         537         538         639         638
         4         538         539         640         639
         4         539         540         641         640
         4         540         541         642         641
         4         541         542         643         642
         4         542         543         644         643
         4         543         544         645         644
         4         544         545         646         645
         4         545         546         647         646
         4         546         547         648         647
         4         547         548         649         648
         4         548         549         650         649
         4         549         550         651         650
         4         550         551         652         651
         4         551         552         653         652
         4         552         553         654         653
         4         553         554         655         654
         4         554         555         656         655
         4         555         556         657         656
         4         556         557         658         657
         4         557         558         659         658
         4         558         559         660         659
         4         559         560         661         660
         4         560         561         662         661
         4         561         562         663         662
         4         562         563         664         663
         4         563         564         665         664
         4         564         565         666         665
         4         565         566         667         666
         4         566         567         668         667
         4         567         568         669         668
         4         568         569         670         669
         4         569         570         671         670
         4         570         571         672         671
         4         571         572         673         672
         4         572         573         674         673
         4         573         574         675         674
         4         574         575         676         675
         4         575         576         677         676
         4         576         577         678         677
         4         577         578         679         678
         4         578         579         680         679
         4         579         580         681         680
         4         580         581         682         681
         4         581         582         683         682
         4         582         583         684         683
         4         583         584         685         684
         4         584         585         686         685
         4         585         586         687         686
         4         586         587         688         687
         4         587         588         689         688
         4         588         589         690         689
         4         589         590         691         690
         4         590         591         692         691
         4         591         592         693         692
         4         592         593         694         693
         4         593         594         695         694
         4         594         595         696         695
         4         595         596         697         696
         4         596         597         698         697
         4         597         598         699         698
         4         598         599         700         699
         4         599         600         701         700
         4         600         601         702         701
         4         601         602         703         702
         4         602         603         704         703
         4         603         604         705         704
         4         604         605         706         705
         4         606         607         708         707
         4         607         608         709         708
         4         608         609         710         709
         4         609         610         711         710
         4         610         611         712         711
         4         611         612         713         712
         4         612         613         714         713
         4         613         614         715         714
         4         614         615         716         715
         4         615         616         717         716
         4         616         617         718         717
         4         617         618         719         718
         4         618         619         720         719
         4         619         620         721         720
         4         620         621         722         721
         4         621         622         723         722
         4         622         623         724         723
         4         623         624         725         724
         4         624         625         726         725
         4         625         626         727         726
         4         626         627         728         727
         4         627         628         729         728
         4         628         629         730         729
         4         629         630         731         730
         4         630         631         732         731
         4         631         632         733         732
         4         632         633         734         733
         4         633         634         735         734
         4         634         635         736         735
         4         635         636         737         736
         4         636         637         738         737
         4         637         638         739         738
         4         638         639         740         739
         4         639         640         741         740
         4         640         641         742         741
         4         641         642         743         742
         4         642         643         744         743
         4         643         644         745         744
         4         644         645         746         745
         4         645         646         747         746
         4         646         647         748         747
         4         647         648         749         748
         4         648         649         750         749
         4         649         650         751         750
         4         650         651         752         751
         4         651         652         753         752
         4         652         653         754         753
         4         653         654         755         754
         4         654         655         756         755
         4         655         656         757         756
         4         656         657         758         757
         4         657         658         759         758
         4         658         659         760         759
         4         659         660         761         760
         4         660         661         762         761
         4         661         662         763         762
         4         662         663         764         763
         4         663         664         765         764
         4         664         665         766         765
         4         665         666         767         766
         4         666         667         768         767
         4         667         668         769         768
         4         668         669         770         769
         4         669         670         771         770
         4         670         671         772         771
         4         671         672         773         772
         4         672         673         774         773
         4         673         674         775         774
         4         674         675         776         775
         4         675         676         777         776
         4         676         677         778         777
         4         677         678         779         778
         4         678         679         780         779
         4         679         680         781         780
         4         680         681         782         781
         4         681         682         783         782
         4         682         683         784         783
         4         683         684         785         784
         4         684         685         786         785
         4         685         686         787         786
         4         686         687         788         787
         4         687         688         789         788
         4         688         689         790         789
         4         689         690         791         790
         4         690         691         792         791
         4         691         692         793         792
         4         692         693         794         793
         4         693         694         795         794
         4         694         695         796         795
         4         695         696         797         796
         4         696         697         798         797
         4         697         698         799         798
         4         698         699         800         799
         4         699         700         801         800
         4         700         701         802         801
         4         701         702         803         802
         4         702         703         804         803
         4         703         704         805         804
         4         704         705         806         805
         4         705         706         807         806
         4         707         708         809         808
         4         708         709         810         809
         4         709         710         811         810
         4         710         711         812         811
         4         711         712         813         812
         4         712         713         814         813
         4         713         714         815         814
         4         714         715         816         815
         4         715         716         817         816
         4         716         717         818         817
         4         717         718         819         818
         4         718         719         820         819
         4         719         720         821         820
         4         720         721         822         821
         4         721         722         823         822
         4         722         723         824         823
         4         723         724         825         824
         4         724         725         826         825
         4         725         726         827         826
         4         726         727         828         827
         4         727         728         829         828
         4         728         729         830         829
         4         729         730         831         830
         4         730         731         832         831
         4         731         732         833         832
         4         732         733         834         833
         4         733         734         835         834
         4         734         735         836         835
         4         735         736         837         836
         4         736         737         838         837
         4         737         738         839         838
         4         738         739         840         839
         4         739         740         841         840
         4         740         741         842         841
         4         741         742         843         842
         4         742         743         844         843
         4         743         744         845         844
         4         744         745         846         845
         4         745         746         847         846
         4         746         747         848         847
         4         747         748         849         848
         4         748         749         850         849
         4         749         750         851         850
         4         750         751         852         851
         4         751         752         853         852
         4         752         753         854         853
         4         753         754         855         854
         4         754         755         856         855
         4         755         756         857         856
         4         756         757         858         857
         4         757         758         859         858
         4         758         759         860         859
         4         759         760         861         860
         4         760         761         862         861
         4         761         762         863         862
         4         762         763         864         863
         4         763         764         865         864
         4         764         765         866         865
         4         765         766         867         866
         4         766         767         868         867
         4         767         768         869         868
         4         768         769         870         869
         4         769         770         871         870
         4         770         771         872         871
         4         771         772         873         872
         4         772         773         874         873
         4         773         774         875         874
         4         774         775         876         875
         4         775         776         877         876
         4         776         777         878         877
         4         777         778         879         878
         4         778         779         880         879
         4         779         780         881         880
         4         780         781         882         881
         4         781         782         883         882
         4         782         783         884         883
         4         783         784         885         884
         4         784         785         886         885
         4         785         786         887         886
         4         786         787         888         887
         4         787         788         889         888
         4         788         789         890         889
         4         789         790         891         890
         4         790         791         892         891
         4         791         792         893         892
         4         792         793         894         893
         4         793         794         895         894
         4         794         795         896         895
         4         795         796         897         896
         4         796         797         898         897
         4         797         798         899         898
         4         798         799         900         899
         4         799         800         901         900
         4         800         801         902         901
         4         801         802         903         902
         4         802         803         904         903
         4         803         804         905         904
         4         804         805         906         905
         4         805         806         907         906
         4         806         807         908         907
         4         808         809         910         909
         4         809         810         911         910
         4         810         811         912         911
         4         811         812         913         912
         4         812         813         914         913
         4         813         814         915         914
         4         814         815         916         915
         4         815         816         917         916
         4         816         817         918         917
         4         817         818         919         918
         4         818         819         920         919
         4         819         820         921         920
         4         820         821         922         921
         4         821         822         923         922
         4         822         823         924         923
         4         823         824         925         924
         4         824         825         926         925
         4         825         826         927         926
         4         826         827         928         927
         4         827         828         929         928
         4         828         829         930         929
         4         829         830         931         930
         4         830         831         932         931
         4         831         832         933         932
         4         832         833         934         933
         4         833         834         935         934
         4         834         835         936         935
         4         835         836         937         936
         4         836         837         938         937
         4         837         838         939         938
         4         838         839         940         939
         4         839         840         941         940
         4         840         841         942         941
         4         841         842         943         942
         4         842         843         944         943
         4         843         844         945         944
         4         844         845         946         945
         4         845         846         947         946
         4         846         847         948         947
         4         847         848         949         948
         4         848         849         950         949
         4         849         850         951         950
         4         850         851         952         951
         4         851         852         953         952
         4         852         853         954         953
         4         853         854         955         954
         4         854         855         956         955
         4         855         856         957         956
         4         856         857         958         957
         4         857         858         959         958
         4         858         859         960         959
         4         859         860         961         960
         4         860         861         962         961
         4         861         862         963         962
         4         862         863         964         963
         4         863         864         965         964
         4         864         865         966         965
         4         865         866         967         966
         4         866         867         968         967
         4         867         868         969         968
         4         868         869         970         969
         4         869         870         971         970
         4         870         871         972         971
         4         871         872         973         972
         4         872         873         974         973
         4         873         874         975         974
         4         874         875         976         975
         4         875         876         977         976
         4         876         877         978         977
         4         877         878         979         978
         4         878         879         980         979
         4         879         880         981         980
         4         880         881         982         981
         4         881         882         983         982
         4         882         883         984         983
         4         883         884         985         984
         4         884         885         986         985
         4         885         886         987         986
         4         886         887         988         987
         4         887         888         989         988
         4         888         889         990         989
         4         889         890         991         990
         4         890         891         992         991
         4         891         892         993         992
         4         892         893         994         993
         4         893         894         995         994
         4         894         895         996         995
         4         895         896         997         996
         4         896         897         998         997
         4         897         898         999         998
         4         898         899        1000         999
         4         899         900        1001        1000
         4         900         901        1002        1001
         4         901         902        1003        1002
         4         902         903        1004        1003
         4         903         904        1005        1004
         4         904         905        1006        1005
         4         905         906        1007        1006
         4         906         907        1008        1007
         4         907         908        1009        1008
         4         909         910        1011        1010
         4         910         911        1012        1011
         4         911         912        1013        1012
         4         912         913        1014        1013
         4         913         914        1015        1014
         4         914         915        1016        1015
         4         915         916        1017        1016
         4         916         917        1018        1017
         4         917         918        1019        1018
         4         918         919        1020        1019
         4         919         920        1021        1020
         4         920         921        1022        1021
         4         921         922        1023        1022
         4         922         923        1024        1023
         4         923         924        1025        1024
         4         924         925        1026        1025
         4         925         926        1027        1026
         4         926         927        1028        1027
         4         927         928        1029        1028
         4         928         929        1030        1029
         4         929         930        1031        1030
         4         930         931        1032        1031
         4         931         932        1033        1032
         4         932         933        1034        1033
         4         933         934        1035        1034
         4         934         935        1036        1035
         4         935         936        1037        1036
         4         936         937        1038        1037
         4         937         938        1039        1038
         4         938         939        1040        1039
         4         939         940        1041        1040
         4         940         941        1042        1041
         4         941         942        1043        1042
         4         942         943        1044        1043
         4         943         944        1045        1044
         4         944         945        1046        1045
         4         945         946        1047        1046
         4         946         947        1048        1047
         4         947         948        1049        1048
         4         948         949        1050        1049
         4         949         950        1051        1050
         4         950         951        1052        1051
         4         951         952        1053        1052
         4         952         953        1054        1053
         4         953         954        1055        1054
         4         954         955        1056        1055
         4         955         956        1057        1056
         4         956         957        1058        1057
         4         957         958        1059        1058
         4         958         959        1060        1059
         4         959         960        1061        1060
         4         960         961        1062        1061
         4         961         962        1063        1062
         4         962         963        1064        1063
         4         963         964        1065        1064
         4         964         965        1066        1065
         4         965         966        1067        1066
         4         966         967        1068        1067
         4         967         968        1069        1068
         4         968         969        1070        1069
         4         969         970        1071        1070
         4         970         971        1072        1071
         4         971         972        1073        1072
         4         972         973        1074        1073
         4         973         974        1075        1074
         4         974         975        1076        1075
         4         975         976        1077        1076
         4         976         977        1078        1077
         4         977         978        1079        1078
         4         978         979        1080        1079
         4         979         980        1081        1080
         4         980         981        1082        1081
         4         981         982        1083        1082
         4         982         983        1084        1083
         4         983         984        1085        1084
         4         984         985        1086        1085
         4         985         986        1087        1086
         4         986         987        1088        1087
         4         987         988        1089        1088
         4         988         989        1090        1089
         4         989         990        1091        1090
         4         990         991        1092        1091
         4         991         992        1093        1092
         4         992         993        1094        1093
         4         993         994        1095        1094
         4         994         995        1096        1095
         4         995         996        1097        1096
         4         996         997        1098        1097
         4         997         998        1099        1098
         4         998         999        1100        1099
         4         999        1000        1101        1100
         4        1000        1001        1102        1101
         4        1001        1002        1103        1102
         4        1002        1003        1104        1103
         4        1003        1004        1105        1104
         4        1004        1005        1106        1105
         4        1005        1006        1107        1106
         4        1006        1007        1108        1107
         4        1007        1008        1109        1108
         4        1008        1009        1110        1109
         4        1010        1011        1112        1111
         4        1011        1012        1113        1112
         4        1012        1013        1114        1113
         4        1013        1014        1115        1114
         4        1014        1015        1116        1115
         4        1015        1016        1117        1116
         4        1016        1017        1118        1117
         4        1017        1018        1119        1118
         4        1018        1019        1120        1119
         4        1019        1020        1121        1120
         4        1020        1021        1122        1121
         4        1021        1022        1123        1122
         4        1022        1023        1124        1123
         4        1023        1024        1125        1124
         4        1024        1025        1126        1125
         4        1025        1026        1127        1126
         4        1026        1027        1128        1127
         4        1027        1028        1129        1128
         4        1028        1029        1130        1129
         4        1029        1030        1131        1130
         4        1030        1031        1132        1131
         4        1031        1032        1133        1132
         4        1032        1033        1134        1133
         4        1033        1034        1135        1134
         4        1034        1035        1136        1135
         4        1035        1036        1137        1136
         4        1036        1037        1138        1137
         4        1037        1038        1139        1138
         4        1038        1039        1140        1139
         4        1039        1040        1141        1140
         4        1040        1041        1142        1141
         4        1041        1042        1143        1142
         4        1042        1043        1144        1143
         4        1043        1044        1145        1144
         4        1044        1045        1146        1145
         4        1045        1046        1147        1146
         4        1046        1047        1148        1147
         4        1047        1048        1149        1148
         4        1048        1049        1150        1149
         4        1049        1050        1151        1150
         4        1050        1051        1152        1151
         4        1051        1052        1153        1152
         4        1052        1053        1154        1153
         4        1053        1054        1155        1154
         4        1054        1055        1156        1155
         4        1055        1056        1157        1156
         4        1056        1057        1158        1157
         4        1057        1058        1159        1158
         4        1058        1059        1160        1159
         4        1059        1060        1161        1160
         4        1060        1061        1162        1161
         4        1061        1062        1163        1162
         4        1062        1063        1164        1163
         4        1063        1064        1165        1164
         4        1064        1065        1166        1165
         4        1065        1066        1167        1166
         4        1066        1067        1168        1167
         4        1067        1068        1169        1168
         4        1068        1069        1170        1169
         4        1069        1070        1171        1170
         4        1070        1071        1172        1171
         4        1071        1072        1173        1172
         4        1072        1073        1174        1173
         4        1073        1074        1175        1174
         4        1074        1075        1176        1175
         4        1075        1076        1177        1176
         4        1076        1077        1178        1177
         4        1077        1078        1179        1178
         4        1078        1079        1180        1179
         4        1079        1080        1181        1180
         4        1080        1081        1182        1181
         4        1081        1082        1183        1182
         4        1082        1083        1184        1183
         4        1083        1084        1185        1184
         4        1084        1085        1186        1185
         4        1085        1086        1187        1186
         4        1086        1087        1188        1187
         4        1087        1088        1189        1188
         4        1088        1089        1190        1189
         4        1089        1090        1191        1190
         4        1090        1091        1192        1191
         4        1091        1092        1193        1192
         4        1092        1093        1194        1193
         4        1093        1094        1195        1194
         4        1094        1095        1196        1195
         4        1095        1096        1197        1196
         4        1096        1097        1198        1197
         4        1097        1098        1199        1198
         4        1098        1099        1200        1199
         4        1099        1100        1201        1200
         4        1100        1101        1202        1201
         4        1101        1102        1203        1202
         4        1102        1103        1204        1203
         4        1103        1104        1205        1204
         4        1104        1105        1206        1205
         4        1105        1106        1207        1206
         4        1106        1107        1208        1207
         4        1107        1108        1209        1208
         4        1108        1109        1210        1209
         4        1109        1110        1211        1210
         4        1111        1112        1213        1212
         4        1112        1113        1214        1213
         4        1113        1114        1215        1214
         4        1114        1115        1216        1215
         4        1115        1116        1217        1216
         4        1116        1117        1218        1217
         4        1117        1118        1219        1218
         4        1118        1119        1220        1219
         4        1119        1120        1221        1220
         4        1120        1121        1222        1221
         4        1121        1122        1223        1222
         4        1122        1123        1224        1223
         4        1123        1124        1225        1224
         4        1124        1125        1226        1225
         4        1125        1126        1227        1226
         4        1126        1127        1228        1227
         4        1127        1128        1229        1228
         4        1128        1129        1230        1229
         4        1129        1130        1231        1230
         4        1130        1131        1232        1231
         4        1131        1132        1233        1232
         4        1132        1133        1234        1233
         4        1133        1134        1235        1234
         4        1134        1135        1236        1235
         4        1135        1136        1237        1236
         4        1136        1137        1238        1237
         4        1137        1138        1239        1238
         4        1138        1139        1240        1239
         4        1139        1140        1241        1240
         4        1140        1141        1242        1241
         4        1141        1142        1243        1242
         4        1142        1143        1244        1243
         4        1143        1144        1245        1244
         4        1144        1145        1246        1245
         4        1145        1146        1247        1246
         4        1146        1147        1248        1247
         4        1147        1148        1249        1248
         4        1148        1149        1250        1249
         4        1149        1150        1251        1250
         4        1150        1151        1252        1251
         4        1151        1152        1253        1252
         4        1152        1153        1254        1253
         4        1153        1154        1255        1254
         4        1154        1155        1256        1255
         4        1155        1156        1257        1256
         4        1156        1157        1258        1257
         4        1157        1158        1259        1258
         4        1158        1159        1260        1259
         4        1159        1160        1261        1260
         4        1160        1161        1262        1261
         4        1161        1162        1263        1262
         4        1162        1163        1264        1263
         4        1163        1164        1265        1264
         4        1164        1165        1266        1265
         4        1165        1166        1267        1266
         4        1166        1167        1268        1267
         4        1167        1168        1269        1268
         4        1168        1169        1270        1269
         4        1169        1170        1271        1270
         4        1170        1171        1272        1271
         4        1171        1172        1273        1272
         4        1172        1173        1274        1273
         4        1173        1174        1275        1274
         4        1174        1175        1276        1275
         4        1175        1176        1277        1276
         4        1176        1177        1278        1277
         4        1177        1178        1279        1278
         4        1178        1179        1280        1279
         4        1179        1180        1281        1280
         4        1180        1181        1282        1281
         4        1181        1182        1283        1282
         4        1182        1183        1284        1283
         4        1183        1184        1285        1284
         4        1184        1185        1286        1285
         4        1185        1186        1287        1286
         4        1186        1187        1288        1287
         4        1187        1188        1289        1288
         4        1188        1189        1290        1289
         4        1189        1190        1291        1290
         4        1190        1191        1292        1291
         4        1191        1192        1293        1292
         4        1192        1193        1294        1293
         4        1193        1194        1295        1294
         4        1194        1195        1296        1295
         4        1195        1196        1297        1296
         4        1196        1197        1298        1297
         4        1197        1198        1299        1298
         4        1198        1199        1300        1299
         4        1199        1200        1301        1300
         4        1200        1201        1302        1301
         4        1201        1202        1303        1302
         4        1202        1203        1304        1303
         4        1203        1204        1305        1304
         4        1204        1205        1306        1305
         4        1205        1206        1307        1306
         4        1206        1207        1308        1307
         4        1207        1208        1309        1308
         4        1208        1209        1310        1309
         4        1209        1210        1311        1310
         4        1210        1211        1312        1311
         4        1212        1213        1314        1313
         4        1213        1214        1315        1314
         4        1214        1215        1316        1315
         4        1215        1216        1317        1316
         4        1216        1217        1318        1317
         4        1217        1218        1319        1318
         4        1218        1219        1320        1319
         4        1219        1220        1321        1320
         4        1220        1221        1322        1321
         4        1221        1222        1323        1322
         4        1222        1223        1324        1323
         4        1223        1224        1325        1324
         4        1224        1225        1326        1325
         4        1225        1226        1327        1326
         4        1226        1227        1328        1327
         4        1227        1228        1329        1328
         4        1228        1229        1330        1329
         4        1229        1230        1331        1330
         4        1230        1231        1332        1331
         4        1231        1232        1333        1332
         4        1232        1233        1334        1333
         4        1233        1234        1335        1334
         4        1234        1235        1336        1335
         4        1235        1236        1337        1336
         4        1236        1237        1338        1337
         4        1237        1238        1339        1338
         4        1238        1239        1340        1339
         4        1239        1240        1341        1340
         4        1240        1241        1342        1341
         4        1241        1242        1343        1342
         4        1242        1243        1344        1343
         4        1243        1244        1345        1344
         4        1244        1245        1346        1345
         4        1245        1246        1347        1346
         4        1246        1247        1348        1347
         4        1247        1248        1349        1348
         4        1248        1249        1350        1349
         4        1249        1250        1351        1350
         4        1250        1251        1352        1351
         4        1251        1252        1353        1352
         4        1252        1253        1354        1353
         4        1253        1254        1355        1354
         4        1254        1255        1356        1355
         4        1255        1256        1357        1356
         4        1256        1257        1358        1357
         4        1257        1258        1359        1358
         4        1258        1259        1360        1359
         4        1259        1260        1361        1360
         4        1260        1261        1362        1361
         4        1261        1262        1363        1362
         4        1262        1263        1364        1363
         4        1263        1264        1365        1364
         4        1264        1265        1366        1365
         4        1265        1266        1367        1366
         4        1266        1267        1368        1367
         4        1267        1268        1369        1368
         4        1268        1269        1370        1369
         4        1269        1270        1371        1370
         4        1270        1271        1372        1371
         4        1271        1272        1373        1372
         4        1272        1273        1374        1373
         4        1273        1274        1375        1374
         4        1274        1275        1376        1375
         4        1275        1276        1377        1376
         4        1276        1277        1378        1377
         4        1277        1278        1379        1378
         4        1278        1279        1380        1379
         4        1279        1280        1381        1380
         4        1280        1281        1382        1381
         4        1281        1282        1383        1382
         4        1282        1283        1384        1383
         4        1283        1284        1385        1384
         4        1284        1285        1386        1385
         4        1285        1286        1387        1386
         4        1286        1287        1388        1387
         4        1287        1288        1389        1388
         4        1288        1289        1390        1389
         4        1289        1290        1391        1390
         4        1290        1291        1392        1391
         4        1291        1292        1393        1392
         4        1292        1293        1394        1393
         4        1293        1294        1395        1394
         4        1294        1295        1396        1395
         4        1295        1296        1397        1396
         4        1296        1297        1398        1397
         4        1297        1298        1399        1398
         4        1298        1299        1400        1399
         4        1299        1300        1401        1400
         4        1300        1301        1402        1401
         4        1301        1302        1403        1402
         4        1302        1303        1404        1403
         4        1303        1304        1405        1404
         4        1304        1305        1406        1405
         4        1305        1306        1407        1406
         4        1306        1307        1408        1407
         4        1307        1308        1409        1408
         4        1308        1309        1410        1409
         4        1309        1310        1411        1410
         4        1310        1311        1412        1411
         4        1311        1312        1413        1412
         4        1313        1314        1415        1414
         4        1314        1315        1416        1415
         4        1315        1316        1417        1416
         4        1316        1317        1418        1417
         4        1317        1318        1419        1418
         4        1318        1319        1420        1419
         4        1319        1320        1421        1420
         4        1320        1321        1422        1421
         4        1321        1322        1423        1422
         4        1322        1323        1424        1423
         4        1323        1324        1425        1424
         4        1324        1325        1426        1425
         4        1325        1326        1427        1426
         4        1326        1327        1428        1427
         4        1327        1328        1429        1428
         4        1328        1329        1430        1429
         4        1329        1330        1431        1430
         4        1330        1331        1432        1431
         4        1331        1332        1433        1432
         4        1332        1333        1434        1433
         4        1333        1334        1435        1434
         4        1334        1335        1436        1435
         4        1335        1336        1437        1436
         4        1336        1337        1438        1437
         4        1337        1338        1439        1438
         4        1338        1339        1440        1439
         4        1339        1340        1441        1440
         4        1340        1341        1442        1441
         4        1341        1342        1443        1442
         4        1342        1343        1444        1443
         4        1343        1344        1445        1444
         4        1344        1345        1446        1445
         4        1345        1346        1447        1446
         4        1346        1347        1448        1447
         4        1347        1348        1449        1448
         4        1348        1349        1450        1449
         4        1349        1350        1451        1450
         4        1350        1351        1452        1451
         4        1351        1352        1453        1452
         4        1352        1353        1454        1453
         4        1353        1354        1455        1454
         4        1354        1355        1456        1455
         4        1355        1356        1457        1456
         4        1356        1357        1458        1457
         4        1357        1358        1459        1458
         4        1358        1359        1460        1459
         4        1359        1360        1461        1460
         4        1360        1361        1462        1461
         4        1361        1362        1463        1462
         4        1362        1363        1464        1463
         4        1363        1364        1465        1464
         4        1364        1365        1466        1465
         4        1365        1366        1467        1466
         4        1366        1367        1468        1467
         4        1367        1368        1469        1468
         4        1368        1369        1470        1469
         4        1369        1370        1471        1470
         4        1370        1371        1472        1471
         4        1371        1372        1473        1472
         4        1372        1373        1474        1473
         4        1373        1374        1475        1474
         4        1374        1375        1476        1475
         4        1375        1376        1477        1476
         4        1376        1377        1478        1477
         4        1377        1378        1479        1478
         4        1378        1379        1480        1479
         4        1379        1380        1481        1480
         4        1380        1381        1482        1481
         4        1381        1382        1483        1482
         4        1382        1383        1484        1483
         4        1383        1384        1485        1484
         4        1384        1385        1486        1485
         4        1385        1386        1487        1486
         4        1386        1387        1488        1487
         4        1387        1388        1489        1488
         4        1388        1389        1490        1489
         4        1389        1390        1491        1490
         4        1390        1391        1492        1491
         4        1391        1392        1493        1492
         4        1392        1393        1494        1493
         4        1393        1394        1495        1494
         4        1394        1395        1496        1495
         4        1395        1396        1497        1496
         4        1396        1397        1498        1497
         4        1397        1398        1499        1498
         4        1398        1399        1500        1499
         4        1399        1400        1501        1500
         4        1400        1401        1502        1501
         4        1401        1402        1503        1502
         4        1402        1403        1504        1503
         4        1403        1404        1505        1504
         4        1404        1405        1506        1505
         4        1405        1406        1507        1506
         4        1406        1407        1508        1507
         4        1407        1408        1509        1508
         4        1408        1409        1510        1509
         4        1409        1410        1511        1510
         4        1410        1411        1512        1511
         4        1411        1412        1513        1512
         4        1412        1413        1514        1513
         4        1414        1415        1516        1515
         4        1415        1416        1517        1516
         4        1416        1417        1518        1517
         4        1417        1418        1519        1518
         4        1418        1419        1520        1519
         4        1419        1420        1521        1520
         4        1420        1421        1522        1521
         4        1421        1422        1523        1522
         4        1422        1423        1524        1523
         4        1423        1424        1525        1524
         4        1424        1425        1526        1525
         4        1425        1426        1527        1526
         4        1426        1427        1528        1527
         4        1427        1428        1529        1528
         4        1428        1429        1530        1529
         4        1429        1430        1531        1530
         4        1430        1431        1532        1531
         4        1431        1432        1533        1532
         4        1432        1433        1534        1533
         4        1433        1434        1535        1534
         4        1434        1435        1536        1535
         4        1435        1436        1537        1536
         4        1436        1437        1538        1537
         4        1437        1438        1539        1538
         4        1438        1439        1540        1539
         4        1439        1440        1541        1540
         4        1440        1441        1542        1541
         4        1441        1442        1543        1542
         4        1442        1443        1544        1543
         4        1443        1444        1545        1544
         4        1444        1445        1546        1545
         4        1445        1446        1547        1546
         4        1446        1447        1548        1547
         4        1447        1448        1549        1548
         4        1448        1449        1550        1549
         4        1449        1450        1551        1550
         4        1450        1451        1552        1551
         4        1451        1452        1553        1552
         4        1452        1453        1554        1553
         4        1453        1454        1555        1554
         4        1454        1455        1556        1555
         4        1455        1456        1557        1556
         4        1456        1457        1558        1557
         4        1457        1458        1559        1558
         4        1458        1459        1560        1559
         4        1459        1460        1561        1560
         4        1460        1461        1562        1561
         4        1461        1462        1563        1562
         4        1462        1463        1564        1563
         4        1463        1464        1565        1564
         4        1464        1465        1566        1565
         4        1465        1466        1567        1566
         4        1466        1467        1568        1567
         4        1467        1468        1569        1568
         4        1468        1469        1570        1569
         4        1469        1470        1571        1570
         4        1470        1471        1572        1571
         4        1471        1472        1573        1572
         4        1472        1473        1574        1573
         4        1473        1474        1575        1574
         4        1474        1475        1576        1575
         4        1475        1476        1577        1576
         4        1476        1477        1578        1577
         4        1477        1478        1579        1578
         4        1478        1479        1580        1579
         4        1479        1480        1581        1580
         4        1480        1481        1582        1581
         4        1481        1482        1583        1582
         4        1482        1483        1584        1583
         4        1483        1484        1585        1584
         4        1484        1485        1586        1585
         4        1485        1486        1587        1586
         4        1486        1487        1588        1587
         4        1487        1488        1589        1588
         4        1488        1489        1590        1589
         4        1489        1490        1591        1590
         4        1490        1491        1592        1591
         4        1491        1492        1593        1592
         4        1492        1493        1594        1593
         4        1493        1494        1595        1594
         4        1494        1495        1596        1595
         4        1495        1496        1597        1596
         4        1496        1497        1598        1597
         4        1497        1498        1599        1598
         4        1498        1499        1600        1599
         4        1499        1500        1601        1600
         4        1500        1501        1602        1601
         4        1501        1502        1603        1602
         4        1502        1503        1604        1603
         4        1503        1504        1605        1604
         4        1504        1505        1606        1605
         4        1505        1506        1607        1606
         4        1506        1507        1608        1607
         4        1507        1508        1609        1608
         4        1508        1509        1610        1609
         4        1509        1510        1611        1610
         4        1510        1511        1612        1611
         4        1511        1512        1613        1612
         4        1512        1513        1614        1613
         4        1513        1514        1615        1614
         4        1515        1516        1617        1616
         4        1516        1517        1618        1617
         4        1517        1518        1619        1618
         4        1518        1519        1620        1619
         4        1519        1520        1621        1620
         4        1520        1521        1622        1621
         4        1521        1522        1623        1622
         4        1522        1523        1624        1623
         4        1523        1524        1625        1624
         4        1524        1525        1626        1625
         4        1525        1526        1627        1626
         4        1526        1527        1628        1627
         4        1527        1528        1629        1628
         4        1528        1529        1630        1629
         4        1529        1530        1631        1630
         4        1530        1531        1632        1631
         4        1531        1532        1633        1632
         4        1532        1533        1634        1633
         4        1533        1534        1635        1634
         4        1534        1535        1636        1635
         4        1535        1536        1637        1636
         4        1536        1537        1638        1637
         4        1537        1538        1639        1638
         4        1538        1539        1640        1639
         4        1539        1540        1641        1640
         4        1540        1541        1642        1641
         4        1541        1542        1643        1642
         4        1542        1543        1644        1643
         4        1543        1544        1645        1644
         4        1544        1545        1646        1645
         4        1545        1546        1647        1646
         4        1546        1547        1648        1647
         4        1547        1548        1649        1648
         4        1548        1549        1650        1649
         4        1549        1550        1651        1650
         4        1550        1551        1652        1651
         4        1551        1552        1653        1652
         4        1552        1553        1654        1653
         4        1553        1554        1655        1654
         4        1554        1555        1656        1655
         4        1555        1556        1657        1656
         4        1556        1557        1658        1657
         4        1557        1558        1659        1658
         4        1558        1559        1660        1659
         4        1559        1560        1661        1660
         4        1560        1561        1662        1661
         4        1561        1562        1663        1662
         4        1562        1563        1664        1663
         4        1563        1564        1665        1664
         4        1564        1565        1666        1665
         4        1565        1566        1667        1666
         4        1566        1567        1668        1667
         4        1567        1568        1669        1668
         4        1568        1569        1670        1669
         4        1569        1570        1671        1670
         4        1570        1571        1672        1671
         4        1571        1572        1673        1672
         4        1572        1573        1674        1673
         4        1573        1574        1675        1674
         4        1574        1575        1676        1675
         4        1575        1576        1677        1676
         4        1576        1577        1678        1677
         4        1577        1578        1679        1678
         4        1578        1579        1680        1679
         4        1579        1580        1681        1680
         4        1580        1581        1682        1681
         4        1581        1582        1683        1682
         4        1582        1583        1684        1683
         4        1583        1584        1685        1684
         4        1584        1585        1686        1685
         4        1585        1586        1687        1686
         4        1586        1587        1688        1687
         4        1587        1588        1689        1688
         4        1588        1589        1690        1689
         4        1589        1590        1691        1690
         4        1590        1591        1692        1691
         4        1591        1592        1693        1692
         4        1592        1593        1694        1693
         4        1593        1594        1695        1694
         4        1594        1595        1696        1695
         4        1595        1596        1697        1696
         4        1596        1597        1698        1697
         4        1597        1598        1699        1698
         4        1598        1599        1700        1699
         4        1599        1600        1701        1700
         4        1600        1601        1702        1701
         4        1601        1602        1703        1702
         4        1602        1603        1704        1703
         4        1603        1604        1705        1704
         4        1604        1605        1706        1705
         4        1605        1606        1707        1706
         4        1606        1607        1708        1707
         4        1607        1608        1709        1708
         4        1608        1609        1710        1709
         4        1609        1610        1711        1710
         4        1610        1611        1712        1711
         4        1611        1612        1713        1712
         4        1612        1613        1714        1713
         4        1613        1614        1715        1714
         4        1614        1615        1716        1715
         4        1616        1617        1718        1717
         4        1617        1618        1719        1718
         4        1618        1619        1720        1719
         4        1619        1620        1721        1720
         4        1620        1621        1722        1721
         4        1621        1622        1723        1722
         4        1622        1623        1724        1723
         4        1623        1624        1725        1724
         4        1624        1625        1726        1725
         4        1625        1626        1727        1726
         4        1626        1627        1728        1727
         4        1627        1628        1729        1728
         4        1628        1629        1730        1729
         4        1629        1630        1731        1730
         4        1630        1631        1732        1731
         4        1631        1632        1733        1732
         4        1632        1633        1734        1733
         4        1633        1634        1735        1734
         4        1634        1635        1736        1735
         4        1635        1636        1737        1736
         4        1636        1637        1738        1737
         4        1637        1638        1739        1738
         4        1638        1639        1740        1739
         4        1639        1640        1741        1740
         4        1640        1641        1742        1741
         4        1641        1642        1743        1742
         4        1642        1643        1744        1743
         4        1643        1644        1745        1744
         4        1644        1645        1746        1745
         4        1645        1646        1747        1746
         4        1646        1647        1748        1747
         4        1647        1648        1749        1748
         4        1648        1649        1750        1749
         4        1649        1650        1751        1750
         4        1650        1651        1752        1751
         4        1651        1652        1753        1752
         4        1652        1653        1754        1753
         4        1653        1654        1755        1754
         4        1654        1655        1756        1755
         4        1655        1656        1757        1756
         4        1656        1657        1758        1757
         4        1657        1658        1759        1758
         4        1658        1659        1760        1759
         4        1659        1660        1761        1760
         4        1660        1661        1762        1761
         4        1661        1662        1763        1762
         4        1662        1663        1764        1763
         4        1663        1664        1765        1764
         4        1664        1665        1766        1765
         4        1665        1666        1767        1766
         4        1666        1667        1768        1767
         4        1667        1668        1769        1768
         4        1668        1669        1770        1769
         4        1669        1670        1771        1770
         4        1670        1671        1772        1771
         4        1671        1672        1773        1772
         4        1672        1673        1774        1773
         4        1673        1674        1775        1774
         4        1674        1675        1776        1775
         4        1675        1676        1777        1776
         4        1676        1677        1778        1777
         4        1677        1678        1779        1778
         4        1678        1679        1780        1779
         4        1679        1680        1781        1780
         4        1680        1681        1782        1781
         4        1681        1682        1783        1782
         4        1682        1683        1784        1783
         4        1683        1684        1785        1784
         4        1684        1685        1786        1785
         4        1685        1686        1787        1786
         4        1686        1687        1788        1787
         4        1687        1688        1789        1788
         4        1688        1689        1790        1789
         4        1689        1690        1791        1790
         4        1690        1691        1792        1791
         4        1691        1692        1793        1792
         4        1692        1693        1794        1793
         4        1693        1694        1795        1794
         4        1694        1695        1796        1795
         4        1695        1696        1797        1796
         4        1696        1697        1798        1797
         4        1697        1698        1799        1798
         4        1698        1699        1800        1799
         4        1699        1700        1801        1800
         4        1700        1701        1802        1801
         4        1701        1702        1803        1802
         4        1702        1703        1804        1803
         4        1703        1704        1805        1804
         4        1704        1705        1806        1805
         4        1705        1706        1807        1806
         4        1706        1707        1808        1807
         4        1707        1708        1809        1808
         4        1708        1709        1810        1809
         4        1709        1710        1811        1810
         4        1710        1711        1812        1811
         4        1711        1712        1813        1812
         4        1712        1713        1814        1813
         4        1713        1714        1815        1814
         4        1714        1715        1816        1815
         4        1715        1716        1817        1816
         4        1717        1718        1819        1818
         4        1718        1719        1820        1819
         4        1719        1720        1821        1820
         4        1720        1721        1822        1821
         4        1721        1722        1823        1822
         4        1722        1723        1824        1823
         4        1723        1724        1825        1824
         4        1724        1725        1826        1825
         4        1725        1726        1827        1826
         4        1726        1727        1828        1827
         4        1727        1728        1829        1828
         4        1728        1729        1830        1829
         4        1729        1730        1831        1830
         4        1730        1731        1832        1831
         4        1731        1732        1833        1832
         4        1732        1733        1834        1833
         4        1733        1734        1835        1834
         4        1734        1735        1836        1835
         4        1735        1736        1837        1836
         4        1736        1737        1838        1837
         4        1737        1738        1839        1838
         4        1738        1739        1840        1839
         4        1739        1740        1841        1840
         4        1740        1741        1842        1841
         4        1741        1742        1843        1842
         4        1742        1743        1844        1843
         4        1743        1744        1845        1844
         4        1744        1745        1846        1845
         4        1745        1746        1847        1846
         4        1746        1747        1848        1847
         4        1747        1748        1849        1848
         4        1748        1749        1850        1849
         4        1749        1750        1851        1850
         4        1750        1751        1852        1851
         4        1751        1752        1853        1852
         4        1752        1753        1854        1853
         4        1753        1754        1855        1854
         4        1754        1755        1856        1855
         4        1755        1756        1857        1856
         4        1756        1757        1858        1857
         4        1757        1758        1859        1858
         4        1758        1759        1860        1859
         4        1759        1760        1861        1860
         4        1760        1761        1862        1861
         4        1761        1762        1863        1862
         4        1762        1763        1864        1863
         4        1763        1764        1865        1864
         4        1764        1765        1866        1865
         4        1765        1766        1867        1866
         4        1766        1767        1868        1867
         4        1767        1768        1869        1868
         4        1768        1769        1870        1869
         4        1769        1770        1871        1870
         4        1770        1771        1872        1871
         4        1771        1772        1873        1872
         4        1772        1773        1874        1873
         4        1773        1774        1875        1874
         4        1774        1775        1876        1875
         4        1775        1776        1877        1876
         4        1776        1777        1878        1877
         4        1777        1778        1879        1878
         4        1778        1779        1880        1879
         4        1779        1780        1881        1880
         4        1780        1781        1882        1881
         4        1781        1782        1883        1882
         4        1782        1783        1884        1883
         4        1783        1784        1885        1884
         4        1784        1785        1886        1885
         4        1785        1786        1887        1886
         4        1786        1787        1888        1887
         4        1787        1788        1889        1888
         4        1788        1789        1890        1889
         4        1789        1790        1891        1890
         4        1790        1791        1892        1891
         4        1791        1792        1893        1892
         4        1792        1793        1894        1893
         4        1793        1794        1895        1894
         4        1794        1795        1896        1895
         4        1795        1796        1897        1896
         4        1796        1797        1898        1897
         4        1797        1798        1899        1898
         4        1798        1799        1900        1899
         4        1799        1800        1901        1900
         4        1800        1801        1902        1901
         4        1801        1802        1903        1902
         4        1802        1803        1904        1903
         4        1803        1804        1905        1904
         4        1804        1805        1906        1905
         4        1805        1806        1907        1906
         4        1806        1807        1908        1907
         4        1807        1808        1909        1908
         4        1808        1809        1910        1909
         4        1809        1810        1911        1910
         4        1810        1811        1912        1911
         4        1811        1812        1913        1912
         4        1812        1813        1914        1913
         4        1813        1814        1915        1914
         4        1814        1815        1916        1915
         4        1815        1816        1917        1916
         4        1816        1817        1918        1917
         4        1818        1819        1920        1919
         4        1819        1820        1921        1920
         4        1820        1821        1922        1921
         4        1821        1822        1923        1922
         4        1822        1823        1924        1923
         4        1823        1824        1925        1924
         4        1824        1825        1926        1925
         4        1825        1826        1927        1926
         4        1826        1827        1928        1927
         4        1827        1828        1929        1928
         4        1828        1829        1930        1929
         4        1829        1830        1931        1930
         4        1830        1831        1932        1931
         4        1831        1832        1933        1932
         4        1832        1833        1934        1933
         4        1833        1834        1935        1934
         4        1834        1835        1936        1935
         4        1835        1836        1937        1936
         4        1836        1837        1938        1937
         4        1837        1838        1939        1938
         4        1838        1839        1940        1939
         4        1839        1840        1941        1940
         4        1840        1841        1942        1941
         4        1841        1842        1943        1942
         4        1842        1843        1944        1943
         4        1843        1844        1945        1944
         4        1844        1845        1946        1945
         4        1845        1846        1947        1946
         4        1846        1847        1948        1947
         4        1847        1848        1949        1948
         4        1848        1849        1950        1949
         4        1849        1850        1951        1950
         4        1850        1851        1952        1951
         4        1851        1852        1953        1952
         4        1852        1853        1954        1953
         4        1853        1854        1955        1954
         4        1854        1855        1956        1955
         4        1855        1856        1957        1956
         4        1856        1857        1958        1957
         4        1857        1858        1959        1958
         4        1858        1859        1960        1959
         4        1859        1860        1961        1960
         4        1860        1861        1962        1961
         4        1861        1862        1963        1962
         4        1862        1863        1964        1963
         4        1863        1864        1965        1964
         4        1864        1865        1966        1965
         4        1865        1866        1967        1966
         4        1866        1867        1968        1967
         4        1867        1868        1969        1968
         4        1868        1869        1970        1969
         4        1869        1870        1971        1970
         4        1870        1871        1972        1971
         4        1871        1872        1973        1972
         4        1872        1873        1974        1973
         4        1873        1874        1975        1974
         4        1874        1875        1976        1975
         4        1875        1876        1977        1976
         4        1876        1877        1978        1977
         4        1877        1878        1979        1978
         4        1878        1879        1980        1979
         4        1879        1880        1981        1980
         4        1880        1881        1982        1981
         4        1881        1882        1983        1982
         4        1882        1883        1984        1983
         4        1883        1884        1985        1984
         4        1884        1885        1986        1985
         4        1885        1886        1987        1986
         4        1886        1887        1988        1987
         4        1887        1888        1989        1988
         4        1888        1889        1990        1989
         4        1889        1890        1991        1990
         4        1890        1891        1992        1991
         4        1891        1892        1993        1992
         4        1892        1893        1994        1993
         4        1893        1894        1995        1994
         4        1894        1895        1996        1995
         4        1895        1896        1997        1996
         4        1896        1897        1998        1997
         4        1897        1898        1999        1998
         4        1898        1899        2000        1999
         4        1899        1900        2001        2000
         4        1900        1901        2002        2001
         4        1901        1902        2003        2002
         4        1902        1903        2004        2003
         4        1903        1904        2005        2004
         4        1904        1905        2006        2005
         4        1905        1906        2007        2006
         4        1906        1907        2008        2007
         4        1907        1908        2009        2008
         4        1908        1909        2010        2009
         4        1909        1910        2011        2010
         4        1910        1911        2012        2011
         4        1911        1912        2013        2012
         4        1912        1913        2014        2013
         4        1913        1914        2015        2014
         4        1914        1915        2016        2015
         4        1915        1916        2017        2016
         4        1916        1917        2018        2017
         4        1917        1918        2019        2018
         4        1919        1920        2021        2020
         4        1920        1921        2022        2021
         4        1921        1922        2023        2022
         4        1922        1923        2024        2023
         4        1923        1924        2025        2024
         4        1924        1925        2026        2025
         4        1925        1926        2027        2026
         4        1926        1927        2028        2027
         4        1927        1928        2029        2028
         4        1928        1929        2030        2029
         4        1929        1930        2031        2030
         4        1930        1931        2032        2031
         4        1931        1932        2033        2032
         4        1932        1933        2034        2033
         4        1933        1934        2035        2034
         4        1934        1935        2036        2035
         4        1935        1936        2037        2036
         4        1936        1937        2038        2037
         4        1937        1938        2039        2038
         4        1938        1939        2040        2039
         4        1939        1940        2041        2040
         4        1940        1941        2042        2041
         4        1941        1942        2043        2042
         4        1942        1943        2044        2043
         4        1943        1944        2045        2044
         4        1944        1945        2046        2045
         4        1945        1946        2047        2046
         4        1946        1947        2048        2047
         4        1947        1948        2049        2048
         4        1948        1949        2050        2049
         4        1949        1950        2051        2050
         4        1950        1951        2052        2051
         4        1951        1952        2053        2052
         4        1952        1953        2054        2053
         4        1953        1954        2055        2054
         4        1954        1955        2056        2055
         4        1955        1956        2057        2056
         4        1956        1957        2058        2057
         4        1957        1958        2059        2058
         4        1958        1959        2060        2059
         4        1959        1960        2061        2060
         4        1960        1961        2062        2061
         4        1961        1962        2063        2062
         4        1962        1963        2064        2063
         4        1963        1964        2065        2064
         4        1964        1965        2066        2065
         4        1965        1966        2067        2066
         4        1966        1967        2068        2067
         4        1967        1968        2069        2068
         4        1968        1969        2070        2069
         4        1969        1970        2071        2070
         4        1970        1971        2072        2071
         4        1971        1972        2073        2072
         4        1972        1973        2074        2073
         4        1973        1974        2075        2074
         4        1974        1975        2076        2075
         4        1975        1976        2077        2076
         4        1976        1977        2078        2077
         4        1977        1978        2079        2078
         4        1978        1979        2080        2079
         4        1979        1980        2081        2080
         4        1980        1981        2082        2081
         4        1981        1982        2083        2082
         4        1982        1983        2084        2083
         4        1983        1984        2085        2084
         4        1984        1985        2086        2085
         4        1985        1986        2087        2086
         4        1986        1987        2088        2087
         4        1987        1988        2089        2088
         4        1988        1989        2090        2089
         4        1989        1990        2091        2090
         4        1990        1991        2092        2091
         4        1991        1992        2093        2092
         4        1992        1993        2094        2093
         4        1993        1994        2095        2094
         4        1994        1995        2096        2095
         4        1995        1996        2097        2096
         4        1996        1997        2098        2097
         4        1997        1998        2099        2098
         4        1998        1999        2100        2099
         4        1999        2000        2101        2100
         4        2000        2001        2102        2101
         4        2001        2002        2103        2102
         4        2002        2003        2104        2103
         4        2003        2004        2105        2104
         4        2004        2005        2106        2105
         4        2005        2006        2107        2106
         4        2006        2007        2108        2107
         4        2007        2008        2109        2108
         4        2008        2009        2110        2109
         4        2009        2010        2111        2110
         4        2010        2011        2112        2111
         4        2011        2012        2113        2112
         4        2012        2013        2114        2113
         4        2013        2014        2115        2114
         4        2014        2015        2116        2115
         4        2015        2016        2117        2116
         4        2016        2017        2118        2117
         4        2017        2018        2119        2118
         4        2018        2019        2120        2119
         4        2020        2021        2122        2121
         4        2021        2022        2123        2122
         4        2022        2023        2124        2123
         4        2023        2024        2125        2124
         4        2024        2025        2126        2125
         4        2025        2026        2127        2126
         4        2026        2027        2128        2127
         4        2027        2028        2129        2128
         4        2028        2029        2130        2129
         4        2029        2030        2131        2130
         4        2030        2031        2132        2131
         4        2031        2032        2133        2132
         4        2032        2033        2134        2133
         4        2033        2034        2135        2134
         4        2034        2035        2136        2135
         4        2035        2036        2137        2136
         4        2036        2037        2138        2137
         4        2037        2038        2139        2138
         4        2038        2039        2140        2139
         4        2039        2040        2141        2140
         4        2040        2041        2142        2141
         4        2041        2042        2143        2142
         4        2042        2043        2144        2143
         4        2043        2044        2145        2144
         4        2044        2045        2146        2145
         4        2045        2046        2147        2146
         4        2046        2047        2148        2147
         4        2047        2048        2149        2148
         4        2048        2049        2150        2149
         4        2049        2050        2151        2150
         4        2050        2051        2152        2151
         4        2051        2052        2153        2152
         4        2052        2053        2154        2153
         4        2053        2054        2155        2154
         4        2054        2055        2156        2155
         4        2055        2056        2157        2156
         4        2056        2057        2158        2157
         4        2057        2058        2159        2158
         4        2058        2059        2160        2159
         4        2059        2060        2161        2160
         4        2060        2061        2162        2161
         4        2061        2062        2163        2162
         4        2062        2063        2164        2163
         4        2063        2064        2165        2164
         4        2064        2065        2166        2165
         4        2065        2066        2167        2166
         4        2066        2067        2168        2167
         4        2067        2068        2169        2168
         4        2068        2069        2170        2169
         4        2069        2070        2171        2170
         4        2070        2071        2172        2171
         4        2071        2072        2173        2172
         4        2072        2073        2174        2173
         4        2073        2074        2175        2174
         4        2074        2075        2176        2175
         4        2075        2076        2177        2176
         4        2076        2077        2178        2177
         4        2077        2078        2179        2178
         4        2078        2079        2180        2179
         4        2079        2080        2181        2180
         4        2080        2081        2182        2181
         4        2081        2082        2183        2182
         4        2082        2083        2184        2183
         4        2083        2084        2185        2184
         4        2084        2085        2186        2185
         4        2085        2086        2187        2186
         4        2086        2087        2188        2187
         4        2087        2088        2189        2188
         4        2088        2089        2190        2189
         4        2089        2090        2191        2190
         4        2090        2091        2192        2191
         4        2091        2092        2193        2192
         4        2092        2093        2194        2193
         4        2093        2094        2195        2194
         4        2094        2095        2196        2195
         4        2095        2096        2197        2196
         4        2096        2097        2198        2197
         4        2097        2098        2199        2198
         4        2098        2099        2200        2199
         4        2099        2100        2201        2200
         4        2100        2101        2202        2201
         4        2101        2102        2203        2202
         4        2102        2103        2204        2203
         4        2103        2104        2205        2204
         4        2104        2105        2206        2205
         4        2105        2106        2207        2206
         4        2106        2107        2208        2207
         4        2107        2108        2209        2208
         4        2108        2109        2210        2209
         4        2109        2110        2211        2210
         4        2110        2111        2212        2211
         4        2111        2112        2213        2212
         4        2112        2113        2214        2213
         4        2113        2114        2215        2214
         4        2114        2115        2216        2215
         4        2115        2116        2217        2216
         4        2116        2117        2218        2217
         4        2117        2118        2219        2218
         4        2118        2119        2220        2219
         4        2119        2120        2221        2220
         4        2121        2122        2223        2222
         4        2122        2123        2224        2223
         4        2123        2124        2225        2224
         4        2124        2125        2226        2225
         4        2125        2126        2227        2226
         4        2126        2127        2228        2227
         4        2127        2128        2229        2228
         4        2128        2129        2230        2229
         4        2129        2130        2231        2230
         4        2130        2131        2232        2231
         4        2131        2132        2233        2232
         4        2132        2133        2234        2233
         4        2133        2134        2235        2234
         4        2134        2135        2236        2235
         4        2135        2136        2237        2236
         4        2136        2137        2238        2237
         4        2137        2138        2239        2238
         4        2138        2139        2240        2239
         4        2139        2140        2241        2240
         4        2140        2141        2242        2241
         4        2141        2142        2243        2242
         4        2142        2143        2244        2243
         4        2143        2144        2245        2244
         4        2144        2145        2246        2245
         4        2145        2146        2247        2246
         4        2146        2147        2248        2247
         4        2147        2148        2249        2248
         4        2148        2149        2250        2249
         4        2149        2150        2251        2250
         4        2150        2151        2252        2251
         4        2151        2152        2253        2252
         4        2152        2153        2254        2253
         4        2153        2154        2255        2254
         4        2154        2155        2256        2255
         4        2155        2156        2257        2256
         4        2156        2157        2258        2257
         4        2157        2158        2259        2258
         4        2158        2159        2260        2259
         4        2159        2160        2261        2260
         4        2160        2161        2262        2261
         4        2161        2162        2263        2262
         4        2162        2163        2264        2263
         4        2163        2164        2265        2264
         4        2164        2165        2266        2265
         4        2165        2166        2267        2266
         4        2166        2167        2268        2267
         4        2167        2168        2269        2268
         4        2168        2169        2270        2269
         4        2169        2170        2271        2270
         4        2170        2171        2272        2271
         4        2171        2172        2273        2272
         4        2172        2173        2274        2273
         4        2173        2174        2275        2274
         4        2174        2175        2276        2275
         4        2175        2176        2277        2276
         4        2176        2177        2278        2277
         4        2177        2178        2279        2278
         4        2178        2179        2280        2279
         4        2179        2180        2281        2280
         4        2180        2181        2282        2281
         4        2181        2182        2283        2282
         4        2182        2183        2284        2283
         4        2183        2184        2285        2284
         4        2184        2185        2286        2285
         4        2185        2186        2287        2286
         4        2186        2187        2288        2287
         4        2187        2188        2289        2288
         4        2188        2189        2290        2289
         4        2189        2190        2291        2290
         4        2190        2191        2292        2291
         4        2191        2192        2293        2292
         4        2192        2193        2294        2293
         4        2193        2194        2295        2294
         4        2194        2195        2296        2295
         4        2195        2196        2297        2296
         4        2196        2197        2298        2297
         4        2197        2198        2299        2298
         4        2198        2199        2300        2299
         4        2199        2200        2301        2300
         4        2200        2201        2302        2301
         4        2201        2202        2303        2302
         4        2202        2203        2304        2303
         4        2203        2204        2305        2304
         4        2204        2205        2306        2305
         4        2205        2206        2307        2306
         4        2206        2207        2308        2307
         4        2207        2208        2309        2308
         4        2208        2209        2310        2309
         4        2209        2210        2311        2310
         4        2210        2211        2312        2311
         4        2211        2212        2313        2312
         4        2212        2213        2314        2313
         4        2213        2214        2315        2314
         4        2214        2215        2316        2315
         4        2215        2216        2317        2316
         4        2216        2217        2318        2317
         4        2217        2218        2319        2318
         4        2218        2219        2320        2319
         4        2219        2220        2321        2320
         4        2220        2221        2322        2321
         4        2222        2223        2324        2323
         4        2223        2224        2325        2324
         4        2224        2225        2326        2325
         4        2225        2226        2327        2326
         4        2226        2227        2328        2327
         4        2227        2228        2329        2328
         4        2228        2229        2330        2329
         4        2229        2230        2331        2330
         4        2230        2231        2332        2331
         4        2231        2232        2333        2332
         4        2232        2233        2334        2333
         4        2233        2234        2335        2334
         4        2234        2235        2336        2335
         4        2235        2236        2337        2336
         4        2236        2237        2338        2337
         4        2237        2238        2339        2338
         4        2238        2239        2340        2339
         4        2239        2240        2341        2340
         4        2240        2241        2342        2341
         4        2241        2242        2343        2342
         4        2242        2243        2344        2343
         4        2243        2244        2345        2344
         4        2244        2245        2346        2345
         4        2245        2246        2347        2346
         4        2246        2247        2348        2347
         4        2247        2248        2349        2348
         4        2248        2249        2350        2349
         4        2249        2250        2351        2350
         4        2250        2251        2352        2351
         4        2251        2252        2353        2352
         4        2252        2253        2354        2353
         4        2253        2254        2355        2354
         4        2254        2255        2356        2355
         4        2255        2256        2357        2356
         4        2256        2257        2358        2357
         4        2257        2258        2359        2358
         4        2258        2259        2360        2359
         4        2259        2260        2361        2360
         4        2260        2261        2362        2361
         4        2261        2262        2363        2362
         4        2262        2263        2364        2363
         4        2263        2264        2365        2364
         4        2264        2265        2366        2365
         4        2265        2266        2367        2366
         4        2266        2267        2368        2367
         4        2267        2268        2369        2368
         4        2268        2269        2370        2369
         4        2269        2270        2371        2370
         4        2270        2271        2372        2371
         4        2271        2272        2373        2372
         4        2272        2273        2374        2373
         4        2273        2274        2375        2374
         4        2274        2275        2376        2375
         4        2275        2276        2377        2376
         4        2276        2277        2378        2377
         4        2277        2278        2379        2378
         4        2278        2279        2380        2379
         4        2279        2280        2381        2380
         4        2280        2281        2382        2381
         4        2281        2282        2383        2382
         4        2282        2283        2384        2383
         4        2283        2284        2385        2384
         4        2284        2285        2386        2385
         4        2285        2286        2387        2386
         4        2286        2287        2388        2387
         4        2287        2288        2389        2388
         4        2288        2289        2390        2389
         4        2289        2290        2391        2390
         4        2290        2291        2392        2391
         4        2291        2292        2393        2392
         4        2292        2293        2394        2393
         4        2293        2294        2395        2394
         4        2294        2295        2396        2395
         4        2295        2296        2397        2396
         4        2296        2297        2398        2397
         4        2297        2298        2399        2398
         4        2298        2299        2400        2399
         4        2299        2300        2401        2400
         4        2300        2301        2402        2401
         4        2301        2302        2403        2402
         4        2302        2303        2404        2403
         4        2303        2304        2405        2404
         4        2304        2305        2406        2405
         4        2305        2306        2407        2406
         4        2306        2307        2408        2407
         4        2307        2308        2409        2408
         4        2308        2309        2410        2409
         4        2309        2310        2411        2410
         4        2310        2311        2412        2411
         4        2311        2312        2413        2412
         4        2312        2313        2414        2413
         4        2313        2314        2415        2414
         4        2314        2315        2416        2415
         4        2315        2316        2417        2416
         4        2316        2317        2418        2417
         4        2317        2318        2419        2418
         4        2318        2319        2420        2419
         4        2319        2320        2421        2420
         4        2320        2321        2422        2421
         4        2321        2322        2423        2422
         4        2323        2324        2425        2424
         4        2324        2325        2426        2425
         4        2325        2326        2427        2426
         4        2326        2327        2428        2427
         4        2327        2328        2429        2428
         4        2328        2329        2430        2429
         4        2329        2330        2431        2430
         4        2330        2331        2432        2431
         4        2331        2332        2433        2432
         4        2332        2333        2434        2433
         4        2333        2334        2435        2434
         4        2334        2335        2436        2435
         4        2335        2336        2437        2436
         4        2336        2337        2438        2437
         4        2337        2338        2439        2438
         4        2338        2339        2440        2439
         4        2339        2340        2441        2440
         4        2340        2341        2442        2441
         4        2341        2342        2443        2442
         4        2342        2343        2444        2443
         4        2343        2344        2445        2444
         4        2344        2345        2446        2445
         4        2345        2346        2447        2446
         4        2346        2347        2448        2447
         4        2347        2348        2449        2448
         4        2348        2349        2450        2449
         4        2349        2350        2451        2450
         4        2350        2351        2452        2451
         4        2351        2352        2453        2452
         4        2352        2353        2454        2453
         4        2353        2354        2455        2454
         4        2354        2355        2456        2455
         4        2355        2356        2457        2456
         4        2356        2357        2458        2457
         4        2357        2358        2459        2458
         4        2358        2359        2460        2459
         4        2359        2360        2461        2460
         4        2360        2361        2462        2461
         4        2361        2362        2463        2462
         4        2362        2363        2464        2463
         4        2363        2364        2465        2464
         4        2364        2365        2466        2465
         4        2365        2366        2467        2466
         4        2366        2367        2468        2467
         4        2367        2368        2469        2468
         4        2368        2369        2470        2469
         4        2369        2370        2471        2470
         4        2370        2371        2472        2471
         4        2371        2372        2473        2472
         4        2372        2373        2474        2473
         4        2373        2374        2475        2474
         4        2374        2375        2476        2475
         4        2375        2376        2477        2476
         4        2376        2377        2478        2477
         4        2377        2378        2479        2478
         4        2378        2379        2480        2479
         4        2379        2380        2481        2480
         4        2380        2381        2482        2481
         4        2381        2382        2483        2482
         4        2382        2383        2484        2483
         4        2383        2384        2485        2484
         4        2384        2385        2486        2485
         4        2385        2386        2487        2486
         4        2386        2387        2488        2487
         4        2387        2388        2489        2488
         4        2388        2389        2490        2489
         4        2389        2390        2491        2490
         4        2390        2391        2492        2491
         4        2391        2392        2493        2492
         4        2392        2393        2494        2493
         4        2393        2394        2495        2494
         4        2394        2395        2496        2495
         4        2395        2396        2497        2496
         4        2396        2397        2498        2497
         4        2397        2398        2499        2498
         4        2398        2399        2500        2499
         4        2399        2400        2501        2500
         4        2400        2401        2502        2501
         4        2401        2402        2503        2502
         4        2402        2403        2504        2503
         4        2403        2404        2505        2504
         4        2404        2405        2506        2505
         4        2405        2406        2507        2506
         4        2406        2407        2508        2507
         4        2407        2408        2509        2508
         4        2408        2409        2510        2509
         4        2409        2410        2511        2510
         4        2410        2411        2512        2511
         4        2411        2412        2513        2512
         4        2412        2413        2514        2513
         4        2413        2414        2515        2514
         4        2414        2415        2516        2515
         4        2415        2416        2517        2516
         4        2416        2417        2518        2517
         4        2417        2418        2519        2518
         4        2418        2419        2520        2519
         4        2419        2420        2521        2520
         4        2420        2421        2522        2521
         4        2421        2422        2523        2522
         4        2422        2423        2524        2523
         4        2424        2425        2526        2525
         4        2425        2426        2527        2526
         4        2426        2427        2528        2527
         4        2427        2428        2529        2528
         4        2428        2429        2530        2529
         4        2429        2430        2531        2530
         4        2430        2431        2532        2531
         4        2431        2432        2533        2532
         4        2432        2433        2534        2533
         4        2433        2434        2535        2534
         4        2434        2435        2536        2535
         4        2435        2436        2537        2536
         4        2436        2437        2538        2537
         4        2437        2438        2539        2538
         4        2438        2439        2540        2539
         4        2439        2440        2541        2540
         4        2440        2441        2542        2541
         4        2441        2442        2543        2542
         4        2442        2443        2544        2543
         4        2443        2444        2545        2544
         4        2444        2445        2546        2545
         4        2445        2446        2547        2546
         4        2446        2447        2548        2547
         4        2447        2448        2549        2548
         4        2448        2449        2550        2549
         4        2449        2450        2551        2550
         4        2450        2451        2552        2551
         4        2451        2452        2553        2552
         4        2452        2453        2554        2553
         4        2453        2454        2555        2554
         4        2454        2455        2556        2555
         4        2455        2456        2557        2556
         4        2456        2457        2558        2557
         4        2457        2458        2559        2558
         4        2458        2459        2560        2559
         4        2459        2460        2561        2560
         4        2460        2461        2562        2561
         4        2461        2462        2563        2562
         4        2462        2463        2564        2563
         4        2463        2464        2565        2564
         4        2464        2465        2566        2565
         4        2465        2466        2567        2566
         4        2466        2467        2568        2567
         4        2467        2468        2569        2568
         4        2468        2469        2570        2569
         4        2469        2470        2571        2570
         4        2470        2471        2572        2571
         4        2471        2472        2573        2572
         4        2472        2473        2574        2573
         4        2473        2474        2575        2574
         4        2474        2475        2576        2575
         4        2475        2476        2577        2576
         4        2476        2477        2578        2577
         4        2477        2478        2579        2578
         4        2478        2479        2580        2579
         4        2479        2480        2581        2580
         4        2480        2481        2582        2581
         4        2481        2482        2583        2582
         4        2482        2483        2584        2583
         4        2483        2484        2585        2584
         4        2484        2485        2586        2585
         4        2485        2486        2587        2586
         4        2486        2487        2588        2587
         4        2487        2488        2589        2588
         4        2488        2489        2590        2589
         4        2489        2490        2591        2590
         4        2490        2491        2592        2591
         4        2491        2492        2593        2592
         4        2492        2493        2594        2593
         4        2493        2494        2595        2594
         4        2494        2495        2596        2595
         4        2495        2496        2597        2596
         4        2496        2497        2598        2597
         4        2497        2498        2599        2598
         4        2498        2499        2600        2599
         4        2499        2500        2601        2600
         4        2500        2501        2602        2601
         4        2501        2502        2603        2602
         4        2502        2503        2604        2603
         4        2503        2504        2605        2604
         4        2504        2505        2606        2605
         4        2505        2506        2607        2606
         4        2506        2507        2608        2607
         4        2507        2508        2609        2608
         4        2508        2509        2610        2609
         4        2509        2510        2611        2610
         4        2510        2511        2612        2611
         4        2511        2512        2613        2612
         4        2512        2513        2614        2613
         4        2513        2514        2615        2614
         4        2514        2515        2616        2615
         4        2515        2516        2617        2616
         4        2516        2517        2618        2617
         4        2517        2518        2619        2618
         4        2518        2519        2620        2619
         4        2519        2520        2621        2620
         4        2520        2521        2622        2621
         4        2521        2522        2623        2622
         4        2522        2523        2624        2623
         4        2523        2524        2625        2624
         4        2525        2526        2627        2626
         4        2526        2527        2628        2627
         4        2527        2528        2629        2628
         4        2528        2529        2630        2629
         4        2529        2530        2631        2630
         4        2530        2531        2632        2631
         4        2531        2532        2633        2632
         4        2532        2533        2634        2633
         4        2533        2534        2635        2634
         4        2534        2535        2636        2635
         4        2535        2536        2637        2636
         4        2536        2537        2638        2637
         4        2537        2538        2639        2638
         4        2538        2539        2640        2639
         4        2539        2540        2641        2640
         4        2540        2541        2642        2641
         4        2541        2542        2643        2642
         4        2542        2543        2644        2643
         4        2543        2544        2645        2644
         4        2544        2545        2646        2645
         4        2545        2546        2647        2646
         4        2546        2547        2648        2647
         4        2547        2548        2649        2648
         4        2548        2549        2650        2649
         4        2549        2550        2651        2650
         4        2550        2551        2652        2651
         4        2551        2552        2653        2652
         4        2552        2553        2654        2653
         4        2553        2554        2655        2654
         4        2554        2555        2656        2655
         4        2555        2556        2657        2656
         4        2556        2557        2658        2657
         4        2557        2558        2659        2658
         4        2558        2559        2660        2659
         4        2559        2560        2661        2660
         4        2560        2561        2662        2661
         4        2561        2562        2663        2662
         4        2562        2563        2664        2663
         4        2563        2564        2665        2664
         4        2564        2565        2666        2665
         4        2565        2566        2667        2666
         4        2566        2567        2668        2667
         4        2567        2568        2669        2668
         4        2568        2569        2670        2669
         4        2569        2570        2671        2670
         4        2570        2571        2672        2671
         4        2571        2572        2673        2672
         4        2572        2573        2674        2673
         4        2573        2574        2675        2674
         4        2574        2575        2676        2675
         4        2575        2576        2677        2676
         4        2576        2577        2678        2677
         4        2577        2578        2679        2678
         4        2578        2579        2680        2679
         4        2579        2580        2681        2680
         4        2580        2581        2682        2681
         4        2581        2582        2683        2682
         4        2582        2583        2684        2683
         4        2583        2584        2685        2684
         4        2584        2585        2686        2685
         4        2585        2586        2687        2686
         4        2586        2587        2688        2687
         4        2587        2588        2689        2688
         4        2588        2589        2690        2689
         4        2589        2590        2691        2690
         4        2590        2591        2692        2691
         4        2591        2592        2693        2692
         4        2592        2593        2694        2693
         4        2593        2594        2695        2694
         4        2594        2595        2696        2695
         4        2595        2596        2697        2696
         4        2596        2597        2698        2697
         4        2597        2598        2699        2698
         4        2598        2599        2700        2699
         4        2599        2600        2701        2700
         4        2600        2601        2702        2701
         4        2601        2602        2703        2702
         4        2602        2603        2704        2703
         4        2603        2604        2705        2704
         4        2604        2605        2706        2705
         4        2605        2606        2707        2706
         4        2606        2607        2708        2707
         4        2607        2608        2709        2708
         4        2608        2609        2710        2709
         4        2609        2610        2711        2710
         4        2610        2611        2712        2711
         4        2611        2612        2713        2712
         4        2612        2613        2714        2713
         4        2613        2614        2715        2714
         4        2614        2615        2716        2715
         4        2615        2616        2717        2716
         4        2616        2617        2718        2717
         4        2617        2618        2719        2718
         4        2618        2619        2720        2719
         4        2619        2620        2721        2720
         4        2620        2621        2722        2721
         4        2621        2622        2723        2722
         4        2622        2623        2724        2723
         4        2623        2624        2725        2724
         4        2624        2625        2726        2725
         4        2626        2627        2728        2727
         4        2627        2628        2729        2728
         4        2628        2629        2730        2729
         4        2629        2630        2731        2730
         4        2630        2631        2732        2731
         4        2631        2632        2733        2732
         4        2632        2633        2734        2733
         4        2633        2634        2735        2734
         4        2634        2635        2736        2735
         4        2635        2636        2737        2736
         4        2636        2637        2738        2737
         4        2637        2638        2739        2738
         4        2638        2639        2740        2739
         4        2639        2640        2741        2740
         4        2640        2641        2742        2741
         4        2641        2642        2743        2742
         4        2642        2643        2744        2743
         4        2643        2644        2745        2744
         4        2644        2645        2746        2745
         4        2645        2646        2747        2746
         4        2646        2647        2748        2747
         4        2647        2648        2749        2748
         4        2648        2649        2750        2749
         4        2649        2650        2751        2750
         4        2650        2651        2752        2751
         4        2651        2652        2753        2752
         4        2652        2653        2754        2753
         4        2653        2654        2755        2754
         4        2654        2655        2756        2755
         4        2655        2656        2757        2756
         4        2656        2657        2758        2757
         4        2657        2658        2759        2758
         4        2658        2659        2760        2759
         4        2659        2660        2761        2760
         4        2660        2661        2762        2761
         4        2661        2662        2763        2762
         4        2662        2663        2764        2763
         4        2663        2664        2765        2764
         4        2664        2665        2766        2765
         4        2665        2666        2767        2766
         4        2666        2667        2768        2767
         4        2667        2668        2769        2768
         4        2668        2669        2770        2769
         4        2669        2670        2771        2770
         4        2670        2671        2772        2771
         4        2671        2672        2773        2772
         4        2672        2673        2774        2773
         4        2673        2674        2775        2774
         4        2674        2675        2776        2775
         4        2675        2676        2777        2776
         4        2676        2677        2778        2777
         4        2677        2678        2779        2778
         4        2678        2679        2780        2779
         4        2679        2680        2781        2780
         4        2680        2681        2782        2781
         4        2681        2682        2783        2782
         4        2682        2683        2784        2783
         4        2683        2684        2785        2784
         4        2684        2685        2786        2785
         4        2685        2686        2787        2786
         4        2686        2687        2788        2787
         4        2687        2688        2789        2788
         4        2688        2689        2790        2789
         4        2689        2690        2791        2790
         4        2690        2691        2792        2791
         4        2691        2692        2793        2792
         4        2692        2693        2794        2793
         4        2693        2694        2795        2794
         4        2694        2695        2796        2795
         4        2695        2696        2797        2796
         4        2696        2697        2798        2797
         4        2697        2698        2799        2798
         4        2698        2699        2800        2799
         4        2699        2700        2801        2800
         4        2700        2701        2802        2801
         4        2701        2702        2803        2802
         4        2702        2703        2804        2803
         4        2703        2704        2805        2804
         4        2704        2705        2806        2805
         4        2705        2706        2807        2806
         4        2706        2707        2808        2807
         4        2707        2708        2809        2808
         4        2708        2709        2810        2809
         4        2709        2710        2811        2810
         4        2710        2711        2812        2811
         4        2711        2712        2813        2812
         4        2712        2713        2814        2813
         4        2713        2714        2815        2814
         4        2714        2715        2816        2815
         4        2715        2716        2817        2816
         4        2716        2717        2818        2817
         4        2717        2718        2819        2818
         4        2718        2719        2820        2819
         4        2719        2720        2821        2820
         4        2720        2721        2822        2821
         4        2721        2722        2823        2822
         4        2722        2723        2824        2823
         4        2723        2724        2825        2824
         4        2724        2725        2826        2825
         4        2725        2726        2827        2826
         4        2727        2728        2829        2828
         4        2728        2729        2830        2829
         4        2729        2730        2831        2830
         4        2730        2731        2832        2831
         4        2731        2732        2833        2832
         4        2732        2733        2834        2833
         4        2733        2734        2835        2834
         4        2734        2735        2836        2835
         4        2735        2736        2837        2836
         4        2736        2737        2838        2837
         4        2737        2738        2839        2838
         4        2738        2739        2840        2839
         4        2739        2740        2841        2840
         4        2740        2741        2842        2841
         4        2741        2742        2843        2842
         4        2742        2743        2844        2843
         4        2743        2744        2845        2844
         4        2744        2745        2846        2845
         4        2745        2746        2847        2846
         4        2746        2747        2848        2847
         4        2747        2748        2849        2848
         4        2748        2749        2850        2849
         4        2749        2750        2851        2850
         4        2750        2751        2852        2851
         4        2751        2752        2853        2852
         4        2752        2753        2854        2853
         4        2753        2754        2855        2854
         4        2754        2755        2856        2855
         4        2755        2756        2857        2856
         4        2756        2757        2858        2857
         4        2757        2758        2859        2858
         4        2758        2759        2860        2859
         4        2759        2760        2861        2860
         4        2760        2761        2862        2861
         4        2761        2762        2863        2862
         4        2762        2763        2864        2863
         4        2763        2764        2865        2864
         4        2764        2765        2866        2865
         4        2765        2766        2867        2866
         4        2766        2767        2868        2867
         4        2767        2768        2869        2868
         4        2768        2769        2870        2869
         4        2769        2770        2871        2870
         4        2770        2771        2872        2871
         4        2771        2772        2873        2872
         4        2772        2773        2874        2873
         4        2773        2774        2875        2874
         4        2774        2775        2876        2875
         4        2775        2776        2877        2876
         4        2776        2777        2878        2877
         4        2777        2778        2879        2878
         4        2778        2779        2880        2879
         4        2779        2780        2881        2880
         4        2780        2781        2882        2881
         4        2781        2782        2883        2882
         4        2782        2783        2884        2883
         4        2783        2784        2885        2884
         4        2784        2785        2886        2885
         4        2785        2786        2887        2886
         4        2786        2787        2888        2887
         4        2787        2788        2889        2888
         4        2788        2789        2890        2889
         4        2789        2790        2891        2890
         4        2790        2791        2892        2891
         4        2791        2792        2893        2892
         4        2792        2793        2894        2893
         4        2793        2794        2895        2894
         4        2794        2795        2896        2895
         4        2795        2796        2897        2896
         4        2796        2797        2898        2897
         4        2797        2798        2899        2898
         4        2798        2799        2900        2899
         4        2799        2800        2901        2900
         4        2800        2801        2902        2901
         4        2801        2802        2903        2902
         4        2802        2803        2904        2903
         4        2803        2804        2905        2904
         4        2804        2805        2906        2905
         4        2805        2806        2907        2906
         4        2806        2807        2908        2907
         4        2807        2808        2909        2908
         4        2808        2809        2910        2909
         4        2809        2810        2911        2910
         4        2810        2811        2912        2911
         4        2811        2812        2913        2912
         4        2812        2813        2914        2913
         4        2813        2814        2915        2914
         4        2814        2815        2916        2915
         4        2815        2816        2917        2916
         4        2816        2817        2918        2917
         4        2817        2818        2919        2918
         4        2818        2819        2920        2919
         4        2819        2820        2921        2920
         4        2820        2821        2922        2921
         4        2821        2822        2923        2922
         4        2822        2823        2924        2923
         4        2823        2824        2925        2924
         4        2824        2825        2926        2925
         4        2825        2826        2927        2926
         4        2826        2827        2928        2927
         4        2828        2829        2930        2929
         4        2829        2830        2931        2930
         4        2830        2831        2932        2931
         4        2831        2832        2933        2932
         4        2832        2833        2934        2933
         4        2833        2834        2935        2934
         4        2834        2835        2936        2935
         4        2835        2836        2937        2936
         4        2836        2837        2938        2937
         4        2837        2838        2939        2938
         4        2838        2839        2940        2939
         4        2839        2840        2941        2940
         4        2840        2841        2942        2941
         4        2841        2842        2943        2942
         4        2842        2843        2944        2943
         4        2843        2844        2945        2944
         4        2844        2845        2946        2945
         4        2845        2846        2947        2946
         4        2846        2847        2948        2947
         4        2847        2848        2949        2948
         4        2848        2849        2950        2949
         4        2849        2850        2951        2950
         4        2850        2851        2952        2951
         4        2851        2852        2953        2952
         4        2852        2853        2954        2953
         4        2853        2854        2955        2954
         4        2854        2855        2956        2955
         4        2855        2856        2957        2956
         4        2856        2857        2958        2957
         4        2857        2858        2959        2958
         4        2858        2859        2960        2959
         4        2859        2860        2961        2960
         4        2860        2861        2962        2961
         4        2861        2862        2963        2962
         4        2862        2863        2964        2963
         4        2863        2864        2965        2964
         4        2864        2865        2966        2965
         4        2865        2866        2967        2966
         4        2866        2867        2968        2967
         4        2867        2868        2969        2968
         4        2868        2869        2970        2969
         4        2869        2870        2971        2970
         4        2870        2871        2972        2971
         4        2871        2872        2973        2972
         4        2872        2873        2974        2973
         4        2873        2874        2975        2974
         4        2874        2875        2976        2975
         4        2875        2876        2977        2976
         4        2876        2877        2978        2977
         4        2877        2878        2979        2978
         4        2878        2879        2980        2979
         4        2879        2880        2981        2980
         4        2880        2881        2982        2981
         4        2881        2882        2983        2982
         4        2882        2883        2984        2983
         4        2883        2884        2985        2984
         4        2884        2885        2986        2985
         4        2885        2886        2987        2986
         4        2886        2887        2988        2987
         4        2887        2888        2989        2988
         4        2888        2889        2990        2989
         4        2889        2890        2991        2990
         4        2890        2891        2992        2991
         4        2891        2892        2993        2992
         4        2892        2893        2994        2993
         4        2893        2894        2995        2994
         4        2894        2895        2996        2995
         4        2895        2896        2997        2996
         4        2896        2897        2998        2997
         4        2897        2898        2999        2998
         4        2898        2899        3000        2999
         4        2899        2900        3001        3000
         4        2900        2901        3002        3001
         4        2901        2902        3003        3002
         4        2902        2903        3004        3003
         4        2903        2904        3005        3004
         4        2904        2905        3006        3005
         4        2905        2906        3007        3006
         4        2906        2907        3008        3007
         4        2907        2908        3009        3008
         4        2908        2909        3010        3009
         4        2909        2910        3011        3010
         4        2910        2911        3012        3011
         4        2911        2912        3013        3012
         4        2912        2913        3014        3013
         4        2913        2914        3015        3014
         4        2914        2915        3016        3015
         4        2915        2916        3017        3016
         4        2916        2917        3018        3017
         4        2917        2918        3019        3018
         4        2918        2919        3020        3019
         4        2919        2920        3021        3020
         4        2920        2921        3022        3021
         4        2921        2922        3023        3022
         4        2922        2923        3024        3023
         4        2923        2924        3025        3024
         4        2924        2925        3026        3025
         4        2925        2926        3027        3026
         4        2926        2927        3028        3027
         4        2927        2928        3029        3028
         4        2929        2930        3031        3030
         4        2930        2931        3032        3031
         4        2931        2932        3033        3032
         4        2932        2933        3034        3033
         4        2933        2934        3035        3034
         4        2934        2935        3036        3035
         4        2935        2936        3037        3036
         4        2936        2937        3038        3037
         4        2937        2938        3039        3038
         4        2938        2939        3040        3039
         4        2939        2940        3041        3040
         4        2940        2941        3042        3041
         4        2941        2942        3043        3042
         4        2942        2943        3044        3043
         4        2943        2944        3045        3044
         4        2944        2945        3046        3045
         4        2945        2946        3047        3046
         4        2946        2947        3048        3047
         4        2947        2948        3049        3048
         4        2948        2949        3050        3049
         4        2949        2950        3051        3050
         4        2950        2951        3052        3051
         4        2951        2952        3053        3052
         4        2952        2953        3054        3053
         4        2953        2954        3055        3054
         4        2954        2955        3056        3055
         4        2955        2956        3057        3056
         4        2956        2957        3058        3057
         4        2957        2958        3059        3058
         4        2958        2959        3060        3059
         4        2959        2960        3061        3060
         4        2960        2961        3062        3061
         4        2961        2962        3063        3062
         4        2962        2963        3064        3063
         4        2963        2964        3065        3064
         4        2964        2965        3066        3065
         4        2965        2966        3067        3066
         4        2966        2967        3068        3067
         4        2967        2968        3069        3068
         4        2968        2969        3070        3069
         4        2969        2970        3071        3070
         4        2970        2971        3072        3071
         4        2971        2972        3073        3072
         4        2972        2973        3074        3073
         4        2973        2974        3075        3074
         4        2974        2975        3076        3075
         4        2975        2976        3077        3076
         4        2976        2977        3078        3077
         4        2977        2978        3079        3078
         4        2978        2979        3080        3079
         4        2979        2980        3081        3080
         4        2980        2981        3082        3081
         4        2981        2982        3083        3082
         4        2982        2983        3084        3083
         4        2983        2984        3085        3084
         4        2984        2985        3086        3085
         4        2985        2986        3087        3086
         4        2986        2987        3088        3087
         4        2987        2988        3089        3088
         4        2988        2989        3090        3089
         4        2989        2990        3091        3090
         4        2990        2991        3092        3091
         4        2991        2992        3093        3092
         4        2992        2993        3094        3093
         4        2993        2994        3095        3094
         4        2994        2995        3096        3095
         4        2995        2996        3097        3096
         4        2996        2997        3098        3097
         4        2997        2998        3099        3098
         4        2998        2999        3100        3099
         4        2999        3000        3101        3100
         4        3000        3001        3102        3101
         4        3001        3002        3103        3102
         4        3002        3003        3104        3103
         4        3003        3004        3105        3104
         4        3004        3005        3106        3105
         4        3005        3006        3107        3106
         4        3006        3007        3108        3107
         4        3007        3008        3109        3108
         4        3008        3009        3110        3109
         4        3009        3010        3111        3110
         4        3010        3011        3112        3111
         4        3011        3012        3113        3112
         4        3012        3013        3114        3113
         4        3013        3014        3115        3114
         4        3014        3015        3116        3115
         4        3015        3016        3117        3116
         4        3016        3017        3118        3117
         4        3017        3018        3119        3118
         4        3018        3019        3120        3119
         4        3019        3020        3121        3120
         4        3020        3021        3122        3121
         4        3021        3022        3123        3122
         4        3022        3023        3124        3123
         4        3023        3024        3125        3124
         4        3024        3025        3126        3125
         4        3025        3026        3127        3126
         4        3026        3027        3128        3127
         4        3027        3028        3129        3128
         4        3028        3029        3130        3129
         4        3030        3031        3132        3131
         4        3031        3032        3133        3132
         4        3032        3033        3134        3133
         4        3033        3034        3135        3134
         4        3034        3035        3136        3135
         4        3035        3036        3137        3136
         4        3036        3037        3138        3137
         4        3037        3038        3139        3138
         4        3038        3039        3140        3139
         4        3039        3040        3141        3140
         4        3040        3041        3142        3141
         4        3041        3042        3143        3142
         4        3042        3043        3144        3143
         4        3043        3044        3145        3144
         4        3044        3045        3146        3145
         4        3045        3046        3147        3146
         4        3046        3047        3148        3147
         4        3047        3048        3149        3148
         4        3048        3049        3150        3149
         4        3049        3050        3151        3150
         4        3050        3051        3152        3151
         4        3051        3052        3153        3152
         4        3052        3053        3154        3153
         4        3053        3054        3155        3154
         4        3054        3055        3156        3155
         4        3055        3056        3157        3156
         4        3056        3057        3158        3157
         4        3057        3058        3159        3158
         4        3058        3059        3160        3159
         4        3059        3060        3161        3160
         4        3060        3061        3162        3161
         4        3061        3062        3163        3162
         4        3062        3063        3164        3163
         4        3063        3064        3165        3164
         4        3064        3065        3166        3165
         4        3065        3066        3167        3166
         4        3066        3067        3168        3167
         4        3067        3068        3169        3168
         4        3068        3069        3170        3169
         4        3069        3070        3171        3170
         4        3070        3071        3172        3171
         4        3071        3072        3173        3172
         4        3072        3073        3174        3173
         4        3073        3074        3175        3174
         4        3074        3075        3176        3175
         4        3075        3076        3177        3176
         4        3076        3077        3178        3177
         4        3077        3078        3179        3178
         4        3078        3079        3180        3179
         4        3079        3080        3181        3180
         4        3080        3081        3182        3181
         4        3081        3082        3183        3182
         4        3082        3083        3184        3183
         4        3083        3084        3185        3184
         4        3084        3085        3186        3185
         4        3085        3086        3187        3186
         4        3086        3087        3188        3187
         4        3087        3088        3189        3188
         4        3088        3089        3190        3189
         4        3089        3090        3191        3190
         4        3090        3091        3192        3191
         4        3091        3092        3193        3192
         4        3092        3093        3194        3193
         4        3093        3094        3195        3194
         4        3094        3095        3196        3195
         4        3095        3096        3197        3196
         4        3096        3097        3198        3197
         4        3097        3098        3199        3198
         4        3098        3099        3200        3199
         4        3099        3100        3201        3200
         4        3100        3101        3202        3201
         4        3101        3102        3203        3202
         4        3102        3103        3204        3203
         4        3103        3104        3205        3204
         4        3104        3105        3206        3205
         4        3105        3106        3207        3206
         4        3106        3107        3208        3207
         4        3107        3108        3209        3208
         4        3108        3109        3210        3209
         4        3109        3110        3211        3210
         4        3110        3111        3212        3211
         4        3111        3112        3213        3212
         4        3112        3113        3214        3213
         4        3113        3114        3215        3214
         4        3114        3115        3216        3215
         4        3115        3116        3217        3216
         4        3116        3117        3218        3217
         4        3117        3118        3219        3218
         4        3118        3119        3220        3219
         4        3119        3120        3221        3220
         4        3120        3121        3222        3221
         4        3121        3122        3223        3222
         4        3122        3123        3224        3223
         4        3123        3124        3225        3224
         4        3124        3125        3226        3225
         4        3125        3126        3227        3226
         4        3126        3127        3228        3227
         4        3127        3128        3229        3228
         4        3128        3129        3230        3229
         4        3129        3130        3231        3230
         4        3131        3132        3233        3232
         4        3132        3133        3234        3233
         4        3133        3134        3235        3234
         4        3134        3135        3236        3235
         4        3135        3136        3237        3236
         4        3136        3137        3238        3237
         4        3137        3138        3239        3238
         4        3138        3139        3240        3239
         4        3139        3140        3241        3240
         4        3140        3141        3242        3241
         4        3141        3142        3243        3242
         4        3142        3143        3244        3243
         4        3143        3144        3245        3244
         4        3144        3145        3246        3245
         4        3145        3146        3247        3246
         4        3146        3147        3248        3247
         4        3147        3148        3249        3248
         4        3148        3149        3250        3249
         4        3149        3150        3251        3250
         4        3150        3151        3252        3251
         4        3151        3152        3253        3252
         4        3152        3153        3254        3253
         4        3153        3154        3255        3254
         4        3154        3155        3256        3255
         4        3155        3156        3257        3256
         4        3156        3157        3258        3257
         4        3157        3158        3259        3258
         4        3158        3159        3260        3259
         4        3159        3160        3261        3260
         4        3160        3161        3262        3261
         4        3161        3162        3263        3262
         4        3162        3163        3264        3263
         4        3163        3164        3265        3264
         4        3164        3165        3266        3265
         4        3165        3166        3267        3266
         4        3166        3167        3268        3267
         4        3167        3168        3269        3268
         4        3168        3169        3270        3269
         4        3169        3170        3271        3270
         4        3170        3171        3272        3271
         4        3171        3172        3273        3272
         4        3172        3173        3274        3273
         4        3173        3174        3275        3274
         4        3174        3175        3276        3275
         4        3175        3176        3277        3276
         4        3176        3177        3278        3277
         4        3177        3178        3279        3278
         4        3178        3179        3280        3279
         4        3179        3180        3281        3280
         4        3180        3181        3282        3281
         4        3181        3182        3283        3282
         4        3182        3183        3284        3283
         4        3183        3184        3285        3284
         4        3184        3185        3286        3285
         4        3185        3186        3287        3286
         4        3186        3187        3288        3287
         4        3187        3188        3289        3288
         4        3188        3189        3290        3289
         4        3189        3190        3291        3290
         4        3190        3191        3292        3291
         4        3191        3192        3293        3292
         4        3192        3193        3294        3293
         4        3193        3194        3295        3294
         4        3194        3195        3296        3295
         4        3195        3196        3297        3296
         4        3196        3197        3298        3297
         4        3197        3198        3299        3298
         4        3198        3199        3300        3299
         4        3199        3200        3301        3300
         4        3200        3201        3302        3301
         4        3201        3202        3303        3302
         4        3202        3203        3304        3303
         4        3203        3204        3305        3304
         4        3204        3205        3306        3305
         4        3205        3206        3307        3306
         4        3206        3207        3308        3307
         4        3207        3208        3309        3308
         4        3208        3209        3310        3309
         4        3209        3210        3311        3310
         4        3210        3211        3312        3311
         4        3211        3212        3313        3312
         4        3212        3213        3314        3313
         4        3213        3214        3315        3314
         4        3214        3215        3316        3315
         4        3215        3216        3317        3316
         4        3216        3217        3318        3317
         4        3217        3218        3319        3318
         4        3218        3219        3320        3319
         4        3219        3220        3321        3320
         4        3220        3221        3322        3321
         4        3221        3222        3323        3322
         4        3222        3223        3324        3323
         4        3223        3224        3325        3324
         4        3224        3225        3326        3325
         4        3225        3226        3327        3326
         4        3226        3227        3328        3327
         4        3227        3228        3329        3328
         4        3228        3229        3330        3329
         4        3229        3230        3331        3330
         4        3230        3231        3332        3331
         4        3232        3233        3334        3333
         4        3233        3234        3335        3334
         4        3234        3235        3336        3335
         4        3235        3236        3337        3336
         4        3236        3237        3338        3337
         4        3237        3238        3339        3338
         4        3238        3239        3340        3339
         4        3239        3240        3341        3340
         4        3240        3241        3342        3341
         4        3241        3242        3343        3342
         4        3242        3243        3344        3343
         4        3243        3244        3345        3344
         4        3244        3245        3346        3345
         4        3245        3246        3347        3346
         4        3246        3247        3348        3347
         4        3247        3248        3349        3348
         4        3248        3249        3350        3349
         4        3249        3250        3351        3350
         4        3250        3251        3352        3351
         4        3251        3252        3353        3352
         4        3252        3253        3354        3353
         4        3253        3254        3355        3354
         4        3254        3255        3356        3355
         4        3255        3256        3357        3356
         4        3256        3257        3358        3357
         4        3257        3258        3359        3358
         4        3258        3259        3360        3359
         4        3259        3260        3361        3360
         4        3260        3261        3362        3361
         4        3261        3262        3363        3362
         4        3262        3263        3364        3363
         4        3263        3264        3365        3364
         4        3264        3265        3366        3365
         4        3265        3266        3367        3366
         4        3266        3267        3368        3367
         4        3267        3268        3369        3368
         4        3268        3269        3370        3369
         4        3269        3270        3371        3370
         4        3270        3271        3372        3371
         4        3271        3272        3373        3372
         4        3272        3273        3374        3373
         4        3273        3274        3375        3374
         4        3274        3275        3376        3375
         4        3275        3276        3377        3376
         4        3276        3277        3378        3377
         4        3277        3278        3379        3378
         4        3278        3279        3380        3379
         4        3279        3280        3381        3380
         4        3280        3281        3382        3381
         4        3281        3282        3383        3382
         4        3282        3283        3384        3383
         4        3283        3284        3385        3384
         4        3284        3285        3386        3385
         4        3285        3286        3387        3386
         4        3286        3287        3388        3387
         4        3287        3288        3389        3388
         4        3288        3289        3390        3389
         4        3289        3290        3391        3390
         4        3290        3291        3392        3391
         4        3291        3292        3393        3392
         4        3292        3293        3394        3393
         4        3293        3294        3395        3394
         4        3294        3295        3396        3395
         4        3295        3296        3397        3396
         4        3296        3297        3398        3397
         4        3297        3298        3399        3398
         4        3298        3299        3400        3399
         4        3299        3300        3401        3400
         4        3300        3301        3402        3401
         4        3301        3302        3403        3402
         4        3302        3303        3404        3403
         4        3303        3304        3405        3404
         4        3304        3305        3406        3405
         4        3305        3306        3407        3406
         4        3306        3307        3408        3407
         4        3307        3308        3409        3408
         4        3308        3309        3410        3409
         4        3309        3310        3411        3410
         4        3310        3311        3412        3411
         4        3311        3312        3413        3412
         4        3312        3313        3414        3413
         4        3313        3314        3415        3414
         4        3314        3315        3416        3415
         4        3315        3316        3417        3416
         4        3316        3317        3418        3417
         4        3317        3318        3419        3418
         4        3318        3319        3420        3419
         4        3319        3320        3421        3420
         4        3320        3321        3422        3421
         4        3321        3322        3423        3422
         4        3322        3323        3424        3423
         4        3323        3324        3425        3424
         4        3324        3325        3426        3425
         4        3325        3326        3427        3426
         4        3326        3327        3428        3427
         4        3327        3328        3429        3428
         4        3328        3329        3430        3429
         4        3329        3330        3431        3430
         4        3330        3331        3432        3431
         4        3331        3332        3433        3432
         4        3333        3334        3435        3434
         4        3334        3335        3436        3435
         4        3335        3336        3437        3436
         4        3336        3337        3438        3437
         4        3337        3338        3439        3438
         4        3338        3339        3440        3439
         4        3339        3340        3441        3440
         4        3340        3341        3442        3441
         4        3341        3342        3443        3442
         4        3342        3343        3444        3443
         4        3343        3344        3445        3444
         4        3344        3345        3446        3445
         4        3345        3346        3447        3446
         4        3346        3347        3448        3447
         4        3347        3348        3449        3448
         4        3348        3349        3450        3449
         4        3349        3350        3451        3450
         4        3350        3351        3452        3451
         4        3351        3352        3453        3452
         4        3352        3353        3454        3453
         4        3353        3354        3455        3454
         4        3354        3355        3456        3455
         4        3355        3356        3457        3456
         4        3356        3357        3458        3457
         4        3357        3358        3459        3458
         4        3358        3359        3460        3459
         4        3359        3360        3461        3460
         4        3360        3361        3462        3461
         4        3361        3362        3463        3462
         4        3362        3363        3464        3463
         4        3363        3364        3465        3464
         4        3364        3365        3466        3465
         4        3365        3366        3467        3466
         4        3366        3367        3468        3467
         4        3367        3368        3469        3468
         4        3368        3369        3470        3469
         4        3369        3370        3471        3470
         4        3370        3371        3472        3471
         4        3371        3372        3473        3472
         4        3372        3373        3474        3473
         4        3373        3374        3475        3474
         4        3374        3375        3476        3475
         4        3375        3376        3477        3476
         4        3376        3377        3478        3477
         4        3377        3378        3479        3478
         4        3378        3379        3480        3479
         4        3379        3380        3481        3480
         4        3380        3381        3482        3481
         4        3381        3382        3483        3482
         4        3382        3383        3484        3483
         4        3383        3384        3485        3484
         4        3384        3385        3486        3485
         4        3385        3386        3487        3486
         4        3386        3387        3488        3487
         4        3387        3388        3489        3488
         4        3388        3389        3490        3489
         4        3389        3390        3491        3490
         4        3390        3391        3492        3491
         4        3391        3392        3493        3492
         4        3392        3393        3494        3493
         4        3393        3394        3495        3494
         4        3394        3395        3496        3495
         4        3395        3396        3497        3496
         4        3396        3397        3498        3497
         4        3397        3398        3499        3498
         4        3398        3399        3500        3499
         4        3399        3400        3501        3500
         4        3400        3401        3502        3501
         4        3401        3402        3503        3502
         4        3402        3403        3504        3503
         4        3403        3404        3505        3504
         4        3404        3405        3506        3505
         4        3405        3406        3507        3506
         4        3406        3407        3508        3507
         4        3407        3408        3509        3508
         4        3408        3409        3510        3509
         4        3409        3410        3511        3510
         4        3410        3411        3512        3511
         4        3411        3412        3513        3512
         4        3412        3413        3514        3513
         4        3413        3414        3515        3514
         4        3414        3415        3516        3515
         4        3415        3416        3517        3516
         4        3416        3417        3518        3517
         4        3417        3418        3519        3518
         4        3418        3419        3520        3519
         4        3419        3420        3521        3520
         4        3420        3421        3522        3521
         4        3421        3422        3523        3522
         4        3422        3423        3524        3523
         4        3423        3424        3525        3524
         4        3424        3425        3526        3525
         4        3425        3426        3527        3526
         4        3426        3427        3528        3527
         4        3427        3428        3529        3528
         4        3428        3429        3530        3529
         4        3429        3430        3531        3530
         4        3430        3431        3532        3531
         4        3431        3432        3533        3532
         4        3432        3433        3534        3533
         4        3434        3435        3536        3535
         4        3435        3436        3537        3536
         4        3436        3437        3538        3537
         4        3437        3438        3539        3538
         4        3438        3439        3540        3539
         4        3439        3440        3541        3540
         4        3440        3441        3542        3541
         4        3441        3442        3543        3542
         4        3442        3443        3544        3543
         4        3443        3444        3545        3544
         4        3444        3445        3546        3545
         4        3445        3446        3547        3546
         4        3446        3447        3548        3547
         4        3447        3448        3549        3548
         4        3448        3449        3550        3549
         4        3449        3450        3551        3550
         4        3450        3451        3552        3551
         4        3451        3452        3553        3552
         4        3452        3453        3554        3553
         4        3453        3454        3555        3554
         4        3454        3455        3556        3555
         4        3455        3456        3557        3556
         4        3456        3457        3558        3557
         4        3457        3458        3559        3558
         4        3458        3459        3560        3559
         4        3459        3460        3561        3560
         4        3460        3461        3562        3561
         4        3461        3462        3563        3562
         4        3462        3463        3564        3563
         4        3463        3464        3565        3564
         4        3464        3465        3566        3565
         4        3465        3466        3567        3566
         4        3466        3467        3568        3567
         4        3467        3468        3569        3568
         4        3468        3469        3570        3569
         4        3469        3470        3571        3570
         4        3470        3471        3572        3571
         4        3471        3472        3573        3572
         4        3472        3473        3574        3573
         4        3473        3474        3575        3574
         4        3474        3475        3576        3575
         4        3475        3476        3577        3576
         4        3476        3477        3578        3577
         4        3477        3478        3579        3578
         4        3478        3479        3580        3579
         4        3479        3480        3581        3580
         4        3480        3481        3582        3581
         4        3481        3482        3583        3582
         4        3482        3483        3584        3583
         4        3483        3484        3585        3584
         4        3484        3485        3586        3585
         4        3485        3486        3587        3586
         4        3486        3487        3588        3587
         4        3487        3488        3589        3588
         4        3488        3489        3590        3589
         4        3489        3490        3591        3590
         4        3490        3491        3592        3591
         4        3491        3492        3593        3592
         4        3492        3493        3594        3593
         4        3493        3494        3595        3594
         4        3494        3495        3596        3595
         4        3495        3496        3597        3596
         4        3496        3497        3598        3597
         4        3497        3498        3599        3598
         4        3498        3499        3600        3599
         4        3499        3500        3601        3600
         4        3500        3501        3602        3601
         4        3501        3502        3603        3602
         4        3502        3503        3604        3603
         4        3503        3504        3605        3604
         4        3504        3505        3606        3605
         4        3505        3506        3607        3606
         4        3506        3507        3608        3607
         4        3507        3508        3609        3608
         4        3508        3509        3610        3609
         4        3509        3510        3611        3610
         4        3510        3511        3612        3611
         4        3511        3512        3613        3612
         4        3512        3513        3614        3613
         4        3513        3514        3615        3614
         4        3514        3515        3616        3615
         4        3515        3516        3617        3616
         4        3516        3517        3618        3617
         4        3517        3518        3619        3618
         4        3518        3519        3620        3619
         4        3519        3520        3621        3620
         4        3520        3521        3622        3621
         4        3521        3522        3623        3622
         4        3522        3523        3624        3623
         4        3523        3524        3625        3624
         4        3524        3525        3626        3625
         4        3525        3526        3627        3626
         4        3526        3527        3628        3627
         4        3527        3528        3629        3628
         4        3528        3529        3630        3629
         4        3529        3530        3631        3630
         4        3530        3531        3632        3631
         4        3531        3532        3633        3632
         4        3532        3533        3634        3633
         4        3533        3534        3635        3634
         4        3535        3536        3637        3636
         4        3536        3537        3638        3637
         4        3537        3538        3639        3638
         4        3538        3539        3640        3639
         4        3539        3540        3641        3640
         4        3540        3541        3642        3641
         4        3541        3542        3643        3642
         4        3542        3543        3644        3643
         4        3543        3544        3645        3644
         4        3544        3545        3646        3645
         4        3545        3546        3647        3646
         4        3546        3547        3648        3647
         4        3547        3548        3649        3648
         4        3548        3549        3650        3649
         4        3549        3550        3651        3650
         4        3550        3551        3652        3651
         4        3551        3552        3653        3652
         4        3552        3553        3654        3653
         4        3553        3554        3655        3654
         4        3554        3555        3656        3655
         4        3555        3556        3657        3656
         4        3556        3557        3658        3657
         4        3557        3558        3659        3658
         4        3558        3559        3660        3659
         4        3559        3560        3661        3660
         4        3560        3561        3662        3661
         4        3561        3562        3663        3662
         4        3562        3563        3664        3663
         4        3563        3564        3665        3664
         4        3564        3565        3666        3665
         4        3565        3566        3667        3666
         4        3566        3567        3668        3667
         4        3567        3568        3669        3668
         4        3568        3569        3670        3669
         4        3569        3570        3671        3670
         4        3570        3571        3672        3671
         4        3571        3572        3673        3672
         4        3572        3573        3674        3673
         4        3573        3574        3675        3674
         4        3574        3575        3676        3675
         4        3575        3576        3677        3676
         4        3576        3577        3678        3677
         4        3577        3578        3679        3678
         4        3578        3579        3680        3679
         4        3579        3580        3681        3680
         4        3580        3581        3682        3681
         4        3581        3582        3683        3682
         4        3582        3583        3684        3683
         4        3583        3584        3685        3684
         4        3584        3585        3686        3685
         4        3585        3586        3687        3686
         4        3586        3587        3688        3687
         4        3587        3588        3689        3688
         4        3588        3589        3690        3689
         4        3589        3590        3691        3690
         4        3590        3591        3692        3691
         4        3591        3592        3693        3692
         4        3592        3593        3694        3693
         4        3593        3594        3695        3694
         4        3594        3595        3696        3695
         4        3595        3596        3697        3696
         4        3596        3597        3698        3697
         4        3597        3598        3699        3698
         4        3598        3599        3700        3699
         4        3599        3600        3701        3700
         4        3600        3601        3702        3701
         4        3601        3602        3703        3702
         4        3602        3603        3704        3703
         4        3603        3604        3705        3704
         4        3604        3605        3706        3705
         4        3605        3606        3707        3706
         4        3606        3607        3708        3707
         4        3607        3608        3709        3708
         4        3608        3609        3710        3709
         4        3609        3610        3711        3710
         4        3610        3611        3712        3711
         4        3611        3612        3713        3712
         4        3612        3613        3714        3713
         4        3613        3614        3715        3714
         4        3614        3615        3716        3715
         4        3615        3616        3717        3716
         4        3616        3617        3718        3717
         4        3617        3618        3719        3718
         4        3618        3619        3720        3719
         4        3619        3620        3721        3720
         4        3620        3621        3722        3721
         4        3621        3622        3723        3722
         4        3622        3623        3724        3723
         4        3623        3624        3725        3724
         4        3624        3625        3726        3725
         4        3625        3626        3727        3726
         4        3626        3627        3728        3727
         4        3627        3628        3729        3728
         4        3628        3629        3730        3729
         4        3629        3630        3731        3730
         4        3630        3631        3732        3731
         4        3631        3632        3733        3732
         4        3632        3633        3734        3733
         4        3633        3634        3735        3734
         4        3634        3635        3736        3735
         4        3636        3637        3738        3737
         4        3637        3638        3739        3738
         4        3638        3639        3740        3739
         4        3639        3640        3741        3740
         4        3640        3641        3742        3741
         4        3641        3642        3743        3742
         4        3642        3643        3744        3743
         4        3643        3644        3745        3744
         4        3644        3645        3746        3745
         4        3645        3646        3747        3746
         4        3646        3647        3748        3747
         4        3647        3648        3749        3748
         4        3648        3649        3750        3749
         4        3649        3650        3751        3750
         4        3650        3651        3752        3751
         4        3651        3652        3753        3752
         4        3652        3653        3754        3753
         4        3653        3654        3755        3754
         4        3654        3655        3756        3755
         4        3655        3656        3757        3756
         4        3656        3657        3758        3757
         4        3657        3658        3759        3758
         4        3658        3659        3760        3759
         4        3659        3660        3761        3760
         4        3660        3661        3762        3761
         4        3661        3662        3763        3762
         4        3662        3663        3764        3763
         4        3663        3664        3765        3764
         4        3664        3665        3766        3765
         4        3665        3666        3767        3766
         4        3666        3667        3768        3767
         4        3667        3668        3769        3768
         4        3668        3669        3770        3769
         4        3669        3670        3771        3770
         4        3670        3671        3772        3771
         4        3671        3672        3773        3772
         4        3672        3673        3774        3773
         4        3673        3674        3775        3774
         4        3674        3675        3776        3775
         4        3675        3676        3777        3776
         4        3676        3677        3778        3777
         4        3677        3678        3779        3778
         4        3678        3679        3780        3779
         4        3679        3680        3781        3780
         4        3680        3681        3782        3781
         4        3681        3682        3783        3782
         4        3682        3683        3784        3783
         4        3683        3684        3785        3784
         4        3684        3685        3786        3785
         4        3685        3686        3787        3786
         4        3686        3687        3788        3787
         4        3687        3688        3789        3788
         4        3688        3689        3790        3789
         4        3689        3690        3791        3790
         4        3690        3691        3792        3791
         4        3691        3692        3793        3792
         4        3692        3693        3794        3793
         4        3693        3694        3795        3794
         4        3694        3695        3796        3795
         4        3695        3696        3797        3796
         4        3696        3697        3798        3797
         4        3697        3698        3799        3798
         4        3698        3699        3800        3799
         4        3699        3700        3801        3800
         4        3700        3701        3802        3801
         4        3701        3702        3803        3802
         4        3702        3703        3804        3803
         4        3703        3704        3805        3804
         4        3704        3705        3806        3805
         4        3705        3706        3807        3806
         4        3706        3707        3808        3807
         4        3707        3708        3809        3808
         4        3708        3709        3810        3809
         4        3709        3710        3811        3810
         4        3710        3711        3812        3811
         4        3711        3712        3813        3812
         4        3712        3713        3814        3813
         4        3713        3714        3815        3814
         4        3714        3715        3816        3815
         4        3715        3716        3817        3816
         4        3716        3717        3818        3817
         4        3717        3718        3819        3818
         4        3718        3719        3820        3819
         4        3719        3720        3821        3820
         4        3720        3721        3822        3821
         4        3721        3722        3823        3822
         4        3722        3723        3824        3823
         4        3723        3724        3825        3824
         4        3724        3725        3826        3825
         4        3725        3726        3827        3826
         4        3726        3727        3828        3827
         4        3727        3728        3829        3828
         4        3728        3729        3830        3829
         4        3729        3730        3831        3830
         4        3730        3731        3832        3831
         4        3731        3732        3833        3832
         4        3732        3733        3834        3833
         4        3733        3734        3835        3834
         4        3734        3735        3836        3835
         4        3735        3736        3837        3836
         4        3737        3738        3839        3838
         4        3738        3739        3840        3839
         4        3739        3740        3841        3840
         4        3740        3741        3842        3841
         4        3741        3742        3843        3842
         4        3742        3743        3844        3843
         4        3743        3744        3845        3844
         4        3744        3745        3846        3845
         4        3745        3746        3847        3846
         4        3746        3747        3848        3847
         4        3747        3748        3849        3848
         4        3748        3749        3850        3849
         4        3749        3750        3851        3850
         4        3750        3751        3852        3851
         4        3751        3752        3853        3852
         4        3752        3753        3854        3853
         4        3753        3754        3855        3854
         4        3754        3755        3856        3855
         4        3755        3756        3857        3856
         4        3756        3757        3858        3857
         4        3757        3758        3859        3858
         4        3758        3759        3860        3859
         4        3759        3760        3861        3860
         4        3760        3761        3862        3861
         4        3761        3762        3863        3862
         4        3762        3763        3864        3863
         4        3763        3764        3865        3864
         4        3764        3765        3866        3865
         4        3765        3766        3867        3866
         4        3766        3767        3868        3867
         4        3767        3768        3869        3868
         4        3768        3769        3870        3869
         4        3769        3770        3871        3870
         4        3770        3771        3872        3871
         4        3771        3772        3873        3872
         4        3772        3773        3874        3873
         4        3773        3774        3875        3874
         4        3774        3775        3876        3875
         4        3775        3776        3877        3876
         4        3776        3777        3878        3877
         4        3777        3778        3879        3878
         4        3778        3779        3880        3879
         4        3779        3780        3881        3880
         4        3780        3781        3882        3881
         4        3781        3782        3883        3882
         4        3782        3783        3884        3883
         4        3783        3784        3885        3884
         4        3784        3785        3886        3885
         4        3785        3786        3887        3886
         4        3786        3787        3888        3887
         4        3787        3788        3889        3888
         4        3788        3789        3890        3889
         4        3789        3790        3891        3890
         4        3790        3791        3892        3891
         4        3791        3792        3893        3892
         4        3792        3793        3894        3893
         4        3793        3794        3895        3894
         4        3794        3795        3896        3895
         4        3795        3796        3897        3896
         4        3796        3797        3898        3897
         4        3797        3798        3899        3898
         4        3798        3799        3900        3899
         4        3799        3800        3901        3900
         4        3800        3801        3902        3901
         4        3801        3802        3903        3902
         4        3802        3803        3904        3903
         4        3803        3804        3905        3904
         4        3804        3805        3906        3905
         4        3805        3806        3907        3906
         4        3806        3807        3908        3907
         4        3807        3808        3909        3908
         4        3808        3809        3910        3909
         4        3809        3810        3911        3910
         4        3810        3811        3912        3911
         4        3811        3812        3913        3912
         4        3812        3813        3914        3913
         4        3813        3814        3915        3914
         4        3814        3815        3916        3915
         4        3815        3816        3917        3916
         4        3816        3817        3918        3917
         4        3817        3818        3919        3918
         4        3818        3819        3920        3919
         4        3819        3820        3921        3920
         4        3820        3821        3922        3921
         4        3821        3822        3923        3922
         4        3822        3823        3924        3923
         4        3823        3824        3925        3924
         4        3824        3825        3926        3925
         4        3825        3826        3927        3926
         4        3826        3827        3928        3927
         4        3827        3828        3929        3928
         4        3828        3829        3930        3929
         4        3829        3830        3931        3930
         4        3830        3831        3932        3931
         4        3831        3832        3933        3932
         4        3832        3833        3934        3933
         4        3833        3834        3935        3934
         4        3834        3835        3936        3935
         4        3835        3836        3937        3936
         4        3836        3837        3938        3937
         4        3838        3839        3940        3939
         4        3839        3840        3941        3940
         4        3840        3841        3942        3941
         4        3841        3842        3943        3942
         4        3842        3843        3944        3943
         4        3843        3844        3945        3944
         4        3844        3845        3946        3945
         4        3845        3846        3947        3946
         4        3846        3847        3948        3947
         4        3847        3848        3949        3948
         4        3848        3849        3950        3949
         4        3849        3850        3951        3950
         4        3850        3851        3952        3951
         4        3851        3852        3953        3952
         4        3852        3853        3954        3953
         4        3853        3854        3955        3954
         4        3854        3855        3956        3955
         4        3855        3856        3957        3956
         4        3856        3857        3958        3957
         4        3857        3858        3959        3958
         4        3858        3859        3960        3959
         4        3859        3860        3961        3960
         4        3860        3861        3962        3961
         4        3861        3862        3963        3962
         4        3862        3863        3964        3963
         4        3863        3864        3965        3964
         4        3864        3865        3966        3965
         4        3865        3866        3967        3966
         4        3866        3867        3968        3967
         4        3867        3868        3969        3968
         4        3868        3869        3970        3969
         4        3869        3870        3971        3970
         4        3870        3871        3972        3971
         4        3871        3872        3973        3972
         4        3872        3873        3974        3973
         4        3873        3874        3975        3974
         4        3874        3875        3976        3975
         4        3875        3876        3977        3976
         4        3876        3877        3978        3977
         4        3877        3878        3979        3978
         4        3878        3879        3980        3979
         4        3879        3880        3981        3980
         4        3880        3881        3982        3981
         4        3881        3882        3983        3982
         4        3882        3883        3984        3983
         4        3883        3884        3985        3984
         4        3884        3885        3986        3985
         4        3885        3886        3987        3986
         4        3886        3887        3988        3987
         4        3887        3888        3989        3988
         4        3888        3889        3990        3989
         4        3889        3890        3991        3990
         4        3890        3891        3992        3991
         4        3891        3892        3993        3992
         4        3892        3893        3994        3993
         4        3893        3894        3995        3994
         4        3894        3895        3996        3995
         4        3895        3896        3997        3996
         4        3896        3897        3998        3997
         4        3897        3898        3999        3998
         4        3898        3899        4000        3999
         4        3899        3900        4001        4000
         4        3900        3901        4002        4001
         4        3901        3902        4003        4002
         4        3902        3903        4004        4003
         4        3903        3904        4005        4004
         4        3904        3905        4006        4005
         4        3905        3906        4007        4006
         4        3906        3907        4008        4007
         4        3907        3908        4009        4008
         4        3908        3909        4010        4009
         4        3909        3910        4011        4010
         4        3910        3911        4012        4011
         4        3911        3912        4013        4012
         4        3912        3913        4014        4013
         4        3913        3914        4015        4014
         4        3914        3915        4016        4015
         4        3915        3916        4017        4016
         4        3916        3917        4018        4017
         4        3917        3918        4019        4018
         4        3918        3919        4020        4019
         4        3919        3920        4021        4020
         4        3920        3921        4022        4021
         4        3921        3922        4023        4022
         4        3922        3923        4024        4023
         4        3923        3924        4025        4024
         4        3924        3925        4026        4025
         4        3925        3926        4027        4026
         4        3926        3927        4028        4027
         4        3927        3928        4029        4028
         4        3928        3929        4030        4029
         4        3929        3930        4031        4030
         4        3930        3931        4032        4031
         4        3931        3932        4033        4032
         4        3932        3933        4034        4033
         4        3933        3934        4035        4034
         4        3934        3935        4036        4035
         4        3935        3936        4037        4036
         4        3936        3937        4038        4037
         4        3937        3938        4039        4038
         4        3939        3940        4041        4040
         4        3940        3941        4042        4041
         4        3941        3942        4043        4042
         4        3942        3943        4044        4043
         4        3943        3944        4045        4044
         4        3944        3945        4046        4045
         4        3945        3946        4047        4046
         4        3946        3947        4048        4047
         4        3947        3948        4049        4048
         4        3948        3949        4050        4049
         4        3949        3950        4051        4050
         4        3950        3951        4052        4051
         4        3951        3952        4053        4052
         4        3952        3953        4054        4053
         4        3953        3954        4055        4054
         4        3954        3955        4056        4055
         4        3955        3956        4057        4056
         4        3956        3957        4058        4057
         4        3957        3958        4059        4058
         4        3958        3959        4060        4059
         4        3959        3960        4061        4060
         4        3960        3961        4062        4061
         4        3961        3962        4063        4062
         4        3962        3963        4064        4063
         4        3963        3964        4065        4064
         4        3964        3965        4066        4065
         4        3965        3966        4067        4066
         4        3966        3967        4068        4067
         4        3967        3968        4069        4068
         4        3968        3969        4070        4069
         4        3969        3970        4071        4070
         4        3970        3971        4072        4071
         4        3971        3972        4073        4072
         4        3972        3973        4074        4073
         4        3973        3974        4075        4074
         4        3974        3975        4076        4075
         4        3975        3976        4077        4076
         4        3976        3977        4078        4077
         4        3977        3978        4079        4078
         4        3978        3979        4080        4079
         4        3979        3980        4081        4080
         4        3980        3981        4082        4081
         4        3981        3982        4083        4082
         4        3982        3983        4084        4083
         4        3983        3984        4085        4084
         4        3984        3985        4086        4085
         4        3985        3986        4087        4086
         4        3986        3987        4088        4087
         4        3987        3988        4089        4088
         4        3988        3989        4090        4089
         4        3989        3990        4091        4090
         4        3990        3991        4092        4091
         4        3991        3992        4093        4092
         4        3992        3993        4094        4093
         4        3993        3994        4095        4094
         4        3994        3995        4096        4095
         4        3995        3996        4097        4096
         4        3996        3997        4098        4097
         4        3997        3998        4099        4098
         4        3998        3999        4100        4099
         4        3999        4000        4101        4100
         4        4000        4001        4102        4101
         4        4001        4002        4103        4102
         4        4002        4003        4104        4103
         4        4003        4004        4105        4104
         4        4004        4005        4106        4105
         4        4005        4006        4107        4106
         4        4006        4007        4108        4107
         4        4007        4008        4109        4108
         4        4008        4009        4110        4109
         4        4009        4010        4111        4110
         4        4010        4011        4112        4111
         4        4011        4012        4113        4112
         4        4012        4013        4114        4113
         4        4013        4014        4115        4114
         4        4014        4015        4116        4115
         4        4015        4016        4117        4116
         4        4016        4017        4118        4117
         4        4017        4018        4119        4118
         4        4018        4019        4120        4119
         4        4019        4020        4121        4120
         4        4020        4021        4122        4121
         4        4021        4022        4123        4122
         4        4022        4023        4124        4123
         4        4023        4024        4125        4124
         4        4024        4025        4126        4125
         4        4025        4026        4127        4126
         4        4026        4027        4128        4127
         4        4027        4028        4129        4128
         4        4028        4029        4130        4129
         4        4029        4030        4131        4130
         4        4030        4031        4132        4131
         4        4031        4032        4133        4132
         4        4032        4033        4134        4133
         4        4033        4034        4135        4134
         4        4034        4035        4136        4135
         4        4035        4036        4137        4136
         4        4036        4037        4138        4137
         4        4037        4038        4139        4138
         4        4038        4039        4140        4139
         4        4040        4041        4142        4141
         4        4041        4042        4143        4142
         4        4042        4043        4144        4143
         4        4043        4044        4145        4144
         4        4044        4045        4146        4145
         4        4045        4046        4147        4146
         4        4046        4047        4148        4147
         4        4047        4048        4149        4148
         4        4048        4049        4150        4149
         4        4049        4050        4151        4150
         4        4050        4051        4152        4151
         4        4051        4052        4153        4152
         4        4052        4053        4154        4153
         4        4053        4054        4155        4154
         4        4054        4055        4156        4155
         4        4055        4056        4157        4156
         4        4056        4057        4158        4157
         4        4057        4058        4159        4158
         4        4058        4059        4160        4159
         4        4059        4060        4161        4160
         4        4060        4061        4162        4161
         4        4061        4062        4163        4162
         4        4062        4063        4164        4163
         4        4063        4064        4165        4164
         4        4064        4065        4166        4165
         4        4065        4066        4167        4166
         4        4066        4067        4168        4167
         4        4067        4068        4169        4168
         4        4068        4069        4170        4169
         4        4069        4070        4171        4170
         4        4070        4071        4172        4171
         4        4071        4072        4173        4172
         4        4072        4073        4174        4173
         4        4073        4074        4175        4174
         4        4074        4075        4176        4175
         4        4075        4076        4177        4176
         4        4076        4077        4178        4177
         4        4077        4078        4179        4178
         4        4078        4079        4180        4179
         4        4079        4080        4181        4180
         4        4080        4081        4182        4181
         4        4081        4082        4183        4182
         4        4082        4083        4184        4183
         4        4083        4084        4185        4184
         4        4084        4085        4186        4185
         4        4085        4086        4187        4186
         4        4086        4087        4188        4187
         4        4087        4088        4189        4188
         4        4088        4089        4190        4189
         4        4089        4090        4191        4190
         4        4090        4091        4192        4191
         4        4091        4092        4193        4192
         4        4092        4093        4194        4193
         4        4093        4094        4195        4194
         4        4094        4095        4196        4195
         4        4095        4096        4197        4196
         4        4096        4097        4198        4197
         4        4097        4098        4199        4198
         4        4098        4099        4200        4199
         4        4099        4100        4201        4200
         4        4100        4101        4202        4201
         4        4101        4102        4203        4202
         4        4102        4103        4204        4203
         4        4103        4104        4205        4204
         4        4104        4105        4206        4205
         4        4105        4106        4207        4206
         4        4106        4107        4208        4207
         4        4107        4108        4209        4208
         4        4108        4109        4210        4209
         4        4109        4110        4211        4210
         4        4110        4111        4212        4211
         4        4111        4112        4213        4212
         4        4112        4113        4214        4213
         4        4113        4114        4215        4214
         4        4114        4115        4216        4215
         4        4115        4116        4217        4216
         4        4116        4117        4218        4217
         4        4117        4118        4219        4218
         4        4118        4119        4220        4219
         4        4119        4120        4221        4220
         4        4120        4121        4222        4221
         4        4121        4122        4223        4222
         4        4122        4123        4224        4223
         4        4123        4124        4225        4224
         4        4124        4125        4226        4225
         4        4125        4126        4227        4226
         4        4126        4127        4228        4227
         4        4127        4128        4229        4228
         4        4128        4129        4230        4229
         4        4129        4130        4231        4230
         4        4130        4131        4232        4231
         4        4131        4132        4233        4232
         4        4132        4133        4234        4233
         4        4133        4134        4235        4234
         4        4134        4135        4236        4235
         4        4135        4136        4237        4236
         4        4136        4137        4238        4237
         4        4137        4138        4239        4238
         4        4138        4139        4240        4239
         4        4139        4140        4241        4240
         4        4141        4142        4243        4242
         4        4142        4143        4244        4243
         4        4143        4144        4245        4244
         4        4144        4145        4246        4245
         4        4145        4146        4247        4246
         4        4146        4147        4248        4247
         4        4147        4148        4249        4248
         4        4148        4149        4250        4249
         4        4149        4150        4251        4250
         4        4150        4151        4252        4251
         4        4151        4152        4253        4252
         4        4152        4153        4254        4253
         4        4153        4154        4255        4254
         4        4154        4155        4256        4255
         4        4155        4156        4257        4256
         4        4156        4157        4258        4257
         4        4157        4158        4259        4258
         4        4158        4159        4260        4259
         4        4159        4160        4261        4260
         4        4160        4161        4262        4261
         4        4161        4162        4263        4262
         4        4162        4163        4264        4263
         4        4163        4164        4265        4264
         4        4164        4165        4266        4265
         4        4165        4166        4267        4266
         4        4166        4167        4268        4267
         4        4167        4168        4269        4268
         4        4168        4169        4270        4269
         4        4169        4170        4271        4270
         4        4170        4171        4272        4271
         4        4171        4172        4273        4272
         4        4172        4173        4274        4273
         4        4173        4174        4275        4274
         4        4174        4175        4276        4275
         4        4175        4176        4277        4276
         4        4176        4177        4278        4277
         4        4177        4178        4279        4278
         4        4178        4179        4280        4279
         4        4179        4180        4281        4280
         4        4180        4181        4282        4281
         4        4181        4182        4283        4282
         4        4182        4183        4284        4283
         4        4183        4184        4285        4284
         4        4184        4185        4286        4285
         4        4185        4186        4287        4286
         4        4186        4187        4288        4287
         4        4187        4188        4289        4288
         4        4188        4189        4290        4289
         4        4189        4190        4291        4290
         4        4190        4191        4292        4291
         4        4191        4192        4293        4292
         4        4192        4193        4294        4293
         4        4193        4194        4295        4294
         4        4194        4195        4296        4295
         4        4195        4196        4297        4296
         4        4196        4197        4298        4297
         4        4197        4198        4299        4298
         4        4198        4199        4300        4299
         4        4199        4200        4301        4300
         4        4200        4201        4302        4301
         4        4201        4202        4303        4302
         4        4202        4203        4304        4303
         4        4203        4204        4305        4304
         4        4204        4205        4306        4305
         4        4205        4206        4307        4306
         4        4206        4207        4308        4307
         4        4207        4208        4309        4308
         4        4208        4209        4310        4309
         4        4209        4210        4311        4310
         4        4210        4211        4312        4311
         4        4211        4212        4313        4312
         4        4212        4213        4314        4313
         4        4213        4214        4315        4314
         4        4214        4215        4316        4315
         4        4215        4216        4317        4316
         4        4216        4217        4318        4317
         4        4217        4218        4319        4318
         4        4218        4219        4320        4319
         4        4219        4220        4321        4320
         4        4220        4221        4322        4321
         4        4221        4222        4323        4322
         4        4222        4223        4324        4323
         4        4223        4224        4325        4324
         4        4224        4225        4326        4325
         4        4225        4226        4327        4326
         4        4226        4227        4328        4327
         4        4227        4228        4329        4328
         4        4228        4229        4330        4329
         4        4229        4230        4331        4330
         4        4230        4231        4332        4331
         4        4231        4232        4333        4332
         4        4232        4233        4334        4333
         4        4233        4234        4335        4334
         4        4234        4235        4336        4335
         4        4235        4236        4337        4336
         4        4236        4237        4338        4337
         4        4237        4238        4339        4338
         4        4238        4239        4340        4339
         4        4239        4240        4341        4340
         4        4240        4241        4342        4341
         4        4242        4243        4344        4343
         4        4243        4244        4345        4344
         4        4244        4245        4346        4345
         4        4245        4246        4347        4346
         4        4246        4247        4348        4347
         4        4247        4248        4349        4348
         4        4248        4249        4350        4349
         4        4249        4250        4351        4350
         4        4250        4251        4352        4351
         4        4251        4252        4353        4352
         4        4252        4253        4354        4353
         4        4253        4254        4355        4354
         4        4254        4255        4356        4355
         4        4255        4256        4357        4356
         4        4256        4257        4358        4357
         4        4257        4258        4359        4358
         4        4258        4259        4360        4359
         4        4259        4260        4361        4360
         4        4260        4261        4362        4361
         4        4261        4262        4363        4362
         4        4262        4263        4364        4363
         4        4263        4264        4365        4364
         4        4264        4265        4366        4365
         4        4265        4266        4367        4366
         4        4266        4267        4368        4367
         4        4267        4268        4369        4368
         4        4268        4269        4370        4369
         4        4269        4270        4371        4370
         4        4270        4271        4372        4371
         4        4271        4272        4373        4372
         4        4272        4273        4374        4373
         4        4273        4274        4375        4374
         4        4274        4275        4376        4375
         4        4275        4276        4377        4376
         4        4276        4277        4378        4377
         4        4277        4278        4379        4378
         4        4278        4279        4380        4379
         4        4279        4280        4381        4380
         4        4280        4281        4382        4381
         4        4281        4282        4383        4382
         4        4282        4283        4384        4383
         4        4283        4284        4385        4384
         4        4284        4285        4386        4385
         4        4285        4286        4387        4386
         4        4286        4287        4388        4387
         4        4287        4288        4389        4388
         4        4288        4289        4390        4389
         4        4289        4290        4391        4390
         4        4290        4291        4392        4391
         4        4291        4292        4393        4392
         4        4292        4293        4394        4393
         4        4293        4294        4395        4394
         4        4294        4295        4396        4395
         4        4295        4296        4397        4396
         4        4296        4297        4398        4397
         4        4297        4298        4399        4398
         4        4298        4299        4400        4399
         4        4299        4300        4401        4400
         4        4300        4301        4402        4401
         4        4301        4302        4403        4402
         4        4302        4303        4404        4403
         4        4303        4304        4405        4404
         4        4304        4305        4406        4405
         4        4305        4306        4407        4406
         4        4306        4307        4408        4407
         4        4307        4308        4409        4408
         4        4308        4309        4410        4409
         4        4309        4310        4411        4410
         4        4310        4311        4412        4411
         4        4311        4312        4413        4412
         4        4312        4313        4414        4413
         4        4313        4314        4415        4414
         4        4314        4315        4416        4415
         4        4315        4316        4417        4416
         4        4316        4317        4418        4417
         4        4317        4318        4419        4418
         4        4318        4319        4420        4419
         4        4319        4320        4421        4420
         4        4320        4321        4422        4421
         4        4321        4322        4423        4422
         4        4322        4323        4424        4423
         4        4323        4324        4425        4424
         4        4324        4325        4426        4425
         4        4325        4326        4427        4426
         4        4326        4327        4428        4427
         4        4327        4328        4429        4428
         4        4328        4329        4430        4429
         4        4329        4330        4431        4430
         4        4330        4331        4432        4431
         4        4331        4332        4433        4432
         4        4332        4333        4434        4433
         4        4333        4334        4435        4434
         4        4334        4335        4436        4435
         4        4335        4336        4437        4436
         4        4336        4337        4438        4437
         4        4337        4338        4439        4438
         4        4338        4339        4440        4439
         4        4339        4340        4441        4440
         4        4340        4341        4442        4441
         4        4341        4342        4443        4442
         4        4343        4344        4445        4444
         4        4344        4345        4446        4445
         4        4345        4346        4447        4446
         4        4346        4347        4448        4447
         4        4347        4348        4449        4448
         4        4348        4349        4450        4449
         4        4349        4350        4451        4450
         4        4350        4351        4452        4451
         4        4351        4352        4453        4452
         4        4352        4353        4454        4453
         4        4353        4354        4455        4454
         4        4354        4355        4456        4455
         4        4355        4356        4457        4456
         4        4356        4357        4458        4457
         4        4357        4358        4459        4458
         4        4358        4359        4460        4459
         4        4359        4360        4461        4460
         4        4360        4361        4462        4461
         4        4361        4362        4463        4462
         4        4362        4363        4464        4463
         4        4363        4364        4465        4464
         4        4364        4365        4466        4465
         4        4365        4366        4467        4466
         4        4366        4367        4468        4467
         4        4367        4368        4469        4468
         4        4368        4369        4470        4469
         4        4369        4370        4471        4470
         4        4370        4371        4472        4471
         4        4371        4372        4473        4472
         4        4372        4373        4474        4473
         4        4373        4374        4475        4474
         4        4374        4375        4476        4475
         4        4375        4376        4477        4476
         4        4376        4377        4478        4477
         4        4377        4378        4479        4478
         4        4378        4379        4480        4479
         4        4379        4380        4481        4480
         4        4380        4381        4482        4481
         4        4381        4382        4483        4482
         4        4382        4383        4484        4483
         4        4383        4384        4485        4484
         4        4384        4385        4486        4485
         4        4385        4386        4487        4486
         4        4386        4387        4488        4487
         4        4387        4388        4489        4488
         4        4388        4389        4490        4489
         4        4389        4390        4491        4490
         4        4390        4391        4492        4491
         4        4391        4392        4493        4492
         4        4392        4393        4494        4493
         4        4393        4394        4495        4494
         4        4394        4395        4496        4495
         4        4395        4396        4497        4496
         4        4396        4397        4498        4497
         4        4397        4398        4499        4498
         4        4398        4399        4500        4499
         4        4399        4400        4501        4500
         4        4400        4401        4502        4501
         4        4401        4402        4503        4502
         4        4402        4403        4504        4503
         4        4403        4404        4505        4504
         4        4404        4405        4506        4505
         4        4405        4406        4507        4506
         4        4406        4407        4508        4507
         4        4407        4408        4509        4508
         4        4408        4409        4510        4509
         4        4409        4410        4511        4510
         4        4410        4411        4512        4511
         4        4411        4412        4513        4512
         4        4412        4413        4514        4513
         4        4413        4414        4515        4514
         4        4414        4415        4516        4515
         4        4415        4416        4517        4516
         4        4416        4417        4518        4517
         4        4417        4418        4519        4518
         4        4418        4419        4520        4519
         4        4419        4420        4521        4520
         4        4420        4421        4522        4521
         4        4421        4422        4523        4522
         4        4422        4423        4524        4523
         4        4423        4424        4525        4524
         4        4424        4425        4526        4525
         4        4425        4426        4527        4526
         4        4426        4427        4528        4527
         4        4427        4428        4529        4528
         4        4428        4429        4530        4529
         4        4429        4430        4531        4530
         4        4430        4431        4532        4531
         4        4431        4432        4533        4532
         4        4432        4433        4534        4533
         4        4433        4434        4535        4534
         4        4434        4435        4536        4535
         4        4435        4436        4537        4536
         4        4436        4437        4538        4537
         4        4437        4438        4539        4538
         4        4438        4439        4540        4539
         4        4439        4440        4541        4540
         4        4440        4441        4542        4541
         4        4441        4442        4543        4542
         4        4442        4443        4544        4543
         4        4444        4445        4546        4545
         4        4445        4446        4547        4546
         4        4446        4447        4548        4547
         4        4447        4448        4549        4548
         4        4448        4449        4550        4549
         4        4449        4450        4551        4550
         4        4450        4451        4552        4551
         4        4451        4452        4553        4552
         4        4452        4453        4554        4553
         4        4453        4454        4555        4554
         4        4454        4455        4556        4555
         4        4455        4456        4557        4556
         4        4456        4457        4558        4557
         4        4457        4458        4559        4558
         4        4458        4459        4560        4559
         4        4459        4460        4561        4560
         4        4460        4461        4562        4561
         4        4461        4462        4563        4562
         4        4462        4463        4564        4563
         4        4463        4464        4565        4564
         4        4464        4465        4566        4565
         4        4465        4466        4567        4566
         4        4466        4467        4568        4567
         4        4467        4468        4569        4568
         4        4468        4469        4570        4569
         4        4469        4470        4571        4570
         4        4470        4471        4572        4571
         4        4471        4472        4573        4572
         4        4472        4473        4574        4573
         4        4473        4474        4575        4574
         4        4474        4475        4576        4575
         4        4475        4476        4577        4576
         4        4476        4477        4578        4577
         4        4477        4478        4579        4578
         4        4478        4479        4580        4579
         4        4479        4480        4581        4580
         4        4480        4481        4582        4581
         4        4481        4482        4583        4582
         4        4482        4483        4584        4583
         4        4483        4484        4585        4584
         4        4484        4485        4586        4585
         4        4485        4486        4587        4586
         4        4486        4487        4588        4587
         4        4487        4488        4589        4588
         4        4488        4489        4590        4589
         4        4489        4490        4591        4590
         4        4490        4491        4592        4591
         4        4491        4492        4593        4592
         4        4492        4493        4594        4593
         4        4493        4494        4595        4594
         4        4494        4495        4596        4595
         4        4495        4496        4597        4596
         4        4496        4497        4598        4597
         4        4497        4498        4599        4598
         4        4498        4499        4600        4599
         4        4499        4500        4601        4600
         4        4500        4501        4602        4601
         4        4501        4502        4603        4602
         4        4502        4503        4604        4603
         4        4503        4504        4605        4604
         4        4504        4505        4606        4605
         4        4505        4506        4607        4606
         4        4506        4507        4608        4607
         4        4507        4508        4609        4608
         4        4508        4509        4610        4609
         4        4509        4510        4611        4610
         4        4510        4511        4612        4611
         4        4511        4512        4613        4612
         4        4512        4513        4614        4613
         4        4513        4514        4615        4614
         4        4514        4515        4616        4615
         4        4515        4516        4617        4616
         4        4516        4517        4618        4617
         4        4517        4518        4619        4618
         4        4518        4519        4620        4619
         4        4519        4520        4621        4620
         4        4520        4521        4622        4621
         4        4521        4522        4623        4622
         4        4522        4523        4624        4623
         4        4523        4524        4625        4624
         4        4524        4525        4626        4625
         4        4525        4526        4627        4626
         4        4526        4527        4628        4627
         4        4527        4528        4629        4628
         4        4528        4529        4630        4629
         4        4529        4530        4631        4630
         4        4530        4531        4632        4631
         4        4531        4532        4633        4632
         4        4532        4533        4634        4633
         4        4533        4534        4635        4634
         4        4534        4535        4636        4635
         4        4535        4536        4637        4636
         4        4536        4537        4638        4637
         4        4537        4538        4639        4638
         4        4538        4539        4640        4639
         4        4539        4540        4641        4640
         4        4540        4541        4642        4641
         4        4541        4542        4643        4642
         4        4542        4543        4644        4643
         4        4543        4544        4645        4644
         4        4545        4546        4647        4646
         4        4546        4547        4648        4647
         4        4547        4548        4649        4648
         4        4548        4549        4650        4649
         4        4549        4550        4651        4650
         4        4550        4551        4652        4651
         4        4551        4552        4653        4652
         4        4552        4553        4654        4653
         4        4553        4554        4655        4654
         4        4554        4555        4656        4655
         4        4555        4556        4657        4656
         4        4556        4557        4658        4657
         4        4557        4558        4659        4658
         4        4558        4559        4660        4659
         4        4559        4560        4661        4660
         4        4560        4561        4662        4661
         4        4561        4562        4663        4662
         4        4562        4563        4664        4663
         4        4563        4564        4665        4664
         4        4564        4565        4666        4665
         4        4565        4566        4667        4666
         4        4566        4567        4668        4667
         4        4567        4568        4669        4668
         4        4568        4569        4670        4669
         4        4569        4570        4671        4670
         4        4570        4571        4672        4671
         4        4571        4572        4673        4672
         4        4572        4573        4674        4673
         4        4573        4574        4675        4674
         4        4574        4575        4676        4675
         4        4575        4576        4677        4676
         4        4576        4577        4678        4677
         4        4577        4578        4679        4678
         4        4578        4579        4680        4679
         4        4579        4580        4681        4680
         4        4580        4581        4682        4681
         4        4581        4582        4683        4682
         4        4582        4583        4684        4683
         4        4583        4584        4685        4684
         4        4584        4585        4686        4685
         4        4585        4586        4687        4686
         4        4586        4587        4688        4687
         4        4587        4588        4689        4688
         4        4588        4589        4690        4689
         4        4589        4590        4691        4690
         4        4590        4591        4692        4691
         4        4591        4592        4693        4692
         4        4592        4593        4694        4693
         4        4593        4594        4695        4694
         4        4594        4595        4696        4695
         4        4595        4596        4697        4696
         4        4596        4597        4698        4697
         4        4597        4598        4699        4698
         4        4598        4599        4700        4699
         4        4599        4600        4701        4700
         4        4600        4601        4702        4701
         4        4601        4602        4703        4702
         4        4602        4603        4704        4703
         4        4603        4604        4705        4704
         4        4604        4605        4706        4705
         4        4605        4606        4707        4706
         4        4606        4607        4708        4707
         4        4607        4608        4709        4708
         4        4608        4609        4710        4709
         4        4609        4610        4711        4710
         4        4610        4611        4712        4711
         4        4611        4612        4713        4712
         4        4612        4613        4714        4713
         4        4613        4614        4715        4714
         4        4614        4615        4716        4715
         4        4615        4616        4717        4716
         4        4616        4617        4718        4717
         4        4617        4618        4719        4718
         4        4618        4619        4720        4719
         4        4619        4620        4721        4720
         4        4620        4621        4722        4721
         4        4621        4622        4723        4722
         4        4622        4623        4724        4723
         4        4623        4624        4725        4724
         4        4624        4625        4726        4725
         4        4625        4626        4727        4726
         4        4626        4627        4728        4727
         4        4627        4628        4729        4728
         4        4628        4629        4730        4729
         4        4629        4630        4731        4730
         4        4630        4631        4732        4731
         4        4631        4632        4733        4732
         4        4632        4633        4734        4733
         4        4633        4634        4735        4734
         4        4634        4635        4736        4735
         4        4635        4636        4737        4736
         4        4636        4637        4738        4737
         4        4637        4638        4739        4738
         4        4638        4639        4740        4739
         4        4639        4640        4741        4740
         4        4640        4641        4742        4741
         4        4641        4642        4743        4742
         4        4642        4643        4744        4743
         4        4643        4644        4745        4744
         4        4644        4645        4746        4745
         4        4646        4647        4748        4747
         4        4647        4648        4749        4748
         4        4648        4649        4750        4749
         4        4649        4650        4751        4750
         4        4650        4651        4752        4751
         4        4651        4652        4753        4752
         4        4652        4653        4754        4753
         4        4653        4654        4755        4754
         4        4654        4655        4756        4755
         4        4655        4656        4757        4756
         4        4656        4657        4758        4757
         4        4657        4658        4759        4758
         4        4658        4659        4760        4759
         4        4659        4660        4761        4760
         4        4660        4661        4762        4761
         4        4661        4662        4763        4762
         4        4662        4663        4764        4763
         4        4663        4664        4765        4764
         4        4664        4665        4766        4765
         4        4665        4666        4767        4766
         4        4666        4667        4768        4767
         4        4667        4668        4769        4768
         4        4668        4669        4770        4769
         4        4669        4670        4771        4770
         4        4670        4671        4772        4771
         4        4671        4672        4773        4772
         4        4672        4673        4774        4773
         4        4673        4674        4775        4774
         4        4674        4675        4776        4775
         4        4675        4676        4777        4776
         4        4676        4677        4778        4777
         4        4677        4678        4779        4778
         4        4678        4679        4780        4779
         4        4679        4680        4781        4780
         4        4680        4681        4782        4781
         4        4681        4682        4783        4782
         4        4682        4683        4784        4783
         4        4683        4684        4785        4784
         4        4684        4685        4786        4785
         4        4685        4686        4787        4786
         4        4686        4687        4788        4787
         4        4687        4688        4789        4788
         4        4688        4689        4790        4789
         4        4689        4690        4791        4790
         4        4690        4691        4792        4791
         4        4691        4692        4793        4792
         4        4692        4693        4794        4793
         4        4693        4694        4795        4794
         4        4694        4695        4796        4795
         4        4695        4696        4797        4796
         4        4696        4697        4798        4797
         4        4697        4698        4799        4798
         4        4698        4699        4800        4799
         4        4699        4700        4801        4800
         4        4700        4701        4802        4801
         4        4701        4702        4803        4802
         4        4702        4703        4804        4803
         4        4703        4704        4805        4804
         4        4704        4705        4806        4805
         4        4705        4706        4807        4806
         4        4706        4707        4808        4807
         4        4707        4708        4809        4808
         4        4708        4709        4810        4809
         4        4709        4710        4811        4810
         4        4710        4711        4812        4811
         4        4711        4712        4813        4812
         4        4712        4713        4814        4813
         4        4713        4714        4815        4814
         4        4714        4715        4816        4815
         4        4715        4716        4817        4816
         4        4716        4717        4818        4817
         4        4717        4718        4819        4818
         4        4718        4719        4820        4819
         4        4719        4720        4821        4820
         4        4720        4721        4822        4821
         4        4721        4722        4823        4822
         4        4722        4723        4824        4823
         4        4723        4724        4825        4824
         4        4724        4725        4826        4825
         4        4725        4726        4827        4826
         4        4726        4727        4828        4827
         4        4727        4728        4829        4828
         4        4728        4729        4830        4829
         4        4729        4730        4831        4830
         4        4730        4731        4832        4831
         4        4731        4732        4833        4832
         4        4732        4733        4834        4833
         4        4733        4734        4835        4834
         4        4734        4735        4836        4835
         4        4735        4736        4837        4836
         4        4736        4737        4838        4837
         4        4737        4738        4839        4838
         4        4738        4739        4840        4839
         4        4739        4740        4841        4840
         4        4740        4741        4842        4841
         4        4741        4742        4843        4842
         4        4742        4743        4844        4843
         4        4743        4744        4845        4844
         4        4744        4745        4846        4845
         4        4745        4746        4847        4846
         4        4747        4748        4849        4848
         4        4748        4749        4850        4849
         4        4749        4750        4851        4850
         4        4750        4751        4852        4851
         4        4751        4752        4853        4852
         4        4752        4753        4854        4853
         4        4753        4754        4855        4854
         4        4754        4755        4856        4855
         4        4755        4756        4857        4856
         4        4756        4757        4858        4857
         4        4757        4758        4859        4858
         4        4758        4759        4860        4859
         4        4759        4760        4861        4860
         4        4760        4761        4862        4861
         4        4761        4762        4863        4862
         4        4762        4763        4864        4863
         4        4763        4764        4865        4864
         4        4764        4765        4866        4865
         4        4765        4766        4867        4866
         4        4766        4767        4868        4867
         4        4767        4768        4869        4868
         4        4768        4769        4870        4869
         4        4769        4770        4871        4870
         4        4770        4771        4872        4871
         4        4771        4772        4873        4872
         4        4772        4773        4874        4873
         4        4773        4774        4875        4874
         4        4774        4775        4876        4875
         4        4775        4776        4877        4876
         4        4776        4777        4878        4877
         4        4777        4778        4879        4878
         4        4778        4779        4880        4879
         4        4779        4780        4881        4880
         4        4780        4781        4882        4881
         4        4781        4782        4883        4882
         4        4782        4783        4884        4883
         4        4783        4784        4885        4884
         4        4784        4785        4886        4885
         4        4785        4786        4887        4886
         4        4786        4787        4888        4887
         4        4787        4788        4889        4888
         4        4788        4789        4890        4889
         4        4789        4790        4891        4890
         4        4790        4791        4892        4891
         4        4791        4792        4893        4892
         4        4792        4793        4894        4893
         4        4793        4794        4895        4894
         4        4794        4795        4896        4895
         4        4795        4796        4897        4896
         4        4796        4797        4898        4897
         4        4797        4798        4899        4898
         4        4798        4799        4900        4899
         4        4799        4800        4901        4900
         4        4800        4801        4902        4901
         4        4801        4802        4903        4902
         4        4802        4803        4904        4903
         4        4803        4804        4905        4904
         4        4804        4805        4906        4905
         4        4805        4806        4907        4906
         4        4806        4807        4908        4907
         4        4807        4808        4909        4908
         4        4808        4809        4910        4909
         4        4809        4810        4911        4910
         4        4810        4811        4912        4911
         4        4811        4812        4913        4912
         4        4812        4813        4914        4913
         4        4813        4814        4915        4914
         4        4814        4815        4916        4915
         4        4815        4816        4917        4916
         4        4816        4817        4918        4917
         4        4817        4818        4919        4918
         4        4818        4819        4920        4919
         4        4819        4820        4921        4920
         4        4820        4821        4922        4921
         4        4821        4822        4923        4922
         4        4822        4823        4924        4923
         4        4823        4824        4925        4924
         4        4824        4825        4926        4925
         4        4825        4826        4927        4926
         4        4826        4827        4928        4927
         4        4827        4828        4929        4928
         4        4828        4829        4930        4929
         4        4829        4830        4931        4930
         4        4830        4831        4932        4931
         4        4831        4832        4933        4932
         4        4832        4833        4934        4933
         4        4833        4834        4935        4934
         4        4834        4835        4936        4935
         4        4835        4836        4937        4936
         4        4836        4837        4938        4937
         4        4837        4838        4939        4938
         4        4838        4839        4940        4939
         4        4839        4840        4941        4940
         4        4840        4841        4942        4941
         4        4841        4842        4943        4942
         4        4842        4843        4944        4943
         4        4843        4844        4945        4944
         4        4844        4845        4946        4945
         4        4845        4846        4947        4946
         4        4846        4847        4948        4947
         4        4848        4849        4950        4949
         4        4849        4850        4951        4950
         4        4850        4851        4952        4951
         4        4851        4852        4953        4952
         4        4852        4853        4954        4953
         4        4853        4854        4955        4954
         4        4854        4855        4956        4955
         4        4855        4856        4957        4956
         4        4856        4857        4958        4957
         4        4857        4858        4959        4958
         4        4858        4859        4960        4959
         4        4859        4860        4961        4960
         4        4860        4861        4962        4961
         4        4861        4862        4963        4962
         4        4862        4863        4964        4963
         4        4863        4864        4965        4964
         4        4864        4865        4966        4965
         4        4865        4866        4967        4966
         4        4866        4867        4968        4967
         4        4867        4868        4969        4968
         4        4868        4869        4970        4969
         4        4869        4870        4971        4970
         4        4870        4871        4972        4971
         4        4871        4872        4973        4972
         4        4872        4873        4974        4973
         4        4873        4874        4975        4974
         4        4874        4875        4976        4975
         4        4875        4876        4977        4976
         4        4876        4877        4978        4977
         4        4877        4878        4979        4978
         4        4878        4879        4980        4979
         4        4879        4880        4981        4980
         4        4880        4881        4982        4981
         4        4881        4882        4983        4982
         4        4882        4883        4984        4983
         4        4883        4884        4985        4984
         4        4884        4885        4986        4985
         4        4885        4886        4987        4986
         4        4886        4887        4988        4987
         4        4887        4888        4989        4988
         4        4888        4889        4990        4989
         4        4889        4890        4991        4990
         4        4890        4891        4992        4991
         4        4891        4892        4993        4992
         4        4892        4893        4994        4993
         4        4893        4894        4995        4994
         4        4894        4895        4996        4995
         4        4895        4896        4997        4996
         4        4896        4897        4998        4997
         4        4897        4898        4999        4998
         4        4898        4899        5000        4999
         4        4899        4900        5001        5000
         4        4900        4901        5002        5001
         4        4901        4902        5003        5002
         4        4902        4903        5004        5003
         4        4903        4904        5005        5004
         4        4904        4905        5006        5005
         4        4905        4906        5007        5006
         4        4906        4907        5008        5007
         4        4907        4908        5009        5008
         4        4908        4909        5010        5009
         4        4909        4910        5011        5010
         4        4910        4911        5012        5011
         4        4911        4912        5013        5012
         4        4912        4913        5014        5013
         4        4913        4914        5015        5014
         4        4914        4915        5016        5015
         4        4915        4916        5017        5016
         4        4916        4917        5018        5017
         4        4917        4918        5019        5018
         4        4918        4919        5020        5019
         4        4919        4920        5021        5020
         4        4920        4921        5022        5021
         4        4921        4922        5023        5022
         4        4922        4923        5024        5023
         4        4923        4924        5025        5024
         4        4924        4925        5026        5025
         4        4925        4926        5027        5026
         4        4926        4927        5028        5027
         4        4927        4928        5029        5028
         4        4928        4929        5030        5029
         4        4929        4930        5031        5030
         4        4930        4931        5032        5031
         4        4931        4932        5033        5032
         4        4932        4933        5034        5033
         4        4933        4934        5035        5034
         4        4934        4935        5036        5035
         4        4935        4936        5037        5036
         4        4936        4937        5038        5037
         4        4937        4938        5039        5038
         4        4938        4939        5040        5039
         4        4939        4940        5041        5040
         4        4940        4941        5042        5041
         4        4941        4942        5043        5042
         4        4942        4943        5044        5043
         4        4943        4944        5045        5044
         4        4944        4945        5046        5045
         4        4945        4946        5047        5046
         4        4946        4947        5048        5047
         4        4947        4948        5049        5048
         4        4949        4950        5051        5050
         4        4950        4951        5052        5051
         4        4951        4952        5053        5052
         4        4952        4953        5054        5053
         4        4953        4954        5055        5054
         4        4954        4955        5056        5055
         4        4955        4956        5057        5056
         4        4956        4957        5058        5057
         4        4957        4958        5059        5058
         4        4958        4959        5060        5059
         4        4959        4960        5061        5060
         4        4960        4961        5062        5061
         4        4961        4962        5063        5062
         4        4962        4963        5064        5063
         4        4963        4964        5065        5064
         4        4964        4965        5066        5065
         4        4965        4966        5067        5066
         4        4966        4967        5068        5067
         4        4967        4968        5069        5068
         4        4968        4969        5070        5069
         4        4969        4970        5071        5070
         4        4970        4971        5072        5071
         4        4971        4972        5073        5072
         4        4972        4973        5074        5073
         4        4973        4974        5075        5074
         4        4974        4975        5076        5075
         4        4975        4976        5077        5076
         4        4976        4977        5078        5077
         4        4977        4978        5079        5078
         4        4978        4979        5080        5079
         4        4979        4980        5081        5080
         4        4980        4981        5082        5081
         4        4981        4982        5083        5082
         4        4982        4983        5084        5083
         4        4983        4984        5085        5084
         4        4984        4985        5086        5085
         4        4985        4986        5087        5086
         4        4986        4987        5088        5087
         4        4987        4988        5089        5088
         4        4988        4989        5090        5089
         4        4989        4990        5091        5090
         4        4990        4991        5092        5091
         4        4991        4992        5093        5092
         4        4992        4993        5094        5093
         4        4993        4994        5095        5094
         4        4994        4995        5096        5095
         4        4995        4996        5097        5096
         4        4996        4997        5098        5097
         4        4997        4998        5099        5098
         4        4998        4999        5100        5099
         4        4999        5000        5101        5100
         4        5000        5001        5102        5101
         4        5001        5002        5103        5102
         4        5002        5003        5104        5103
         4        5003        5004        5105        5104
         4        5004        5005        5106        5105
         4        5005        5006        5107        5106
         4        5006        5007        5108        5107
         4        5007        5008        5109        5108
         4        5008        5009        5110        5109
         4        5009        5010        5111        5110
         4        5010        5011        5112        5111
         4        5011        5012        5113        5112
         4        5012        5013        5114        5113
         4        5013        5014        5115        5114
         4        5014        5015        5116        5115
         4        5015        5016        5117        5116
         4        5016        5017        5118        5117
         4        5017        5018        5119        5118
         4        5018        5019        5120        5119
         4        5019        5020        5121        5120
         4        5020        5021        5122        5121
         4        5021        5022        5123        5122
         4        5022        5023        5124        5123
         4        5023        5024        5125        5124
         4        5024        5025        5126        5125
         4        5025        5026        5127        5126
         4        5026        5027        5128        5127
         4        5027        5028        5129        5128
         4        5028        5029        5130        5129
         4        5029        5030        5131        5130
         4        5030        5031        5132        5131
         4        5031        5032        5133        5132
         4        5032        5033        5134        5133
         4        5033        5034        5135        5134
         4        5034        5035        5136        5135
         4        5035        5036        5137        5136
         4        5036        5037        5138        5137
         4        5037        5038        5139        5138
         4        5038        5039        5140        5139
         4        5039        5040        5141        5140
         4        5040        5041        5142        5141
         4        5041        5042        5143        5142
         4        5042        5043        5144        5143
         4        5043        5044        5145        5144
         4        5044        5045        5146        5145
         4        5045        5046        5147        5146
         4        5046        5047        5148        5147
         4        5047        5048        5149        5148
         4        5048        5049        5150        5149
CELL_TYPES       5000
9
9
9
9
9
9
9
9
9
9
9
9
9
9
9
9
9
9
9
9
9
9
9
9
9
9
9
9
9
9
9
9
9
9
9
9
9
9
9
9
9
9
9
9
9
9
9
9
9
9
9
9
9
9
9
9
9
9
9
9
9
9
9
9
9
9
9
9
9
9
9
9
9
9
9
9
9
9
9
9
9
9
9
9
9
9
9
9
9
9
9
9
9
9
9
9
9
9
9
9
9
9
9
9
9
9
9
9
9
9
9
9
9
9
9
9
9
9
9
9
9
9
9
9
9
9
9
9
9
9
9
9
9
9
9
9
9
9
9
9
9
9
9
9
9
9
9
9
9
9
9
9
9
9
9
9
9
9
9
9
9
9
9
9
9
9
9
9
9
9
9
9
9
9
9
9
9
9
9
9
9
9
9
9
9
9
9
9
9
9
9
9
9
9
9
9
9
9
9
9
9
9
9
9
9
9
9
9
9
9
9
9
9
9
9
9
9
9
9
9
9
9
9
9
9
9
9
9
9
9
9
9
9
9
9
9
9
9
9
9
9
9
9
9
9
9
9
9
9
9
9
9
9
9
9
9
9
9
9
9
9
9
9
9
9
9
9
9
9
9
9
9
9
9
9
9
9
9
9
9
9
9
9
9
9
9
9
9
9
9
9
9
9
9
9
9
9
9
9
9
9
9
9
9
9
9
9
9
9
9
9
9
9
9
9
9
9
9
9
9
9
9
9
9
9
9
9
9
9
9
9
9
9
9
9
9
9
9
9
9
9
9
9
9
9
9
9
9
9
9
9
9
9
9
9
9
9
9
9
9
9
9
9
9
9
9
9
9
9
9
9
9
9
9
9
9
9
9
9
9
9
9
9
9
9
9
9
9
9
9
9
9
9
9
9
9
9
9
9
9
9
9
9
9
9
9
9
9
9
9
9
9
9
9
9
9
9
9
9
9
9
9
9
9
9
9
9
9
9
9
9
9
9
9
9
9
9
9
9
9
9
9
9
9
9
9
9
9
9
9
9
9
9
9
9
9
9
9
9
9
9
9
9
9
9
9
9
9
9
9
9
9
9
9
9
9
9
9
9
9
9
9
9
9
9
9
9
9
9
9
9
9
9
9
9
9
9
9
9
9
9
9
9
9
9
9
9
9
9
9
9
9
9
9
9
9
9
9
9
9
9
9
9
9
9
9
9
9
9
9
9
9
9
9
9
9
9
9
9
9
9
9
9
9
9
9
9
9
9
9
9
9
9
9
9
9
9
9
9
9
9
9
9
9
9
9
9
9
9
9
9
9
9
9
9
9
9
9
9
9
9
9
9
9
9
9
9
9
9
9
9
9
9
9
9
9
9
9
9
9
9
9
9
9
9
9
9
9
9
9
9
9
9
9
9
9
9
9
9
9
9
9
9
9
9
9
9
9
9
9
9
9
9
9
9
9
9
9
9
9
9
9
9
9
9
9
9
9
9
9
9
9
9
9
9
9
9
9
9
9
9
9
9
9
9
9
9
9
9
9
9
9
9
9
9
9
9
9
9
9
9
9
9
9
9
9
9
9
9
9
9
9
9
9
9
9
9
9
9
9
9
9
9
9
9
9
9
9
9
9
9
9
9
9
9
9
9
9
9
9
9
9
9
9
9
9
9
9
9
9
9
9
9
9
9
9
9
9
9
9
9
9
9
9
9
9
9
9
9
9
9
9
9
9
9
9
9
9
9
9
9
9
9
9
9
9
9
9
9
9
9
9
9
9
9
9
9
9
9
9
9
9
9
9
9
9
9
9
9
9
9
9
9
9
9
9
9
9
9
9
9
9
9
9
9
9
9
9
9
9
9
9
9
9
9
9
9
9
9
9
9
9
9
9
9
9
9
9
9
9
9
9
9
9
9
9
9
9
9
9
9
9
9
9
9
9
9
9
9
9
9
9
9
9
9
9
9
9
9
9
9
9
9
9
9
9
9
9
9
9
9
9
9
9
9
9
9
9
9
9
9
9
9
9
9
9
9
9
9
9
9
9
9
9
9
9
9
9
9
9
9
9
9
9
9
9
9
9
9
9
9
9
9
9
9
9
9
9
9
9
9
9
9
9
9
9
9
9
9
9
9
9
9
9
9
9
9
9
9
9
9
9
9
9
9
9
9
9
9
9
9
9
9
9
9
9
9
9
9
9
9
9
9
9
9
9
9
9
9
9
9
9
9
9
9
9
9
9
9
9
9
9
9
9
9
9
9
9
9
9
9
9
9
9
9
9
9
9
9
9
9
9
9
9
9
9
9
9
9
9
9
9
9
9
9
9
9
9
9
9
9
9
9
9
9
9
9
9
9
9
9
9
9
9
9
9
9
9
9
9
9
9
9
9
9
9
9
9
9
9
9
9
9
9
9
9
9
9
9
9
9
9
9
9
9
9
9
9
9
9
9
9
9
9
9
9
9
9
9
9
9
9
9
9
9
9
9
9
9
9
9
9
9
9
9
9
9
9
9
9
9
9
9
9
9
9
9
9
9
9
9
9
9
9
9
9
9
9
9
9
9
9
9
9
9
9
9
9
9
9
9
9
9
9
9
9
9
9
9
9
9
9
9
9
9
9
9
9
9
9
9
9
9
9
9
9
9
9
9
9
9
9
9
9
9
9
9
9
9
9
9
9
9
9
9
9
9
9
9
9
9
9
9
9
9
9
9
9
9
9
9
9
9
9
9
9
9
9
9
9
9
9
9
9
9
9
9
9
9
9
9
9
9
9
9
9
9
9
9
9
9
9
9
9
9
9
9
9
9
9
9
9
9
9
9
9
9
9
9
9
9
9
9
9
9
9
9
9
9
9
9
9
9
9
9
9
9
9
9
9
9
9
9
9
9
9
9
9
9
9
9
9
9
9
9
9
9
9
9
9
9
9
9
9
9
9
9
9
9
9
9
9
9
9
9
9
9
9
9
9
9
9
9
9
9
9
9
9
9
9
9
9
9
9
9
9
9
9
9
9
9
9
9
9
9
9
9
9
9
9
9
9
9
9
9
9
9
9
9
9
9
9
9
9
9
9
9
9
9
9
9
9
9
9
9
9
9
9
9
9
9
9
9
9
9
9
9
9
9
9
9
9
9
9
9
9
9
9
9
9
9
9
9
9
9
9
9
9
9
9
9
9
9
9
9
9
9
9
9
9
9
9
9
9
9
9
9
9
9
9
9
9
9
9
9
9
9
9
9
9
9
9
9
9
9
9
9
9
9
9
9
9
9
9
9
9
9
9
9
9
9
9
9
9
9
9
9
9
9
9
9
9
9
9
9
9
9
9
9
9
9
9
9
9
9
9
9
9
9
9
9
9
9
9
9
9
9
9
9
9
9
9
9
9
9
9
9
9
9
9
9
9
9
9
9
9
9
9
9
9
9
9
9
9
9
9
9
9
9
9
9
9
9
9
9
9
9
9
9
9
9
9
9
9
9
9
9
9
9
9
9
9
9
9
9
9
9
9
9
9
9
9
9
9
9
9
9
9
9
9
9
9
9
9
9
9
9
9
9
9
9
9
9
9
9
9
9
9
9
9
9
9
9
9
9
9
9
9
9
9
9
9
9
9
9
9
9
9
9
9
9
9
9
9
9
9
9
9
9
9
9
9
9
9
9
9
9
9
9
9
9
9
9
9
9
9
9
9
9
9
9
9
9
9
9
9
9
9
9
9
9
9
9
9
9
9
9
9
9
9
9
9
9
9
9
9
9
9
9
9
9
9
9
9
9
9
9
9
9
9
9
9
9
9
9
9
9
9
9
9
9
9
9
9
9
9
9
9
9
9
9
9
9
9
9
9
9
9
9
9
9
9
9
9
9
9
9
9
9
9
9
9
9
9
9
9
9
9
9
9
9
9
9
9
9
9
9
9
9
9
9
9
9
9
9
9
9
9
9
9
9
9
9
9
9
9
9
9
9
9
9
9
9
9
9
9
9
9
9
9
9
9
9
9
9
9
9
9
9
9
9
9
9
9
9
9
9
9
9
9
9
9
9
9
9
9
9
9
9
9
9
9
9
9
9
9
9
9
9
9
9
9
9
9
9
9
9
9
9
9
9
9
9
9
9
9
9
9
9
9
9
9
9
9
9
9
9
9
9
9
9
9
9
9
9
9
9
9
9
9
9
9
9
9
9
9
9
9
9
9
9
9
9
9
9
9
9
9
9
9
9
9
9
9
9
9
9
9
9
9
9
9
9
9
9
9
9
9
9
9
9
9
9
9
9
9
9
9
9
9
9
9
9
9
9
9
9
9
9
9
9
9
9
9
9
9
9
9
9
9
9
9
9
9
9
9
9
9
9
9
9
9
9
9
9
9
9
9
9
9
9
9
9
9
9
9
9
9
9
9
9
9
9
9
9
9
9
9
9
9
9
9
9
9
9
9
9
9
9
9
9
9
9
9
9
9
9
9
9
9
9
9
9
9
9
9
9
9
9
9
9
9
9
9
9
9
9
9
9
9
9
9
9
9
9
9
9
9
9
9
9
9
9
9
9
9
9
9
9
9
9
9
9
9
9
9
9
9
9
9
9
9
9
9
9
9
9
9
9
9
9
9
9
9
9
9
9
9
9
9
9
9
9
9
9
9
9
9
9
9
9
9
9
9
9
9
9
9
9
9
9
9
9
9
9
9
9
9
9
9
9
9
9
9
9
9
9
9
9
9
9
9
9
9
9
9
9
9
9
9
9
9
9
9
9
9
9
9
9
9
9
9
9
9
9
9
9
9
9
9
9
9
9
9
9
9
9
9
9
9
9
9
9
9
9
9
9
9
9
9
9
9
9
9
9
9
9
9
9
9
9
9
9
9
9
9
9
9
9
9
9
9
9
9
9
9
9
9
9
9
9
9
9
9
9
9
9
9
9
9
9
9
9
9
9
9
9
9
9
9
9
9
9
9
9
9
9
9
9
9
9
9
9
9
9
9
9
9
9
9
9
9
9
9
9
9
9
9
9
9
9
9
9
9
9
9
9
9
9
9
9
9
9
9
9
9
9
9
9
9
9
9
9
9
9
9
9
9
9
9
9
9
9
9
9
9
9
9
9
9
9
9
9
9
9
9
9
9
9
9
9
9
9
9
9
9
9
9
9
9
9
9
9
9
9
9
9
9
9
9
9
9
9
9
9
9
9
9
9
9
9
9
9
9
9
9
9
9
9
9
9
9
9
9
9
9
9
9
9
9
9
9
9
9
9
9
9
9
9
9
9
9
9
9
9
9
9
9
9
9
9
9
9
9
9
9
9
9
9
9
9
9
9
9
9
9
9
9
9
9
9
9
9
9
9
9
9
9
9
9
9
9
9
9
9
9
9
9
9
9
9
9
9
9
9
9
9
9
9
9
9
9
9
9
9
9
9
9
9
9
9
9
9
9
9
9
9
9
9
9
9
9
9
9
9
9
9
9
9
9
9
9
9
9
9
9
9
9
9
9
9
9
9
9
9
9
9
9
9
9
9
9
9
9
9
9
9
9
9
9
9
9
9
9
9
9
9
9
9
9
9
9
9
9
9
9
9
9
9
9
9
9
9
9
9
9
9
9
9
9
9
9
9
9
9
9
9
9
9
9
9
9
9
9
9
9
9
9
9
9
9
9
9
9
9
9
9
9
9
9
9
9
9
9
9
9
9
9
9
9
9
9
9
9
9
9
9
9
9
9
9
9
9
9
9
9
9
9
9
9
9
9
9
9
9
9
9
9
9
9
9
9
9
9
9
9
9
9
9
9
9
9
9
9
9
9
9
9
9
9
9
9
9
9
9
9
9
9
9
9
9
9
9
9
9
9
9
9
9
9
9
9
9
9
9
9
9
9
9
9
9
9
9
9
9
9
9
9
9
9
9
9
9
9
9
9
9
9
9
9
9
9
9
9
9
9
9
9
9
9
9
9
9
9
9
9
9
9
9
9
9
9
9
9
9
9
9
9
9
9
9
9
9
9
9
9
9
9
9
9
9
9
9
9
9
9
9
9
9
9
9
9
9
9
9
9
9
9
9
9
9
9
9
9
9
9
9
9
9
9
9
9
9
9
9
9
9
9
9
9
9
9
9
9
9
9
9
9
9
9
9
9
9
9
9
9
9
9
9
9
9
9
9
9
9
9
9
9
9
9
9
9
9
9
9
9
9
9
9
9
9
9
9
9
9
9
9
9
9
9
9
9
9
9
9
9
9
9
9
9
9
9
9
9
9
9
9
9
9
9
9
9
9
9
9
9
9
9
9
9
9
9
9
9
9
9
9
9
9
9
9
9
9
9
9
9
9
9
9
9
9
9
9
9
9
9
9
9
9
9
9
9
9
9
9
9
9
9
9
9
9
9
9
9
9
9
9
9
9
9
9
9
9
9
9
9
9
9
9
9
9
9
9
9
9
9
9
9
9
9
9
9
9
9
9
9
9
9
9
9
9
9
9
9
9
9
9
9
9
9
9
9
9
9
9
9
9
9
9
9
9
9
9
9
9
9
9
9
9
9
9
9
9
9
9
9
9
9
9
9
9
9
9
9
9
9
9
9
9
9
9
9
9
9
9
9
9
9
9
9
9
9
9
9
9
9
9
9
9
9
9
9
9
9
9
9
9
9
9
9
9
9
9
9
9
9
9
9
9
9
9
9
9
9
9
9
9
9
9
9
9
9
9
9
9
9
9
9
9
9
9
9
9
9
9
9
9
9
9
9
9
9
9
9
9
9
9
9
9
9
9
9
9
9
9
9
9
9
9
9
9
9
9
9
9
9
9
9
9
9
9
9
9
9
9
9
9
9
9
9
9
9
9
9
9
9
9
9
9
9
9
9
9
9
9
9
9
9
9
9
9
9
9
9
9
9
9
9
9
9
9
9
9
9
9
9
9
9
9
9
9
9
9
9
9
9
9
9
9
9
9
9
9
9
9
9
9
9
9
9
9
9
9
9
9
9
9
9
9
9
9
9
9
9
9
9
9
9
9
9
9
9
9
9
9
9
9
9
9
9
9
9
9
9
9
9
9
9
9
9
9
9
9
9
9
9
9
9
9
9
9
9
9
9
9
9
9
9
9
9
9
9
9
9
9
9
9
9
9
9
9
9
9
9
9
9
9
9
9
9
9
9
9
9
9
9
9
9
9
9
9
9
9
9
9
9
9
9
9
9
9
9
9
9
9
9
9
9
9
9
9
9
9
9
9
9
9
9
9
9
9
9
9
9
9
9
9
9
9
9
9
9
9
9
9
9
9
9
9
9
9
9
9
9
9
9
9
9
9
9
9
9
9
9
9
9
9
9
9
9
9
9
9
9
9
9
9
9
9
9
9
9
9
9
9
9
9
9
9
9
9
9
9
9
9
9
9
9
9
9
9
9
9
9
9
9
9
9
9
9
9
9
9
9
9
9
9
9
9
9
9
9
9
9
9
9
9
9
9
9
9
9
9
9
9
9
9
9
9
9
9
9
9
9
9
9
9
9
9
9
9
9
9
9
9
9
9
9
9
9
9
9
9
9
9
9
9
9
9
9
9
9
9
9
9
9
9
9
9
9
9
9
9
9
9
9
9
9
9
9
9
9
9
9
9
9
9
9
9
9
9
9
9
9
9
9
9
9
9
9
9
9
9
9
9
9
9
9
9
9
9
9
9
9
9
9
9
9
9
9
9
9
9
9
9
9
9
9
9
9
9
9
9
9
9
9
9
9
9
9
9
9
9
9
9
9
9
9
9
9
9
9
9
9
9
9
9
9
9
9
9
9
9
9
9
9
9
9
9
9
9
9
9
9
9
9
9
9
9
9
9
9
9
9
9
9
9
9
9
9
9
9
9
9
9
9
9
9
9
9
9
9
9
9
9
9
9
9
9
9
9
9
9
9
9
9
9
9
9
9
9
9
9
9
9
9
9
9
9
9
9
9
9
9
9
9
9
9
9
9
9
9
9
9
9
9
9
9
9
9
9
9
9
9
9
9
9
9
9
9
9
9
9
9
9
9
9
9
9
9
9
9
9
9
9
9
9
9
9
9
9
9
9
9
9
9
9
9
9
9
9
9
9
9
9
9
9
9
9
9
9
9
9
9
9
9
9
9
9
9
9
9
9
9
9
9
9
9
9
9
9
9
9
9
9
9
9
9
9
9
9
9
9
9
9
9
9
9
9
9
9
9
9
9
9
9
9
9
9
9
9
9
9
9
9
9
9
9
9
9
9
9
9
9
9
9
9
9
9
9
9
9
9
9
9
9
9
9
9
9
9
9
9
9
9
9
9
9
9
9
9
9
9
9
9
9
9
9
9
9
9
9
9
9
9
9
9
9
9
9
9
9
9
9
9
9
9
9
9
9
9
9
9
9
9
9
9
9
9
9
9
9
9
9
9
9
9
9
9
9
9
9
9
9
9
9
9
9
9
9
9
9
9
9
9
9
9
9
9
9
9
9
9
9
9
9
9
9
9
9
9
9
9
9
9
9
9
9
9
9
9
9
9
9
9
9
9
9
9
9
9
9
9
9
9
9
9
9
9
9
9
9
9
9
9
9
9
9
9
9
9
9
9
9
9
9
9
9
9
9
9
9
9
9
9
9
9
9
9
9
9
9
9
9
9
9
9
9
9
9
9
9
9
9
9
9
9
9
9
9
9
9
9
9
9
9
9
9
9
9
9
9
9
9
9
9
9
9
9
9
9
9
9
9
9
9
9
9
9
9
9
9
9
9
9
9
9
9
9
9
9
9
9
9
9
9
9
9
9
9
9
9
9
9
9
9
9
9
9
9
9
9
9
9
9
9
9
9
9
9
9
9
9
9
9
9
9
9
9
9
9
9
9
9
9
9
9
9
9
9
9
9
9
9
9
9
9
9
9
9
9
9
9
9
9
9
9
9
9
9
9
9
9
9
9
9
9
9
9
9
9
9
9
9
9
9
9
9
9
9
9
9
9
9
9
9
9
9
9
9
9
9
9
9
9
9
9
9
9
9
9
9
9
9
9
9
9
9
9
9
9
9
9
9
9
9
9
9
9
9
9
9
9
9
9
9
9
9
9
9
9
9
9
9
9
9
9
9
9
9
9
9
9
9
9
9
9
9
9
9
9
9
9
9
9
9
9
9
9
9
9
9
9
9
9
9
9
9
9
9
9
9
9
9
9
9
9
9
9
9
9
9
9
9
9
9
9
9
9
9
9
9
9
9
9
9
9
9
9
9
9
9
9
9
9
9
9
9
9
9
9
9
9
9
9
9
9
9
9
9
9
9
9
9
9
9
9
9
9
9
9
9
9
9
9
9
9
9
9
9
9
9
9
9
9
9
9
9
9
9
9
9
9
9
9
9
9
9
9
9
9
9
9
9
9
9
9
9
9
9
9
9
9
9
9
9
9
9
9
9
9
9
9
9
9
9
9
9
9
9
9
9
9
9
9
9
9
9
9
9
9
9
9
9
9
9
9
9
9
9
9
9
9
9
9
9
9
9
9
9
9
9
9
9
9
9
9
9
9
9
9
9
9
9
9
9
9
9
9
9
9
9
9
9
9
9
9
9
9
9
9
9
9
9
9
9
9
9
9
9
9
9
9
9
9
9
9
9
9
9
9
9
9
9
9
9
9
9
9
9
9
9
9
9
9
9
9
9
9
9
9
9
9
9
9
9
9
9
9
9
9
9
9
9
9
9
9
9
9
9
9
9
9
9
9
9
9
9
9
9
9
9
9
9
9
9
9
9
9
9
9
9
9
9
9
9
9
9
9
9
9
9
9
9
9
9
9
9
9
9
9
9
9
9
9
9
9
9
9
9
9
9
9
9
9
9
9
9
9
9
9
9
9
9
9
9
9
9
9
9
9
9
9
9
9
9
9
9
9
9
9
9
9
9
9
9
9
9
9
9
9
9
9
9
9
9
9
9
9
9
9
9
9
9
9
9
9
9
9
9
9
9
9
9
9
9
9
9
9
9
9
9
9
9
9
9
9
9
9
9
9
9
9
9
9
9
9
9
9
9
9
9
9
9
9
9
9
9
9
9
9
9
9
9
9
9
9
9
9
9
9
9
9
9
9
9
9
9
9
9
9
9
9
9
9
9
9
9
9
9
9
9
9
9
9
9
9
9
9
9
9
9
9
9
9
9
9
9
9
9
9
9
9
9
9
9
9
9
9
9
9
9
9
9
9
9
9
9
9
9
9
9
9
9
9
9
9
9
9
9
9
9
9
9
9
9
9
9
9
9
9
9
9
9
9
9
9
9
9
9
9
9
9
9
9
9
9
9
9
9
9
9
9
9
9
9
9
9
9
9
9
9
9
9
9
9
9
9
9
9
9
9
9
9
9
9
9
9
9
9
9
9
9
9
9
9
9
9
9
9
9
9
9
9
9
9
9
9
9
9
9
9
9
9
9
9
9
9
9
9
9
9
9
9
9
9
9
9
9
9
9
9
9
9
9
9
9
9
9
9
9
9
9
9
9
9
9
9
9
9
9
9
9
9
9
9
9
9
9
9
9
9
9
9
9
9
9
9
9
9
9
9
9
9
9
9
9
9
9
9
9
9
9
9
9
9
9
9
9
9
9
9
9
9
9
9
9
9
9
9
9
9
9
9
9
9
9
9
9
9
9
9
9
9
9
9
9
9
9
9
9
9
9
9
9
9
9
9
9
9
9
9
9
9
9
9
9
9
9
9
9
9
9
9
9
9
9
9
9
9
9
9
9
9
9
9
9
9
9
9
9
9
9
9
9
9
9
9
9
9
9
9
9
9
9
9
9
9
9
9
9
9
9
9
9
9
9
9
9
9
9
9
9
9
9
9
9
9
9
9
9
9
9
9
9
9
9
9
9
9
9
9
9
9
9
9
9
9
9
9
9
9
9
9
9
9
9
9
9
9
9
9
9
9
9
9
9
9
9
9
9
9
9
9
9
9
9
9
9
9
9
9
9
9
9
9
9
9
9
9
9
9
9
9
9
9
9
9
9
9
9
9
9
9
9
9
9
9
9
9
9
9
9
9
9
9
9
9
9
9
9
9
9
9
9
9
9
9
9
9
9
9
9
9
9
9
9
9
9
9
9
9
9
9
9
9
9
9
9
9
9
9
9
9
9
9
9
9
9
9
9
9
9
9
9
9
9
9
9
9
9
9
9
9
9
9
9
9
9
9
9
9
9
9
9
9
9
9
9
9
9
9
9
9
9
9
9
9
9
9
9
9
9
9
9
9
9
9
9
9
9
9
9
9
9
9
9
9
9
9
9
9
9
9
9
9
9
9
9
9
9
9
9
9
9
9
9
9
9
9
9
9
9
9
9
9
9
9
9
9
9
9
9
9
9
9
9
9
9
9
POINT_DATA      5151
SCALARS p double 
LOOKUP_TABLE default
   50000000.0000000     
   49993710.2530726     
   49987449.2923167     
   49981206.0617128     
   49974964.5238198     
   49968705.9050872     
   49962409.4922636     
   49956053.1869819     
   49949613.8877085     
   49943067.7634526     
   49936390.4387522     
   49929557.1074369     
   49922542.5886767     
   49915321.3374906     
   49907867.4200111     
   49900154.4620462     
   49892155.5777416     
   49883843.2836155     
   49875189.4019275     
   49866164.9562637     
   49856740.0613623     
   49846883.8085266     
   49836564.1474439     
   49825747.7648364     
   49814399.9600604     
   49802484.5175525     
   49789963.5758485     
   49776797.4927831     
   49762944.7063824     
   49748361.5909017     
   49733002.3074041     
   49716818.6482386     
   49699759.8747414     
   49681772.5474556     
   49662800.3481314     
   49642783.8927397     
   49621660.5346949     
   49599364.1574487     
   49575824.9555674     
   49550969.2033600     
   49524719.0100641     
   49496992.0605361     
   49467701.3403168     
   49436754.8438656     
   49404055.2646584     
   49369499.6657490     
   49332979.1292727     
   49294378.3832396     
   49253575.4038283     
   49210440.9912131     
   49164838.3167875     
   49116622.4394295     
   49065639.7882260     
   49011727.6088076     
   48954713.3701454     
   48894414.1283261     
   48830635.8434348     
   48763172.6452368     
   48691806.0428567     
   48616304.0730826     
   48536420.3812810     
   48451893.2281723     
   48362444.4148785     
   48267778.1177139     
   48167579.6231048     
   48061513.9518229     
   47949224.3603564     
   47830330.7057290     
   47704427.6584245     
   47571082.7462517     
   47429834.2100651     
   47280188.6502245     
   47121618.4406488     
   46953558.8853474     
   46775405.0905898     
   46586508.5245624     
   46386173.2357990     
   46173651.7022041     
   45948140.2846803     
   45708774.2638781     
   45454622.4463159     
   45184681.3381910     
   44897868.9030325     
   44593017.9446886     
   44268869.1921098     
   43924064.2094805     
   43557138.3172950     
   43166513.7899857     
   42750493.6965156     
   42307256.8736240     
   41834854.6667393     
   41331210.2340500     
   40794121.3730222     
   40221267.9580395     
   39610225.1607662     
   38958483.5209491     
   38263476.9793865     
   37522619.3201259     
   36733353.1274536     
   35893211.6469274     
   35000000.0000000     
   50000000.0000000     
   49993709.8779356     
   49987448.7911966     
   49981205.4825443     
   49974963.9056502     
   49968705.2686401     
   49962408.8507238     
   49956052.5473689     
   49949613.2530650     
   49943067.1339853     
   49936389.8127847     
   49929556.4820676     
   49922541.9602619     
   49915320.7019779     
   49907866.7731655     
   49900153.7995957     
   49892154.8954640     
   49883842.5773847     
   49875188.6677309     
   49866164.1902010     
   49856739.2596322     
   49846882.9674055     
   49836563.2632614     
   49825746.8339482     
   49814398.9788220     
   49802483.4822923     
   49789962.4828430     
   49776796.3382329     
   49762943.4863901     
   49748360.3014511     
   49733000.9443409     
   49716817.2072516     
   49699758.3513462     
   49681770.9369778     
   49662798.6456918     
   49642782.0932391     
   49621658.6328008     
   49599362.1475816     
   49575822.8318883     
   49550966.9597581     
   49524716.6401454     
   49496989.5576125     
   49467698.6973961     
   49436752.0536426     
   49404052.3195064     
   49369496.5577139     
   49332975.8500670     
   49294374.9242398     
   49253571.7560740     
   49210437.1454087     
   49164834.2633072     
   49116618.1683268     
   49065635.2892476     
   49011722.8714127     
   48954708.3835328     
   48894408.8814686     
   48830630.3251240     
   48763166.8441394     
   48691799.9475861     
   48616297.6722862     
   48536413.6637495     
   48451886.1829731     
   48362437.0315203     
   48267770.3863463     
   48167571.5347630     
   48061505.4987244     
   47949215.5362613     
   47830321.5063767     
   47704418.0820608     
   47571072.7942650     
   47429823.8877501     
   47280177.9676977     
   47121607.4139396     
   46953547.5376936     
   46775393.4539648     
   46586496.6414653     
   46386161.1613315     
   46173639.5064576     
   45948128.0554423     
   45708762.1096512     
   45454610.4996148     
   45184669.7590421     
   44897857.8825402     
   44593007.7084511     
   44268860.0031532     
   43924056.3702213     
   43557132.1698430     
   43166509.7138348     
   42750492.1023316     
   42307258.1914919     
   41834859.3266748     
   41331218.6365450     
   40794133.8459037     
   40221284.6994213     
   39610246.1564009     
   38958508.4597537     
   38263505.0676743     
   37522649.2699767     
   36733382.1203656     
   35893236.9953198     
   35000000.0000000     
   50000000.0000000     
   49993708.8078336     
   49987447.3216799     
   49981203.7791610     
   49974962.0817512     
   49968703.3888108     
   49962406.9546583     
   49956050.6566580     
   49949611.3770614     
   49943065.2735174     
   49936387.9629720     
   49929554.6343399     
   49922540.1038118     
   49915318.8247717     
   49907864.8626245     
   49900151.8430337     
   49892152.8803490     
   49883840.4914769     
   49875186.4991353     
   49866161.9273626     
   49856736.8912955     
   49846880.4825515     
   49836560.6510330     
   49825744.0835700     
   49814396.0795197     
   49802480.4232144     
   49789959.2529854     
   49776792.9263681     
   49762939.8810011     
   49748356.4906692     
   49732996.9158880     
   49716812.9483865     
   49699753.8488133     
   49681766.1769592     
   49662793.6137621     
   49642776.7743222     
   49621653.0111281     
   49599356.2066530     
   49575816.5544338     
   49550960.3277024     
   49524709.6345730     
   49496982.1587356     
   49467690.8845248     
   49436743.8051570     
   49404043.6128332     
   49369487.3693054     
   49332966.1553857     
   49294364.6977482     
   49253560.9712304     
   49210425.7746726     
   49164822.2781527     
   49116605.5392684     
   49065621.9858800     
   49011708.8624668     
   48954693.6369521     
   48894393.3645099     
   48830614.0044867     
   48763149.6861298     
   48691781.9183233     
   48616278.7379594     
   48536393.7909355     
   48451865.3390277     
   48362415.1850587     
   48267747.5078311     
   48167547.5972216     
   48061480.4786226     
   47949189.4145662     
   47830294.2698446     
   47704389.7247969     
   47571043.3196059     
   47429793.3105294     
   47280146.3169632     
   47121574.7361985     
   46953513.9007691     
   46775358.9515510     
   46586461.3984695     
   46386125.3400849     
   46173603.3138599     
   45948091.7510739     
   45708726.0148347     
   45454575.0073239     
   45184635.3444337     
   44897825.1137076     
   44592977.2567445     
   44268832.6520663     
   43924033.0213774     
   43557113.8439886     
   43166497.5439537     
   42750487.3149776     
   42307262.0712602     
   41834873.1573215     
   41331243.6111738     
   40794170.9368023     
   40221334.4802273     
   39610308.5598608     
   38958582.4832802     
   38263588.3072403     
   37522737.5354975     
   36733467.3589958     
   35893308.5160861     
   35000000.0000000     
   50000000.0000000     
   49993707.1408998     
   49987444.9525170     
   49981201.0180366     
   49974959.1132619     
   49968700.3243407     
   49962403.8611418     
   49956047.5710736     
   49949608.3155485     
   49943062.2379025     
   49936384.9454652     
   49929551.6209635     
   49922537.0768432     
   49915315.7644442     
   49907861.7482698     
   49900148.6538139     
   49892149.5956935     
   49883837.0913119     
   49875182.9639698     
   49866158.2382801     
   49856733.0298851     
   49846876.4308025     
   49836556.3912102     
   49825739.5980808     
   49814391.3507800     
   49802475.4335183     
   49789953.9843809     
   49776787.3605403     
   49762933.9991623     
   49748350.2734577     
   49732990.3432726     
   49716805.9995777     
   49699746.5021799     
   49681758.4099496     
   49662785.4028297     
   49642768.0948543     
   49621643.8373783     
   49599346.5116757     
   49575806.3100228     
   49550949.5043306     
   49524698.2013362     
   49496970.0832990     
   49467678.1330729     
   49436730.3423482     
   49404029.4017591     
   49369472.3714560     
   49332950.3306223     
   49294348.0042847     
   49253543.3656253     
   49210407.2118335     
   49164802.7113569     
   49116584.9202013     
   49065600.2646955     
   49011685.9878755     
   48954669.5563406     
   48894368.0240996     
   48830587.3495384     
   48763121.6612053     
   48691752.4676137     
   48616247.8056964     
   48536361.3219004     
   48451831.2791809     
   48362379.4823135     
   48267710.1130027     
   48167508.4651881     
   48061439.5697427     
   47949146.6964051     
   47830249.7192731     
   47704343.3305364     
   47570995.0853073     
   47429743.2584862     
   47280094.4925739     
   47121521.2133060     
   46953458.7880182     
   46775302.3999123     
   46586403.6100793     
   46386066.5785411     
   46173543.9160876     
   45948032.1408228     
   45708666.7177824     
   45454516.6676247     
   45184578.7423429     
   44897771.1836166     
   44592927.1045378     
   44268787.5701275     
   43923994.4987803     
   43557083.5683547     
   43166477.3900878     
   42750479.3136796     
   42307268.3496048     
   41834895.8394288     
   41331284.6658987     
   40794231.9574446     
   40221416.3782326     
   39610411.1591697     
   38958703.9806658     
   38263724.5764138     
   37522881.0626750     
   36733605.0954242     
   35893418.3288014     
   35000000.0000000     
   50000000.0000000     
   49993704.9539312     
   49987441.7525069     
   49981197.2627866     
   49974955.0607989     
   49968696.1334745     
   49962399.6271163     
   49956043.3467730     
   49949604.1243544     
   49943058.0829586     
   49936380.8163495     
   49929547.4985417     
   49922532.9367240     
   49915311.5793782     
   49907857.4897573     
   49900144.2931327     
   49892145.1045107     
   49883832.4420031     
   49875178.1297385     
   49866153.1931440     
   49856727.7485785     
   49846870.8886279     
   49836550.5638641     
   49825733.4614674     
   49814384.8808244     
   49802468.6059854     
   49789946.7747027     
   49776779.7436535     
   49762925.9493574     
   49748341.7642377     
   49732981.3472220     
   49716796.4882398     
   49699736.4459418     
   49681747.7779341     
   49662774.1627923     
   49642756.2130855     
   49621631.2786100     
   49599333.2389919     
   49575792.2847735     
   49550934.6860492     
   49524682.5476617     
   49496953.5499010     
   49467660.6735825     
   49436711.9082938     
   49404009.9425088     
   49369451.8341687     
   49332928.6602073     
   49294325.1433741     
   49253519.2545593     
   49210381.7886637     
   49164775.9118694     
   49116556.6779648     
   49065570.5111393     
   49011654.6524029     
   48954636.5664857     
   48894333.3057365     
   48830550.8271526     
   48763083.2582411     
   48691712.1069137     
   48616205.4100510     
   48536316.8147324     
   48451784.5853928     
   48362330.5293320     
   48267658.8320632     
   48167454.7929101     
   48061383.4500564     
   47949088.0829048     
   47830188.5780837     
   47704279.6437975     
   47570928.8553977     
   47429674.5131288     
   47280023.2909835     
   47121447.6535613     
   46953383.0158566     
   46775224.6191577     
   46586324.0949181     
   46385985.6878470     
   46173462.1099606     
   45947949.9994373     
   45708584.9625186     
   45454436.1842645     
   45184500.6058266     
   44897696.6834334     
   44592857.7692303     
   44268725.1885637     
   43923941.1347200     
   43557041.5633392     
   43166449.3477228     
   42750468.0559001     
   42307276.8324981     
   41834927.0127525     
   41331341.2568379     
   40794316.1562773     
   40221529.4005716     
   39610552.6614971     
   38958871.2822471     
   38263911.6599987     
   37523076.9438404     
   36733791.2991108     
   35893560.5388367     
   35000000.0000000     
   50000000.0000000     
   49993702.3084702     
   49987437.7874789     
   49981192.5750080     
   49974949.9839863     
   49968690.8740037     
   49962394.3092992     
   49956038.0398247     
   49949598.8592560     
   49943052.8644507     
   49936375.6316284     
   49929542.3235571     
   49922527.7406596     
   49915306.3277537     
   49907852.1465038     
   49900138.8219158     
   49892139.4695161     
   49883826.6083442     
   49875172.0636068     
   49866146.8617901     
   49856721.1201842     
   49846863.9321157     
   49836543.2486719     
   49825725.7573104     
   49814376.7574561     
   49802460.0329659     
   49789937.7211787     
   49776770.1781522     
   49762915.8395938     
   49748331.0769364     
   49732970.0479506     
   49716784.5412539     
   49699723.8140395     
   49681734.4223194     
   49662760.0429446     
   49642741.2866367     
   49621615.5012259     
   49599316.5642588     
   49575774.6640894     
   49550916.0685196     
   49524662.8799992     
   49496932.7763308     
   49467638.7357533     
   49436688.7451956     
   49403985.4903981     
   49369426.0265043     
   49332901.4275966     
   49294296.4135346     
   49253488.9522968     
   49210349.8358708     
   49164742.2275499     
   49116521.1782873     
   49065533.1095284     
   49011615.2596735     
   48954595.0910309     
   48894289.6537800     
   48830504.9030777     
   48763034.9650146     
   48691661.3466228     
   48616152.0845786     
   48536260.8265994     
   48451725.8388040     
   48362268.9314696     
   48267594.2946809     
   48167387.2342925     
   48061312.7974231     
   47949014.2753516     
   47830111.5701749     
   47704199.4099425     
   47570845.3951678     
   47429587.8576978     
   47279933.5109000     
   47121354.8680872     
   46953287.4041307     
   46775126.4334592     
   46586223.6763092     
   46385883.4844610     
   46173358.6981559     
   45947846.1079495     
   45708481.4995870     
   45454334.2674683     
   45184401.5939908     
   44897602.2094279     
   44592769.7717117     
   44268645.9396404     
   43923873.2590550     
   43556988.0422452     
   43166413.4992398     
   42750453.4785691     
   42307287.2965493     
   41834966.2777837     
   41331412.7902599     
   40794422.7223023     
   40221672.4866988     
   39610731.7063193     
   38959082.6552343     
   38264147.3142044     
   37523322.3205523     
   36734022.0312524     
   35893730.6499459     
   35000000.0000000     
   50000000.0000000     
   49993699.2549344     
   49987433.1190186     
   49981187.0144052     
   49974943.9413100     
   49968684.6032012     
   49962387.9641394     
   49956031.7061743     
   49949592.5759552     
   49943046.6380712     
   49936369.4472076     
   49929536.1523570     
   49922521.5456783     
   49915300.0675335     
   49907845.7776724     
   49900132.3008041     
   49892132.7531138     
   49883819.6547946     
   49875164.8323873     
   49866139.3136852     
   49856713.2171283     
   49846855.6369585     
   49836534.5249037     
   49825716.5687717     
   49814367.0680473     
   49802449.8063660     
   49789926.9205795     
   49776758.7660081     
   49762903.7773904     
   49748318.3249749     
   49732956.5651478     
   49716770.2849556     
   49699708.7398460     
   49681718.4839209     
   49662743.1919654     
   49642723.4724867     
   49621596.6709586     
   49599296.6624350     
   49575753.6326461     
   49550893.8466437     
   49524639.4040072     
   49496907.9795539     
   49467612.5484288     
   49436661.0943661     
   49403956.2998204     
   49369395.2165682     
   49332868.9152587     
   49294262.1122667     
   49253452.7720552     
   49210311.6830892     
   49164702.0051612     
   49116478.7857808     
   49065488.4430492     
   49011568.2121733     
   48954545.5524813     
   48894237.5114599     
   48830450.0419529     
   48762977.2682271     
   48691600.6961140     
   48616088.3618753     
   48536193.9137987     
   48451655.6197985     
   48362195.2934672     
   48267517.1300837     
   48167306.4430114     
   48061228.2897251     
   47948925.9753516     
   47830019.4201120     
   47704103.3753996     
   47570745.4714294     
   47429484.0774673     
   47279825.9536321     
   47121243.6712259     
   46953172.7765694     
   46775008.6715638     
   46586103.1828519     
   46385760.7907971     
   46173234.4899233     
   45947721.2544626     
   45708357.0869125     
   45454211.6348722     
   45184282.3729932     
   44897488.3640398     
   44592663.6374845     
   44268550.2578341     
   43923791.2004288     
   43556923.2125397     
   43166369.9152308     
   42750435.4994807     
   42307299.4905741     
   41835013.1975739     
   41331498.6250242     
   40794550.7882172     
   40221844.5134910     
   39610946.8722685     
   38959336.3144362     
   38264429.2895321     
   37523614.3767087     
   36734293.6171404     
   35893925.1672327     
   35000000.0000000     
   50000000.0000000     
   49993695.8354631     
   49987427.8041126     
   49981180.6386887     
   49974936.9900695     
   49968677.3777486     
   49962380.6477814     
   49956024.4016114     
   49949585.3300564     
   49943039.4594206     
   49936362.3188779     
   49929529.0411374     
   49922514.4086165     
   49915292.8564482     
   49907838.4421583     
   49900124.7901383     
   49892125.0173810     
   49883811.6454650     
   49875156.5025251     
   49866130.6179134     
   49856704.1114403     
   49846846.0784401     
   49836524.4714090     
   49825705.9785809     
   49814355.8995261     
   49802438.0176356     
   49789914.4692051     
   49776745.6087077     
   49762889.8697644     
   49748303.6212551     
   49732941.0179645     
   49716753.8451216     
   49699691.3561532     
   49681700.1029497     
   49662723.7579041     
   49642702.9269585     
   49621574.9528575     
   49599273.7077669     
   49575729.3743763     
   49550868.2145502     
   49524612.3245396     
   49496879.3756988     
   49467582.3395822     
   49436629.1962147     
   49403922.6242328     
   49369359.6714978     
   49332831.4046625     
   49294222.5360409     
   49253411.0259942     
   49210267.6588701     
   49164655.5903616     
   49116429.8639356     
   49065436.8937549     
   49011513.9112505     
   48954488.3722071     
   48894177.3208850     
   48830386.7073221     
   48762910.6535246     
   48691530.6637613     
   48616014.7736152     
   48536116.6318050     
   48451574.5080632     
   48362110.2195251     
   48267427.9671499     
   48167213.0726231     
   48061130.6049984     
   47948823.8849874     
   47829912.8533112     
   47703992.2878799     
   47570629.8527688     
   47429363.9600379     
   47279701.4234285     
   47121114.8809298     
   46953039.9612297     
   46774872.1672994     
   46585963.4489931     
   46385618.4358673     
   46173090.3018015     
   45947576.2349455     
   45708212.4906749     
   45454069.0124784     
   45184143.6170771     
   44897355.7569901     
   44592539.8978488     
   44268438.5810859     
   43923695.2875898     
   43556847.2772408     
   43166318.6559644     
   42750414.0188669     
   42307313.1373407     
   41835067.2997592     
   41331598.0751314     
   40794699.4336719     
   40222044.3002288     
   39611196.6831789     
   38959630.4344002     
   38264755.3418237     
   37523950.3608181     
   36734602.7107217     
   35894141.3259329     
   35000000.0000000     
   50000000.0000000     
   49993692.0859135     
   49987421.8952560     
   49981173.5034518     
   49974929.1863493     
   49968669.2536798     
   49962372.4160313     
   49956016.1817415     
   49949577.1770442     
   49943031.3839880     
   49936354.3022976     
   49929521.0459259     
   49922506.3861019     
   49915284.7519807     
   49907830.1985723     
   49900116.3499443     
   49892116.3240536     
   49883802.6441027     
   49875147.1400839     
   49866120.8431617     
   49856693.8747391     
   49846835.3314218     
   49836513.1666034     
   49825694.0690226     
   49814343.3383637     
   49802424.7577546     
   49789900.4628724     
   49776730.8072397     
   49762874.2232190     
   49748287.0781470     
   49732923.5250012     
   49716735.3469571     
   49699671.7951595     
   49681679.4189997     
   49662701.8881672     
   49642679.8057059     
   49621550.5112748     
   49599247.8737747     
   49575702.0724569     
   49550839.3655805     
   49524581.8456307     
   49496847.1800417     
   49467548.3363021     
   49436593.2902334     
   49403884.7161425     
   49369319.6574485     
   49332789.1762639     
   49294177.9802861     
   49253364.0252048     
   49210218.0906723     
   49164603.3276968     
   49116374.7751140     
   49065378.8425613     
   49011452.7571140     
   48954423.9704470     
   48894109.5230506     
   48830315.3616463     
   48762835.6055162     
   48691451.7569663     
   48615931.8505845     
   48536029.5353148     
   48451483.0826448     
   48362014.3133732     
   48267327.4344943     
   48167107.7766686     
   48061020.4215592     
   47948708.7069676     
   47829792.5962180     
   47703866.8965870     
   47570499.3097915     
   47429228.2956228     
   47279560.7278089     
   47120969.3191422     
   46952889.7909344     
   46774717.7600749     
   46585805.3155950     
   46385457.2559211     
   46172926.9583365     
   45947411.8540337     
   45708048.4861965     
   45453907.1356312     
   45183986.0096391     
   44897205.0064395     
   44592399.0911507     
   44268311.3521385     
   43923585.8508163     
   43556760.4364335     
   43166259.7730024     
   42750388.9211417     
   42307327.9354924     
   41835128.0787622     
   41331710.4123686     
   40794867.6886354     
   40222270.6132080     
   39611479.6141372     
   38959963.1597304     
   38265123.2410022     
   37524327.6117027     
   36734946.3036281     
   35894376.9034151     
   35000000.0000000     
   50000000.0000000     
   49993688.0372872     
   49987415.4407733     
   49981165.6620965     
   49974920.5849980     
   49968660.2863412     
   49962363.3243264     
   49956007.1019606     
   49949568.1722611     
   49943022.4671317     
   49936345.4529746     
   49929512.2225651     
   49922497.5345372     
   49915275.8113491     
   49907821.1052251     
   49900107.0399164     
   49892106.7345101     
   49883792.7140762     
   49875136.8107306     
   49866110.0577055     
   49856682.5782196     
   49846823.4703290     
   49836500.6884555     
   49825680.9219231     
   49814329.4705614     
   49802410.1172210     
   49789884.9969029     
   49776714.4620825     
   49762856.9437313     
   49748268.8074771     
   49732904.2042946     
   49716714.9150834     
   49699650.1884566     
   49681656.5710339     
   49662677.7295058     
   49642654.2637001     
   49621523.5098520     
   49599219.3332385     
   49575671.9092940     
   49550807.4922743     
   49524548.1704813     
   49496811.6069933     
   49467510.7647783     
   49436553.6149823     
   49403842.8270929     
   49369275.4395797     
   49332742.5094934     
   49294128.7393764     
   49253312.0796975     
   49210163.3048513     
   49164545.5605905     
   49116313.8805431     
   49065314.6692427     
   49011385.1488322     
   48954352.7663097     
   48894034.5578441     
   48830236.4663148     
   48762752.6077918     
   48691364.4821822     
   48615840.1227146     
   48535933.1782889     
   48451381.9220032     
   48361908.1783377     
   48267216.1605502     
   48166991.2087743     
   48060898.4181241     
   47948581.1447718     
   47829659.3764783     
   47703727.9524194     
   47570354.6153611     
   47429077.8773265     
   47279404.6778873     
   47120807.8121722     
   46952723.1037024     
   46774546.2953727     
   46585629.6304964     
   46385278.0950837     
   46172745.2928006     
   45947228.9258360     
   45707865.8588418     
   45453726.7500155     
   45183810.2443288     
   44897036.7401924     
   44592241.7640936     
   44268169.0199552     
   43923463.2234448     
   43556662.8889118     
   43166193.3109652     
   42750360.0768102     
   42307343.5616412     
   41835194.9981515     
   41331834.8690570     
   40795054.5367880     
   40222522.1700630     
   39611794.0973154     
   38960332.6133862     
   38265530.7794448     
   37524743.5782931     
   36735321.7072268     
   35894630.0866451     
   35000000.0000000     
   50000000.0000000     
   49993683.7167701     
   49987408.4852233     
   49981157.1658246     
   49974911.2396137     
   49968650.5303676     
   49962353.4277099     
   49955997.2174337     
   49949558.3708874     
   49943012.7640598     
   49936335.8262471     
   49929502.6266933     
   49922487.9100813     
   49915266.0914894     
   49907811.2201099     
   49900096.9194011     
   49892096.3097559     
   49883781.9183593     
   49875125.5797203     
   49866098.3293938     
   49856670.2926375     
   49846810.5691371     
   49836487.1144733     
   49825666.6186372     
   49814314.3816379     
   49802394.1860380     
   49789868.1661100     
   49776696.6731918     
   49762838.1367391     
   49748248.9205148     
   49732883.1733059     
   49716692.6735246     
   49699626.6670169     
   49681631.6973722     
   49662651.4280017     
   49642626.4552160     
   49621494.1115061     
   49599188.2581846     
   49575639.0665095     
   49550772.7863553     
   49524511.5014439     
   49496772.8700829     
   49467469.8502869     
   49436510.4080754     
   49403797.2076485     
   49369227.2820414     
   49332691.6827411     
   49294075.1066187     
   49253255.4983899     
   49210103.6266481     
   49164482.6313352     
   49116247.5403076     
   49065244.7524258     
   49011311.4843302     
   48954275.1777745     
   48893952.8640497     
   48830150.4816544     
   48762662.1429360     
   48691269.3449351     
   48615740.1191111     
   48535828.1139910     
   48451271.6040613     
   48361792.4174044     
   48267094.7736478     
   48166864.0227464     
   48060765.2739258     
   47948441.9027888     
   47829513.9231044     
   47703576.2081666     
   47570196.5448292     
   47428913.5014138     
   47279234.0886874     
   47120631.1910599     
   46952540.7431718     
   46774358.6252353     
   46585437.2490697     
   46385081.8059896     
   46172546.1479119     
   45947028.2747466     
   45707665.4049300     
   45453528.6126754     
   45183617.0261809     
   44896851.5969480     
   44592068.4731118     
   44268012.0412209     
   43923327.7435021     
   43556554.8339467     
   43166119.3094431     
   42750327.3445408     
   42307359.6726296     
   41835267.4931481     
   41331970.6408972     
   40795258.9188875     
   40222797.6438536     
   39612138.5273190     
   38960736.9033427     
   38265975.7796375     
   37525195.8313448     
   36735726.5230032     
   35894899.3770609     
   35000000.0000000     
   50000000.0000000     
   49993679.1485043     
   49987401.0698182     
   49981148.0636875     
   49974901.2025443     
   49968640.0396682     
   49962342.7808123     
   49955986.5830752     
   49949547.8279218     
   49943002.3298109     
   49936325.4772647     
   49929492.3137264     
   49922477.5686316     
   49915255.6490372     
   49907800.6008848     
   49900086.0473799     
   49892085.1104059     
   49883770.3195158     
   49875113.5118810     
   49866085.7256351     
   49856657.0882960     
   49846796.7013576     
   49836472.5216904     
   49825651.2400352     
   49814298.1566166     
   49802377.0537014     
   49789850.0647864     
   49776677.5399880     
   49762817.9071290     
   49748227.5279606     
   49732860.5489075     
   49716668.7456954     
   49699601.3611805     
   49681604.9356777     
   49662623.1290542     
   49642596.5338194     
   49621462.4784162     
   49599154.8198713     
   49575603.7249265     
   49550735.4387169     
   49524472.0400086     
   49496731.1819449     
   49467425.8171758     
   49436463.9061658     
   49403748.1073811     
   49369175.4479593     
   49332636.9733440     
   49294017.3742385     
   49253194.5890946     
   49210039.3801781     
   49164414.8810816     
   49116176.1133404     
   49065169.4695835     
   49011232.1603853     
   48954191.6216904     
   48893864.8793514     
   48830057.8669367     
   48762564.6925420     
   48691166.8498437     
   48615632.3680815     
   48535714.8950241     
   48451152.7062522     
   48361667.6332774     
   48266963.9020873     
   48166726.8726621     
   48060621.6688227     
   47948291.6864491     
   47829356.9666324     
   47703412.4186973     
   47570025.8762585     
   47428735.9675729     
   47279049.7794489     
   47120440.2919339     
   46952343.5590141     
   46774155.6087438     
   46585229.0347720     
   46384869.2504144     
   46172330.3765547     
   45946810.7362633     
   45707447.9326593     
   45453313.4930545     
   45183407.0727792     
   44896650.2275967     
   44591879.7858069     
   44267840.8819248     
   43923179.7554402     
   43556436.4731781     
   43166037.8050542     
   42750290.5733960     
   42307375.9079529     
   41835344.9732723     
   41332116.8898991     
   40795479.7360906     
   40223095.6669186     
   39612511.2659117     
   38961174.1279307     
   38266456.1003827     
   37525682.0677455     
   36736158.6092698     
   35895183.5210343     
   35000000.0000000     
   50000000.0000000     
   49993674.3541722     
   49987393.2328253     
   49981138.4026792     
   49974890.5249018     
   49968628.8674244     
   49962331.4378377     
   49955975.2535333     
   49949536.5981629     
   49942991.2192351     
   49936314.4609688     
   49929481.3388374     
   49922466.5658035     
   49915244.5403081     
   49907789.3048540     
   49900074.4824512     
   49892073.1966683     
   49883757.9796825     
   49875100.6715983     
   49866072.3133815     
   49856643.0350307     
   49846781.9400247     
   49836456.9866535     
   49825634.8664901     
   49814280.8800124     
   49802358.8091869     
   49789830.7866918     
   49776657.1613441     
   49762796.3592243     
   49748204.7399337     
   49732836.4473713     
   49716643.2543885     
   49699574.4006426     
   49681576.4229442     
   49662592.9773673     
   49642564.6523526     
   49621428.7720093     
   49599119.1887751     
   49575566.0645552     
   49550695.6394075     
   49524429.9867879     
   49496686.7543032     
   49467378.8888498     
   49436414.3449303     
   49403695.7748542     
   49369120.1994203     
   49332578.6575708     
   49293955.8333669     
   49253129.6585054     
   49209970.8884184     
   49164342.6498278     
   49116099.9574135     
   49065089.1970273     
   49011147.5726223     
   48954102.5137741     
   48893771.0403344     
   48829959.0803841     
   48762460.7372220     
   48691057.5006366     
   48615517.3971593     
   48535594.0733638     
   48451025.8055621     
   48361534.4284346     
   48266824.1742082     
   48166580.4129544     
   48060468.2834032     
   47948131.2023512     
   47829189.2392748     
   47703237.3411400     
   47569843.3906371     
   47428546.0791680     
   47278852.5739252     
   47120235.9563593     
   46952132.4073401     
   46773938.1124895     
   46585005.8596898     
   46384641.2999020     
   46172098.8424994     
   45946577.1578099     
   45707214.2630432     
   45453082.1740567     
   45183181.1154531     
   44896433.2965625     
   44591676.2824457     
   44267656.0190235     
   43923019.6119721     
   43556308.0126315     
   43165948.8336437     
   42750249.6052205     
   42307391.8923406     
   41835426.8251257     
   41332272.7473870     
   40795715.8532183     
   40223414.8344765     
   39612910.6460689     
   38961642.3800104     
   38266969.6410630     
   37526200.1089483     
   36736616.0481877     
   35895481.4581033     
   35000000.0000000     
   50000000.0000000     
   49993669.3534465     
   49987385.0099360     
   49981128.2278621     
   49974879.2565940     
   49968617.0660961     
   49962319.4525580     
   49955963.2831762     
   49949524.7361928     
   49942979.4869746     
   49936302.8320721     
   49929469.7569362     
   49922454.9569104     
   49915232.8212786     
   49907777.3889486     
   49900062.2828123     
   49892060.6283266     
   49883744.9605529     
   49875087.1227986     
   49866058.1591142     
   49856628.2021957     
   49846766.3576811     
   49836440.5854081     
   49825617.5778643     
   49814262.6358194     
   49802339.5409381     
   49789810.4250407     
   49776635.6355734     
   49762773.5967722     
   49748180.6659595     
   49732810.9843556     
   49716616.3217620     
   49699545.9144406     
   49681546.2954830     
   49662561.1169363     
   49642530.9629216     
   49621393.1529469     
   49599081.5345766     
   49575526.2645786     
   49550653.5776165     
   49524385.5415022     
   49496639.7979565     
   49467329.2877549     
   49436361.9590551     
   49403640.4576082     
   49369061.7974571     
   49332517.0106073     
   49293890.7740255     
   49253061.0121841     
   49209898.4731951     
   49164266.2764077     
   49116019.4291280     
   49065004.3098988     
   49011058.1155077     
   48954008.2686063     
   48893671.7824849     
   48829854.5791740     
   48762350.7566165     
   48690941.8001669     
   48615395.7331258     
   48535466.2003878     
   48450891.4785698     
   48361393.4051786     
   48266676.2184538     
   48166425.2984924     
   48060305.7990842     
   47947961.1583811     
   47829011.4750639     
   47703051.7350565     
   47569649.8720850     
   47428344.6434838     
   47278643.3006719     
   47120019.0316774     
   46951908.1510969     
   46773707.0110367     
   46584768.6050771     
   46384398.8363884     
   46171852.4211218     
   45946328.3995635     
   45706965.2308579     
   45452835.4531262     
   45182939.9005039     
   44896201.4831887     
   44591458.5575195     
   44267457.9421842     
   43922847.6760100     
   43556169.6648554     
   43165852.4326265     
   42750204.2771858     
   42307407.2384939     
   41835512.4153063     
   41332437.3170738     
   40795966.1019666     
   40223753.7079573     
   39613334.9753658     
   38962139.7500377     
   38267514.3437607     
   37526747.8951217     
   36737097.1149230     
   35895792.2817344     
   35000000.0000000     
   50000000.0000000     
   49993664.1643428     
   49987376.4345995     
   49981117.5825106     
   49974867.4463736     
   49968604.6874375     
   49962306.8783112     
   49955950.7260823     
   49949512.2963613     
   49942967.1874450     
   49936290.6450382     
   49929457.6226481     
   49922442.7969428     
   49915220.5475647     
   49907764.9097072     
   49900049.5062399     
   49892047.4647214     
   49883731.3233597     
   49875072.9289339     
   49866043.3288278     
   49856612.6586486     
   49846750.0263641     
   49836423.3934857     
   49825599.4534969     
   49814243.5074984     
   49802319.3368533     
   49789789.0724901     
   49776613.0604172     
   49762749.7229318     
   49748155.4149577     
   49732784.2748932     
   49716588.0693265     
   49699516.0309416     
   49681514.6889100     
   49662527.6910343     
   49642495.6168824     
   49621355.7811112     
   49599042.0261465     
   49575484.5033379     
   49550609.4416588     
   49524338.9029651     
   49496590.5227631     
   49467277.2353639     
   49436306.9822192     
   49403582.4021451     
   49369000.5020336     
   49332452.3065415     
   49293822.4851121     
   49252988.9545459     
   49209822.4551700     
   49164186.0984779     
   49115934.8839022     
   49064915.1821601     
   49010964.1823412     
   48953909.2996271     
   48893567.5401888     
   48829744.8194407     
   48762235.2294008     
   48690820.2504246     
   48615267.9020291     
   48535331.8269028     
   48450750.3014834     
   48361245.1656834     
   48266520.6634306     
   48166262.1846561     
   48060134.8982034     
   47947782.2638252     
   47828824.4099894     
   47702856.3626066     
   47569446.1080512     
   47428132.4719612     
   47278422.7933261     
   47119790.3713343     
   46951671.6604556     
   46773463.1873775     
   46584518.1618867     
   46384142.7528199     
   46171592.0001210     
   45946065.3352849     
   45706701.6855990     
   45452574.1433465     
   45182684.1904616     
   44895955.4831684     
   44591227.2213626     
   44267247.1556070     
   43922664.3227010     
   43556021.6511811     
   43165748.6434698     
   42750154.4244870     
   42307421.5499761     
   41835601.0934548     
   41332609.6782026     
   40796229.2840570     
   40224110.8180577     
   39613782.5387199     
   38962664.3280383     
   38268088.1932720     
   37527323.4763547     
   36737600.2496148     
   35896115.2090506     
   35000000.0000000     
   50000000.0000000     
   49993658.8035007     
   49987367.5383202     
   49981106.5082666     
   49974855.1418999     
   49968591.7825212     
   49962293.7680065     
   49955937.6360324     
   49949499.3327709     
   49942954.3748161     
   49936277.9540602     
   49929444.9902919     
   49922430.1405453     
   49915207.7744009     
   49907751.9232545     
   49900036.2100710     
   49892033.7647324     
   49883717.1288579     
   49875058.1529650     
   49866027.8880152     
   49856596.4727359     
   49846733.0175916     
   49836405.4858901     
   49825580.5721904     
   49814223.5779637     
   49802298.2842742     
   49789766.8211273     
   49776589.5330329     
   49762724.8402625     
   49748129.0952298     
   49732756.4333791     
   49716558.6179336     
   49699484.8778297     
   49681481.7381328     
   49662492.8421997     
   49642458.7648276     
   49621316.8155911     
   49599000.8315312     
   49575440.9583187     
   49550563.4189609     
   49524290.2690677     
   49496539.1376257     
   49467222.9521602     
   49436249.6470800     
   49403521.8539123     
   49368936.5720282     
   49332384.8183479     
   49293751.2543852     
   49252913.7888447     
   49209743.1538260     
   49164102.4525050     
   49115846.6759605     
   49064822.1865835     
   49010866.1652481     
   48953806.0191297     
   48893458.7467282     
   48829630.2562758     
   48762114.6332900     
   48690693.3525461     
   48615134.4291999     
   48535191.5031683     
   48450602.8501716     
   48361090.3120373     
   48266358.1379635     
   48166091.7274057     
   48059956.2641056     
   47947595.2294768     
   47828628.7821280     
   47702651.9887049     
   47569232.8895029     
   47427910.3804229     
   47278191.8908750     
   47119550.8352014     
   46951423.8131893     
   46773207.5333766     
   46584255.4312936     
   46383873.9537667     
   46171318.4802359     
   45945788.8531524     
   45706424.4924489     
   45452299.0745580     
   45182414.7653703     
   44895696.0100171     
   44590982.9018305     
   44267024.1799241     
   43922469.9415635     
   43555864.2041013     
   43165637.5143149     
   42750099.8831943     
   42307434.4242587     
   41835692.1954319     
   41332788.8887580     
   40796504.1743354     
   40224484.6675243     
   39614251.6005208     
   38963214.2045121     
   38268689.2151918     
   37527925.0019459     
   36738124.0322401     
   35896449.5570593     
   35000000.0000000     
   50000000.0000000     
   49993653.2864114     
   49987358.3509225     
   49981095.0453005     
   49974842.3898136     
   49968578.4017715     
   49962280.1741337     
   49955924.0665055     
   49949485.8992637     
   49942941.1029935     
   49936264.8130395     
   49929431.9138572     
   49922417.0419947     
   49915194.5566174     
   49907738.4852805     
   49900022.4511825     
   49892019.5867593     
   49883702.4373069     
   49875042.8573447     
   49866011.9016517     
   49856579.7122784     
   49846715.4023482     
   49836386.9370839     
   49825561.0121980     
   49814202.9295712     
   49802276.4699727     
   49789743.7624576     
   49776565.1499820     
   49762699.0507112     
   49748101.8144474     
   49732727.5735582     
   49716528.0877624     
   49699452.5820931     
   49681447.5773380     
   49662456.7122222     
   49642420.5565728     
   49621276.4146686     
   49598958.1179390     
   49575395.8061354     
   49550515.6960455     
   49524239.8367643     
   49496485.8504759     
   49467166.6576224     
   49436190.1852565     
   49403459.0572874     
   49368870.2652188     
   49332314.8178714     
   49293677.3684481     
   49252835.8171577     
   49209660.8874525     
   49164015.6737516     
   49115755.1583193     
   49064725.6947398     
   49010764.4551690     
   48953698.8382529     
   48893345.8342763     
   48829511.3437265     
   48761989.4450408     
   48690561.6068221     
   48614995.8392649     
   48535045.7789161     
   48450449.7001927     
   48360929.4462813     
   48266189.2711457     
   48165914.5833451     
   48059770.5812226     
   47947400.7677352     
   47828425.3317650     
   47702439.3811693     
   47569011.0111047     
   47427679.1892896     
   47277951.4379156     
   47119301.2898836     
   46951165.4950407     
   46772940.9502082     
   46583981.3252104     
   46383593.3560292     
   46171032.7759581     
   45945499.8565967     
   45706134.5332514     
   45452011.0944915     
   45182132.4241018     
   44895423.7965862     
   44590726.2460343     
   44266789.5541761     
   43922264.9387185     
   43555697.5697685     
   43165519.1027389     
   42750040.4932568     
   42307445.4559213     
   41835785.0466304     
   41332973.9887509     
   40796789.5238255     
   40224873.7336789     
   39614740.4061781     
   38963787.4703042     
   38269315.4723116     
   37528550.7085130     
   36738667.1601759     
   35896794.7236478     
   35000000.0000000     
   50000000.0000000     
   49993647.6276055     
   49987348.9007882     
   49981083.2324724     
   49974829.2358215     
   49968564.5950041     
   49962266.1487776     
   49955910.0706757     
   49949472.0494081     
   49942927.4255990     
   49936251.2755626     
   49929418.4469801     
   49922403.5551757     
   49915180.9486172     
   49907724.6510183     
   49900008.2859702     
   49892004.9887021     
   49883687.3084522     
   49875027.1040013     
   49865995.4341791     
   49856562.4445564     
   49846697.2510711     
   49836367.8209756     
   49825540.8512109     
   49814181.6441057     
   49802253.9801394     
   49789719.9873927     
   49776540.0072179     
   49762672.4556012     
   49748073.6796395     
   49732697.8085131     
   49716496.5983082     
   49699419.2700119     
   49681412.3399781     
   49662419.4421302     
   49642381.1411432     
   49621234.7358048     
   49598914.0517257     
   49575349.2225181     
   49550466.4585167     
   49524187.8020563     
   49496430.8682586     
   49467108.5702084     
   49436128.8273136     
   49403394.2555607     
   49368801.8382655     
   49332242.5758112     
   49293601.1127332     
   49252755.3403696     
   49209575.9731302     
   49163926.0962610     
   49115660.6827739     
   49064626.0769856     
   49010659.4418488     
   48953588.1669718     
   48893229.2338910     
   48829388.5347921     
   48761860.1404522     
   48690425.5127017     
   48614852.6561566     
   48534895.2033671     
   48450291.4268187     
   48360763.1704419     
   48266014.6923830     
   48165731.4097798     
   48059578.5351468     
   47947199.5926973     
   47828214.8015076     
   47702219.3108606     
   47568781.2713888     
   47427439.7237856     
   47277702.2849020     
   47119042.6090181     
   46950897.6000783     
   46772664.3487804     
   46583696.7667927     
   46383301.8892388     
   46170735.8162412     
   45945199.2651372     
   45705832.7074945     
   45451711.0699181     
   45181837.9856949     
   44895139.5966162     
   44590457.9221324     
   44266543.8378619     
   43922049.7392182     
   43555522.0106097     
   43165393.4786527     
   42749976.1016600     
   42307454.2400089     
   41835878.9654252     
   41333164.0035873     
   40797084.0627497     
   40225276.4707085     
   39615247.1831284     
   38964382.2155042     
   38269965.0595850     
   37529198.9074256     
   36739228.4281325     
   35897150.1721063     
   35000000.0000000     
   50000000.0000000     
   49993641.8408098     
   49987339.2150682     
   49981071.1074927     
   49974815.7247887     
   49968550.4114732     
   49962251.7436360     
   49955895.7014123     
   49949457.8364869     
   49942913.3959517     
   49936237.3948788     
   49929404.6429192     
   49922389.7335560     
   49915167.0043522     
   49907710.4752214     
   49899993.7703282     
   49891990.0279417     
   49883671.8015072     
   49875010.9543214     
   49865978.5494904     
   49856544.7362947     
   49846678.6336358     
   49836348.2109057     
   49825520.1663452     
   49814159.8027682     
   49802230.9003709     
   49789695.5862384     
   49776514.2000743     
   49762645.1556195     
   49748044.7971814     
   49732667.2506520     
   49716464.2683693     
   49699385.0671455     
   49681376.1587586     
   49662381.1721777     
   49642340.6667598     
   49621191.9356260     
   49598868.7983802     
   49575301.3822964     
   49550415.8910452     
   49524134.3599773     
   49496374.3969162     
   49467048.9073392     
   49436065.8027455     
   49403327.6909197     
   49368731.5466947     
   49332168.3617035     
   49293522.7714846     
   49252672.6581557     
   49209488.7267142     
   49163834.0528418     
   49115563.5998834     
   49064523.7024491     
   49010551.5138240     
   48953474.4140868     
   48893109.3755063     
   48829262.2814182     
   48761727.1943631     
   48690285.5687943     
   48614705.4031205     
   48534740.3252444     
   48450128.6050560     
   48360592.0865615     
   48265835.0314342     
   48165542.8647696     
   48059380.8126983     
   47946992.4202425     
   47827997.9363916     
   47701992.5518129     
   47568544.4729150     
   47427192.8141350     
   47277445.2883840     
   47118775.6735608     
   46950621.0310428     
   46772378.6501507     
   46583402.6909360     
   46383000.4964500     
   46170428.5452058     
   45944888.0152181     
   45705519.9332981     
   45451399.8878128     
   45181532.2907199     
   44894844.1863285     
   44590178.6211745     
   44266287.6130625     
   43921824.7894671     
   43555337.8080574     
   43165260.7273380     
   42749906.5657363     
   42307460.3755483     
   41835973.2667673     
   41333357.9475292     
   40797386.5035357     
   40225691.3117500     
   39615770.1413457     
   38964996.5274494     
   38270636.0978981     
   37529867.9718788     
   36739806.7100931     
   35897515.4182739     
   35000000.0000000     
   50000000.0000000     
   49993635.9390816     
   49987329.3198747     
   49981058.7070801     
   49974801.9008375     
   49968535.8999245     
   49962237.0100421     
   49955881.0112814     
   49949443.3134853     
   49942899.0670480     
   49936223.2238763     
   49929390.5545300     
   49922375.6301613     
   49915152.7772983     
   49907696.0121403     
   49899978.9596265     
   49891974.7613192     
   49883655.9751347     
   49874994.4691325     
   49865961.3109132     
   49856526.6536476     
   49846659.6193429     
   49836328.1796337     
   49825499.0341294     
   49814137.4861642     
   49802207.3156583     
   49789670.6486831     
   49776487.8232533     
   49762617.2508058     
   49748015.2727826     
   49732636.0116970     
   49716431.2160355     
   49699350.0983197     
   49681339.1656258     
   49662342.0418305     
   49642299.2808265     
   49621148.1699100     
   49598822.5225107     
   49575252.4593857     
   49550364.1773525     
   49524079.7045774     
   49496316.6413725     
   49466987.8853827     
   49436001.3399592     
   49403259.6044317     
   49368659.6448810     
   49332092.4439048     
   49293442.6277412     
   49252588.0689647     
   49209399.4628177     
   49163739.8750515     
   49115464.2589548     
   49064418.9390159     
   49010441.0584094     
   48953357.9872124     
   48892986.6879224     
   48829133.0344893     
   48761591.0806475     
   48690142.2728693     
   48614554.6027190     
   48534581.6927831     
   48449961.8096613     
   48360416.7967218     
   48265650.9184447     
   48165349.6071738     
   48059178.1019845     
   47946779.9681101     
   47827775.4839777     
   47701759.8813552     
   47568301.4224213     
   47426939.2957458     
   47277181.3112317     
   47118501.3720615     
   46950336.6996799     
   46772084.7859287     
   46583100.0447612     
   46382690.1347240     
   46170111.9228386     
   45944567.0610431     
   45705197.1484067     
   45451078.4565305     
   45181216.2026657     
   44894538.3660527     
   44589889.0589992     
   44266021.4866343     
   43921590.5597365     
   43555145.2653966     
   43165120.9526198     
   42749831.7566318     
   42307463.4692283     
   41836067.2659315     
   41333554.8272648     
   40797695.5438334     
   40226116.6708051     
   39616307.4734079     
   38965628.4879266     
   38271326.7268528     
   37530556.3237948     
   36740400.9428937     
   35897890.0196348     
   35000000.0000000     
   50000000.0000000     
   49993629.9349246     
   49987319.2404567     
   49981046.0671162     
   49974787.8074509     
   49968521.1086529     
   49962221.9989897     
   49955866.0525481     
   49949428.5330797     
   49942884.4915420     
   49936208.8150570     
   49929376.2342381     
   49922361.2975482     
   49915138.3204303     
   49907681.3154982     
   49899963.9086886     
   49891959.2451161     
   49883639.8874276     
   49874977.7086857     
   49865943.7811938     
   49856508.2621840     
   49846640.2769029     
   49836307.7993252     
   49825477.5304915     
   49814114.7742911     
   49802183.3103750     
   49789645.2637857     
   49776460.9708140     
   49762588.8405404     
   49747985.2114747     
   49732604.2026718     
   49716397.5586755     
   49699314.4876150     
   49681301.4917531     
   49662302.1897540     
   49642257.1299160     
   49621103.5935719     
   49598775.3878297     
   49575202.6267721     
   49550311.5001966     
   49524024.0289074     
   49496257.8055170     
   49466925.7196370     
   49435935.6662577     
   49403190.2360268     
   49368586.3860306     
   49332015.0895741     
   49293360.9633187     
   49252501.8700016     
   49209308.4947939     
   49163643.8931790     
   49115363.0080262     
   49064312.1533123     
   49010328.4616828     
   48953239.2927625     
   48892861.5987935     
   48829001.2438190     
   48761452.2722079     
   48689996.1218525     
   48614400.7768318     
   48534419.8537358     
   48449791.6151541     
   48360237.9030645     
   48265462.9839758     
   48165152.2966921     
   48058971.0924544     
   47946562.9559680     
   47827548.1944408     
   47701522.0802234     
   47568052.9309641     
   47426680.0093841     
   47276911.2228508     
   47118220.6009266     
   46950045.5270618     
   46771783.6986672     
   46582789.7880894     
   46382371.7757023     
   46169786.9256842     
   45944237.3754065     
   45704865.3111855     
   45450747.7069934     
   45180890.6093483     
   44894222.9618874     
   44589589.9781804     
   44265746.0924727     
   43921347.5467677     
   43554944.7107233     
   43164974.2801764     
   42749751.5629285     
   42307463.1392472     
   41836160.2824236     
   41333753.6456024     
   40798009.8695662     
   40226550.9445278     
   39616857.3541794     
   38966276.1696659     
   38272035.0967325     
   37531262.4206364     
   36741010.1110944     
   35898273.5658561     
   35000000.0000000     
   50000000.0000000     
   49993623.8403920     
   49987309.0013625     
   49981033.2227979     
   49974773.4875799     
   49968506.0855657     
   49962206.7611609     
   49955850.8771811     
   49949413.5476253     
   49942869.7217240     
   49936194.2205115     
   49929361.7340125     
   49922346.7877772     
   49915123.6861946     
   49907666.4384665     
   49899948.6717689     
   49891943.5350321     
   49883623.5958896     
   49874960.7326381     
   49865926.0224808     
   49856489.6268725     
   49846620.6744232     
   49836287.1415375     
   49825455.7307467     
   49814091.7465259     
   49802158.9682649     
   49789619.5199643     
   49776433.7361606     
   49762560.0235326     
   49747954.7176001     
   49732571.9338901     
   49716363.4129248     
   49699278.3583535     
   49681263.2675291     
   49662261.7537994     
   49642214.3597564     
   49621058.3606506     
   49598727.5571399     
   49575152.0564974     
   49550258.0413559     
   49523967.5250033     
   49496198.0921883     
   49466862.6243141     
   49435869.0078228     
   49403119.8244798     
   49368512.0221632     
   49331936.5646546     
   49293278.0587917     
   49252414.3572084     
   49209216.1347181     
   49163546.4362265     
   49115260.1938490     
   49064203.7106884     
   49010214.1084686     
   48953118.7359357     
   48892734.5346141     
   48828867.3581380     
   48761311.2409660     
   48689847.6118195     
   48614244.4466541     
   48534255.3553750     
   48449618.5958246     
   48360056.0078054     
   48265271.8590281     
   48164951.5938977     
   48058760.4749440     
   47946342.1054748     
   47827316.8206499     
   47701279.9326626     
   47567799.8140470     
   47426415.8013359     
   47276635.8993836     
   47117934.2646694     
   46949748.4438949     
   46771476.3422405     
   46582472.8939036     
   46382046.4061707     
   46169454.5475294     
   45943899.9505213     
   45704525.4016177     
   45450408.5938870     
   45180556.4243383     
   44893898.8273944     
   44589282.1500219     
   44265462.0938405     
   43921096.2764642     
   43554736.5000162     
   43164820.8609854     
   42749665.8944254     
   42307459.0193337     
   41836251.6440627     
   41333953.4053084     
   40798328.1580518     
   40226992.5139330     
   39617417.9401774     
   38966937.6322301     
   38272759.3597862     
   37531984.7421518     
   36741633.2328195     
   35898665.6703652     
   35000000.0000000     
   50000000.0000000     
   49993617.6671798     
   49987298.6265919     
   49981020.2087870     
   49974758.9837542     
   49968490.8782476     
   49962191.3469563     
   49955835.5368564     
   49949398.4091446     
   49942854.8094991     
   49936179.4918922     
   49929347.1053363     
   49922332.1523839     
   49915108.9264828     
   49907651.4336392     
   49899933.3025289     
   49891927.6861646     
   49883607.1574162     
   49874943.6000348     
   49865908.0963093     
   49856470.8120663     
   49846600.8793936     
   49836266.2772080     
   49825433.7095847     
   49814068.4816138     
   49802134.3724310     
   49789593.5049846     
   49776406.2120311     
   49762530.8978094     
   49747923.8948000     
   49732539.3149437     
   49716328.8946742     
   49699241.8330869     
   49681224.6225445     
   49662220.8709908     
   49642171.1152181     
   49621012.6242940     
   49598679.1923197     
   49575100.9196444     
   49550203.9816139     
   49523910.3838700     
   49496137.7031576     
   49466798.8125223     
   49435801.5896975     
   49403048.6073933     
   49368436.8040935     
   49331857.1338550     
   49293194.1934744     
   49252325.8252457     
   49209122.6933682     
   49163447.8318904     
   49115156.1618690     
   49064093.9751997     
   49010098.3823200     
   48952996.7206985     
   48892605.9207037     
   48828731.8250805     
   48761168.4578504     
   48689697.2379868     
   48614086.1326900     
   48534088.7444915     
   48449443.3257372     
   48359871.7132449     
   48265078.1750594     
   48164748.1602649     
   48058546.9417161     
   47946118.1403332     
   47827082.1182388     
   47701034.2265194     
   47567542.8917394     
   47426147.5235576     
   47276356.2238987     
   47117643.2761461     
   46949446.3908140     
   46771163.6822079     
   46582150.3487981     
   46381715.0286100     
   46169115.8000774     
   45943555.7988406     
   45704178.4223003     
   45450062.0968632     
   45180214.5884047     
   44893566.8453204     
   44588966.3765962     
   44265170.1857611     
   43920837.3066700     
   43554521.0203182     
   43164660.8749054     
   42749574.6860799     
   42307450.7629468     
   41836340.6912466     
   41334153.1131109     
   40798649.0812247     
   40227439.7460787     
   39617987.3686974     
   38967610.9173983     
   38273497.6609352     
   37532721.7770156     
   36742269.3462651     
   35899065.9626519     
   35000000.0000000     
   50000000.0000000     
   49993611.4267125     
   49987288.1397418     
   49981007.0593587     
   49974744.3381947     
   49968475.5340295     
   49962175.8065257     
   49955820.0829621     
   49949383.1693142     
   49942839.8063641     
   49936164.6803854     
   49929332.3991774     
   49922317.4423498     
   49915094.0926030     
   49907636.3530066     
   49899917.8540135     
   49891911.7529866     
   49883590.6282741     
   49874926.3692910     
   49865890.0635839     
   49856451.8814881     
   49846580.9586726     
   49836245.2766399     
   49825411.5410574     
   49814045.0576555     
   49802109.6053234     
   49789567.3059482     
   49776378.4904861     
   49762501.5607043     
   49747892.8460034     
   49732506.4546906     
   49716294.1190570     
   49699205.0335843     
   49681185.6855794     
   49662179.6775122     
   49642127.5402997     
   49620966.5367458     
   49598630.4543089     
   49575049.3863217     
   49550149.5007442     
   49523852.7954654     
   49496076.8391124     
   49466734.4962498     
   49435733.6357685     
   49402976.8211788     
   49368360.9814126     
   49331777.0606307     
   49293109.6454011     
   49252236.5674728     
   49209028.4802052     
   49163348.4065415     
   49115051.2562066     
   49063983.3095871     
   49009981.6655001     
   48952873.6497665     
   48892476.1811888     
   48828595.0911677     
   48761024.3927829     
   48689545.4946999     
   48613926.3547443     
   48533920.5673890     
   48449266.3787298     
   48359685.6217731     
   48264882.5639967     
   48164542.6581903     
   48058331.1864919     
   47945891.7863350     
   47826844.8456681     
   47700785.7533241     
   47567282.9887843     
   47425876.0338140     
   47276073.0865669     
   47117348.5567785     
   46949140.3186625     
   46770846.6961640     
   46581823.1534134     
   46381378.6617350     
   46168771.7136119     
   45943205.9538723     
   45703825.3994398     
   45449709.2217480     
   45179866.0709736     
   44893227.9293463     
   44588643.4928265     
   44264871.0974722     
   43920571.2300296     
   43554298.6930262     
   43164494.5343939     
   42749477.9021119     
   42307438.0476615     
   41836426.7814153     
   41334351.7838923     
   40798971.3090012     
   40227890.9957812     
   39618563.7567777     
   38968294.0441459     
   38274248.1279793     
   37533472.0092978     
   36742917.4965891     
   35899474.0810234     
   35000000.0000000     
   50000000.0000000     
   49993605.1302250     
   49987277.5641476     
   49980993.8085496     
   49974729.5929290     
   49968460.1000592     
   49962160.1898000     
   49955804.5666016     
   49949367.8794509     
   49942824.7633835     
   49936149.8366821     
   49929317.6659573     
   49922302.7080716     
   49915079.2352514     
   49907621.2479288     
   49899902.3786263     
   49891895.7893240     
   49883574.0640821     
   49874909.0981740     
   49865871.9845627     
   49856432.8982150     
   49846560.9784730     
   49836224.2094899     
   49825389.2985665     
   49814021.5520962     
   49802084.7487279     
   49789541.0092821     
   49776350.6628975     
   49762472.1088455     
   49747861.6734155     
   49732473.4612439     
   49716259.2004380     
   49699168.0808197     
   49681146.5845911     
   49662138.3086945     
   49642083.7781148     
   49620920.2493314     
   49598581.5030940     
   49574997.6256487     
   49550094.7774939     
   49523794.9486840     
   49496015.6996395     
   49466669.8863466     
   49435665.3687482     
   49402904.7010384     
   49368284.8024695     
   49331696.6071646     
   49293024.6913072     
   49252146.8759274     
   49208933.8033521     
   49163248.4852043     
   49114945.8196362     
   49063872.0752567     
   49009864.3389610     
   48952749.9245846     
   48892345.7389842     
   48828457.6017901     
   48760879.5146612     
   48689392.8754181     
   48613765.6319094     
   48533751.3698751     
   48449088.3284089     
   48359498.3358694     
   48264685.6582427     
   48164335.7510071     
   48058113.9044753     
   47945663.7713984     
   47826605.7642778     
   47700535.3083625     
   47567020.9346935     
   47425602.1958040     
   47275787.3848238     
   47117051.0367629     
   46948831.1887565     
   46770526.3740728     
   46581492.3228557     
   46381038.3410183     
   46168423.3376484     
   45942851.4709841     
   45703467.3838413     
   45449351.0017524     
   45179511.8715984     
   44892883.0258606     
   44588314.3686062     
   44264565.5949378     
   43920298.6769302     
   43554069.9772880     
   43164322.0883595     
   42749375.5402720     
   42307420.5797468     
   41836509.2937277     
   41334548.4450966     
   40799293.5128291     
   40228344.6074267     
   39619145.2000904     
   38968985.0033188     
   38275008.8613614     
   37534233.9046669     
   36743576.7229167     
   35899889.6655863     
   35000000.0000000     
   50000000.0000000     
   49993598.7888412     
   49987266.9230217     
   49980980.4903065     
   49974714.7899080     
   49968444.6233728     
   49962144.5465222     
   49955789.0385973     
   49949352.5904965     
   49942809.7311638     
   49936135.0109469     
   49929302.9555196     
   49922287.9993296     
   49915064.4044818     
   49907606.1691078     
   49899886.9281046     
   49891879.8483342     
   49883557.5197901     
   49874891.8437852     
   49865853.9188407     
   49856413.9246639     
   49846541.0043491     
   49836203.1447553     
   49825367.0548516     
   49813998.0417133     
   49802059.8837550     
   49789514.7007264     
   49776322.8199373     
   49762442.6381452     
   49747830.4785062     
   49732440.4419599     
   49716224.2524008     
   49699131.0949600     
   49681107.4467008     
   49662096.8990022     
   49642039.9708785     
   49620873.9124432     
   49598532.4976932     
   49574945.8057402     
   49550039.9895686     
   49523737.0313410     
   49495954.4832079     
   49466605.1925075     
   49435597.0101566     
   49402832.4809462     
   49368208.5143508     
   49331616.0343465     
   49292939.6066075     
   49252057.0413048     
   49208838.9695733     
   49163148.3915349     
   49114840.1935639     
   49063760.6322573     
   49009746.7823223     
   48952625.9453052     
   48892215.0157711     
   48828319.8011864     
   48760734.2913400     
   48689239.8726973     
   48613604.4825500     
   48533581.6972482     
   48448909.7481397     
   48359310.4580977     
   48264488.0906764     
   48164128.1029928     
   48057895.7923703     
   47945434.8255961     
   47826365.6383300     
   47700283.6907372     
   47566757.5638317     
   47425326.8792733     
   47275500.0235178     
   47116751.6552624     
   46948519.9731342     
   46770203.7185856     
   46581158.8871008     
   46380695.1191996     
   46168071.7415714     
   45942493.4281982     
   45703105.4518930     
   45448988.4986822     
   45179153.0214390     
   44892533.1157523     
   44587979.9109562     
   44264254.4834146     
   43920020.3185204     
   43553835.3735028     
   43164143.8261499     
   42749267.6362787     
   42307398.0989431     
   41836587.6339649     
   41334742.1413786     
   40799614.3694646     
   40228798.9169474     
   39619729.7718541     
   38969681.7521055     
   38275777.9235335     
   37535005.8962136     
   36744246.0451931     
   35900312.3512411     
   35000000.0000000     
   50000000.0000000     
   49993592.4136538     
   49987256.2395944     
   49980967.1386365     
   49974699.9711250     
   49968429.1509666     
   49962128.9262792     
   49955773.5494909     
   49949337.3529998     
   49942794.7598256     
   49936120.2527862     
   49929288.3170955     
   49922273.3652552     
   49915049.6496754     
   49907591.1665597     
   49899871.5534941     
   49891863.9824821     
   49883541.0496593     
   49874874.6625413     
   49865835.9253336     
   49856395.0225761     
   49846521.1011820     
   49836182.1507609     
   49825344.8819780     
   49813974.6026052     
   49802035.0908284     
   49789488.4653245     
   49776295.0515669     
   49762413.2437886     
   49747799.3619991     
   49732407.5034265     
   49716189.3877367     
   49699094.1953528     
   49681068.3981817     
   49662055.5820206     
   49641996.2598935     
   49620827.6755272     
   49598483.5961425     
   49574894.0936916     
   49549985.3136163     
   49523679.2301552     
   49495893.3871519     
   49466540.6232540     
   49435528.7803029     
   49402760.3936289     
   49368132.3628622     
   49331535.6017533     
   49292854.6653761     
   49251967.3529360     
   49208744.2842517     
   49163048.4477990     
   49114734.7180047     
   49063649.3392576     
   49009629.3738474     
   48952502.1107648     
   48892084.4319749     
   48828182.1324210     
   48760589.1896084     
   48689086.9781683     
   48613443.4242836     
   48533412.0942800     
   48448731.2110320     
   48359122.5910960     
   48264290.4946478     
   48163920.3793706     
   48057677.5483896     
   47945205.6811754     
   47826125.2350423     
   47700031.7034173     
   47566493.7154884     
   47425050.9601132     
   47275211.9150449     
   47116451.3605852     
   46948207.6547880     
   46769879.7453422     
   46580823.8913800     
   46380350.0667772     
   46167718.0152575     
   45942132.9269727     
   45702740.7065406     
   45448622.8041465     
   45178790.5847464     
   44892179.2162224     
   44587641.0662128     
   44263938.6100697     
   43919736.8698036     
   43553595.4269238     
   43163960.0816726     
   42749154.2684228     
   42307370.3834468     
   41836661.2396758     
   41334931.9395230     
   40799932.5650266     
   40229252.2540360     
   39620315.5218657     
   38970382.2084097     
   38276553.3279628     
   37535786.3697692     
   36744924.4506206     
   35900741.7604898     
   35000000.0000000     
   50000000.0000000     
   49993586.0158032     
   49987245.5372571     
   49980953.7877619     
   49974685.1787357     
   49968413.7298691     
   49962113.3785295     
   49955758.1495429     
   49949322.2170983     
   49942779.8989742     
   49936105.6112141     
   49929273.7992695     
   49922258.8542967     
   49915035.0195090     
   49907576.2895856     
   49899856.3051232     
   49891848.2435179     
   49883524.7072409     
   49874857.6101566     
   49865818.0622608     
   49856376.2530027     
   49846501.3331668     
   49836161.2951466     
   49825322.8513245     
   49813951.3101800     
   49802010.4496742     
   49789462.3874112     
   49776267.4470257     
   49762384.0202225     
   49747768.4238604     
   49732374.7514526     
   49716154.7184328     
   49699057.5005143     
   49681029.5644460     
   49662014.4904428     
   49641952.7855372     
   49620781.6870685     
   49598434.9554808     
   49574842.6555633     
   49549930.9252115     
   49523621.7307327     
   49495832.6076537     
   49466476.3859164     
   49435460.8982664     
   49402688.6705466     
   49368056.5925070     
   49331455.5676276     
   49292770.1403245     
   49251878.0987659     
   49208650.0513666     
   49162948.9748479     
   49114629.7315588     
   49063538.5535215     
   49009512.4904187     
   48952378.8184593     
   48891954.4067390     
   48828045.0373595     
   48760444.6751662     
   48688934.6825138     
   48613282.9739581     
   48533243.1051952     
   48448553.2899219     
   48358935.3375609     
   48264093.5039662     
   48163713.2463030     
   48057459.8722567     
   47944977.0725687     
   47825885.3246106     
   47699780.1532782     
   47566230.2339376     
   47424775.3204469     
   47274923.9794667     
   47116151.1103454     
   46947895.2278797     
   46769555.4832535     
   46580488.3965483     
   46380004.2724823     
   46167363.2696799     
   45941771.0929685     
   45702374.2782521     
   45448255.0407596     
   45178425.6603513     
   44891822.3826089     
   44587298.8222456     
   44263618.8666457     
   43919449.0928020     
   43553350.7313610     
   43163771.2376494     
   42749035.5623445     
   42307337.2551085     
   41836729.5855813     
   41335116.9336607     
   40800246.7993743     
   40229702.9446729     
   39620900.4757583     
   38971084.2452353     
   38277333.0278118     
   37536573.6485823     
   36745610.8794032     
   35901177.4958498     
   35000000.0000000     
   50000000.0000000     
   49993579.6065630     
   49987234.8397116     
   49980940.4722783     
   49974670.4551801     
   49968398.4072112     
   49962097.9526308     
   49955742.8887289     
   49949307.2324949     
   49942765.1976679     
   49936091.1346161     
   49929259.4499425     
   49922244.5141843     
   49915020.5619224     
   49907561.5867424     
   49899841.2325761     
   49891832.6824532     
   49883508.5453564     
   49874840.7416240     
   49865800.3871297     
   49856357.6762900     
   49846481.7637982     
   49836140.6448549     
   49825301.0335723     
   49813928.2391440     
   49801986.0393098     
   49789436.5506028     
   49776240.0948213     
   49762355.0611450     
   49747737.7632880     
   49732342.2910557     
   49716120.3556603     
   49699021.1281175     
   49680991.0700333     
   49661973.7560566     
   49641909.6872477     
   49620736.0945779     
   49598386.7317347     
   49574791.6563654     
   49549876.9988389     
   49523564.7175504     
   49495772.3397259     
   49466412.6866153     
   49435393.5818780     
   49402617.5418728     
   49367981.4464666     
   49331376.1888567     
   49292686.3027792     
   49251789.5653302     
   49208556.5734692     
   49162850.2920944     
   49114525.5713860     
   49063428.6308823     
   49009396.5075116     
   48952256.4645171     
   48891825.3578988     
   48827908.9566413     
   48760301.2125963     
   48688783.4754413     
   48613123.6476257     
   48533075.2736462     
   48448376.5573481     
   48358749.3002266     
   48263897.7528836     
   48163507.3708797     
   48057243.4651990     
   47944749.7363960     
   47825646.6802227     
   47699529.8511285     
   47565967.9684840     
   47424500.8487002     
   47274637.1446144     
   47115851.8716078     
   46947583.6979373     
   46769231.9747653     
   46580153.4794321     
   46379658.8437324     
   46167008.6374948     
   45941409.0767990     
   45702007.3259678     
   45447886.3633363     
   45178059.3831514     
   44891463.7102224     
   44586954.2106991     
   44263296.1921695     
   43919157.7997880     
   43553101.9329785     
   43163577.7300015     
   42748911.6959840     
   42307298.5848522     
   41836792.1892516     
   41335296.2508160     
   40800555.7908605     
   40230149.3140479     
   39621482.6345985     
   38971785.6852040     
   38278114.9043351     
   37537365.9772121     
   36746304.2095068     
   35901619.1316583     
   35000000.0000000     
   50000000.0000000     
   49993573.1974285     
   49987224.1711285     
   49980927.2273192     
   49974655.8433056     
   49968383.2302941     
   49962082.6978622     
   49955727.8167318     
   49949292.4484334     
   49942750.7043834     
   49936076.8707113     
   49929245.3162937     
   49922230.3918944     
   49915006.3240856     
   49907547.1058126     
   49899826.3846664     
   49891817.3495376     
   49883492.6160760     
   49874824.1111973     
   49865782.9567188     
   49856339.3520644     
   49846462.4558581     
   49836120.2661186     
   49825279.4986929     
   49813905.4634908     
   49801961.9380331     
   49789411.0377858     
   49776213.0827180     
   49762326.4594950     
   49747707.4787006     
   49732310.2264521     
   49716086.4097632     
   49698985.1949801     
   49680953.0385969     
   49661933.5097317     
   49641867.1035103     
   49620691.0445766     
   49598339.0799040     
   49574741.2600419     
   49549823.7078776     
   49523508.3739382     
   49495712.7771935     
   49466349.7302435     
   49435327.0477005     
   49402547.2364744     
   49367907.1665787     
   49331297.7209507     
   49292603.4226597     
   49251702.0377316     
   49208464.1516589     
   49162752.7174879     
   49114422.5731801     
   49063319.9257163     
   49009281.7991667     
   48952135.4436706     
   48891697.7019522     
   48827774.3296499     
   48760159.2653351     
   48688633.8456532     
   48612965.9605129     
   48532909.1426839     
   48448201.5855241     
   48358565.0818390     
   48263703.8760701     
   48163303.4210973     
   48057029.0299340     
   47944524.4114574     
   47825410.0780608     
   47699281.6117267     
   47565707.7734976     
   47424228.4396593     
   47274352.3461762     
   47115554.6210149     
   46947274.0820338     
   46768910.2761022     
   46579820.2331570     
   46379314.9070655     
   46166655.2736073     
   45941048.0547611     
   45701641.0380348     
   45447517.9600743     
   45177692.9255947     
   44891104.3361878     
   44586608.3092550     
   44262971.5756992     
   43918863.8565780     
   43552849.7341859     
   43163380.0523652     
   42748782.9047049     
   42307254.2983221     
   41836848.6170735     
   41335469.0568078     
   40800858.2815104     
   40230589.6899569     
   39622059.9749414     
   38972484.2953388     
   38278896.7550495     
   37538161.5044934     
   36747003.2401189     
   35902066.2050234     
   35000000.0000000     
   50000000.0000000     
   49993566.8002158     
   49987213.5563172     
   49980914.0887288     
   49974641.3864902     
   49968368.2466545     
   49962067.6634435     
   49955712.9829309     
   49949277.9136696     
   49942736.4669787     
   49936062.8665126     
   49929231.4447413     
   49922216.5336114     
   49914992.3523639     
   49907532.8937737     
   49899811.8094100     
   49891802.2942347     
   49883476.9706979     
   49874807.7723721     
   49865765.8270616     
   49856321.3392180     
   49846443.4714017     
   49836100.2244486     
   49825258.3159369     
   49813883.0564905     
   49801938.2234123     
   49789385.9311074     
   49776186.4977271     
   49762298.3074409     
   49747677.6677267     
   49732278.6610445     
   49716052.9902468     
   49698949.8170524     
   49680915.5928924     
   49661893.8814067     
   49641825.1718442     
   49620646.6825830     
   49598292.1539472     
   49574691.6294560     
   49549771.2245843     
   49523452.8820631     
   49495654.1126768     
   49466287.7204472     
   49435261.5110092     
   49402477.9818913     
   49367833.9933167     
   49331220.4180202     
   49292521.7684547     
   49251615.7996160     
   49208373.0855578     
   49162656.5674873     
   49114321.0711413     
   49063212.7909140     
   49009168.7379607     
   48952016.1492263     
   48891571.8540286     
   48827641.5944815     
   48760019.2956401     
   48688486.2808141     
   48612810.4269877     
   48532745.2547249     
   48448028.9463055     
   48358383.2851238     
   48263512.5085851     
   48163102.0658330     
   48056817.2706460     
   47944301.8387169     
   47825176.2972939     
   47699036.2537855     
   47565450.5084329     
   47423958.9945126     
   47274070.5277683     
   47115260.3448961     
   46946967.4089450     
   46768591.4574906     
   46579489.7674528     
   46378973.6085492     
   46166304.3557145     
   45940689.2295446     
   45701276.6331229     
   45447151.0537234     
   45177327.4991562     
   44890745.4412880     
   44586262.2439115     
   44262646.0591066     
   43918568.1858847     
   43552594.8976181     
   43163178.7607343     
   42748649.4865946     
   42307204.3817633     
   41836898.4905207     
   41335634.5625394     
   40801153.0426771     
   40231022.4067595     
   39622630.4494694     
   38973177.7822616     
   38279676.2817523     
   37538958.2654310     
   36747706.6734550     
   35902518.2056429     
   35000000.0000000     
   50000000.0000000     
   49993560.4271705     
   49987203.0209108     
   49980901.0932420     
   49974627.1287666     
   49968353.5041253     
   49962052.8985478     
   49955698.4363856     
   49949263.6764393     
   49942722.5326530     
   49936049.1682839     
   49929217.8809007     
   49922202.9846896     
   49914978.6922832     
   49907518.9967669     
   49899797.5539977     
   49891787.5651984     
   49883461.6597274     
   49874791.7778679     
   49865749.0534308     
   49856303.6958944     
   49846424.8717449     
   49836080.5846218     
   49825237.5538229     
   49813861.0906790     
   49801914.9722754     
   49789361.3119643     
   49776160.4260964     
   49762270.6963710     
   49747648.4271945     
   49732247.6974123     
   49716020.2057663     
   49698915.1094063     
   49680878.8547652     
   49661855.0000763     
   49641784.0287890     
   49620603.1530983     
   49598246.1067664     
   49574642.9263735     
   49549719.7200776     
   49523398.4229109     
   49495596.5375726     
   49466226.8596069     
   49435197.1857722     
   49402410.0043154     
   49367762.1657673     
   49331144.5327535     
   49292441.6071982     
   49251531.1331473     
   49208283.6732848     
   49162562.1570348     
   49114221.3979485     
   49063107.5778514     
   49009057.6949761     
   48951898.9730333     
   48891448.2278569     
   48827511.1879111     
   48759881.7645550     
   48688341.2675150     
   48612657.5605230     
   48532584.1515143     
   48447859.2111532     
   48358204.5127499     
   48263324.2858407     
   48162903.9748103     
   48056608.8929558     
   47944082.7612769     
   47824946.1200598     
   47698794.5999635     
   47565197.0378373     
   47423693.4208775     
   47273792.6409891     
   47114970.0393579     
   46946664.7192886     
   46768276.6033590     
   46579163.2089359     
   46378636.1141680     
   46165957.0848240     
   45940333.8309175     
   45700915.3611185     
   45446786.9027363     
   45176964.3558020     
   44890388.2518066     
   44585917.1912720     
   44262320.7398881     
   43918271.7707223     
   43552338.2501999     
   43162974.4782277     
   42748511.8079388     
   42307148.8881401     
   41836941.4927420     
   41335792.0307017     
   40801438.8812251     
   40231445.8099798     
   39623191.9883475     
   38973863.7879755     
   38280451.0784966     
   37539754.1618883     
   36748413.0945135     
   35902974.5641577     
   35000000.0000000     
   50000000.0000000     
   49993554.0910910     
   49987192.5915705     
   49980888.2786755     
   49974613.1149447     
   49968339.0508899     
   49962038.4523091     
   49955684.2258140     
   49949249.7844207     
   49942708.9479034     
   49936035.8214953     
   49929204.6695412     
   49922189.7896130     
   49914965.3884938     
   49907505.4600654     
   49899783.6647669     
   49891773.2102484     
   49883446.7328558     
   49874776.1796098     
   49865732.6903215     
   49856286.4794740     
   49846406.7174513     
   49836061.4106699     
   49825217.2801264     
   49813839.6378476     
   49801892.2606998     
   49789337.2609933     
   49776134.9533002     
   49762243.7168830     
   49747619.8531209     
   49732217.4372999     
   49715988.1641155     
   49698881.1862227     
   49680842.9451378     
   49661816.9937782     
   49641743.8098910     
   49620560.5995921     
   49598201.0901920     
   49574595.3114479     
   49549669.3643211     
   49523345.1762699     
   49495540.2420365     
   49466167.3488183     
   49435134.2846299     
   49402343.5285700     
   49367691.9216088     
   49331070.3163934     
   49292363.2044459     
   49251448.3189822     
   49208196.2114288     
   49162469.7995274     
   49114123.8847294     
   49063004.6363588     
   49008949.0397686     
   48951784.3054498     
   48891327.2357295     
   48827383.5453563     
   48759747.1318721     
   48688199.2912341     
   48612507.8736564     
   48532426.3740843     
   48447692.9510903     
   48358029.3672866     
   48263139.8435599     
   48162709.8185580     
   48056404.6038820     
   47943867.9243429     
   47824720.3314354     
   47698557.4768456     
   47564948.2313429     
   47423432.6328120     
   47273519.6454557     
   47114684.7103551     
   46946367.0656406     
   46767966.8125166     
   46578841.7013662     
   46378303.6101827     
   46165614.6857466     
   45939983.1163862     
   45700558.5039938     
   45446426.8023991     
   45176604.7894385     
   44890034.0413631     
   44585574.3808414     
   44261996.7739995     
   43917975.6578610     
   43552080.6872905     
   43162767.8999780     
   42748370.3088714     
   42307087.9434995     
   41836977.3754806     
   41335940.7829174     
   40801714.6462898     
   40231858.2616391     
   39623742.5014329     
   38974539.8864207     
   38281218.6196747     
   37540546.9419562     
   36749120.9483272     
   35903434.6386318     
   35000000.0000000     
   50000000.0000000     
   49993547.8054717     
   49987182.2962131     
   49980875.6841293     
   49974599.3907326     
   49968324.9355296     
   49962024.3738219     
   49955670.3995651     
   49949236.2846938     
   49942695.7584778     
   49936022.8707763     
   49929191.8545415     
   49922176.9919540     
   49914952.4847340     
   49907492.3280418     
   49899770.1871743     
   49891759.2763457     
   49883432.2389396     
   49874761.0287099     
   49865716.7914361     
   49856269.7465606     
   49846389.0683198     
   49836042.7658671     
   49825197.5618691     
   49813818.7690323     
   49801870.1640027     
   49789313.8580614     
   49776110.1640293     
   49762217.4587737     
   49747592.0407017     
   49732187.9816063     
   49715956.9722161     
   49698848.1607800     
   49680807.9839982     
   49661779.9895807     
   49641704.6496900     
   49620519.1644885     
   49598157.2549685     
   49574548.9442043     
   49549620.3261069     
   49523293.3207129     
   49495485.4149643     
   49466109.3878734     
   49435073.0188754     
   49402278.7780877     
   49367623.4970883     
   49330998.0187138     
   49292286.8242493     
   49251367.6362436     
   49208110.9950212     
   49162379.8067882     
   49114028.8610306     
   49062904.3146891     
   49008843.1403344     
   48951672.5353077     
   48891209.2884666     
   48827259.1008385     
   48759615.8560921     
   48688060.8362948     
   48612361.8779463     
   48532272.4627089     
   48447530.7366566     
   48357858.4511560     
   48262959.8177278     
   48162520.2683615     
   48056205.1117933     
   47943658.0751788     
   47824499.7193974     
   47698325.7149106     
   47564704.9636462     
   47423177.5508106     
   47273252.5088229     
   47114405.3737414     
   46946075.5126303     
   46767663.1983065     
   46578526.4058788     
   46377977.3034642     
   46165278.4075599     
   45939638.3718263     
   45700207.3766493     
   45446072.0859357     
   45176250.1373424     
   44889684.1327367     
   44585235.0973231     
   44261675.3787100     
   43917680.9613225     
   43551823.1769026     
   43162559.7981381     
   42748225.5091976     
   42307021.7535797     
   41837005.9663344     
   41336080.2073515     
   40801979.2366629     
   40232258.1464004     
   39624279.8814789     
   38975203.5810209     
   38281976.2484111     
   37541334.1779185     
   36749828.5141877     
   35903897.6986540     
   35000000.0000000     
   50000000.0000000     
   49993541.5846684     
   49987172.1642661     
   49980863.3501985     
   49974586.0028525     
   49968311.2070620     
   49962010.7121315     
   49955657.0055846     
   49949223.2236941     
   49942683.0093252     
   49936010.3598652     
   49929179.4788427     
   49922164.6343313     
   49914940.0237921     
   49907479.6441359     
   49899757.1657670     
   49891745.8095690     
   49883418.2259796     
   49874746.3754502     
   49865701.4096680     
   49856253.5529672     
   49846371.9833719     
   49836024.7127195     
   49825178.4653083     
   49813798.5545046     
   49801848.7567310     
   49789291.1822556     
   49776086.1421812     
   49762192.0110297     
   49747565.0843009     
   49732159.4303748     
   49715926.7361060     
   49698816.1454434     
   49680774.0903877     
   49661744.1135696     
   49641666.6817055     
   49620478.9891518     
   49598114.7507393     
   49574503.9830238     
   49549572.7730389     
   49523243.0335793     
   49495432.2439734     
   49466053.1752402     
   49435013.5984331     
   49402215.9748894     
   49367557.1269993     
   49330927.8879949     
   49292212.7291311     
   49251289.3624942     
   49208028.3175076     
   49162292.4890364     
   49113936.6547860     
   49062806.9594849     
   49008740.3630747     
   48951564.0498764     
   48891094.7953765     
   48827138.2869424     
   48759488.3943808     
   48687926.3858211     
   48612220.0839245     
   48532122.9568546     
   48447373.1378560     
   48357692.3665794     
   48262784.8445370     
   48162335.9962071     
   48056011.1263526     
   47943453.9630523     
   47824285.0747707     
   47698100.1484857     
   47564468.1144720     
   47422929.1017823     
   47272992.2067834     
   47114133.0553009     
   46945791.1370130     
   46767366.8887345     
   46578218.5011884     
   46377658.4217968     
   46164949.5240412     
   45939300.9120818     
   45699863.3277245     
   45445724.1255851     
   45175901.7815656     
   44889339.8996748     
   44584900.6829107     
   44261357.8354680     
   43917388.8659121     
   43551566.7639905     
   43162351.0270000     
   42748078.0143889     
   42306950.6106680     
   41837027.1763698     
   41336209.7668112     
   40802231.6088456     
   40232643.8786097     
   39624802.0084787     
   38975852.3034575     
   38282721.1655393     
   37542113.2427809     
   36750533.8762441     
   35904362.9064162     
   35000000.0000000     
   50000000.0000000     
   49993535.4440956     
   49987162.2269578     
   49980851.3191976     
   49974572.9991511     
   49968297.9149679     
   49961997.5162167     
   49955644.0913737     
   49949210.6471606     
   49942670.7445406     
   49935998.3315573     
   49929167.5843993     
   49922152.7583660     
   49914928.0474683     
   49907467.4508207     
   49899744.6441537     
   49891732.8550898     
   49883404.7410996     
   49874732.2692636     
   49865686.5970868     
   49856237.9537025     
   49846355.5208398     
   49836007.3129535     
   49825160.0559269     
   49813779.0637608     
   49801828.1126521     
   49789269.3118743     
   49776062.9708510     
   49762167.4618169     
   49747539.0774407     
   49732131.8827821     
   49715897.5609290     
   49698785.2516521     
   49680741.3823880     
   49661709.4908355     
   49641630.0384235     
   49620440.2138723     
   49598073.7260311     
   49574460.5851273     
   49549526.8715163     
   49523194.4909585     
   49495380.9153846     
   49465998.9080439     
   49434956.2318384     
   49402155.3395616     
   49367493.0446575     
   49330860.1709989     
   49292141.1800586     
   49251213.7737087     
   49207948.4707190     
   49162208.1548569     
   49113847.5922844     
   49062712.9157441     
   49008641.0727599     
   48951459.2348239     
   48890984.1642161     
   48827021.5347730     
   48759365.2025241     
   48687796.4216888     
   48612083.0010458     
   48531978.3951265     
   48447220.7241008     
   48357531.7155185     
   48262615.5603258     
   48162157.6747192     
   48055823.3584531     
   47943256.3391714     
   47824077.1911661     
   47697881.6156887     
   47564238.5685237     
   47422688.2190143     
   47272739.7230499     
   47113868.7907565     
   46945515.0277180     
   46767079.0265718     
   46577919.1837643     
   46377348.2141508     
   46164629.3340689     
   45938972.0815319     
   45699527.7403757     
   45445384.3336455     
   45175561.1503131     
   44889002.7686778     
   44584572.5395694     
   44261045.4927720     
   43917100.6307808     
   43551312.5748004     
   43162142.5282210     
   42747928.5217449     
   42306874.9007091     
   41837041.0080941     
   41336329.0073547     
   40802470.7858148     
   40233013.9103101     
   39625306.7552899     
   38976483.4139328     
   38283450.4195133     
   37542881.2854179     
   36751234.8897781     
   35904829.2939423     
   35000000.0000000     
   50000000.0000000     
   49993529.4004624     
   49987152.5176461     
   49980839.6353940     
   49974560.4286994     
   49968285.1092061     
   49961984.8349599     
   49955631.7039394     
   49949198.6000787     
   49942659.0073074     
   49935986.8276491     
   49929156.2121292     
   49922141.4046368     
   49914916.5965353     
   49907455.7895692     
   49899732.6649768     
   49891720.4571478     
   49883391.8305263     
   49874718.7587170     
   49865672.4049222     
   49856223.0029575     
   49846339.7381547     
   49835990.6275054     
   49825142.3984230     
   49813760.3655132     
   49801808.3047444     
   49789248.3244173     
   49776040.7323215     
   49762143.8984717     
   49747514.1127922     
   49732105.4371280     
   49715869.5509233     
   49698755.5899090     
   49680709.9771104     
   49661676.2454613     
   49641594.8512829     
   49620402.9778520     
   49598034.3282396     
   49574418.9065601     
   49549482.7867165     
   49523147.8676708     
   49495331.6142024     
   49465946.7820460     
   49434901.1262160     
   49402097.0912343     
   49367431.4818779     
   49330795.1129453     
   49292072.4364176     
   49251141.1442458     
   49207871.7448416     
   49162127.1111685     
   49113761.9981360     
   49062622.5267839     
   49008545.6324913     
   48951358.4741768     
   48890877.8011471     
   48826909.2739101     
   48759246.7348795     
   48687671.4244747     
   48611951.1376333     
   48531839.3152110     
   48447074.0641503     
   48357377.0996106     
   48262452.6015110     
   48161985.9770891     
   48055642.5201456     
   47943065.9566094     
   47823876.8649070     
   47697670.9583568     
   47564017.2154181     
   47422455.8421163     
   47272496.0493165     
   47113613.6257579     
   46945248.2858728     
   46766800.7694301     
   46577629.6679769     
   46377047.9509231     
   46164319.1619872     
   45938653.2546197     
   45699202.0330160     
   45445054.1634821     
   45175229.7192861     
   44888674.2207593     
   44584252.1313007     
   44260739.7690423     
   43916817.5930090     
   43551061.8212754     
   43161935.3361508     
   42747777.8267197     
   42306795.1106610     
   41837047.5637945     
   41336437.5674267     
   40802695.8665359     
   40233366.7403024     
   39625791.9946788     
   38977094.2032012     
   38284160.8977064     
   37543635.2045100     
   36751929.1423653     
   35905295.7353852     
   35000000.0000000     
   50000000.0000000     
   49993523.4720594     
   49987143.0721961     
   49980828.3452499     
   49974548.3418789     
   49968272.8402125     
   49961972.7171073     
   49955619.8897368     
   49949187.1266172     
   49942647.8398349     
   49935975.8888801     
   49929145.4018611     
   49922130.6126339     
   49914905.7106985     
   49907444.7008203     
   49899721.2698826     
   49891708.6590270     
   49883379.5395685     
   49874705.8914937     
   49865658.8835500     
   49856208.7540929     
   49846324.6919352     
   49835974.7165112     
   49825125.5567004     
   49813742.5276806     
   49801789.4051885     
   49789228.2965771     
   49776019.5080545     
   49762121.4074906     
   49747490.2821648     
   49732080.1908256     
   49715842.8094115     
   49698727.2697686     
   49680679.9906828     
   49661644.5005092     
   49641561.2506625     
   49620367.4191904     
   49597996.7036142     
   49574379.1021757     
   49549440.6825781     
   49523103.3372504     
   49495284.5240966     
   49465896.9916246     
   49434848.4872592     
   49402041.4475587     
   49367372.6689506     
   49330732.9574852     
   49292006.7559849     
   49251071.7468195     
   49207798.4283865     
   49162049.6631915     
   49113680.1952376     
   49062536.1342048     
   49008454.4036624     
   48951262.1502789     
   48890776.1106923     
   48826801.9323607     
   48759133.4443256     
   48687551.8734021     
   48611825.0008205     
   48531706.2538135     
   48446933.7260450     
   48357229.1200992     
   48262296.6045137     
   48161821.5769975     
   48055469.3245565     
   47942883.5702218     
   47823684.8949436     
   47697469.0219626     
   47563804.9496046     
   47422232.9169496     
   47272262.1852021     
   47113368.6158465     
   46944992.0248019     
   46766533.2898087     
   46577351.1862109     
   46376758.9241431     
   46164020.3579356     
   45938345.8363430     
   45698887.6600150     
   45444735.1104954     
   45174909.0129883     
   44888355.7931714     
   44583940.9863838     
   44260442.1554829     
   43916541.1712050     
   43550815.8055091     
   43161730.5832521     
   42747626.8294054     
   42306711.8360988     
   41837047.0542462     
   41336535.1875349     
   40802906.0362586     
   40233700.9243211     
   39626255.6079152     
   38977681.8966518     
   38284849.3196495     
   37544371.6216301     
   36752613.9090306     
   35905760.9129601     
   35000000.0000000     
   50000000.0000000     
   49993517.6791109     
   49987133.9294116     
   49980817.4976669     
   49974536.7904496     
   49968261.1588822     
   49961961.2112153     
   49955608.6946030     
   49949176.2700590     
   49942637.2832921     
   49935965.5548723     
   49929135.1922805     
   49922120.4207118     
   49914895.4285557     
   49907434.2239440     
   49899710.4994934     
   49891697.5030313     
   49883367.9125967     
   49874693.7143758     
   49865646.0824769     
   49856195.2596259     
   49846310.4379758     
   49835959.6392957     
   49825109.5938591     
   49813725.6173791     
   49801771.4853580     
   49789209.3042304     
   49775999.3786815     
   49762100.0745222     
   49747467.6764969     
   49732056.2403908     
   49715817.4387894     
   49698700.3998265     
   49680651.5382384     
   49661614.3780083     
   49641529.3658670     
   49620333.6748707     
   49597960.9972429     
   49574341.3256193     
   49549400.7217841     
   49523061.0719266     
   49495239.8273830     
   49465849.7297539     
   49434798.5192075     
   49401988.6246834     
   49367316.8346158     
   49330673.9466745     
   49291944.3949008     
   49251005.8524697     
   49207728.8081580     
   49161976.1144142     
   49113602.5047373     
   49062454.0778520     
   49008367.7459181     
   48951170.6437472     
   48890679.4956886     
   48826699.9365095     
   48759025.7822085     
   48687438.2462837     
   48611705.0964897     
   48531579.7465929     
   48446800.2770359     
   48357088.3777578     
   48262148.2056784     
   48161665.1485287     
   48055304.4857981     
   47942709.9365519     
   47823502.0827568     
   47697276.6555164     
   47563602.6702704     
   47422020.3955368     
   47272039.1381716     
   47113134.8263975     
   46944747.3699996     
   46766277.7751119     
   46577084.9889475     
   46376482.4476424     
   46163734.2981372     
   45938051.2627011     
   45698586.1123546     
   45444428.7130438     
   45174600.6059880     
   44888049.0810926     
   44583640.6995868     
   44260154.2189283     
   43916272.8691105     
   43550575.9242376     
   43161529.5056076     
   42747476.5411674     
   42306625.7890602     
   41837039.8077912     
   41336621.7204765     
   40803100.5776194     
   40234015.0863846     
   39626695.4950396     
   38978243.6607242     
   38285512.2328799     
   37545086.8540997     
   36753286.1004228     
   35906223.2745888     
   35000000.0000000     
   50000000.0000000     
   49993512.0442142     
   49987125.1315316     
   49980807.1442279     
   49974525.8275939     
   49968250.1165326     
   49961950.3655842     
   49955598.1636809     
   49949166.0727256     
   49942627.3777369     
   49935955.8640662     
   49929125.6208730     
   49922110.8660406     
   49914885.7875557     
   49907424.3972075     
   49899700.3933774     
   49891687.0304602     
   49883356.9930228     
   49874682.2732282     
   49865634.0503263     
   49856182.5712186     
   49846297.0312369     
   49835945.4543638     
   49825094.5721866     
   49813709.7009137     
   49801754.6158112     
   49789191.4224291     
   49775980.4239951     
   49762079.9843573     
   49747446.3858469     
   49732033.6814325     
   49715793.5405157     
   49698675.0877075     
   49680624.7339036     
   49661585.9989422     
   49641499.3251140     
   49620301.8807447     
   49597927.3530369     
   49574305.7293126     
   49549363.0657448     
   49523021.2426065     
   49495197.7050039     
   49465805.1879838     
   49434751.4248255     
   49401938.8372317     
   49367264.2060399     
   49330618.3209488     
   49291885.6076412     
   49250943.7305317     
   49207663.1692224     
   49161906.7665587     
   49113529.2459980     
   49062376.6957762     
   49008286.0171126     
   48951084.3334273     
   48890588.3572389     
   48826603.7110666     
   48758924.1982856     
   48687331.0194613     
   48611591.9292075     
   48531460.3280910     
   48446674.2835093     
   48356955.4728094     
   48262008.0411865     
   48161517.3660779     
   48055148.7188701     
   47942545.8137267     
   47823329.2322494     
   47697094.7114549     
   47563411.2812285     
   47421819.2359545     
   47271827.9234384     
   47112913.3325385     
   46944515.4590753     
   46766035.4276367     
   46576832.3448114     
   46376219.8571866     
   46163462.3851472     
   45937771.0010995     
   45698298.9182366     
   45444136.5533177     
   45174306.1241324     
   44887755.7392697     
   44583352.9343403     
   44259877.6046669     
   43916014.2792023     
   43550343.6733606     
   43161333.4485029     
   42747328.0914225     
   42306537.8061283     
   41837026.2797861     
   41336697.1421220     
   40803278.8825732     
   40234307.9313729     
   39627109.5869117     
   38978776.6119118     
   38286146.0121630     
   37545776.8886029     
   36753942.2030080     
   35906680.9806346     
   35000000.0000000     
   50000000.0000000     
   49993506.5928938     
   49987116.7247961     
   49980797.3394242     
   49974515.5079293     
   49968239.7648458     
   49961940.2281785     
   49955588.3413338     
   49949156.5758949     
   49942618.1620407     
   49935946.8536540     
   49929116.7238672     
   49922101.9845570     
   49914876.8239567     
   49907415.2577397     
   49899690.9900211     
   49891677.2815853     
   49883346.8232809     
   49874671.6129815     
   49865622.8348247     
   49856170.7396652     
   49846284.5258332     
   49835932.2193901     
   49825080.5531485     
   49813694.8437698     
   49801738.8662829     
   49789174.7253917     
   49775962.7229407     
   49762061.2209201     
   49747426.4993831     
   49732012.6086427     
   49715771.2151014     
   49698651.4400553     
   49680599.6907865     
   49661559.4832360     
   49641471.2555207     
   49620272.1715197     
   49597895.9137160     
   49574272.4644371     
   49549327.8745804     
   49522984.0188557     
   49495158.3365086     
   49465763.5564189     
   49434707.4053799     
   49401892.2982779     
   49367215.0087895     
   49330566.3190956     
   49291830.6469884     
   49250885.6486064     
   49207601.7948744     
   49161841.9195457     
   49113460.7365593     
   49062304.3241938     
   49008209.5732660     
   48951003.5963464     
   48890503.0946617     
   48826513.6790134     
   48758829.1406674     
   48687230.6677423     
   48611486.0021558     
   48531348.5316596     
   48446556.3109066     
   48356831.0048392     
   48261876.7469624     
   48161378.9042508     
   48055002.7395515     
   47942391.9613428     
   47823167.1496259     
   47696924.0455166     
   47563231.6907913     
   47421630.4022073     
   47271629.5638448     
   47112705.2190435     
   46944297.4416721     
   46765807.4645283     
   46576594.5405831     
   46375972.5105674     
   46163206.0480560     
   45937506.5507034     
   45698027.6436399     
   45443860.2581603     
   45174027.2457081     
   44887477.4836101     
   44583079.4248672     
   44259614.0392318     
   43915767.0862842     
   43550120.6524839     
   43161143.8720754     
   42747182.7345500     
   42306448.8567433     
   41837007.0624143     
   41336761.5627575     
   40803440.4651651     
   40234578.2588738     
   39627495.8591388     
   38979277.8285678     
   38286746.8629171     
   37546437.3570550     
   36754578.2103685     
   35907131.8361024     
   35000000.0000000     
   50000000.0000000     
   49993501.3543101     
   49987108.7600893     
   49980788.1408525     
   49974505.8874862     
   49968230.1557896     
   49961930.8465309     
   49955579.2710501     
   49949147.8197131     
   49942609.6738100     
   49935938.5595107     
   49929108.5361745     
   49922093.8109137     
   49914868.5727841     
   49907406.8414968     
   49899682.3267995     
   49891668.2956266     
   49883337.4448077     
   49874661.7776163     
   49865612.4827882     
   49856159.8148817     
   49846272.9750249     
   49835919.9912102     
   49825067.5973806     
   49813681.1106049     
   49801724.3056765     
   49789159.2864965     
   49775946.3536079     
   49762043.8672601     
   49747408.1053755     
   49731993.1157871     
   49715750.5621003     
   49698629.5625208     
   49680576.5209649     
   49661534.9497443     
   49641445.2830905     
   49620244.6807432     
   49597866.8207931     
   49574241.6809180     
   49549295.3071040     
   49522949.5688805     
   49495121.9000341     
   49465725.0236975     
   49434666.6606179     
   49401849.2193230     
   49367169.4668064     
   49330518.1782271     
   49291779.7640023     
   49250831.8725282     
   49207544.9666035     
   49161781.8714591     
   49113397.2920993     
   49062237.2974446     
   49008138.7685200     
   48950928.8076654     
   48890424.1054388     
   48826430.2615463     
   48758741.0557563     
   48687137.6643339     
   48611387.8170602     
   48531244.8893808     
   48446446.9236391     
   48356715.5727035     
   48261754.9585743     
   48161250.4377554     
   48054867.2642852     
   47942249.1403420     
   47823016.6432610     
   47696765.5166033     
   47563064.8116269     
   47421454.8640833     
   47271445.0897203     
   47112511.5802025     
   46944094.4793563     
   46765595.1177031     
   46576372.8811732     
   46375741.7876532     
   46162966.7426465     
   45937259.4427431     
   45697773.8928221     
   45443601.4998303     
   45173765.7025426     
   44887216.0927142     
   44582821.9782590     
   44259365.3331503     
   43915533.0710558     
   43549908.5694700     
   43160962.3570197     
   42747041.8569266     
   42306360.0517322     
   41836982.8948542     
   41336815.2389833     
   40803584.9751496     
   40234824.9783265     
   39627852.3479758     
   38979744.3656673     
   38287310.8296589     
   37547063.5168853     
   36755189.5450135     
   35907573.2032194     
   35000000.0000000     
   50000000.0000000     
   49993496.3621792     
   49987101.2936579     
   49980779.6093604     
   49974497.0236432     
   49968221.3415146     
   49961922.2676320     
   49955570.9953384     
   49949139.8430994     
   49942601.9493020     
   49935931.0161216     
   49929101.0913283     
   49922086.3784278     
   49914861.0677879     
   49907399.1832270     
   49899674.4399480     
   49891660.1107290     
   49883328.8980233     
   49874652.8101472     
   49865603.0401092     
   49856149.8458939     
   49846262.4312072     
   49835908.8258124     
   49825055.7646808     
   49813668.5652414     
   49801711.0020561     
   49789145.1782723     
   49775931.3932227     
   49762028.0055429     
   49747391.2911861     
   49731975.2956956     
   49715731.6800979     
   49698609.5597519     
   49680555.3354749     
   49661512.5162386     
   49641421.5326994     
   49620219.5407895     
   49597840.2145587     
   49574213.5274079     
   49549265.5208042     
   49522918.0595092     
   49495088.5722845     
   49465689.7769708     
   49434629.3887440     
   49401809.8102710     
   49367127.8023813     
   49330474.1337529     
   49291733.2079908     
   49250782.6663334     
   49207492.9640607     
   49161726.9185082     
   49113339.2263946     
   49062175.9479493     
   49008073.9550911     
   48950860.3406285     
   48890351.7851616     
   48826353.8780176     
   48758660.3881828     
   48687052.4807731     
   48611297.8741143     
   48531149.9319861     
   48446346.6849993     
   48356609.7744310     
   48261643.3111278     
   48161132.6412872     
   48054743.0100526     
   47942118.1128770     
   47822878.5235549     
   47696619.9866277     
   47562911.5606002     
   47421293.5969916     
   47271275.5387196     
   47112333.5196656     
   46943907.7454776     
   46765399.6337391     
   46576168.6895598     
   46375529.0903966     
   46162745.9515038     
   45937031.2407643     
   45697539.3087631     
   45443361.9967019     
   45173523.2810400     
   44886973.4093446     
   44582582.4764934     
   44259133.3836433     
   43915314.1136500     
   43549709.2449863     
   43160790.6103354     
   42746906.9840700     
   42306272.6520467     
   41836954.6737947     
   41336858.5861622     
   40803712.2124537     
   40235047.1254699     
   39628177.1682780     
   38980173.2726219     
   38287833.8101391     
   37547650.2387198     
   36755770.9708885     
   35908001.8871470     
   35000000.0000000     
   50000000.0000000     
   49993491.6559867     
   49987094.3878931     
   49980771.8091110     
   49974488.9750198     
   49968213.3742296     
   49961914.5378034     
   49955563.5556119     
   49949132.6836447     
   49942595.0233370     
   49935924.2565078     
   49929094.4214208     
   49922079.7190290     
   49914854.3413998     
   49907392.3164356     
   49899667.3645341     
   49891652.7639396     
   49883321.2223127     
   49874644.7526083     
   49865594.5517443     
   49856140.8808272     
   49846252.9459015     
   49835898.7783290     
   49825045.1140011     
   49813657.2706589     
   49801699.0226392     
   49789132.4723921     
   49775917.9181393     
   49762013.7170428     
   49747376.1432603     
   49731959.2402525     
   49715714.6667019     
   49698591.5353825     
   49680536.2442994     
   49661492.2993948     
   49641400.1280833     
   49620196.8828451     
   49597816.2340666     
   49574188.1512707     
   49549238.6718272     
   49522889.6561735     
   49495058.5285123     
   49465658.0018810     
   49434595.7863974     
   49401774.2794044     
   49367090.2361281     
   49330434.4193514     
   49291691.2264790     
   49250738.2922282     
   49207446.0650225     
   49161677.3549910     
   49113286.8512798     
   49062120.6061663     
   49008015.4832236     
   48950798.5665122     
   48890286.5274751     
   48826284.9458754     
   48758587.5807394     
   48686975.5868552     
   48611216.6719013     
   48531064.1887698     
   48446256.1570659     
   48356514.2071209     
   48261542.4391529     
   48161026.1894060     
   48054630.6942400     
   47941999.6421665     
   47822753.6027783     
   47696488.3203469     
   47562772.8585974     
   47421147.5817790     
   47271121.9556373     
   47112172.1502613     
   46943738.4250001     
   46765222.2737306     
   46575983.3066854     
   46375335.8427964     
   46162545.1840723     
   45936823.5408216     
   45697325.5735458     
   45443143.5138980     
   45173301.8231468     
   44886751.3418235     
   44582362.8783811     
   44258920.1772649     
   43915112.1971273     
   43549524.6170394     
   43160630.4711047     
   42746779.7878795     
   42306188.0776937     
   41836923.4642820     
   41336892.1914035     
   40803822.1424795     
   40235243.8800865     
   39628468.5335822     
   38980561.6142140     
   38288311.5754883     
   37548192.0053719     
   36756316.4983831     
   35908413.9843307     
   35000000.0000000     
   50000000.0000000     
   49993487.2826124     
   49987088.1121402     
   49980764.8075327     
   49974481.8013260     
   49968206.3060511     
   49961907.7025544     
   49955556.9920637     
   49949126.3775036     
   49942588.9292067     
   49935918.3121484     
   49929088.5570389     
   49922073.8632062     
   49914848.4246902     
   49907386.2733503     
   49899661.1344294     
   49891646.2911852     
   49883314.4560083     
   49874637.6460382     
   49865587.0617023     
   49856132.9668967     
   49846244.5697470     
   49835889.9030290     
   49825035.7034407     
   49813647.2889871     
   49801688.4337899     
   49789121.2396649     
   49775906.0038330     
   49762001.0821340     
   49747362.7471188     
   49731945.0403877     
   49715699.6185321     
   49698575.5920218     
   49680519.3563565     
   49661474.4147813     
   49641381.1918248     
   49620176.8368948     
   49597795.0171178     
   49574165.6985653     
   49549214.9149601     
   49522864.5228897     
   49495031.9424970     
   49465629.8825402     
   49434566.0486292     
   49401742.8333591     
   49367056.9869566     
   49330399.2669417     
   49291654.0651790     
   49250699.0105547     
   49207404.5453560     
   49161633.4732550     
   49113240.4766063     
   49062071.6005455     
   49007963.7011405     
   48950743.8545720     
   48890228.7240201     
   48826223.8806002     
   48758523.0743121     
   48686907.4505588     
   48611144.7073116     
   48530988.1874991     
   48446175.9006053     
   48356429.4668340     
   48261452.9764860     
   48160931.7564057     
   48054531.0344971     
   47941894.4923404     
   47822642.6949043     
   47696371.3851822     
   47562649.6303337     
   47421017.8045290     
   47270985.3922003     
   47112028.5937885     
   46943587.7143017     
   46765064.3131079     
   46575818.0913126     
   46375163.4908132     
   46162365.9766609     
   45936637.9716128     
   45697134.4086709     
   45442947.8638505     
   45173103.2272408     
   44886551.8653504     
   44582165.2214364     
   44258727.7924717     
   43914929.4109147     
   43549356.7454814     
   43160483.9162854     
   42746662.0939573     
   42306107.9168427     
   41836890.5108832     
   41336916.8270656     
   40803914.9122335     
   40235414.5850044     
   39628724.7783550     
   38980906.4947782     
   38288739.7960825     
   37548682.9268337     
   36756819.2868098     
   35908804.6780513     
   35000000.0000000     
   50000000.0000000     
   49993483.2985474     
   49987082.5434547     
   49980758.6751180     
   49974475.5631784     
   49968200.1888269     
   49961901.8064227     
   49955551.3435321     
   49949120.9592799     
   49942583.6985783     
   49935913.2129012     
   49929083.5271983     
   49922068.8399545     
   49914843.3473248     
   49907381.0848861     
   49899655.7822817     
   49891640.7272509     
   49883308.6363720     
   49874631.5304663     
   49865580.6130327     
   49856126.1503978     
   49846237.3524920     
   49835882.2533102     
   49825027.5902391     
   49813638.6814991     
   49801679.3010118     
   49789111.5500294     
   49775895.7248925     
   49761990.1802830     
   49747351.1873486     
   49731932.7860677     
   49715686.6312109     
   49698561.8312437     
   49680504.7794884     
   49661458.9768461     
   49641364.8453393     
   49620159.5317072     
   49597776.7002457     
   49574146.3140292     
   49549194.4036129     
   49522842.8222400     
   49495008.9865257     
   49465605.6015086     
   49434540.3688785     
   49401715.6770995     
   49367028.2720462     
   49330368.9066542     
   49291621.9679584     
   49250665.0797582     
   49207368.6789820     
   49161595.5636586     
   49113200.4101995     
   49062029.2574832     
   49007918.9549938     
   48950696.5719882     
   48890178.7643740     
   48826171.0956404     
   48758467.3078094     
   48686848.5379671     
   48611082.4754574     
   48530922.4543198     
   48446106.4749684     
   48356356.1484789     
   48261375.5561441     
   48160850.0161774     
   48054444.7485854     
   47941803.4282750     
   47822546.6154285     
   47696270.0510246     
   47562542.8041454     
   47420905.2563406     
   47270866.9068374     
   47111903.9807819     
   46943456.8209429     
   46764927.0414210     
   46575674.4198391     
   46375013.5022355     
   46162209.8923923     
   45936476.1945500     
   45696967.5753010     
   45442776.9067844     
   45172929.4489371     
   44886377.0232342     
   44581991.6236616     
   44258558.4021109     
   43914767.9541789     
   43549207.8164739     
   43160353.0665047     
   42746555.8889934     
   42306033.9350917     
   41836857.2491462     
   41336933.4647501     
   40803990.8672677     
   40235558.7663179     
   39628944.3823520     
   38981205.0859673     
   38289114.0719897     
   37549116.7760399     
   36757271.5553163     
   35909167.9581241     
   35000000.0000000     
   50000000.0000000     
   49993479.7729712     
   49987077.7671441     
   49980753.4850512     
   49974470.3218950     
   49968195.0739264     
   49961896.8928008     
   49955546.6473573     
   49949116.4619064     
   49942579.3613945     
   49935908.9869208     
   49929079.3592767     
   49922064.6767205     
   49914839.1375213     
   49907376.7806116     
   49899651.3394885     
   49891636.1057578     
   49883303.7995786     
   49874626.4448997     
   49865575.2478154     
   49856120.4766972     
   49846231.3429866     
   49835875.8816930     
   49825020.8307695     
   49813631.5086053     
   49801671.6889419     
   49789103.4725473     
   49775887.1550132     
   49761981.0900415     
   49747341.5475953     
   49731922.5662864     
   49715675.7993535     
   49698550.3535770     
   49680492.6204499     
   49661446.0989056     
   49641351.2088625     
   49620145.0948209     
   49597761.4187009     
   49574130.1410620     
   49549177.2898009     
   49522824.7153534     
   49494989.8313726     
   49465585.3397727     
   49434518.9389492     
   49401693.0138932     
   49367004.3068186     
   49330343.5668016     
   49291595.1768091     
   49250636.7563523     
   49207338.7378385     
   49161563.9145305     
   49113166.9578149     
   49061993.9012745     
   49007881.5888127     
   48950657.0838095     
   48890137.0359893     
   48826127.0023451     
   48758420.7180885     
   48686799.3131886     
   48611030.4695842     
   48530867.5136591     
   48446048.4379830     
   48356294.8456933     
   48261310.8101939     
   48160781.6420640     
   48054372.5542190     
   47941727.2154176     
   47822466.1811779     
   47696185.1900262     
   47562453.3117637     
   47420810.9330878     
   47270767.5644254     
   47111799.4502495     
   46943346.9634038     
   46764811.7620851     
   46575553.6860669     
   46374887.3664969     
   46162078.5210943     
   45936339.9037649     
   45696826.8744320     
   45442632.5511191     
   45172782.5018053     
   44886228.9280309     
   44581844.2852354     
   44258414.2758168     
   43914630.1391177     
   43549080.1468963     
   43160240.1918351     
   42746463.3281963     
   42305968.0848699     
   41836825.3173372     
   41336943.2897583     
   40804050.5693959     
   40235676.1548190     
   39629125.9968307     
   38981454.6588161     
   38289429.9661192     
   37549487.0481984     
   36757664.5242894     
   35909496.2298133     
   35000000.0000000     
   50000000.0000000     
   49993476.7921033     
   49987073.8767776     
   49980749.3126932     
   49974466.1392786     
   49968191.0119927     
   49961893.0037518     
   49955542.9392266     
   49949112.9165187     
   49942575.9457708     
   49935905.6605735     
   49929076.0789456     
   49922061.3993484     
   49914835.8220062     
   49907373.3887148     
   49899647.8361703     
   49891632.4591436     
   49883299.9807000     
   49874622.4273100     
   49865571.0071501     
   49856115.9902250     
   49846226.5891759     
   49835870.8398138     
   49825015.4805334     
   49813625.8298477     
   49801665.6613445     
   49789097.0753964     
   49775880.3669899     
   49761973.8890383     
   49747333.9105545     
   49731914.4690565     
   49715667.2165581     
   49698541.2584940     
   49680482.9848973     
   49661435.8931314     
   49641340.4014373     
   49620133.6525300     
   49597749.3064358     
   49574117.3217092     
   49549163.7241272     
   49522810.3618869     
   49494974.6462785     
   49465569.2767231     
   49434501.9489865     
   49401675.0452858     
   49366985.3049097     
   49330323.4738486     
   49291573.9318145     
   49250614.2948846     
   49207314.9918430     
   49161538.8121290     
   49113140.4230947     
   49061965.8540649     
   49007851.9444510     
   48950625.7528957     
   48890103.9241310     
   48826092.0098951     
   48758383.7398800     
   48686760.2382723     
   48610989.1809780     
   48530823.8881238     
   48446002.3458409     
   48356246.1507196     
   48261259.3696143     
   48160727.3067081     
   48054315.1688964     
   47941666.6196008     
   47822402.2101066     
   47696117.6763775     
   47562382.0880736     
   47420735.8351590     
   47270688.4360127     
   47111716.1493832     
   46943259.3707872     
   46764719.7920883     
   46575457.3009291     
   46374786.5944398     
   46161973.4791310     
   45936230.8260455     
   45696714.1469846     
   45442516.7537840     
   45172664.4579914     
   44886109.7625802     
   44581725.4900961     
   44258297.7823044     
   43914518.3941602     
   43548976.1886818     
   43160147.7175361     
   42746386.7427499     
   42305912.5149550     
   41836796.5684250     
   41336947.7159905     
   40804094.8150997     
   40235766.7087401     
   39629268.4720648     
   38981652.6210783     
   38289683.0386842     
   37549787.0395683     
   36757988.4295998     
   35909779.7583682     
   35000000.0000000     
   50000000.0000000     
   49993474.4654690     
   49987070.9730794     
   49980746.2350852     
   49974463.0773625     
   49968188.0526546     
   49961890.1798182     
   49955540.2530089     
   49949110.3523244     
   49942573.4778881     
   49935903.2583521     
   49929073.7101019     
   49922059.0320249     
   49914833.4259724     
   49907370.9359697     
   49899645.3011443     
   49891629.8186421     
   49883297.2136898     
   49874619.5146223     
   49865567.9311478     
   49856112.7344662     
   49846223.1380934     
   49835867.1784193     
   49825011.5941542     
   49813621.7038939     
   49801661.2811055     
   49789092.4258653     
   49775875.4327106     
   49761968.6539725     
   49747328.3579647     
   49731908.5814012     
   49715660.9753974     
   49698534.6444013     
   49680475.9773771     
   49661428.4705392     
   49641332.5409005     
   49620125.3298704     
   49597740.4960895     
   49574107.9966457     
   49549153.8557649     
   49522799.9200063     
   49494963.5989302     
   49465557.5901325     
   49434489.5874523     
   49401661.9710744     
   49366971.4781424     
   49330308.8523826     
   49291558.4711175     
   49250597.9479012     
   49207297.7088539     
   49161520.5406008     
   49113121.1075218     
   49061945.4358013     
   49007830.3615339     
   48950602.9398590     
   48890079.8118117     
   48826066.5252321     
   48758356.8057094     
   48686731.7731225     
   48610959.0988714     
   48530792.0983947     
   48445968.7529816     
   48356210.6542758     
   48261221.8641524     
   48160687.6818933     
   48054273.3097242     
   47941622.4068482     
   47822355.5210811     
   47696068.3860708     
   47562330.0708550     
   47420680.9671764     
   47270630.5985181     
   47111655.2332413     
   46943195.2824904     
   46764652.4616604     
   46575386.6921690     
   46374712.7180263     
   46161896.4091717     
   45936150.7207008     
   45696631.2738159     
   45442431.5204408     
   45172577.4487386     
   44886021.7809315     
   44581637.6074105     
   44258211.3915480     
   43914435.2670574     
   43548898.5330658     
   43160078.2297429     
   42746328.6472723     
   42305869.5800871     
   41836773.0822695     
   41336948.4012965     
   40804124.6544615     
   40235830.6379948     
   39629370.8855907     
   38981796.5597824     
   38289868.8864432     
   37550009.9236456     
   36758232.6887947     
   35910005.8661545     
   35000000.0000000     
   50000000.0000000     
   49993472.9350777     
   49987069.1606236     
   49980744.3309301     
   49974461.1979707     
   49968186.2442448     
   49961888.4598156     
   49955538.6205797     
   49949108.7964687     
   49942571.9818824     
   49935901.8027882     
   49929072.2747972     
   49922057.5972249     
   49914831.9730359     
   49907369.4477034     
   49899643.7619005     
   49891628.2142643     
   49883295.5313689     
   49874617.7427038     
   49865566.0589215     
   49856110.7519553     
   49846221.0358547     
   49835864.9473611     
   49825009.2253733     
   49813619.1885326     
   49801658.6102271     
   49789089.5903471     
   49775872.4231502     
   49761965.4606069     
   49747324.9705991     
   49731904.9893455     
   49715657.1674083     
   49698530.6086293     
   49680471.7013157     
   49661423.9409761     
   49641327.7438702     
   49620120.2506055     
   49597735.1189726     
   49574102.3051592     
   49549147.8324394     
   49522793.5463668     
   49494956.8554398     
   49465550.4561331     
   49434482.0411021     
   49401653.9892824     
   49366963.0364982     
   49330299.9250826     
   49291549.0308872     
   49250587.9659111     
   49207287.1546319     
   49161509.3819383     
   49113109.3103738     
   49061932.9641814     
   49007817.1774017     
   48950589.0030033     
   48890065.0797257     
   48826050.9529857     
   48758340.3458170     
   48686714.3754095     
   48610940.7103443     
   48530772.6631180     
   48445948.2119717     
   48356188.9454205     
   48261198.9221749     
   48160663.4383776     
   48054247.6932325     
   47941595.3431685     
   47822326.9336521     
   47696038.1966493     
   47562298.2005067     
   47420647.3376961     
   47270595.1344067     
   47111617.8644020     
   46943155.9478420     
   46764611.1139012     
   46575343.3039730     
   46374667.2899933     
   46161848.9798953     
   45936101.3793508     
   45696580.1756446     
   45442378.9056098     
   45172523.6647990     
   44885967.3091533     
   44581583.0929177     
   44258157.6768323     
   43914383.4278530     
   43548849.9147257     
   43160034.4810839     
   42746291.7472501     
   42305841.8506589     
   41836757.1779659     
   41336947.2632598     
   40804141.4105823     
   40235868.4295628     
   39629432.5724946     
   38981884.2828073     
   38289983.2071490     
   37550148.7614228     
   36758386.3644424     
   35910157.7531152     
   35000000.0000000     
   50000000.0000000     
   49993472.3890660     
   49987068.5403700     
   49980743.6821697     
   49974460.5616023     
   49968185.6337244     
   49961887.8805341     
   49955538.0716666     
   49949108.2738854     
   49942571.4797345     
   49935901.3143616     
   49929071.7931686     
   49922057.1156564     
   49914831.4851941     
   49907368.9477644     
   49899643.2445765     
   49891627.6747808     
   49883294.9654121     
   49874617.1463538     
   49865565.4285789     
   49856110.0842689     
   49846220.3276533     
   49835864.1955916     
   49825008.4270448     
   49813618.3406685     
   49801657.7098230     
   49789088.6343342     
   49775871.4083643     
   49761964.3837607     
   49747323.8282585     
   49731903.7779080     
   49715655.8830839     
   49698529.2474222     
   49680470.2590076     
   49661422.4131094     
   49641326.1257323     
   49620118.5372121     
   49597733.3050517     
   49574100.3851339     
   49549145.8004105     
   49522791.3960943     
   49494954.5803240     
   49465548.0491945     
   49434479.4949600     
   49401651.2961324     
   49366960.1880885     
   49330296.9126888     
   49291545.8452854     
   49250584.5973495     
   49207283.5928005     
   49161505.6159365     
   49113105.3286766     
   49061928.7546025     
   49007812.7270551     
   48950584.2982624     
   48890060.1061808     
   48826045.6953985     
   48758334.7880750     
   48686708.5004787     
   48610934.5002230     
   48530766.0987929     
   48445941.2733789     
   48356181.6114145     
   48261191.1705120     
   48160655.2457197     
   48054239.0351810     
   47941586.1943405     
   47822317.2678162     
   47696027.9869414     
   47562287.4197549     
   47420635.9588872     
   47270583.1313409     
   47111605.2125891     
   46943142.6257048     
   46764597.1043683     
   46575328.5965547     
   46374651.8834507     
   46161832.8856280     
   45936084.6256386     
   45696562.8128856     
   45442361.0126934     
   45172505.3567320     
   44885948.7460147     
   44581564.4901377     
   44258139.3166641     
   43914365.6717149     
   43548833.2158022     
   43160019.3961966     
   42746278.9464498     
   42305832.1223860     
   41836751.4265041     
   41336946.4948367     
   40804146.7008992     
   40235880.8699182     
   39629453.1682757     
   38981913.8313838     
   38290021.9569381     
   37550196.2929015     
   36758439.1876028     
   35910212.7397541     
   35000000.0000000     
VECTORS u double 
    0.00000E+00         0.00000E+00         0.00000E+00
    0.00000E+00         0.00000E+00         0.00000E+00
    0.00000E+00         0.00000E+00         0.00000E+00
    0.00000E+00         0.00000E+00         0.00000E+00
    0.00000E+00         0.00000E+00         0.00000E+00
    0.00000E+00         0.00000E+00         0.00000E+00
    0.00000E+00         0.00000E+00         0.00000E+00
    0.00000E+00         0.00000E+00         0.00000E+00
    0.00000E+00         0.00000E+00         0.00000E+00
    0.00000E+00         0.00000E+00         0.00000E+00
    0.00000E+00         0.00000E+00         0.00000E+00
    0.00000E+00         0.00000E+00         0.00000E+00
    0.00000E+00         0.00000E+00         0.00000E+00
    0.00000E+00         0.00000E+00         0.00000E+00
    0.00000E+00         0.00000E+00         0.00000E+00
    0.00000E+00         0.00000E+00         0.00000E+00
    0.00000E+00         0.00000E+00         0.00000E+00
    0.00000E+00         0.00000E+00         0.00000E+00
    0.00000E+00         0.00000E+00         0.00000E+00
    0.00000E+00         0.00000E+00         0.00000E+00
    0.00000E+00         0.00000E+00         0.00000E+00
    0.00000E+00         0.00000E+00         0.00000E+00
    0.00000E+00         0.00000E+00         0.00000E+00
    0.00000E+00         0.00000E+00         0.00000E+00
    0.00000E+00         0.00000E+00         0.00000E+00
    0.00000E+00         0.00000E+00         0.00000E+00
    0.00000E+00         0.00000E+00         0.00000E+00
    0.00000E+00         0.00000E+00         0.00000E+00
    0.00000E+00         0.00000E+00         0.00000E+00
    0.00000E+00         0.00000E+00         0.00000E+00
    0.00000E+00         0.00000E+00         0.00000E+00
    0.00000E+00         0.00000E+00         0.00000E+00
    0.00000E+00         0.00000E+00         0.00000E+00
    0.00000E+00         0.00000E+00         0.00000E+00
    0.00000E+00         0.00000E+00         0.00000E+00
    0.00000E+00         0.00000E+00         0.00000E+00
    0.00000E+00         0.00000E+00         0.00000E+00
    0.00000E+00         0.00000E+00         0.00000E+00
    0.00000E+00         0.00000E+00         0.00000E+00
    0.00000E+00         0.00000E+00         0.00000E+00
    0.00000E+00         0.00000E+00         0.00000E+00
    0.00000E+00         0.00000E+00         0.00000E+00
    0.00000E+00         0.00000E+00         0.00000E+00
    0.00000E+00         0.00000E+00         0.00000E+00
    0.00000E+00         0.00000E+00         0.00000E+00
    0.00000E+00         0.00000E+00         0.00000E+00
    0.00000E+00         0.00000E+00         0.00000E+00
    0.00000E+00         0.00000E+00         0.00000E+00
    0.00000E+00         0.00000E+00         0.00000E+00
    0.00000E+00         0.00000E+00         0.00000E+00
    0.00000E+00         0.00000E+00         0.00000E+00
    0.00000E+00         0.00000E+00         0.00000E+00
    0.00000E+00         0.00000E+00         0.00000E+00
    0.00000E+00         0.00000E+00         0.00000E+00
    0.00000E+00         0.00000E+00         0.00000E+00
    0.00000E+00         0.00000E+00         0.00000E+00
    0.00000E+00         0.00000E+00         0.00000E+00
    0.00000E+00         0.00000E+00         0.00000E+00
    0.00000E+00         0.00000E+00         0.00000E+00
    0.00000E+00         0.00000E+00         0.00000E+00
    0.00000E+00         0.00000E+00         0.00000E+00
    0.00000E+00         0.00000E+00         0.00000E+00
    0.00000E+00         0.00000E+00         0.00000E+00
    0.00000E+00         0.00000E+00         0.00000E+00
    0.00000E+00         0.00000E+00         0.00000E+00
    0.00000E+00         0.00000E+00         0.00000E+00
    0.00000E+00         0.00000E+00         0.00000E+00
    0.00000E+00         0.00000E+00         0.00000E+00
    0.00000E+00         0.00000E+00         0.00000E+00
    0.00000E+00         0.00000E+00         0.00000E+00
    0.00000E+00         0.00000E+00         0.00000E+00
    0.00000E+00         0.00000E+00         0.00000E+00
    0.00000E+00         0.00000E+00         0.00000E+00
    0.00000E+00         0.00000E+00         0.00000E+00
    0.00000E+00         0.00000E+00         0.00000E+00
    0.00000E+00         0.00000E+00         0.00000E+00
    0.00000E+00         0.00000E+00         0.00000E+00
    0.00000E+00         0.00000E+00         0.00000E+00
    0.00000E+00         0.00000E+00         0.00000E+00
    0.00000E+00         0.00000E+00         0.00000E+00
    0.00000E+00         0.00000E+00         0.00000E+00
    0.00000E+00         0.00000E+00         0.00000E+00
    0.00000E+00         0.00000E+00         0.00000E+00
    0.00000E+00         0.00000E+00         0.00000E+00
    0.00000E+00         0.00000E+00         0.00000E+00
    0.00000E+00         0.00000E+00         0.00000E+00
    0.00000E+00         0.00000E+00         0.00000E+00
    0.00000E+00         0.00000E+00         0.00000E+00
    0.00000E+00         0.00000E+00         0.00000E+00
    0.00000E+00         0.00000E+00         0.00000E+00
    0.00000E+00         0.00000E+00         0.00000E+00
    0.00000E+00         0.00000E+00         0.00000E+00
    0.00000E+00         0.00000E+00         0.00000E+00
    0.00000E+00         0.00000E+00         0.00000E+00
    0.00000E+00         0.00000E+00         0.00000E+00
    0.00000E+00         0.00000E+00         0.00000E+00
    0.00000E+00         0.00000E+00         0.00000E+00
    0.00000E+00         0.00000E+00         0.00000E+00
    0.00000E+00         0.00000E+00         0.00000E+00
    0.00000E+00         0.00000E+00         0.00000E+00
    0.00000E+00         0.00000E+00         0.00000E+00
    0.00000E+00         0.16576E-05         0.00000E+00
    0.19200E-05         0.15256E-05         0.00000E+00
    0.32393E-05         0.12415E-05         0.00000E+00
    0.43744E-05         0.89895E-06         0.00000E+00
    0.53911E-05         0.49106E-06         0.00000E+00
    0.63396E-05         0.33003E-07         0.00000E+00
    0.72467E-05        -0.46656E-06         0.00000E+00
    0.81303E-05        -0.99799E-06         0.00000E+00
    0.90021E-05        -0.15536E-05         0.00000E+00
    0.98702E-05        -0.21270E-05         0.00000E+00
    0.10740E-04        -0.27136E-05         0.00000E+00
    0.11618E-04        -0.33102E-05         0.00000E+00
    0.12506E-04        -0.39151E-05         0.00000E+00
    0.13409E-04        -0.45275E-05         0.00000E+00
    0.14331E-04        -0.51476E-05         0.00000E+00
    0.15276E-04        -0.57763E-05         0.00000E+00
    0.16248E-04        -0.64150E-05         0.00000E+00
    0.17251E-04        -0.70656E-05         0.00000E+00
    0.18289E-04        -0.77303E-05         0.00000E+00
    0.19367E-04        -0.84115E-05         0.00000E+00
    0.20490E-04        -0.91118E-05         0.00000E+00
    0.21662E-04        -0.98340E-05         0.00000E+00
    0.22888E-04        -0.10581E-04         0.00000E+00
    0.24172E-04        -0.11355E-04         0.00000E+00
    0.25520E-04        -0.12160E-04         0.00000E+00
    0.26936E-04        -0.12999E-04         0.00000E+00
    0.28426E-04        -0.13875E-04         0.00000E+00
    0.29996E-04        -0.14791E-04         0.00000E+00
    0.31649E-04        -0.15751E-04         0.00000E+00
    0.33392E-04        -0.16758E-04         0.00000E+00
    0.35231E-04        -0.17815E-04         0.00000E+00
    0.37170E-04        -0.18927E-04         0.00000E+00
    0.39218E-04        -0.20098E-04         0.00000E+00
    0.41379E-04        -0.21330E-04         0.00000E+00
    0.43660E-04        -0.22630E-04         0.00000E+00
    0.46068E-04        -0.24001E-04         0.00000E+00
    0.48609E-04        -0.25448E-04         0.00000E+00
    0.51292E-04        -0.26975E-04         0.00000E+00
    0.54124E-04        -0.28590E-04         0.00000E+00
    0.57112E-04        -0.30296E-04         0.00000E+00
    0.60264E-04        -0.32100E-04         0.00000E+00
    0.63590E-04        -0.34009E-04         0.00000E+00
    0.67097E-04        -0.36029E-04         0.00000E+00
    0.70795E-04        -0.38167E-04         0.00000E+00
    0.74694E-04        -0.40431E-04         0.00000E+00
    0.78801E-04        -0.42830E-04         0.00000E+00
    0.83129E-04        -0.45371E-04         0.00000E+00
    0.87686E-04        -0.48065E-04         0.00000E+00
    0.92484E-04        -0.50922E-04         0.00000E+00
    0.97532E-04        -0.53952E-04         0.00000E+00
    0.10284E-03        -0.57168E-04         0.00000E+00
    0.10842E-03        -0.60581E-04         0.00000E+00
    0.11429E-03        -0.64205E-04         0.00000E+00
    0.12045E-03        -0.68056E-04         0.00000E+00
    0.12692E-03        -0.72149E-04         0.00000E+00
    0.13370E-03        -0.76500E-04         0.00000E+00
    0.14080E-03        -0.81130E-04         0.00000E+00
    0.14825E-03        -0.86057E-04         0.00000E+00
    0.15603E-03        -0.91304E-04         0.00000E+00
    0.16417E-03        -0.96895E-04         0.00000E+00
    0.17267E-03        -0.10286E-03         0.00000E+00
    0.18153E-03        -0.10922E-03         0.00000E+00
    0.19076E-03        -0.11601E-03         0.00000E+00
    0.20036E-03        -0.12326E-03         0.00000E+00
    0.21033E-03        -0.13102E-03         0.00000E+00
    0.22066E-03        -0.13932E-03         0.00000E+00
    0.23134E-03        -0.14821E-03         0.00000E+00
    0.24237E-03        -0.15774E-03         0.00000E+00
    0.25372E-03        -0.16796E-03         0.00000E+00
    0.26538E-03        -0.17894E-03         0.00000E+00
    0.27730E-03        -0.19075E-03         0.00000E+00
    0.28946E-03        -0.20345E-03         0.00000E+00
    0.30182E-03        -0.21714E-03         0.00000E+00
    0.31430E-03        -0.23190E-03         0.00000E+00
    0.32686E-03        -0.24783E-03         0.00000E+00
    0.33942E-03        -0.26505E-03         0.00000E+00
    0.35188E-03        -0.28366E-03         0.00000E+00
    0.36416E-03        -0.30380E-03         0.00000E+00
    0.37614E-03        -0.32561E-03         0.00000E+00
    0.38771E-03        -0.34924E-03         0.00000E+00
    0.39872E-03        -0.37484E-03         0.00000E+00
    0.40903E-03        -0.40256E-03         0.00000E+00
    0.41850E-03        -0.43258E-03         0.00000E+00
    0.42696E-03        -0.46505E-03         0.00000E+00
    0.43425E-03        -0.50011E-03         0.00000E+00
    0.44020E-03        -0.53791E-03         0.00000E+00
    0.44465E-03        -0.57853E-03         0.00000E+00
    0.44744E-03        -0.62203E-03         0.00000E+00
    0.44842E-03        -0.66838E-03         0.00000E+00
    0.44742E-03        -0.71749E-03         0.00000E+00
    0.44427E-03        -0.76913E-03         0.00000E+00
    0.43874E-03        -0.82293E-03         0.00000E+00
    0.43052E-03        -0.87834E-03         0.00000E+00
    0.41911E-03        -0.93461E-03         0.00000E+00
    0.40370E-03        -0.99075E-03         0.00000E+00
    0.38296E-03        -0.10456E-02         0.00000E+00
    0.35464E-03        -0.10977E-02         0.00000E+00
    0.31517E-03        -0.11458E-02         0.00000E+00
    0.25760E-03        -0.11877E-02         0.00000E+00
    0.17271E-03        -0.12242E-02         0.00000E+00
    0.00000E+00        -0.12419E-02         0.00000E+00
    0.00000E+00         0.31220E-05         0.00000E+00
    0.36758E-05         0.28952E-05         0.00000E+00
    0.63448E-05         0.23665E-05         0.00000E+00
    0.86178E-05         0.16912E-05         0.00000E+00
    0.10660E-04         0.88543E-06         0.00000E+00
    0.12563E-04        -0.26019E-07         0.00000E+00
    0.14382E-04        -0.10220E-05         0.00000E+00
    0.16152E-04        -0.20833E-05         0.00000E+00
    0.17896E-04        -0.31937E-05         0.00000E+00
    0.19630E-04        -0.43405E-05         0.00000E+00
    0.21368E-04        -0.55142E-05         0.00000E+00
    0.23118E-04        -0.67084E-05         0.00000E+00
    0.24889E-04        -0.79194E-05         0.00000E+00
    0.26689E-04        -0.91458E-05         0.00000E+00
    0.28526E-04        -0.10388E-04         0.00000E+00
    0.30408E-04        -0.11648E-04         0.00000E+00
    0.32343E-04        -0.12928E-04         0.00000E+00
    0.34340E-04        -0.14233E-04         0.00000E+00
    0.36408E-04        -0.15566E-04         0.00000E+00
    0.38554E-04        -0.16932E-04         0.00000E+00
    0.40790E-04        -0.18337E-04         0.00000E+00
    0.43122E-04        -0.19787E-04         0.00000E+00
    0.45562E-04        -0.21286E-04         0.00000E+00
    0.48119E-04        -0.22841E-04         0.00000E+00
    0.50802E-04        -0.24458E-04         0.00000E+00
    0.53621E-04        -0.26143E-04         0.00000E+00
    0.56588E-04        -0.27902E-04         0.00000E+00
    0.59711E-04        -0.29742E-04         0.00000E+00
    0.63002E-04        -0.31670E-04         0.00000E+00
    0.66472E-04        -0.33693E-04         0.00000E+00
    0.70132E-04        -0.35818E-04         0.00000E+00
    0.73994E-04        -0.38052E-04         0.00000E+00
    0.78069E-04        -0.40404E-04         0.00000E+00
    0.82371E-04        -0.42881E-04         0.00000E+00
    0.86911E-04        -0.45492E-04         0.00000E+00
    0.91705E-04        -0.48246E-04         0.00000E+00
    0.96765E-04        -0.51154E-04         0.00000E+00
    0.10211E-03        -0.54224E-04         0.00000E+00
    0.10774E-03        -0.57468E-04         0.00000E+00
    0.11369E-03        -0.60896E-04         0.00000E+00
    0.11997E-03        -0.64521E-04         0.00000E+00
    0.12659E-03        -0.68356E-04         0.00000E+00
    0.13357E-03        -0.72414E-04         0.00000E+00
    0.14093E-03        -0.76710E-04         0.00000E+00
    0.14869E-03        -0.81258E-04         0.00000E+00
    0.15687E-03        -0.86076E-04         0.00000E+00
    0.16548E-03        -0.91182E-04         0.00000E+00
    0.17455E-03        -0.96593E-04         0.00000E+00
    0.18410E-03        -0.10233E-03         0.00000E+00
    0.19415E-03        -0.10842E-03         0.00000E+00
    0.20472E-03        -0.11487E-03         0.00000E+00
    0.21584E-03        -0.12173E-03         0.00000E+00
    0.22752E-03        -0.12901E-03         0.00000E+00
    0.23978E-03        -0.13674E-03         0.00000E+00
    0.25265E-03        -0.14495E-03         0.00000E+00
    0.26615E-03        -0.15369E-03         0.00000E+00
    0.28030E-03        -0.16298E-03         0.00000E+00
    0.29511E-03        -0.17287E-03         0.00000E+00
    0.31061E-03        -0.18340E-03         0.00000E+00
    0.32682E-03        -0.19461E-03         0.00000E+00
    0.34373E-03        -0.20657E-03         0.00000E+00
    0.36138E-03        -0.21933E-03         0.00000E+00
    0.37975E-03        -0.23294E-03         0.00000E+00
    0.39886E-03        -0.24749E-03         0.00000E+00
    0.41871E-03        -0.26303E-03         0.00000E+00
    0.43927E-03        -0.27967E-03         0.00000E+00
    0.46055E-03        -0.29748E-03         0.00000E+00
    0.48251E-03        -0.31657E-03         0.00000E+00
    0.50511E-03        -0.33705E-03         0.00000E+00
    0.52832E-03        -0.35904E-03         0.00000E+00
    0.55207E-03        -0.38268E-03         0.00000E+00
    0.57629E-03        -0.40811E-03         0.00000E+00
    0.60088E-03        -0.43550E-03         0.00000E+00
    0.62575E-03        -0.46503E-03         0.00000E+00
    0.65076E-03        -0.49689E-03         0.00000E+00
    0.67577E-03        -0.53131E-03         0.00000E+00
    0.70060E-03        -0.56853E-03         0.00000E+00
    0.72505E-03        -0.60879E-03         0.00000E+00
    0.74892E-03        -0.65237E-03         0.00000E+00
    0.77194E-03        -0.69957E-03         0.00000E+00
    0.79386E-03        -0.75069E-03         0.00000E+00
    0.81438E-03        -0.80607E-03         0.00000E+00
    0.83321E-03        -0.86600E-03         0.00000E+00
    0.85000E-03        -0.93083E-03         0.00000E+00
    0.86444E-03        -0.10008E-02         0.00000E+00
    0.87618E-03        -0.10763E-02         0.00000E+00
    0.88489E-03        -0.11574E-02         0.00000E+00
    0.89022E-03        -0.12442E-02         0.00000E+00
    0.89186E-03        -0.13367E-02         0.00000E+00
    0.88944E-03        -0.14347E-02         0.00000E+00
    0.88259E-03        -0.15378E-02         0.00000E+00
    0.87083E-03        -0.16451E-02         0.00000E+00
    0.85349E-03        -0.17556E-02         0.00000E+00
    0.82955E-03        -0.18678E-02         0.00000E+00
    0.79734E-03        -0.19797E-02         0.00000E+00
    0.75416E-03        -0.20887E-02         0.00000E+00
    0.69561E-03        -0.21922E-02         0.00000E+00
    0.61430E-03        -0.22868E-02         0.00000E+00
    0.49776E-03        -0.23690E-02         0.00000E+00
    0.32250E-03        -0.24364E-02         0.00000E+00
    0.00000E+00        -0.24662E-02         0.00000E+00
    0.00000E+00         0.44179E-05         0.00000E+00
    0.53068E-05         0.41168E-05         0.00000E+00
    0.93223E-05         0.33729E-05         0.00000E+00
    0.12738E-04         0.23785E-05         0.00000E+00
    0.15812E-04         0.11830E-05         0.00000E+00
    0.18674E-04        -0.17664E-06         0.00000E+00
    0.21408E-04        -0.16661E-05         0.00000E+00
    0.24065E-04        -0.32555E-05         0.00000E+00
    0.26681E-04        -0.49201E-05         0.00000E+00
    0.29281E-04        -0.66402E-05         0.00000E+00
    0.31882E-04        -0.84013E-05         0.00000E+00
    0.34501E-04        -0.10194E-04         0.00000E+00
    0.37149E-04        -0.12012E-04         0.00000E+00
    0.39839E-04        -0.13854E-04         0.00000E+00
    0.42584E-04        -0.15721E-04         0.00000E+00
    0.45395E-04        -0.17614E-04         0.00000E+00
    0.48285E-04        -0.19538E-04         0.00000E+00
    0.51267E-04        -0.21500E-04         0.00000E+00
    0.54354E-04        -0.23505E-04         0.00000E+00
    0.57559E-04        -0.25561E-04         0.00000E+00
    0.60895E-04        -0.27675E-04         0.00000E+00
    0.64378E-04        -0.29857E-04         0.00000E+00
    0.68020E-04        -0.32114E-04         0.00000E+00
    0.71837E-04        -0.34456E-04         0.00000E+00
    0.75842E-04        -0.36890E-04         0.00000E+00
    0.80051E-04        -0.39428E-04         0.00000E+00
    0.84479E-04        -0.42078E-04         0.00000E+00
    0.89141E-04        -0.44851E-04         0.00000E+00
    0.94054E-04        -0.47756E-04         0.00000E+00
    0.99234E-04        -0.50803E-04         0.00000E+00
    0.10470E-03        -0.54005E-04         0.00000E+00
    0.11046E-03        -0.57371E-04         0.00000E+00
    0.11655E-03        -0.60915E-04         0.00000E+00
    0.12297E-03        -0.64648E-04         0.00000E+00
    0.12975E-03        -0.68583E-04         0.00000E+00
    0.13690E-03        -0.72734E-04         0.00000E+00
    0.14446E-03        -0.77115E-04         0.00000E+00
    0.15243E-03        -0.81741E-04         0.00000E+00
    0.16084E-03        -0.86629E-04         0.00000E+00
    0.16972E-03        -0.91795E-04         0.00000E+00
    0.17909E-03        -0.97258E-04         0.00000E+00
    0.18898E-03        -0.10304E-03         0.00000E+00
    0.19940E-03        -0.10915E-03         0.00000E+00
    0.21039E-03        -0.11562E-03         0.00000E+00
    0.22197E-03        -0.12248E-03         0.00000E+00
    0.23418E-03        -0.12973E-03         0.00000E+00
    0.24704E-03        -0.13742E-03         0.00000E+00
    0.26059E-03        -0.14558E-03         0.00000E+00
    0.27485E-03        -0.15422E-03         0.00000E+00
    0.28985E-03        -0.16339E-03         0.00000E+00
    0.30563E-03        -0.17311E-03         0.00000E+00
    0.32222E-03        -0.18343E-03         0.00000E+00
    0.33966E-03        -0.19439E-03         0.00000E+00
    0.35797E-03        -0.20603E-03         0.00000E+00
    0.37718E-03        -0.21840E-03         0.00000E+00
    0.39733E-03        -0.23155E-03         0.00000E+00
    0.41846E-03        -0.24553E-03         0.00000E+00
    0.44058E-03        -0.26042E-03         0.00000E+00
    0.46372E-03        -0.27626E-03         0.00000E+00
    0.48791E-03        -0.29314E-03         0.00000E+00
    0.51317E-03        -0.31113E-03         0.00000E+00
    0.53952E-03        -0.33031E-03         0.00000E+00
    0.56695E-03        -0.35079E-03         0.00000E+00
    0.59549E-03        -0.37266E-03         0.00000E+00
    0.62512E-03        -0.39603E-03         0.00000E+00
    0.65583E-03        -0.42104E-03         0.00000E+00
    0.68760E-03        -0.44781E-03         0.00000E+00
    0.72039E-03        -0.47649E-03         0.00000E+00
    0.75415E-03        -0.50725E-03         0.00000E+00
    0.78881E-03        -0.54028E-03         0.00000E+00
    0.82428E-03        -0.57577E-03         0.00000E+00
    0.86045E-03        -0.61394E-03         0.00000E+00
    0.89720E-03        -0.65505E-03         0.00000E+00
    0.93434E-03        -0.69935E-03         0.00000E+00
    0.97171E-03        -0.74715E-03         0.00000E+00
    0.10091E-02        -0.79877E-03         0.00000E+00
    0.10462E-02        -0.85456E-03         0.00000E+00
    0.10827E-02        -0.91491E-03         0.00000E+00
    0.11183E-02        -0.98022E-03         0.00000E+00
    0.11527E-02        -0.10509E-02         0.00000E+00
    0.11855E-02        -0.11275E-02         0.00000E+00
    0.12161E-02        -0.12105E-02         0.00000E+00
    0.12442E-02        -0.13002E-02         0.00000E+00
    0.12692E-02        -0.13973E-02         0.00000E+00
    0.12907E-02        -0.15021E-02         0.00000E+00
    0.13080E-02        -0.16150E-02         0.00000E+00
    0.13208E-02        -0.17364E-02         0.00000E+00
    0.13285E-02        -0.18664E-02         0.00000E+00
    0.13304E-02        -0.20048E-02         0.00000E+00
    0.13262E-02        -0.21515E-02         0.00000E+00
    0.13151E-02        -0.23058E-02         0.00000E+00
    0.12964E-02        -0.24664E-02         0.00000E+00
    0.12691E-02        -0.26318E-02         0.00000E+00
    0.12316E-02        -0.27995E-02         0.00000E+00
    0.11813E-02        -0.29667E-02         0.00000E+00
    0.11141E-02        -0.31293E-02         0.00000E+00
    0.10235E-02        -0.32832E-02         0.00000E+00
    0.89862E-03        -0.34230E-02         0.00000E+00
    0.72134E-03        -0.35435E-02         0.00000E+00
    0.45515E-03        -0.36374E-02         0.00000E+00
    0.00000E+00        -0.36765E-02         0.00000E+00
    0.00000E+00         0.55631E-05         0.00000E+00
    0.68396E-05         0.51994E-05         0.00000E+00
    0.12182E-04         0.42615E-05         0.00000E+00
    0.16742E-04         0.29620E-05         0.00000E+00
    0.20849E-04         0.13844E-05         0.00000E+00
    0.24675E-04        -0.41842E-06         0.00000E+00
    0.28326E-04        -0.23984E-05         0.00000E+00
    0.31872E-04        -0.45144E-05         0.00000E+00
    0.35359E-04        -0.67324E-05         0.00000E+00
    0.38821E-04        -0.90255E-05         0.00000E+00
    0.42283E-04        -0.11374E-04         0.00000E+00
    0.45765E-04        -0.13766E-04         0.00000E+00
    0.49284E-04        -0.16193E-04         0.00000E+00
    0.52858E-04        -0.18652E-04         0.00000E+00
    0.56503E-04        -0.21144E-04         0.00000E+00
    0.60235E-04        -0.23673E-04         0.00000E+00
    0.64071E-04        -0.26245E-04         0.00000E+00
    0.68029E-04        -0.28866E-04         0.00000E+00
    0.72125E-04        -0.31547E-04         0.00000E+00
    0.76377E-04        -0.34296E-04         0.00000E+00
    0.80805E-04        -0.37124E-04         0.00000E+00
    0.85425E-04        -0.40043E-04         0.00000E+00
    0.90258E-04        -0.43063E-04         0.00000E+00
    0.95321E-04        -0.46197E-04         0.00000E+00
    0.10064E-03        -0.49456E-04         0.00000E+00
    0.10622E-03        -0.52854E-04         0.00000E+00
    0.11210E-03        -0.56402E-04         0.00000E+00
    0.11828E-03        -0.60114E-04         0.00000E+00
    0.12480E-03        -0.64004E-04         0.00000E+00
    0.13167E-03        -0.68086E-04         0.00000E+00
    0.13892E-03        -0.72373E-04         0.00000E+00
    0.14657E-03        -0.76882E-04         0.00000E+00
    0.15464E-03        -0.81628E-04         0.00000E+00
    0.16317E-03        -0.86628E-04         0.00000E+00
    0.17216E-03        -0.91899E-04         0.00000E+00
    0.18165E-03        -0.97458E-04         0.00000E+00
    0.19168E-03        -0.10333E-03         0.00000E+00
    0.20226E-03        -0.10952E-03         0.00000E+00
    0.21342E-03        -0.11607E-03         0.00000E+00
    0.22521E-03        -0.12299E-03         0.00000E+00
    0.23764E-03        -0.13031E-03         0.00000E+00
    0.25075E-03        -0.13804E-03         0.00000E+00
    0.26458E-03        -0.14623E-03         0.00000E+00
    0.27917E-03        -0.15490E-03         0.00000E+00
    0.29454E-03        -0.16408E-03         0.00000E+00
    0.31074E-03        -0.17380E-03         0.00000E+00
    0.32780E-03        -0.18409E-03         0.00000E+00
    0.34578E-03        -0.19501E-03         0.00000E+00
    0.36470E-03        -0.20658E-03         0.00000E+00
    0.38460E-03        -0.21885E-03         0.00000E+00
    0.40555E-03        -0.23187E-03         0.00000E+00
    0.42756E-03        -0.24568E-03         0.00000E+00
    0.45070E-03        -0.26035E-03         0.00000E+00
    0.47499E-03        -0.27593E-03         0.00000E+00
    0.50049E-03        -0.29248E-03         0.00000E+00
    0.52724E-03        -0.31008E-03         0.00000E+00
    0.55527E-03        -0.32879E-03         0.00000E+00
    0.58462E-03        -0.34869E-03         0.00000E+00
    0.61534E-03        -0.36988E-03         0.00000E+00
    0.64744E-03        -0.39246E-03         0.00000E+00
    0.68097E-03        -0.41651E-03         0.00000E+00
    0.71593E-03        -0.44216E-03         0.00000E+00
    0.75234E-03        -0.46953E-03         0.00000E+00
    0.79022E-03        -0.49876E-03         0.00000E+00
    0.82955E-03        -0.53000E-03         0.00000E+00
    0.87031E-03        -0.56340E-03         0.00000E+00
    0.91248E-03        -0.59916E-03         0.00000E+00
    0.95601E-03        -0.63747E-03         0.00000E+00
    0.10008E-02        -0.67854E-03         0.00000E+00
    0.10468E-02        -0.72262E-03         0.00000E+00
    0.10939E-02        -0.76999E-03         0.00000E+00
    0.11420E-02        -0.82092E-03         0.00000E+00
    0.11907E-02        -0.87575E-03         0.00000E+00
    0.12401E-02        -0.93484E-03         0.00000E+00
    0.12897E-02        -0.99857E-03         0.00000E+00
    0.13393E-02        -0.10674E-02         0.00000E+00
    0.13886E-02        -0.11417E-02         0.00000E+00
    0.14371E-02        -0.12221E-02         0.00000E+00
    0.14844E-02        -0.13091E-02         0.00000E+00
    0.15301E-02        -0.14033E-02         0.00000E+00
    0.15736E-02        -0.15053E-02         0.00000E+00
    0.16142E-02        -0.16157E-02         0.00000E+00
    0.16515E-02        -0.17352E-02         0.00000E+00
    0.16846E-02        -0.18643E-02         0.00000E+00
    0.17130E-02        -0.20038E-02         0.00000E+00
    0.17359E-02        -0.21541E-02         0.00000E+00
    0.17525E-02        -0.23156E-02         0.00000E+00
    0.17623E-02        -0.24885E-02         0.00000E+00
    0.17643E-02        -0.26727E-02         0.00000E+00
    0.17578E-02        -0.28679E-02         0.00000E+00
    0.17420E-02        -0.30731E-02         0.00000E+00
    0.17158E-02        -0.32867E-02         0.00000E+00
    0.16777E-02        -0.35066E-02         0.00000E+00
    0.16255E-02        -0.37296E-02         0.00000E+00
    0.15558E-02        -0.39516E-02         0.00000E+00
    0.14632E-02        -0.41673E-02         0.00000E+00
    0.13391E-02        -0.43706E-02         0.00000E+00
    0.11691E-02        -0.45545E-02         0.00000E+00
    0.92983E-03        -0.47112E-02         0.00000E+00
    0.57451E-03        -0.48283E-02         0.00000E+00
    0.00000E+00        -0.48749E-02         0.00000E+00
    0.00000E+00         0.65707E-05         0.00000E+00
    0.82923E-05         0.61512E-05         0.00000E+00
    0.14934E-04         0.50348E-05         0.00000E+00
    0.20635E-04         0.34429E-05         0.00000E+00
    0.25777E-04         0.14906E-05         0.00000E+00
    0.30568E-04        -0.75079E-06         0.00000E+00
    0.35138E-04        -0.32186E-05         0.00000E+00
    0.39572E-04        -0.58595E-05         0.00000E+00
    0.43930E-04        -0.86300E-05         0.00000E+00
    0.48252E-04        -0.11496E-04         0.00000E+00
    0.52570E-04        -0.14433E-04         0.00000E+00
    0.56911E-04        -0.17424E-04         0.00000E+00
    0.61295E-04        -0.20460E-04         0.00000E+00
    0.65746E-04        -0.23538E-04         0.00000E+00
    0.70283E-04        -0.26658E-04         0.00000E+00
    0.74927E-04        -0.29825E-04         0.00000E+00
    0.79700E-04        -0.33046E-04         0.00000E+00
    0.84623E-04        -0.36330E-04         0.00000E+00
    0.89718E-04        -0.39690E-04         0.00000E+00
    0.95008E-04        -0.43136E-04         0.00000E+00
    0.10051E-03        -0.46683E-04         0.00000E+00
    0.10626E-03        -0.50343E-04         0.00000E+00
    0.11227E-03        -0.54132E-04         0.00000E+00
    0.11857E-03        -0.58063E-04         0.00000E+00
    0.12518E-03        -0.62153E-04         0.00000E+00
    0.13213E-03        -0.66417E-04         0.00000E+00
    0.13943E-03        -0.70871E-04         0.00000E+00
    0.14713E-03        -0.75530E-04         0.00000E+00
    0.15524E-03        -0.80413E-04         0.00000E+00
    0.16378E-03        -0.85538E-04         0.00000E+00
    0.17280E-03        -0.90921E-04         0.00000E+00
    0.18231E-03        -0.96582E-04         0.00000E+00
    0.19236E-03        -0.10254E-03         0.00000E+00
    0.20295E-03        -0.10882E-03         0.00000E+00
    0.21414E-03        -0.11544E-03         0.00000E+00
    0.22595E-03        -0.12242E-03         0.00000E+00
    0.23842E-03        -0.12979E-03         0.00000E+00
    0.25158E-03        -0.13757E-03         0.00000E+00
    0.26547E-03        -0.14579E-03         0.00000E+00
    0.28012E-03        -0.15447E-03         0.00000E+00
    0.29559E-03        -0.16366E-03         0.00000E+00
    0.31190E-03        -0.17338E-03         0.00000E+00
    0.32910E-03        -0.18366E-03         0.00000E+00
    0.34724E-03        -0.19454E-03         0.00000E+00
    0.36637E-03        -0.20606E-03         0.00000E+00
    0.38652E-03        -0.21826E-03         0.00000E+00
    0.40774E-03        -0.23118E-03         0.00000E+00
    0.43010E-03        -0.24488E-03         0.00000E+00
    0.45364E-03        -0.25940E-03         0.00000E+00
    0.47840E-03        -0.27480E-03         0.00000E+00
    0.50445E-03        -0.29114E-03         0.00000E+00
    0.53184E-03        -0.30847E-03         0.00000E+00
    0.56062E-03        -0.32688E-03         0.00000E+00
    0.59084E-03        -0.34642E-03         0.00000E+00
    0.62256E-03        -0.36719E-03         0.00000E+00
    0.65584E-03        -0.38925E-03         0.00000E+00
    0.69071E-03        -0.41272E-03         0.00000E+00
    0.72723E-03        -0.43768E-03         0.00000E+00
    0.76544E-03        -0.46426E-03         0.00000E+00
    0.80538E-03        -0.49255E-03         0.00000E+00
    0.84709E-03        -0.52271E-03         0.00000E+00
    0.89059E-03        -0.55486E-03         0.00000E+00
    0.93590E-03        -0.58916E-03         0.00000E+00
    0.98302E-03        -0.62578E-03         0.00000E+00
    0.10320E-02        -0.66491E-03         0.00000E+00
    0.10827E-02        -0.70675E-03         0.00000E+00
    0.11352E-02        -0.75152E-03         0.00000E+00
    0.11893E-02        -0.79948E-03         0.00000E+00
    0.12451E-02        -0.85089E-03         0.00000E+00
    0.13024E-02        -0.90606E-03         0.00000E+00
    0.13610E-02        -0.96531E-03         0.00000E+00
    0.14208E-02        -0.10290E-02         0.00000E+00
    0.14815E-02        -0.10976E-02         0.00000E+00
    0.15429E-02        -0.11715E-02         0.00000E+00
    0.16047E-02        -0.12511E-02         0.00000E+00
    0.16665E-02        -0.13371E-02         0.00000E+00
    0.17278E-02        -0.14300E-02         0.00000E+00
    0.17883E-02        -0.15304E-02         0.00000E+00
    0.18472E-02        -0.16390E-02         0.00000E+00
    0.19041E-02        -0.17566E-02         0.00000E+00
    0.19582E-02        -0.18839E-02         0.00000E+00
    0.20088E-02        -0.20217E-02         0.00000E+00
    0.20552E-02        -0.21708E-02         0.00000E+00
    0.20964E-02        -0.23320E-02         0.00000E+00
    0.21315E-02        -0.25060E-02         0.00000E+00
    0.21598E-02        -0.26934E-02         0.00000E+00
    0.21802E-02        -0.28948E-02         0.00000E+00
    0.21917E-02        -0.31105E-02         0.00000E+00
    0.21935E-02        -0.33403E-02         0.00000E+00
    0.21845E-02        -0.35837E-02         0.00000E+00
    0.21635E-02        -0.38396E-02         0.00000E+00
    0.21291E-02        -0.41060E-02         0.00000E+00
    0.20793E-02        -0.43801E-02         0.00000E+00
    0.20115E-02        -0.46580E-02         0.00000E+00
    0.19214E-02        -0.49343E-02         0.00000E+00
    0.18021E-02        -0.52025E-02         0.00000E+00
    0.16430E-02        -0.54545E-02         0.00000E+00
    0.14268E-02        -0.56813E-02         0.00000E+00
    0.11248E-02        -0.58722E-02         0.00000E+00
    0.68328E-03        -0.60104E-02         0.00000E+00
    0.00000E+00        -0.60635E-02         0.00000E+00
    0.00000E+00         0.74515E-05         0.00000E+00
    0.96785E-05         0.69802E-05         0.00000E+00
    0.17590E-04         0.56960E-05         0.00000E+00
    0.24425E-04         0.38229E-05         0.00000E+00
    0.30600E-04         0.15025E-05         0.00000E+00
    0.36356E-04        -0.11730E-05         0.00000E+00
    0.41845E-04        -0.41259E-05         0.00000E+00
    0.47168E-04        -0.72903E-05         0.00000E+00
    0.52394E-04        -0.10613E-04         0.00000E+00
    0.57573E-04        -0.14051E-04         0.00000E+00
    0.62744E-04        -0.17576E-04         0.00000E+00
    0.67937E-04        -0.21168E-04         0.00000E+00
    0.73181E-04        -0.24815E-04         0.00000E+00
    0.78500E-04        -0.28512E-04         0.00000E+00
    0.83921E-04        -0.32261E-04         0.00000E+00
    0.89469E-04        -0.36068E-04         0.00000E+00
    0.95170E-04        -0.39941E-04         0.00000E+00
    0.10105E-03        -0.43891E-04         0.00000E+00
    0.10713E-03        -0.47933E-04         0.00000E+00
    0.11345E-03        -0.52080E-04         0.00000E+00
    0.12002E-03        -0.56349E-04         0.00000E+00
    0.12688E-03        -0.60756E-04         0.00000E+00
    0.13406E-03        -0.65318E-04         0.00000E+00
    0.14158E-03        -0.70053E-04         0.00000E+00
    0.14947E-03        -0.74980E-04         0.00000E+00
    0.15776E-03        -0.80116E-04         0.00000E+00
    0.16649E-03        -0.85482E-04         0.00000E+00
    0.17567E-03        -0.91097E-04         0.00000E+00
    0.18535E-03        -0.96981E-04         0.00000E+00
    0.19556E-03        -0.10316E-03         0.00000E+00
    0.20633E-03        -0.10964E-03         0.00000E+00
    0.21768E-03        -0.11647E-03         0.00000E+00
    0.22967E-03        -0.12365E-03         0.00000E+00
    0.24233E-03        -0.13122E-03         0.00000E+00
    0.25569E-03        -0.13919E-03         0.00000E+00
    0.26979E-03        -0.14761E-03         0.00000E+00
    0.28467E-03        -0.15649E-03         0.00000E+00
    0.30039E-03        -0.16586E-03         0.00000E+00
    0.31697E-03        -0.17577E-03         0.00000E+00
    0.33447E-03        -0.18624E-03         0.00000E+00
    0.35293E-03        -0.19731E-03         0.00000E+00
    0.37241E-03        -0.20902E-03         0.00000E+00
    0.39295E-03        -0.22141E-03         0.00000E+00
    0.41461E-03        -0.23452E-03         0.00000E+00
    0.43745E-03        -0.24841E-03         0.00000E+00
    0.46151E-03        -0.26311E-03         0.00000E+00
    0.48686E-03        -0.27868E-03         0.00000E+00
    0.51355E-03        -0.29519E-03         0.00000E+00
    0.54165E-03        -0.31268E-03         0.00000E+00
    0.57123E-03        -0.33124E-03         0.00000E+00
    0.60234E-03        -0.35091E-03         0.00000E+00
    0.63504E-03        -0.37180E-03         0.00000E+00
    0.66941E-03        -0.39396E-03         0.00000E+00
    0.70550E-03        -0.41750E-03         0.00000E+00
    0.74338E-03        -0.44250E-03         0.00000E+00
    0.78311E-03        -0.46907E-03         0.00000E+00
    0.82476E-03        -0.49732E-03         0.00000E+00
    0.86837E-03        -0.52738E-03         0.00000E+00
    0.91401E-03        -0.55936E-03         0.00000E+00
    0.96171E-03        -0.59342E-03         0.00000E+00
    0.10115E-02        -0.62970E-03         0.00000E+00
    0.10635E-02        -0.66838E-03         0.00000E+00
    0.11176E-02        -0.70964E-03         0.00000E+00
    0.11739E-02        -0.75369E-03         0.00000E+00
    0.12323E-02        -0.80074E-03         0.00000E+00
    0.12929E-02        -0.85104E-03         0.00000E+00
    0.13556E-02        -0.90487E-03         0.00000E+00
    0.14203E-02        -0.96250E-03         0.00000E+00
    0.14870E-02        -0.10243E-02         0.00000E+00
    0.15554E-02        -0.10905E-02         0.00000E+00
    0.16255E-02        -0.11617E-02         0.00000E+00
    0.16969E-02        -0.12382E-02         0.00000E+00
    0.17695E-02        -0.13205E-02         0.00000E+00
    0.18429E-02        -0.14092E-02         0.00000E+00
    0.19168E-02        -0.15048E-02         0.00000E+00
    0.19906E-02        -0.16079E-02         0.00000E+00
    0.20640E-02        -0.17193E-02         0.00000E+00
    0.21362E-02        -0.18397E-02         0.00000E+00
    0.22067E-02        -0.19699E-02         0.00000E+00
    0.22747E-02        -0.21109E-02         0.00000E+00
    0.23395E-02        -0.22634E-02         0.00000E+00
    0.24000E-02        -0.24285E-02         0.00000E+00
    0.24553E-02        -0.26070E-02         0.00000E+00
    0.25045E-02        -0.28001E-02         0.00000E+00
    0.25463E-02        -0.30084E-02         0.00000E+00
    0.25798E-02        -0.32329E-02         0.00000E+00
    0.26038E-02        -0.34741E-02         0.00000E+00
    0.26170E-02        -0.37323E-02         0.00000E+00
    0.26183E-02        -0.40074E-02         0.00000E+00
    0.26064E-02        -0.42988E-02         0.00000E+00
    0.25797E-02        -0.46051E-02         0.00000E+00
    0.25365E-02        -0.49241E-02         0.00000E+00
    0.24744E-02        -0.52522E-02         0.00000E+00
    0.23901E-02        -0.55846E-02         0.00000E+00
    0.22783E-02        -0.59148E-02         0.00000E+00
    0.21312E-02        -0.62349E-02         0.00000E+00
    0.19359E-02        -0.65349E-02         0.00000E+00
    0.16725E-02        -0.68034E-02         0.00000E+00
    0.13079E-02        -0.70269E-02         0.00000E+00
    0.78343E-03        -0.71845E-02         0.00000E+00
    0.00000E+00        -0.72435E-02         0.00000E+00
    0.00000E+00         0.82144E-05         0.00000E+00
    0.11008E-04         0.76936E-05         0.00000E+00
    0.20158E-04         0.62492E-05         0.00000E+00
    0.28117E-04         0.41039E-05         0.00000E+00
    0.35322E-04         0.14217E-05         0.00000E+00
    0.42043E-04        -0.16842E-05         0.00000E+00
    0.48451E-04        -0.51197E-05         0.00000E+00
    0.54661E-04        -0.88060E-05         0.00000E+00
    0.60753E-04        -0.12679E-04         0.00000E+00
    0.66786E-04        -0.16690E-04         0.00000E+00
    0.72804E-04        -0.20804E-04         0.00000E+00
    0.78844E-04        -0.24996E-04         0.00000E+00
    0.84940E-04        -0.29254E-04         0.00000E+00
    0.91121E-04        -0.33572E-04         0.00000E+00
    0.97418E-04        -0.37953E-04         0.00000E+00
    0.10386E-03        -0.42401E-04         0.00000E+00
    0.11048E-03        -0.46928E-04         0.00000E+00
    0.11730E-03        -0.51548E-04         0.00000E+00
    0.12436E-03        -0.56275E-04         0.00000E+00
    0.13169E-03        -0.61127E-04         0.00000E+00
    0.13932E-03        -0.66122E-04         0.00000E+00
    0.14729E-03        -0.71280E-04         0.00000E+00
    0.15562E-03        -0.76620E-04         0.00000E+00
    0.16434E-03        -0.82164E-04         0.00000E+00
    0.17350E-03        -0.87933E-04         0.00000E+00
    0.18312E-03        -0.93949E-04         0.00000E+00
    0.19325E-03        -0.10023E-03         0.00000E+00
    0.20391E-03        -0.10681E-03         0.00000E+00
    0.21515E-03        -0.11371E-03         0.00000E+00
    0.22699E-03        -0.12094E-03         0.00000E+00
    0.23949E-03        -0.12854E-03         0.00000E+00
    0.25268E-03        -0.13654E-03         0.00000E+00
    0.26659E-03        -0.14495E-03         0.00000E+00
    0.28128E-03        -0.15382E-03         0.00000E+00
    0.29678E-03        -0.16316E-03         0.00000E+00
    0.31315E-03        -0.17302E-03         0.00000E+00
    0.33043E-03        -0.18343E-03         0.00000E+00
    0.34867E-03        -0.19442E-03         0.00000E+00
    0.36792E-03        -0.20602E-03         0.00000E+00
    0.38823E-03        -0.21829E-03         0.00000E+00
    0.40966E-03        -0.23126E-03         0.00000E+00
    0.43227E-03        -0.24498E-03         0.00000E+00
    0.45612E-03        -0.25950E-03         0.00000E+00
    0.48126E-03        -0.27486E-03         0.00000E+00
    0.50777E-03        -0.29112E-03         0.00000E+00
    0.53570E-03        -0.30834E-03         0.00000E+00
    0.56512E-03        -0.32659E-03         0.00000E+00
    0.59611E-03        -0.34592E-03         0.00000E+00
    0.62874E-03        -0.36641E-03         0.00000E+00
    0.66307E-03        -0.38814E-03         0.00000E+00
    0.69918E-03        -0.41119E-03         0.00000E+00
    0.73714E-03        -0.43564E-03         0.00000E+00
    0.77704E-03        -0.46159E-03         0.00000E+00
    0.81894E-03        -0.48915E-03         0.00000E+00
    0.86292E-03        -0.51842E-03         0.00000E+00
    0.90905E-03        -0.54952E-03         0.00000E+00
    0.95740E-03        -0.58259E-03         0.00000E+00
    0.10080E-02        -0.61776E-03         0.00000E+00
    0.10610E-02        -0.65518E-03         0.00000E+00
    0.11164E-02        -0.69503E-03         0.00000E+00
    0.11742E-02        -0.73747E-03         0.00000E+00
    0.12346E-02        -0.78272E-03         0.00000E+00
    0.12974E-02        -0.83097E-03         0.00000E+00
    0.13628E-02        -0.88248E-03         0.00000E+00
    0.14307E-02        -0.93748E-03         0.00000E+00
    0.15010E-02        -0.99628E-03         0.00000E+00
    0.15739E-02        -0.10592E-02         0.00000E+00
    0.16490E-02        -0.11265E-02         0.00000E+00
    0.17264E-02        -0.11987E-02         0.00000E+00
    0.18059E-02        -0.12761E-02         0.00000E+00
    0.18873E-02        -0.13592E-02         0.00000E+00
    0.19703E-02        -0.14485E-02         0.00000E+00
    0.20547E-02        -0.15445E-02         0.00000E+00
    0.21400E-02        -0.16480E-02         0.00000E+00
    0.22258E-02        -0.17595E-02         0.00000E+00
    0.23117E-02        -0.18797E-02         0.00000E+00
    0.23970E-02        -0.20096E-02         0.00000E+00
    0.24810E-02        -0.21500E-02         0.00000E+00
    0.25630E-02        -0.23018E-02         0.00000E+00
    0.26421E-02        -0.24659E-02         0.00000E+00
    0.27173E-02        -0.26436E-02         0.00000E+00
    0.27876E-02        -0.28359E-02         0.00000E+00
    0.28519E-02        -0.30439E-02         0.00000E+00
    0.29090E-02        -0.32686E-02         0.00000E+00
    0.29575E-02        -0.35112E-02         0.00000E+00
    0.29962E-02        -0.37725E-02         0.00000E+00
    0.30236E-02        -0.40533E-02         0.00000E+00
    0.30383E-02        -0.43538E-02         0.00000E+00
    0.30388E-02        -0.46740E-02         0.00000E+00
    0.30236E-02        -0.50132E-02         0.00000E+00
    0.29908E-02        -0.53697E-02         0.00000E+00
    0.29382E-02        -0.57409E-02         0.00000E+00
    0.28631E-02        -0.61226E-02         0.00000E+00
    0.27614E-02        -0.65092E-02         0.00000E+00
    0.26271E-02        -0.68930E-02         0.00000E+00
    0.24510E-02        -0.72644E-02         0.00000E+00
    0.22186E-02        -0.76117E-02         0.00000E+00
    0.19074E-02        -0.79210E-02         0.00000E+00
    0.14805E-02        -0.81756E-02         0.00000E+00
    0.87641E-03        -0.83515E-02         0.00000E+00
    0.00000E+00        -0.84160E-02         0.00000E+00
    0.00000E+00         0.88671E-05         0.00000E+00
    0.12288E-04         0.82979E-05         0.00000E+00
    0.22647E-04         0.66985E-05         0.00000E+00
    0.31717E-04         0.42881E-05         0.00000E+00
    0.39948E-04         0.12494E-05         0.00000E+00
    0.47631E-04        -0.22832E-05         0.00000E+00
    0.54956E-04        -0.61992E-05         0.00000E+00
    0.62051E-04        -0.10406E-04         0.00000E+00
    0.69007E-04        -0.14830E-04         0.00000E+00
    0.75889E-04        -0.19413E-04         0.00000E+00
    0.82750E-04        -0.24115E-04         0.00000E+00
    0.89632E-04        -0.28908E-04         0.00000E+00
    0.96572E-04        -0.33778E-04         0.00000E+00
    0.10361E-03        -0.38719E-04         0.00000E+00
    0.11077E-03        -0.43731E-04         0.00000E+00
    0.11810E-03        -0.48824E-04         0.00000E+00
    0.12562E-03        -0.54007E-04         0.00000E+00
    0.13338E-03        -0.59298E-04         0.00000E+00
    0.14141E-03        -0.64714E-04         0.00000E+00
    0.14974E-03        -0.70274E-04         0.00000E+00
    0.15842E-03        -0.75999E-04         0.00000E+00
    0.16747E-03        -0.81913E-04         0.00000E+00
    0.17694E-03        -0.88037E-04         0.00000E+00
    0.18686E-03        -0.94395E-04         0.00000E+00
    0.19727E-03        -0.10101E-03         0.00000E+00
    0.20821E-03        -0.10791E-03         0.00000E+00
    0.21972E-03        -0.11512E-03         0.00000E+00
    0.23184E-03        -0.12267E-03         0.00000E+00
    0.24462E-03        -0.13058E-03         0.00000E+00
    0.25808E-03        -0.13888E-03         0.00000E+00
    0.27229E-03        -0.14761E-03         0.00000E+00
    0.28728E-03        -0.15678E-03         0.00000E+00
    0.30310E-03        -0.16644E-03         0.00000E+00
    0.31980E-03        -0.17662E-03         0.00000E+00
    0.33743E-03        -0.18734E-03         0.00000E+00
    0.35604E-03        -0.19866E-03         0.00000E+00
    0.37568E-03        -0.21060E-03         0.00000E+00
    0.39642E-03        -0.22322E-03         0.00000E+00
    0.41831E-03        -0.23654E-03         0.00000E+00
    0.44140E-03        -0.25062E-03         0.00000E+00
    0.46577E-03        -0.26551E-03         0.00000E+00
    0.49148E-03        -0.28125E-03         0.00000E+00
    0.51859E-03        -0.29791E-03         0.00000E+00
    0.54718E-03        -0.31554E-03         0.00000E+00
    0.57732E-03        -0.33420E-03         0.00000E+00
    0.60907E-03        -0.35396E-03         0.00000E+00
    0.64253E-03        -0.37489E-03         0.00000E+00
    0.67777E-03        -0.39707E-03         0.00000E+00
    0.71486E-03        -0.42058E-03         0.00000E+00
    0.75390E-03        -0.44551E-03         0.00000E+00
    0.79496E-03        -0.47194E-03         0.00000E+00
    0.83814E-03        -0.49999E-03         0.00000E+00
    0.88350E-03        -0.52976E-03         0.00000E+00
    0.93115E-03        -0.56136E-03         0.00000E+00
    0.98116E-03        -0.59492E-03         0.00000E+00
    0.10336E-02        -0.63059E-03         0.00000E+00
    0.10886E-02        -0.66850E-03         0.00000E+00
    0.11462E-02        -0.70882E-03         0.00000E+00
    0.12065E-02        -0.75171E-03         0.00000E+00
    0.12694E-02        -0.79738E-03         0.00000E+00
    0.13352E-02        -0.84602E-03         0.00000E+00
    0.14038E-02        -0.89785E-03         0.00000E+00
    0.14753E-02        -0.95313E-03         0.00000E+00
    0.15497E-02        -0.10121E-02         0.00000E+00
    0.16269E-02        -0.10751E-02         0.00000E+00
    0.17070E-02        -0.11424E-02         0.00000E+00
    0.17898E-02        -0.12144E-02         0.00000E+00
    0.18753E-02        -0.12915E-02         0.00000E+00
    0.19634E-02        -0.13741E-02         0.00000E+00
    0.20539E-02        -0.14626E-02         0.00000E+00
    0.21465E-02        -0.15577E-02         0.00000E+00
    0.22410E-02        -0.16598E-02         0.00000E+00
    0.23371E-02        -0.17696E-02         0.00000E+00
    0.24342E-02        -0.18878E-02         0.00000E+00
    0.25319E-02        -0.20152E-02         0.00000E+00
    0.26297E-02        -0.21526E-02         0.00000E+00
    0.27269E-02        -0.23009E-02         0.00000E+00
    0.28226E-02        -0.24612E-02         0.00000E+00
    0.29160E-02        -0.26345E-02         0.00000E+00
    0.30061E-02        -0.28219E-02         0.00000E+00
    0.30918E-02        -0.30246E-02         0.00000E+00
    0.31719E-02        -0.32440E-02         0.00000E+00
    0.32451E-02        -0.34812E-02         0.00000E+00
    0.33100E-02        -0.37375E-02         0.00000E+00
    0.33651E-02        -0.40142E-02         0.00000E+00
    0.34089E-02        -0.43122E-02         0.00000E+00
    0.34396E-02        -0.46323E-02         0.00000E+00
    0.34556E-02        -0.49750E-02         0.00000E+00
    0.34552E-02        -0.53401E-02         0.00000E+00
    0.34364E-02        -0.57268E-02         0.00000E+00
    0.33970E-02        -0.61332E-02         0.00000E+00
    0.33346E-02        -0.65563E-02         0.00000E+00
    0.32457E-02        -0.69914E-02         0.00000E+00
    0.31258E-02        -0.74318E-02         0.00000E+00
    0.29681E-02        -0.78688E-02         0.00000E+00
    0.27620E-02        -0.82911E-02         0.00000E+00
    0.24917E-02        -0.86850E-02         0.00000E+00
    0.21322E-02        -0.90342E-02         0.00000E+00
    0.16437E-02        -0.93188E-02         0.00000E+00
    0.96335E-03        -0.95122E-02         0.00000E+00
    0.00000E+00        -0.95821E-02         0.00000E+00
    0.00000E+00         0.94163E-05         0.00000E+00
    0.13526E-04         0.87994E-05         0.00000E+00
    0.25064E-04         0.70482E-05         0.00000E+00
    0.35230E-04         0.43782E-05         0.00000E+00
    0.44481E-04         0.98753E-06         0.00000E+00
    0.53123E-04        -0.29689E-05         0.00000E+00
    0.61363E-04        -0.73634E-05         0.00000E+00
    0.69341E-04        -0.12090E-04         0.00000E+00
    0.77157E-04        -0.17063E-04         0.00000E+00
    0.84885E-04        -0.22218E-04         0.00000E+00
    0.92583E-04        -0.27509E-04         0.00000E+00
    0.10030E-03        -0.32904E-04         0.00000E+00
    0.10808E-03        -0.38386E-04         0.00000E+00
    0.11596E-03        -0.43950E-04         0.00000E+00
    0.12398E-03        -0.49596E-04         0.00000E+00
    0.13218E-03        -0.55334E-04         0.00000E+00
    0.14061E-03        -0.61177E-04         0.00000E+00
    0.14929E-03        -0.67142E-04         0.00000E+00
    0.15827E-03        -0.73249E-04         0.00000E+00
    0.16760E-03        -0.79520E-04         0.00000E+00
    0.17730E-03        -0.85980E-04         0.00000E+00
    0.18743E-03        -0.92653E-04         0.00000E+00
    0.19802E-03        -0.99565E-04         0.00000E+00
    0.20912E-03        -0.10674E-03         0.00000E+00
    0.22077E-03        -0.11421E-03         0.00000E+00
    0.23302E-03        -0.12201E-03         0.00000E+00
    0.24590E-03        -0.13015E-03         0.00000E+00
    0.25946E-03        -0.13867E-03         0.00000E+00
    0.27375E-03        -0.14761E-03         0.00000E+00
    0.28882E-03        -0.15699E-03         0.00000E+00
    0.30472E-03        -0.16684E-03         0.00000E+00
    0.32150E-03        -0.17721E-03         0.00000E+00
    0.33920E-03        -0.18812E-03         0.00000E+00
    0.35789E-03        -0.19961E-03         0.00000E+00
    0.37762E-03        -0.21173E-03         0.00000E+00
    0.39844E-03        -0.22452E-03         0.00000E+00
    0.42043E-03        -0.23801E-03         0.00000E+00
    0.44363E-03        -0.25226E-03         0.00000E+00
    0.46813E-03        -0.26731E-03         0.00000E+00
    0.49397E-03        -0.28322E-03         0.00000E+00
    0.52124E-03        -0.30003E-03         0.00000E+00
    0.55001E-03        -0.31782E-03         0.00000E+00
    0.58036E-03        -0.33663E-03         0.00000E+00
    0.61235E-03        -0.35654E-03         0.00000E+00
    0.64608E-03        -0.37762E-03         0.00000E+00
    0.68162E-03        -0.39994E-03         0.00000E+00
    0.71907E-03        -0.42359E-03         0.00000E+00
    0.75851E-03        -0.44863E-03         0.00000E+00
    0.80003E-03        -0.47518E-03         0.00000E+00
    0.84372E-03        -0.50333E-03         0.00000E+00
    0.88968E-03        -0.53318E-03         0.00000E+00
    0.93800E-03        -0.56484E-03         0.00000E+00
    0.98878E-03        -0.59845E-03         0.00000E+00
    0.10421E-02        -0.63412E-03         0.00000E+00
    0.10981E-02        -0.67201E-03         0.00000E+00
    0.11568E-02        -0.71226E-03         0.00000E+00
    0.12184E-02        -0.75504E-03         0.00000E+00
    0.12828E-02        -0.80054E-03         0.00000E+00
    0.13503E-02        -0.84893E-03         0.00000E+00
    0.14208E-02        -0.90045E-03         0.00000E+00
    0.14945E-02        -0.95531E-03         0.00000E+00
    0.15713E-02        -0.10138E-02         0.00000E+00
    0.16513E-02        -0.10761E-02         0.00000E+00
    0.17346E-02        -0.11426E-02         0.00000E+00
    0.18211E-02        -0.12136E-02         0.00000E+00
    0.19107E-02        -0.12895E-02         0.00000E+00
    0.20035E-02        -0.13706E-02         0.00000E+00
    0.20993E-02        -0.14574E-02         0.00000E+00
    0.21980E-02        -0.15504E-02         0.00000E+00
    0.22993E-02        -0.16502E-02         0.00000E+00
    0.24031E-02        -0.17571E-02         0.00000E+00
    0.25090E-02        -0.18721E-02         0.00000E+00
    0.26166E-02        -0.19957E-02         0.00000E+00
    0.27255E-02        -0.21287E-02         0.00000E+00
    0.28351E-02        -0.22719E-02         0.00000E+00
    0.29447E-02        -0.24265E-02         0.00000E+00
    0.30536E-02        -0.25932E-02         0.00000E+00
    0.31610E-02        -0.27733E-02         0.00000E+00
    0.32658E-02        -0.29680E-02         0.00000E+00
    0.33669E-02        -0.31786E-02         0.00000E+00
    0.34630E-02        -0.34063E-02         0.00000E+00
    0.35529E-02        -0.36526E-02         0.00000E+00
    0.36350E-02        -0.39190E-02         0.00000E+00
    0.37077E-02        -0.42068E-02         0.00000E+00
    0.37693E-02        -0.45173E-02         0.00000E+00
    0.38180E-02        -0.48518E-02         0.00000E+00
    0.38520E-02        -0.52111E-02         0.00000E+00
    0.38692E-02        -0.55957E-02         0.00000E+00
    0.38676E-02        -0.60055E-02         0.00000E+00
    0.38449E-02        -0.64394E-02         0.00000E+00
    0.37986E-02        -0.68955E-02         0.00000E+00
    0.37258E-02        -0.73703E-02         0.00000E+00
    0.36226E-02        -0.78584E-02         0.00000E+00
    0.34838E-02        -0.83524E-02         0.00000E+00
    0.33017E-02        -0.88422E-02         0.00000E+00
    0.30649E-02        -0.93150E-02         0.00000E+00
    0.27559E-02        -0.97549E-02         0.00000E+00
    0.23478E-02        -0.10143E-01         0.00000E+00
    0.17987E-02        -0.10457E-01         0.00000E+00
    0.10452E-02        -0.10667E-01         0.00000E+00
    0.00000E+00        -0.10742E-01         0.00000E+00
    0.00000E+00         0.98682E-05         0.00000E+00
    0.14725E-04         0.92037E-05         0.00000E+00
    0.27415E-04         0.73025E-05         0.00000E+00
    0.38663E-04         0.43767E-05         0.00000E+00
    0.48925E-04         0.63775E-06         0.00000E+00
    0.58523E-04        -0.37400E-05         0.00000E+00
    0.67675E-04        -0.86115E-05         0.00000E+00
    0.76532E-04        -0.13856E-04         0.00000E+00
    0.85205E-04        -0.19379E-04         0.00000E+00
    0.93774E-04        -0.25105E-04         0.00000E+00
    0.10230E-03        -0.30984E-04         0.00000E+00
    0.11085E-03        -0.36981E-04         0.00000E+00
    0.11945E-03        -0.43077E-04         0.00000E+00
    0.12817E-03        -0.49265E-04         0.00000E+00
    0.13704E-03        -0.55546E-04         0.00000E+00
    0.14611E-03        -0.61931E-04         0.00000E+00
    0.15542E-03        -0.68435E-04         0.00000E+00
    0.16502E-03        -0.75076E-04         0.00000E+00
    0.17494E-03        -0.81878E-04         0.00000E+00
    0.18525E-03        -0.88864E-04         0.00000E+00
    0.19597E-03        -0.96062E-04         0.00000E+00
    0.20716E-03        -0.10350E-03         0.00000E+00
    0.21887E-03        -0.11120E-03         0.00000E+00
    0.23113E-03        -0.11921E-03         0.00000E+00
    0.24401E-03        -0.12754E-03         0.00000E+00
    0.25753E-03        -0.13623E-03         0.00000E+00
    0.27177E-03        -0.14531E-03         0.00000E+00
    0.28676E-03        -0.15482E-03         0.00000E+00
    0.30255E-03        -0.16478E-03         0.00000E+00
    0.31921E-03        -0.17525E-03         0.00000E+00
    0.33677E-03        -0.18624E-03         0.00000E+00
    0.35531E-03        -0.19780E-03         0.00000E+00
    0.37488E-03        -0.20998E-03         0.00000E+00
    0.39553E-03        -0.22280E-03         0.00000E+00
    0.41733E-03        -0.23632E-03         0.00000E+00
    0.44035E-03        -0.25059E-03         0.00000E+00
    0.46465E-03        -0.26564E-03         0.00000E+00
    0.49030E-03        -0.28154E-03         0.00000E+00
    0.51736E-03        -0.29833E-03         0.00000E+00
    0.54593E-03        -0.31608E-03         0.00000E+00
    0.57607E-03        -0.33484E-03         0.00000E+00
    0.60787E-03        -0.35468E-03         0.00000E+00
    0.64141E-03        -0.37567E-03         0.00000E+00
    0.67677E-03        -0.39788E-03         0.00000E+00
    0.71405E-03        -0.42140E-03         0.00000E+00
    0.75334E-03        -0.44629E-03         0.00000E+00
    0.79473E-03        -0.47266E-03         0.00000E+00
    0.83832E-03        -0.50060E-03         0.00000E+00
    0.88421E-03        -0.53021E-03         0.00000E+00
    0.93250E-03        -0.56160E-03         0.00000E+00
    0.98331E-03        -0.59488E-03         0.00000E+00
    0.10367E-02        -0.63019E-03         0.00000E+00
    0.10929E-02        -0.66766E-03         0.00000E+00
    0.11518E-02        -0.70743E-03         0.00000E+00
    0.12137E-02        -0.74966E-03         0.00000E+00
    0.12786E-02        -0.79453E-03         0.00000E+00
    0.13467E-02        -0.84221E-03         0.00000E+00
    0.14179E-02        -0.89291E-03         0.00000E+00
    0.14925E-02        -0.94683E-03         0.00000E+00
    0.15705E-02        -0.10042E-02         0.00000E+00
    0.16519E-02        -0.10653E-02         0.00000E+00
    0.17369E-02        -0.11305E-02         0.00000E+00
    0.18254E-02        -0.11999E-02         0.00000E+00
    0.19174E-02        -0.12739E-02         0.00000E+00
    0.20131E-02        -0.13530E-02         0.00000E+00
    0.21123E-02        -0.14374E-02         0.00000E+00
    0.22149E-02        -0.15277E-02         0.00000E+00
    0.23209E-02        -0.16243E-02         0.00000E+00
    0.24300E-02        -0.17278E-02         0.00000E+00
    0.25422E-02        -0.18386E-02         0.00000E+00
    0.26570E-02        -0.19576E-02         0.00000E+00
    0.27742E-02        -0.20854E-02         0.00000E+00
    0.28933E-02        -0.22227E-02         0.00000E+00
    0.30139E-02        -0.23705E-02         0.00000E+00
    0.31352E-02        -0.25297E-02         0.00000E+00
    0.32567E-02        -0.27013E-02         0.00000E+00
    0.33773E-02        -0.28864E-02         0.00000E+00
    0.34962E-02        -0.30864E-02         0.00000E+00
    0.36124E-02        -0.33024E-02         0.00000E+00
    0.37244E-02        -0.35360E-02         0.00000E+00
    0.38310E-02        -0.37886E-02         0.00000E+00
    0.39305E-02        -0.40619E-02         0.00000E+00
    0.40215E-02        -0.43572E-02         0.00000E+00
    0.41020E-02        -0.46763E-02         0.00000E+00
    0.41701E-02        -0.50206E-02         0.00000E+00
    0.42238E-02        -0.53914E-02         0.00000E+00
    0.42609E-02        -0.57897E-02         0.00000E+00
    0.42791E-02        -0.62159E-02         0.00000E+00
    0.42761E-02        -0.66701E-02         0.00000E+00
    0.42493E-02        -0.71511E-02         0.00000E+00
    0.41958E-02        -0.76566E-02         0.00000E+00
    0.41121E-02        -0.81827E-02         0.00000E+00
    0.39940E-02        -0.87236E-02         0.00000E+00
    0.38356E-02        -0.92709E-02         0.00000E+00
    0.36284E-02        -0.98131E-02         0.00000E+00
    0.33601E-02        -0.10336E-01         0.00000E+00
    0.30119E-02        -0.10821E-01         0.00000E+00
    0.25551E-02        -0.11248E-01         0.00000E+00
    0.19464E-02        -0.11590E-01         0.00000E+00
    0.11225E-02        -0.11817E-01         0.00000E+00
    0.00000E+00        -0.11898E-01         0.00000E+00
    0.00000E+00         0.10228E-04         0.00000E+00
    0.15890E-04         0.95161E-05         0.00000E+00
    0.29706E-04         0.74658E-05         0.00000E+00
    0.42019E-04         0.42867E-05         0.00000E+00
    0.53285E-04         0.20205E-06         0.00000E+00
    0.63833E-04        -0.45951E-05         0.00000E+00
    0.73893E-04        -0.99423E-05         0.00000E+00
    0.83626E-04        -0.15705E-04         0.00000E+00
    0.93151E-04        -0.21776E-04         0.00000E+00
    0.10256E-03        -0.28074E-04         0.00000E+00
    0.11191E-03        -0.34541E-04         0.00000E+00
    0.12127E-03        -0.41140E-04         0.00000E+00
    0.13070E-03        -0.47850E-04         0.00000E+00
    0.14025E-03        -0.54662E-04         0.00000E+00
    0.14996E-03        -0.61580E-04         0.00000E+00
    0.15988E-03        -0.68614E-04         0.00000E+00
    0.17007E-03        -0.75780E-04         0.00000E+00
    0.18057E-03        -0.83101E-04         0.00000E+00
    0.19143E-03        -0.90600E-04         0.00000E+00
    0.20270E-03        -0.98304E-04         0.00000E+00
    0.21443E-03        -0.10624E-03         0.00000E+00
    0.22667E-03        -0.11445E-03         0.00000E+00
    0.23947E-03        -0.12295E-03         0.00000E+00
    0.25288E-03        -0.13178E-03         0.00000E+00
    0.26696E-03        -0.14098E-03         0.00000E+00
    0.28176E-03        -0.15057E-03         0.00000E+00
    0.29733E-03        -0.16060E-03         0.00000E+00
    0.31373E-03        -0.17110E-03         0.00000E+00
    0.33101E-03        -0.18210E-03         0.00000E+00
    0.34923E-03        -0.19366E-03         0.00000E+00
    0.36845E-03        -0.20580E-03         0.00000E+00
    0.38873E-03        -0.21857E-03         0.00000E+00
    0.41013E-03        -0.23202E-03         0.00000E+00
    0.43273E-03        -0.24618E-03         0.00000E+00
    0.45658E-03        -0.26112E-03         0.00000E+00
    0.48176E-03        -0.27687E-03         0.00000E+00
    0.50834E-03        -0.29350E-03         0.00000E+00
    0.53640E-03        -0.31105E-03         0.00000E+00
    0.56602E-03        -0.32960E-03         0.00000E+00
    0.59727E-03        -0.34920E-03         0.00000E+00
    0.63025E-03        -0.36992E-03         0.00000E+00
    0.66504E-03        -0.39183E-03         0.00000E+00
    0.70173E-03        -0.41501E-03         0.00000E+00
    0.74042E-03        -0.43954E-03         0.00000E+00
    0.78121E-03        -0.46551E-03         0.00000E+00
    0.82420E-03        -0.49300E-03         0.00000E+00
    0.86948E-03        -0.52211E-03         0.00000E+00
    0.91718E-03        -0.55296E-03         0.00000E+00
    0.96740E-03        -0.58565E-03         0.00000E+00
    0.10202E-02        -0.62030E-03         0.00000E+00
    0.10758E-02        -0.65704E-03         0.00000E+00
    0.11343E-02        -0.69602E-03         0.00000E+00
    0.11957E-02        -0.73737E-03         0.00000E+00
    0.12602E-02        -0.78126E-03         0.00000E+00
    0.13279E-02        -0.82787E-03         0.00000E+00
    0.13990E-02        -0.87737E-03         0.00000E+00
    0.14735E-02        -0.92998E-03         0.00000E+00
    0.15515E-02        -0.98591E-03         0.00000E+00
    0.16331E-02        -0.10454E-02         0.00000E+00
    0.17184E-02        -0.11087E-02         0.00000E+00
    0.18076E-02        -0.11761E-02         0.00000E+00
    0.19006E-02        -0.12479E-02         0.00000E+00
    0.19974E-02        -0.13244E-02         0.00000E+00
    0.20983E-02        -0.14060E-02         0.00000E+00
    0.22030E-02        -0.14932E-02         0.00000E+00
    0.23116E-02        -0.15862E-02         0.00000E+00
    0.24239E-02        -0.16857E-02         0.00000E+00
    0.25400E-02        -0.17921E-02         0.00000E+00
    0.26596E-02        -0.19060E-02         0.00000E+00
    0.27824E-02        -0.20281E-02         0.00000E+00
    0.29082E-02        -0.21590E-02         0.00000E+00
    0.30367E-02        -0.22996E-02         0.00000E+00
    0.31672E-02        -0.24507E-02         0.00000E+00
    0.32994E-02        -0.26133E-02         0.00000E+00
    0.34324E-02        -0.27883E-02         0.00000E+00
    0.35655E-02        -0.29770E-02         0.00000E+00
    0.36979E-02        -0.31805E-02         0.00000E+00
    0.38284E-02        -0.34002E-02         0.00000E+00
    0.39557E-02        -0.36376E-02         0.00000E+00
    0.40787E-02        -0.38942E-02         0.00000E+00
    0.41957E-02        -0.41716E-02         0.00000E+00
    0.43050E-02        -0.44716E-02         0.00000E+00
    0.44047E-02        -0.47958E-02         0.00000E+00
    0.44930E-02        -0.51461E-02         0.00000E+00
    0.45676E-02        -0.55239E-02         0.00000E+00
    0.46262E-02        -0.59308E-02         0.00000E+00
    0.46664E-02        -0.63679E-02         0.00000E+00
    0.46856E-02        -0.68356E-02         0.00000E+00
    0.46811E-02        -0.73339E-02         0.00000E+00
    0.46499E-02        -0.78616E-02         0.00000E+00
    0.45888E-02        -0.84163E-02         0.00000E+00
    0.44939E-02        -0.89936E-02         0.00000E+00
    0.43603E-02        -0.95869E-02         0.00000E+00
    0.41816E-02        -0.10187E-01         0.00000E+00
    0.39487E-02        -0.10782E-01         0.00000E+00
    0.36482E-02        -0.11354E-01         0.00000E+00
    0.32603E-02        -0.11885E-01         0.00000E+00
    0.27549E-02        -0.12349E-01         0.00000E+00
    0.20877E-02        -0.12720E-01         0.00000E+00
    0.11961E-02        -0.12963E-01         0.00000E+00
    0.00000E+00        -0.13049E-01         0.00000E+00
    0.00000E+00         0.10502E-04         0.00000E+00
    0.17023E-04         0.97416E-05         0.00000E+00
    0.31941E-04         0.75422E-05         0.00000E+00
    0.45305E-04         0.41111E-05         0.00000E+00
    0.57565E-04        -0.31750E-06         0.00000E+00
    0.69057E-04        -0.55327E-05         0.00000E+00
    0.80020E-04        -0.11355E-04         0.00000E+00
    0.90625E-04        -0.17634E-04         0.00000E+00
    0.10100E-03        -0.24253E-04         0.00000E+00
    0.11123E-03        -0.31122E-04         0.00000E+00
    0.12140E-03        -0.38178E-04         0.00000E+00
    0.13158E-03        -0.45379E-04         0.00000E+00
    0.14182E-03        -0.52703E-04         0.00000E+00
    0.15219E-03        -0.60142E-04         0.00000E+00
    0.16273E-03        -0.67697E-04         0.00000E+00
    0.17350E-03        -0.75381E-04         0.00000E+00
    0.18455E-03        -0.83212E-04         0.00000E+00
    0.19594E-03        -0.91214E-04         0.00000E+00
    0.20771E-03        -0.99413E-04         0.00000E+00
    0.21994E-03        -0.10784E-03         0.00000E+00
    0.23266E-03        -0.11652E-03         0.00000E+00
    0.24594E-03        -0.12550E-03         0.00000E+00
    0.25982E-03        -0.13480E-03         0.00000E+00
    0.27437E-03        -0.14447E-03         0.00000E+00
    0.28965E-03        -0.15454E-03         0.00000E+00
    0.30570E-03        -0.16504E-03         0.00000E+00
    0.32259E-03        -0.17602E-03         0.00000E+00
    0.34037E-03        -0.18751E-03         0.00000E+00
    0.35912E-03        -0.19957E-03         0.00000E+00
    0.37888E-03        -0.21222E-03         0.00000E+00
    0.39973E-03        -0.22552E-03         0.00000E+00
    0.42173E-03        -0.23950E-03         0.00000E+00
    0.44495E-03        -0.25423E-03         0.00000E+00
    0.46946E-03        -0.26974E-03         0.00000E+00
    0.49534E-03        -0.28610E-03         0.00000E+00
    0.52266E-03        -0.30336E-03         0.00000E+00
    0.55150E-03        -0.32157E-03         0.00000E+00
    0.58194E-03        -0.34080E-03         0.00000E+00
    0.61407E-03        -0.36111E-03         0.00000E+00
    0.64798E-03        -0.38258E-03         0.00000E+00
    0.68376E-03        -0.40527E-03         0.00000E+00
    0.72151E-03        -0.42927E-03         0.00000E+00
    0.76132E-03        -0.45465E-03         0.00000E+00
    0.80330E-03        -0.48152E-03         0.00000E+00
    0.84755E-03        -0.50995E-03         0.00000E+00
    0.89419E-03        -0.54005E-03         0.00000E+00
    0.94333E-03        -0.57193E-03         0.00000E+00
    0.99509E-03        -0.60571E-03         0.00000E+00
    0.10496E-02        -0.64150E-03         0.00000E+00
    0.11069E-02        -0.67943E-03         0.00000E+00
    0.11672E-02        -0.71965E-03         0.00000E+00
    0.12307E-02        -0.76232E-03         0.00000E+00
    0.12973E-02        -0.80758E-03         0.00000E+00
    0.13673E-02        -0.85562E-03         0.00000E+00
    0.14408E-02        -0.90662E-03         0.00000E+00
    0.15179E-02        -0.96079E-03         0.00000E+00
    0.15987E-02        -0.10184E-02         0.00000E+00
    0.16834E-02        -0.10795E-02         0.00000E+00
    0.17720E-02        -0.11446E-02         0.00000E+00
    0.18646E-02        -0.12138E-02         0.00000E+00
    0.19614E-02        -0.12875E-02         0.00000E+00
    0.20624E-02        -0.13661E-02         0.00000E+00
    0.21675E-02        -0.14497E-02         0.00000E+00
    0.22770E-02        -0.15389E-02         0.00000E+00
    0.23907E-02        -0.16342E-02         0.00000E+00
    0.25086E-02        -0.17358E-02         0.00000E+00
    0.26306E-02        -0.18445E-02         0.00000E+00
    0.27567E-02        -0.19607E-02         0.00000E+00
    0.28866E-02        -0.20851E-02         0.00000E+00
    0.30200E-02        -0.22184E-02         0.00000E+00
    0.31568E-02        -0.23614E-02         0.00000E+00
    0.32963E-02        -0.25148E-02         0.00000E+00
    0.34382E-02        -0.26797E-02         0.00000E+00
    0.35819E-02        -0.28570E-02         0.00000E+00
    0.37266E-02        -0.30479E-02         0.00000E+00
    0.38714E-02        -0.32536E-02         0.00000E+00
    0.40153E-02        -0.34754E-02         0.00000E+00
    0.41573E-02        -0.37149E-02         0.00000E+00
    0.42960E-02        -0.39735E-02         0.00000E+00
    0.44298E-02        -0.42530E-02         0.00000E+00
    0.45572E-02        -0.45551E-02         0.00000E+00
    0.46762E-02        -0.48818E-02         0.00000E+00
    0.47848E-02        -0.52348E-02         0.00000E+00
    0.48808E-02        -0.56160E-02         0.00000E+00
    0.49619E-02        -0.60273E-02         0.00000E+00
    0.50254E-02        -0.64701E-02         0.00000E+00
    0.50686E-02        -0.69456E-02         0.00000E+00
    0.50887E-02        -0.74546E-02         0.00000E+00
    0.50825E-02        -0.79968E-02         0.00000E+00
    0.50468E-02        -0.85711E-02         0.00000E+00
    0.49778E-02        -0.91746E-02         0.00000E+00
    0.48713E-02        -0.98027E-02         0.00000E+00
    0.47217E-02        -0.10448E-01         0.00000E+00
    0.45222E-02        -0.11101E-01         0.00000E+00
    0.42629E-02        -0.11747E-01         0.00000E+00
    0.39297E-02        -0.12369E-01         0.00000E+00
    0.35017E-02        -0.12945E-01         0.00000E+00
    0.29479E-02        -0.13447E-01         0.00000E+00
    0.22234E-02        -0.13845E-01         0.00000E+00
    0.12663E-02        -0.14105E-01         0.00000E+00
    0.00000E+00        -0.14196E-01         0.00000E+00
    0.00000E+00         0.10695E-04         0.00000E+00
    0.18129E-04         0.98851E-05         0.00000E+00
    0.34125E-04         0.75357E-05         0.00000E+00
    0.48523E-04         0.38530E-05         0.00000E+00
    0.61767E-04        -0.91874E-06         0.00000E+00
    0.74197E-04        -0.65512E-05         0.00000E+00
    0.86059E-04        -0.12847E-04         0.00000E+00
    0.97530E-04        -0.19643E-04         0.00000E+00
    0.10874E-03        -0.26810E-04         0.00000E+00
    0.11980E-03        -0.34250E-04         0.00000E+00
    0.13079E-03        -0.41894E-04         0.00000E+00
    0.14177E-03        -0.49698E-04         0.00000E+00
    0.15282E-03        -0.57637E-04         0.00000E+00
    0.16399E-03        -0.65701E-04         0.00000E+00
    0.17535E-03        -0.73895E-04         0.00000E+00
    0.18695E-03        -0.82231E-04         0.00000E+00
    0.19885E-03        -0.90729E-04         0.00000E+00
    0.21112E-03        -0.99414E-04         0.00000E+00
    0.22381E-03        -0.10832E-03         0.00000E+00
    0.23697E-03        -0.11747E-03         0.00000E+00
    0.25067E-03        -0.12690E-03         0.00000E+00
    0.26497E-03        -0.13665E-03         0.00000E+00
    0.27993E-03        -0.14676E-03         0.00000E+00
    0.29560E-03        -0.15727E-03         0.00000E+00
    0.31205E-03        -0.16821E-03         0.00000E+00
    0.32933E-03        -0.17963E-03         0.00000E+00
    0.34752E-03        -0.19156E-03         0.00000E+00
    0.36668E-03        -0.20406E-03         0.00000E+00
    0.38687E-03        -0.21717E-03         0.00000E+00
    0.40816E-03        -0.23093E-03         0.00000E+00
    0.43062E-03        -0.24539E-03         0.00000E+00
    0.45432E-03        -0.26060E-03         0.00000E+00
    0.47933E-03        -0.27662E-03         0.00000E+00
    0.50574E-03        -0.29349E-03         0.00000E+00
    0.53361E-03        -0.31128E-03         0.00000E+00
    0.56304E-03        -0.33005E-03         0.00000E+00
    0.59411E-03        -0.34985E-03         0.00000E+00
    0.62691E-03        -0.37077E-03         0.00000E+00
    0.66152E-03        -0.39286E-03         0.00000E+00
    0.69805E-03        -0.41621E-03         0.00000E+00
    0.73660E-03        -0.44088E-03         0.00000E+00
    0.77727E-03        -0.46698E-03         0.00000E+00
    0.82016E-03        -0.49459E-03         0.00000E+00
    0.86539E-03        -0.52380E-03         0.00000E+00
    0.91307E-03        -0.55472E-03         0.00000E+00
    0.96332E-03        -0.58745E-03         0.00000E+00
    0.10163E-02        -0.62211E-03         0.00000E+00
    0.10720E-02        -0.65883E-03         0.00000E+00
    0.11307E-02        -0.69774E-03         0.00000E+00
    0.11925E-02        -0.73898E-03         0.00000E+00
    0.12575E-02        -0.78271E-03         0.00000E+00
    0.13259E-02        -0.82908E-03         0.00000E+00
    0.13977E-02        -0.87827E-03         0.00000E+00
    0.14731E-02        -0.93048E-03         0.00000E+00
    0.15523E-02        -0.98590E-03         0.00000E+00
    0.16354E-02        -0.10448E-02         0.00000E+00
    0.17225E-02        -0.11073E-02         0.00000E+00
    0.18138E-02        -0.11738E-02         0.00000E+00
    0.19092E-02        -0.12445E-02         0.00000E+00
    0.20091E-02        -0.13197E-02         0.00000E+00
    0.21134E-02        -0.13997E-02         0.00000E+00
    0.22222E-02        -0.14849E-02         0.00000E+00
    0.23356E-02        -0.15758E-02         0.00000E+00
    0.24536E-02        -0.16726E-02         0.00000E+00
    0.25762E-02        -0.17759E-02         0.00000E+00
    0.27034E-02        -0.18863E-02         0.00000E+00
    0.28350E-02        -0.20042E-02         0.00000E+00
    0.29710E-02        -0.21302E-02         0.00000E+00
    0.31111E-02        -0.22652E-02         0.00000E+00
    0.32551E-02        -0.24097E-02         0.00000E+00
    0.34026E-02        -0.25647E-02         0.00000E+00
    0.35532E-02        -0.27309E-02         0.00000E+00
    0.37064E-02        -0.29096E-02         0.00000E+00
    0.38615E-02        -0.31016E-02         0.00000E+00
    0.40177E-02        -0.33084E-02         0.00000E+00
    0.41742E-02        -0.35311E-02         0.00000E+00
    0.43297E-02        -0.37712E-02         0.00000E+00
    0.44832E-02        -0.40303E-02         0.00000E+00
    0.46330E-02        -0.43101E-02         0.00000E+00
    0.47778E-02        -0.46125E-02         0.00000E+00
    0.49155E-02        -0.49392E-02         0.00000E+00
    0.50442E-02        -0.52924E-02         0.00000E+00
    0.51617E-02        -0.56740E-02         0.00000E+00
    0.52655E-02        -0.60861E-02         0.00000E+00
    0.53531E-02        -0.65306E-02         0.00000E+00
    0.54215E-02        -0.70091E-02         0.00000E+00
    0.54677E-02        -0.75230E-02         0.00000E+00
    0.54886E-02        -0.80729E-02         0.00000E+00
    0.54807E-02        -0.86588E-02         0.00000E+00
    0.54403E-02        -0.92793E-02         0.00000E+00
    0.53632E-02        -0.99314E-02         0.00000E+00
    0.52446E-02        -0.10610E-01         0.00000E+00
    0.50787E-02        -0.11308E-01         0.00000E+00
    0.48579E-02        -0.12013E-01         0.00000E+00
    0.45716E-02        -0.12711E-01         0.00000E+00
    0.42051E-02        -0.13382E-01         0.00000E+00
    0.37367E-02        -0.14002E-01         0.00000E+00
    0.31347E-02        -0.14542E-01         0.00000E+00
    0.23539E-02        -0.14968E-01         0.00000E+00
    0.13337E-02        -0.15244E-01         0.00000E+00
    0.00000E+00        -0.15340E-01         0.00000E+00
    0.00000E+00         0.10810E-04         0.00000E+00
    0.19209E-04         0.99510E-05         0.00000E+00
    0.36262E-04         0.74503E-05         0.00000E+00
    0.51679E-04         0.35153E-05         0.00000E+00
    0.65897E-04        -0.15994E-05         0.00000E+00
    0.79257E-04        -0.76489E-05         0.00000E+00
    0.92011E-04        -0.14419E-04         0.00000E+00
    0.10434E-03        -0.21731E-04         0.00000E+00
    0.11639E-03        -0.29445E-04         0.00000E+00
    0.12827E-03        -0.37456E-04         0.00000E+00
    0.14006E-03        -0.45688E-04         0.00000E+00
    0.15184E-03        -0.54095E-04         0.00000E+00
    0.16368E-03        -0.62649E-04         0.00000E+00
    0.17565E-03        -0.71340E-04         0.00000E+00
    0.18782E-03        -0.80174E-04         0.00000E+00
    0.20024E-03        -0.89163E-04         0.00000E+00
    0.21299E-03        -0.98329E-04         0.00000E+00
    0.22612E-03        -0.10770E-03         0.00000E+00
    0.23970E-03        -0.11731E-03         0.00000E+00
    0.25379E-03        -0.12718E-03         0.00000E+00
    0.26846E-03        -0.13737E-03         0.00000E+00
    0.28377E-03        -0.14790E-03         0.00000E+00
    0.29978E-03        -0.15882E-03         0.00000E+00
    0.31655E-03        -0.17017E-03         0.00000E+00
    0.33416E-03        -0.18199E-03         0.00000E+00
    0.35267E-03        -0.19433E-03         0.00000E+00
    0.37214E-03        -0.20723E-03         0.00000E+00
    0.39265E-03        -0.22074E-03         0.00000E+00
    0.41427E-03        -0.23491E-03         0.00000E+00
    0.43706E-03        -0.24978E-03         0.00000E+00
    0.46111E-03        -0.26541E-03         0.00000E+00
    0.48649E-03        -0.28186E-03         0.00000E+00
    0.51327E-03        -0.29917E-03         0.00000E+00
    0.54154E-03        -0.31741E-03         0.00000E+00
    0.57139E-03        -0.33664E-03         0.00000E+00
    0.60291E-03        -0.35693E-03         0.00000E+00
    0.63617E-03        -0.37835E-03         0.00000E+00
    0.67129E-03        -0.40096E-03         0.00000E+00
    0.70836E-03        -0.42484E-03         0.00000E+00
    0.74748E-03        -0.45008E-03         0.00000E+00
    0.78876E-03        -0.47676E-03         0.00000E+00
    0.83231E-03        -0.50497E-03         0.00000E+00
    0.87824E-03        -0.53481E-03         0.00000E+00
    0.92667E-03        -0.56639E-03         0.00000E+00
    0.97773E-03        -0.59980E-03         0.00000E+00
    0.10316E-02        -0.63518E-03         0.00000E+00
    0.10883E-02        -0.67265E-03         0.00000E+00
    0.11480E-02        -0.71233E-03         0.00000E+00
    0.12108E-02        -0.75438E-03         0.00000E+00
    0.12770E-02        -0.79894E-03         0.00000E+00
    0.13466E-02        -0.84619E-03         0.00000E+00
    0.14198E-02        -0.89629E-03         0.00000E+00
    0.14968E-02        -0.94944E-03         0.00000E+00
    0.15776E-02        -0.10058E-02         0.00000E+00
    0.16624E-02        -0.10657E-02         0.00000E+00
    0.17514E-02        -0.11293E-02         0.00000E+00
    0.18447E-02        -0.11968E-02         0.00000E+00
    0.19425E-02        -0.12686E-02         0.00000E+00
    0.20448E-02        -0.13449E-02         0.00000E+00
    0.21518E-02        -0.14261E-02         0.00000E+00
    0.22635E-02        -0.15125E-02         0.00000E+00
    0.23801E-02        -0.16045E-02         0.00000E+00
    0.25017E-02        -0.17025E-02         0.00000E+00
    0.26281E-02        -0.18070E-02         0.00000E+00
    0.27595E-02        -0.19185E-02         0.00000E+00
    0.28958E-02        -0.20375E-02         0.00000E+00
    0.30369E-02        -0.21647E-02         0.00000E+00
    0.31827E-02        -0.23006E-02         0.00000E+00
    0.33330E-02        -0.24460E-02         0.00000E+00
    0.34874E-02        -0.26018E-02         0.00000E+00
    0.36456E-02        -0.27688E-02         0.00000E+00
    0.38073E-02        -0.29479E-02         0.00000E+00
    0.39717E-02        -0.31403E-02         0.00000E+00
    0.41381E-02        -0.33472E-02         0.00000E+00
    0.43059E-02        -0.35697E-02         0.00000E+00
    0.44739E-02        -0.38094E-02         0.00000E+00
    0.46410E-02        -0.40677E-02         0.00000E+00
    0.48059E-02        -0.43465E-02         0.00000E+00
    0.49670E-02        -0.46474E-02         0.00000E+00
    0.51226E-02        -0.49725E-02         0.00000E+00
    0.52707E-02        -0.53238E-02         0.00000E+00
    0.54092E-02        -0.57034E-02         0.00000E+00
    0.55355E-02        -0.61135E-02         0.00000E+00
    0.56472E-02        -0.65563E-02         0.00000E+00
    0.57412E-02        -0.70338E-02         0.00000E+00
    0.58145E-02        -0.75478E-02         0.00000E+00
    0.58638E-02        -0.80998E-02         0.00000E+00
    0.58855E-02        -0.86905E-02         0.00000E+00
    0.58758E-02        -0.93198E-02         0.00000E+00
    0.58305E-02        -0.99862E-02         0.00000E+00
    0.57451E-02        -0.10687E-01         0.00000E+00
    0.56142E-02        -0.11416E-01         0.00000E+00
    0.54316E-02        -0.12165E-01         0.00000E+00
    0.51889E-02        -0.12922E-01         0.00000E+00
    0.48752E-02        -0.13672E-01         0.00000E+00
    0.44750E-02        -0.14392E-01         0.00000E+00
    0.39660E-02        -0.15056E-01         0.00000E+00
    0.33160E-02        -0.15633E-01         0.00000E+00
    0.24800E-02        -0.16087E-01         0.00000E+00
    0.13985E-02        -0.16380E-01         0.00000E+00
    0.00000E+00        -0.16482E-01         0.00000E+00
    0.00000E+00         0.10854E-04         0.00000E+00
    0.20266E-04         0.99438E-05         0.00000E+00
    0.38355E-04         0.72900E-05         0.00000E+00
    0.54775E-04         0.31013E-05         0.00000E+00
    0.69956E-04        -0.23573E-05         0.00000E+00
    0.84239E-04        -0.88242E-05         0.00000E+00
    0.97880E-04        -0.16068E-04         0.00000E+00
    0.11107E-03        -0.23897E-04         0.00000E+00
    0.12395E-03        -0.32158E-04         0.00000E+00
    0.13663E-03        -0.40739E-04         0.00000E+00
    0.14922E-03        -0.49560E-04         0.00000E+00
    0.16178E-03        -0.58569E-04         0.00000E+00
    0.17441E-03        -0.67738E-04         0.00000E+00
    0.18717E-03        -0.77057E-04         0.00000E+00
    0.20014E-03        -0.86531E-04         0.00000E+00
    0.21337E-03        -0.96174E-04         0.00000E+00
    0.22695E-03        -0.10601E-03         0.00000E+00
    0.24094E-03        -0.11607E-03         0.00000E+00
    0.25540E-03        -0.12638E-03         0.00000E+00
    0.27040E-03        -0.13699E-03         0.00000E+00
    0.28602E-03        -0.14793E-03         0.00000E+00
    0.30232E-03        -0.15925E-03         0.00000E+00
    0.31937E-03        -0.17098E-03         0.00000E+00
    0.33723E-03        -0.18318E-03         0.00000E+00
    0.35599E-03        -0.19589E-03         0.00000E+00
    0.37570E-03        -0.20915E-03         0.00000E+00
    0.39644E-03        -0.22302E-03         0.00000E+00
    0.41828E-03        -0.23755E-03         0.00000E+00
    0.44131E-03        -0.25278E-03         0.00000E+00
    0.46558E-03        -0.26877E-03         0.00000E+00
    0.49120E-03        -0.28558E-03         0.00000E+00
    0.51823E-03        -0.30327E-03         0.00000E+00
    0.54676E-03        -0.32189E-03         0.00000E+00
    0.57687E-03        -0.34151E-03         0.00000E+00
    0.60867E-03        -0.36219E-03         0.00000E+00
    0.64224E-03        -0.38401E-03         0.00000E+00
    0.67768E-03        -0.40704E-03         0.00000E+00
    0.71509E-03        -0.43136E-03         0.00000E+00
    0.75457E-03        -0.45705E-03         0.00000E+00
    0.79625E-03        -0.48419E-03         0.00000E+00
    0.84022E-03        -0.51288E-03         0.00000E+00
    0.88662E-03        -0.54322E-03         0.00000E+00
    0.93555E-03        -0.57531E-03         0.00000E+00
    0.98715E-03        -0.60927E-03         0.00000E+00
    0.10415E-02        -0.64520E-03         0.00000E+00
    0.10989E-02        -0.68324E-03         0.00000E+00
    0.11593E-02        -0.72352E-03         0.00000E+00
    0.12229E-02        -0.76619E-03         0.00000E+00
    0.12899E-02        -0.81139E-03         0.00000E+00
    0.13604E-02        -0.85930E-03         0.00000E+00
    0.14346E-02        -0.91009E-03         0.00000E+00
    0.15126E-02        -0.96394E-03         0.00000E+00
    0.15946E-02        -0.10211E-02         0.00000E+00
    0.16807E-02        -0.10817E-02         0.00000E+00
    0.17711E-02        -0.11460E-02         0.00000E+00
    0.18659E-02        -0.12143E-02         0.00000E+00
    0.19654E-02        -0.12869E-02         0.00000E+00
    0.20696E-02        -0.13640E-02         0.00000E+00
    0.21786E-02        -0.14460E-02         0.00000E+00
    0.22926E-02        -0.15332E-02         0.00000E+00
    0.24118E-02        -0.16260E-02         0.00000E+00
    0.25361E-02        -0.17248E-02         0.00000E+00
    0.26656E-02        -0.18300E-02         0.00000E+00
    0.28005E-02        -0.19422E-02         0.00000E+00
    0.29406E-02        -0.20618E-02         0.00000E+00
    0.30860E-02        -0.21896E-02         0.00000E+00
    0.32365E-02        -0.23260E-02         0.00000E+00
    0.33920E-02        -0.24718E-02         0.00000E+00
    0.35523E-02        -0.26278E-02         0.00000E+00
    0.37171E-02        -0.27948E-02         0.00000E+00
    0.38860E-02        -0.29738E-02         0.00000E+00
    0.40585E-02        -0.31658E-02         0.00000E+00
    0.42340E-02        -0.33719E-02         0.00000E+00
    0.44118E-02        -0.35935E-02         0.00000E+00
    0.45910E-02        -0.38318E-02         0.00000E+00
    0.47705E-02        -0.40885E-02         0.00000E+00
    0.49492E-02        -0.43651E-02         0.00000E+00
    0.51255E-02        -0.46634E-02         0.00000E+00
    0.52978E-02        -0.49854E-02         0.00000E+00
    0.54643E-02        -0.53331E-02         0.00000E+00
    0.56228E-02        -0.57088E-02         0.00000E+00
    0.57710E-02        -0.61147E-02         0.00000E+00
    0.59063E-02        -0.65532E-02         0.00000E+00
    0.60258E-02        -0.70265E-02         0.00000E+00
    0.61264E-02        -0.75369E-02         0.00000E+00
    0.62047E-02        -0.80862E-02         0.00000E+00
    0.62571E-02        -0.86761E-02         0.00000E+00
    0.62795E-02        -0.93072E-02         0.00000E+00
    0.62679E-02        -0.99797E-02         0.00000E+00
    0.62177E-02        -0.10692E-01         0.00000E+00
    0.61238E-02        -0.11440E-01         0.00000E+00
    0.59804E-02        -0.12219E-01         0.00000E+00
    0.57806E-02        -0.13020E-01         0.00000E+00
    0.55158E-02        -0.13829E-01         0.00000E+00
    0.51742E-02        -0.14630E-01         0.00000E+00
    0.47399E-02        -0.15399E-01         0.00000E+00
    0.41901E-02        -0.16108E-01         0.00000E+00
    0.34925E-02        -0.16722E-01         0.00000E+00
    0.26022E-02        -0.17204E-01         0.00000E+00
    0.14611E-02        -0.17513E-01         0.00000E+00
    0.00000E+00        -0.17621E-01         0.00000E+00
    0.00000E+00         0.10829E-04         0.00000E+00
    0.21300E-04         0.98676E-05         0.00000E+00
    0.40407E-04         0.70583E-05         0.00000E+00
    0.57816E-04         0.26138E-05         0.00000E+00
    0.73949E-04        -0.31900E-05         0.00000E+00
    0.89148E-04        -0.10075E-04         0.00000E+00
    0.10367E-03        -0.17794E-04         0.00000E+00
    0.11770E-03        -0.26139E-04         0.00000E+00
    0.13141E-03        -0.34947E-04         0.00000E+00
    0.14489E-03        -0.44099E-04         0.00000E+00
    0.15827E-03        -0.53507E-04         0.00000E+00
    0.17161E-03        -0.63119E-04         0.00000E+00
    0.18502E-03        -0.72904E-04         0.00000E+00
    0.19856E-03        -0.82851E-04         0.00000E+00
    0.21231E-03        -0.92966E-04         0.00000E+00
    0.22634E-03        -0.10326E-03         0.00000E+00
    0.24074E-03        -0.11377E-03         0.00000E+00
    0.25556E-03        -0.12452E-03         0.00000E+00
    0.27089E-03        -0.13554E-03         0.00000E+00
    0.28680E-03        -0.14688E-03         0.00000E+00
    0.30335E-03        -0.15858E-03         0.00000E+00
    0.32063E-03        -0.17069E-03         0.00000E+00
    0.33870E-03        -0.18324E-03         0.00000E+00
    0.35764E-03        -0.19629E-03         0.00000E+00
    0.37752E-03        -0.20989E-03         0.00000E+00
    0.39842E-03        -0.22408E-03         0.00000E+00
    0.42040E-03        -0.23893E-03         0.00000E+00
    0.44356E-03        -0.25447E-03         0.00000E+00
    0.46797E-03        -0.27078E-03         0.00000E+00
    0.49372E-03        -0.28790E-03         0.00000E+00
    0.52087E-03        -0.30590E-03         0.00000E+00
    0.54953E-03        -0.32483E-03         0.00000E+00
    0.57978E-03        -0.34477E-03         0.00000E+00
    0.61172E-03        -0.36577E-03         0.00000E+00
    0.64544E-03        -0.38792E-03         0.00000E+00
    0.68103E-03        -0.41128E-03         0.00000E+00
    0.71861E-03        -0.43594E-03         0.00000E+00
    0.75828E-03        -0.46197E-03         0.00000E+00
    0.80016E-03        -0.48947E-03         0.00000E+00
    0.84435E-03        -0.51853E-03         0.00000E+00
    0.89099E-03        -0.54925E-03         0.00000E+00
    0.94019E-03        -0.58173E-03         0.00000E+00
    0.99208E-03        -0.61609E-03         0.00000E+00
    0.10468E-02        -0.65243E-03         0.00000E+00
    0.11045E-02        -0.69090E-03         0.00000E+00
    0.11653E-02        -0.73162E-03         0.00000E+00
    0.12294E-02        -0.77474E-03         0.00000E+00
    0.12969E-02        -0.82040E-03         0.00000E+00
    0.13679E-02        -0.86878E-03         0.00000E+00
    0.14427E-02        -0.92005E-03         0.00000E+00
    0.15214E-02        -0.97440E-03         0.00000E+00
    0.16041E-02        -0.10320E-02         0.00000E+00
    0.16911E-02        -0.10932E-02         0.00000E+00
    0.17824E-02        -0.11580E-02         0.00000E+00
    0.18783E-02        -0.12268E-02         0.00000E+00
    0.19790E-02        -0.12999E-02         0.00000E+00
    0.20845E-02        -0.13775E-02         0.00000E+00
    0.21950E-02        -0.14600E-02         0.00000E+00
    0.23107E-02        -0.15477E-02         0.00000E+00
    0.24317E-02        -0.16409E-02         0.00000E+00
    0.25581E-02        -0.17401E-02         0.00000E+00
    0.26900E-02        -0.18457E-02         0.00000E+00
    0.28275E-02        -0.19582E-02         0.00000E+00
    0.29707E-02        -0.20781E-02         0.00000E+00
    0.31194E-02        -0.22059E-02         0.00000E+00
    0.32737E-02        -0.23423E-02         0.00000E+00
    0.34336E-02        -0.24880E-02         0.00000E+00
    0.35987E-02        -0.26438E-02         0.00000E+00
    0.37690E-02        -0.28103E-02         0.00000E+00
    0.39440E-02        -0.29886E-02         0.00000E+00
    0.41235E-02        -0.31796E-02         0.00000E+00
    0.43069E-02        -0.33845E-02         0.00000E+00
    0.44934E-02        -0.36044E-02         0.00000E+00
    0.46825E-02        -0.38407E-02         0.00000E+00
    0.48731E-02        -0.40948E-02         0.00000E+00
    0.50641E-02        -0.43684E-02         0.00000E+00
    0.52542E-02        -0.46631E-02         0.00000E+00
    0.54419E-02        -0.49810E-02         0.00000E+00
    0.56255E-02        -0.53240E-02         0.00000E+00
    0.58029E-02        -0.56943E-02         0.00000E+00
    0.59718E-02        -0.60943E-02         0.00000E+00
    0.61299E-02        -0.65264E-02         0.00000E+00
    0.62742E-02        -0.69930E-02         0.00000E+00
    0.64016E-02        -0.74967E-02         0.00000E+00
    0.65088E-02        -0.80398E-02         0.00000E+00
    0.65921E-02        -0.86242E-02         0.00000E+00
    0.66476E-02        -0.92517E-02         0.00000E+00
    0.66709E-02        -0.99231E-02         0.00000E+00
    0.66574E-02        -0.10638E-01         0.00000E+00
    0.66021E-02        -0.11396E-01         0.00000E+00
    0.64996E-02        -0.12192E-01         0.00000E+00
    0.63435E-02        -0.13021E-01         0.00000E+00
    0.61263E-02        -0.13873E-01         0.00000E+00
    0.58388E-02        -0.14734E-01         0.00000E+00
    0.54690E-02        -0.15586E-01         0.00000E+00
    0.50003E-02        -0.16403E-01         0.00000E+00
    0.44097E-02        -0.17157E-01         0.00000E+00
    0.36646E-02        -0.17808E-01         0.00000E+00
    0.27209E-02        -0.18318E-01         0.00000E+00
    0.15217E-02        -0.18645E-01         0.00000E+00
    0.00000E+00        -0.18758E-01         0.00000E+00
    0.00000E+00         0.10741E-04         0.00000E+00
    0.22315E-04         0.97266E-05         0.00000E+00
    0.42421E-04         0.67592E-05         0.00000E+00
    0.60804E-04         0.20561E-05         0.00000E+00
    0.77880E-04        -0.40952E-05         0.00000E+00
    0.93984E-04        -0.11400E-04         0.00000E+00
    0.10938E-03        -0.19594E-04         0.00000E+00
    0.12426E-03        -0.28456E-04         0.00000E+00
    0.13877E-03        -0.37812E-04         0.00000E+00
    0.15305E-03        -0.47533E-04         0.00000E+00
    0.16720E-03        -0.57530E-04         0.00000E+00
    0.18132E-03        -0.67744E-04         0.00000E+00
    0.19549E-03        -0.78145E-04         0.00000E+00
    0.20980E-03        -0.88720E-04         0.00000E+00
    0.22432E-03        -0.99477E-04         0.00000E+00
    0.23914E-03        -0.11043E-03         0.00000E+00
    0.25434E-03        -0.12161E-03         0.00000E+00
    0.27000E-03        -0.13305E-03         0.00000E+00
    0.28618E-03        -0.14479E-03         0.00000E+00
    0.30297E-03        -0.15686E-03         0.00000E+00
    0.32045E-03        -0.16932E-03         0.00000E+00
    0.33869E-03        -0.18222E-03         0.00000E+00
    0.35777E-03        -0.19559E-03         0.00000E+00
    0.37776E-03        -0.20950E-03         0.00000E+00
    0.39875E-03        -0.22399E-03         0.00000E+00
    0.42082E-03        -0.23912E-03         0.00000E+00
    0.44404E-03        -0.25495E-03         0.00000E+00
    0.46849E-03        -0.27152E-03         0.00000E+00
    0.49427E-03        -0.28891E-03         0.00000E+00
    0.52145E-03        -0.30717E-03         0.00000E+00
    0.55013E-03        -0.32636E-03         0.00000E+00
    0.58040E-03        -0.34655E-03         0.00000E+00
    0.61235E-03        -0.36781E-03         0.00000E+00
    0.64608E-03        -0.39021E-03         0.00000E+00
    0.68169E-03        -0.41382E-03         0.00000E+00
    0.71928E-03        -0.43874E-03         0.00000E+00
    0.75897E-03        -0.46503E-03         0.00000E+00
    0.80088E-03        -0.49279E-03         0.00000E+00
    0.84510E-03        -0.52212E-03         0.00000E+00
    0.89178E-03        -0.55311E-03         0.00000E+00
    0.94104E-03        -0.58586E-03         0.00000E+00
    0.99301E-03        -0.62050E-03         0.00000E+00
    0.10478E-02        -0.65713E-03         0.00000E+00
    0.11056E-02        -0.69588E-03         0.00000E+00
    0.11666E-02        -0.73690E-03         0.00000E+00
    0.12308E-02        -0.78031E-03         0.00000E+00
    0.12985E-02        -0.82628E-03         0.00000E+00
    0.13698E-02        -0.87496E-03         0.00000E+00
    0.14448E-02        -0.92654E-03         0.00000E+00
    0.15238E-02        -0.98119E-03         0.00000E+00
    0.16070E-02        -0.10391E-02         0.00000E+00
    0.16944E-02        -0.11005E-02         0.00000E+00
    0.17862E-02        -0.11657E-02         0.00000E+00
    0.18828E-02        -0.12348E-02         0.00000E+00
    0.19841E-02        -0.13081E-02         0.00000E+00
    0.20904E-02        -0.13860E-02         0.00000E+00
    0.22019E-02        -0.14687E-02         0.00000E+00
    0.23187E-02        -0.15565E-02         0.00000E+00
    0.24410E-02        -0.16499E-02         0.00000E+00
    0.25689E-02        -0.17492E-02         0.00000E+00
    0.27025E-02        -0.18548E-02         0.00000E+00
    0.28420E-02        -0.19673E-02         0.00000E+00
    0.29873E-02        -0.20870E-02         0.00000E+00
    0.31387E-02        -0.22146E-02         0.00000E+00
    0.32959E-02        -0.23507E-02         0.00000E+00
    0.34592E-02        -0.24959E-02         0.00000E+00
    0.36282E-02        -0.26509E-02         0.00000E+00
    0.38029E-02        -0.28165E-02         0.00000E+00
    0.39830E-02        -0.29936E-02         0.00000E+00
    0.41683E-02        -0.31832E-02         0.00000E+00
    0.43582E-02        -0.33863E-02         0.00000E+00
    0.45524E-02        -0.36040E-02         0.00000E+00
    0.47499E-02        -0.38377E-02         0.00000E+00
    0.49502E-02        -0.40887E-02         0.00000E+00
    0.51522E-02        -0.43585E-02         0.00000E+00
    0.53546E-02        -0.46490E-02         0.00000E+00
    0.55562E-02        -0.49619E-02         0.00000E+00
    0.57553E-02        -0.52992E-02         0.00000E+00
    0.59500E-02        -0.56631E-02         0.00000E+00
    0.61384E-02        -0.60560E-02         0.00000E+00
    0.63178E-02        -0.64802E-02         0.00000E+00
    0.64857E-02        -0.69383E-02         0.00000E+00
    0.66391E-02        -0.74330E-02         0.00000E+00
    0.67745E-02        -0.79669E-02         0.00000E+00
    0.68884E-02        -0.85424E-02         0.00000E+00
    0.69769E-02        -0.91618E-02         0.00000E+00
    0.70355E-02        -0.98267E-02         0.00000E+00
    0.70596E-02        -0.10538E-01         0.00000E+00
    0.70443E-02        -0.11296E-01         0.00000E+00
    0.69840E-02        -0.12099E-01         0.00000E+00
    0.68728E-02        -0.12942E-01         0.00000E+00
    0.67037E-02        -0.13821E-01         0.00000E+00
    0.64689E-02        -0.14723E-01         0.00000E+00
    0.61586E-02        -0.15636E-01         0.00000E+00
    0.57601E-02        -0.16539E-01         0.00000E+00
    0.52568E-02        -0.17405E-01         0.00000E+00
    0.46251E-02        -0.18203E-01         0.00000E+00
    0.38329E-02        -0.18892E-01         0.00000E+00
    0.28366E-02        -0.19430E-01         0.00000E+00
    0.15807E-02        -0.19775E-01         0.00000E+00
    0.00000E+00        -0.19894E-01         0.00000E+00
    0.00000E+00         0.10593E-04         0.00000E+00
    0.23310E-04         0.95247E-05         0.00000E+00
    0.44400E-04         0.63961E-05         0.00000E+00
    0.63743E-04         0.14309E-05         0.00000E+00
    0.81750E-04        -0.50706E-05         0.00000E+00
    0.98753E-04        -0.12797E-04         0.00000E+00
    0.11501E-03        -0.21468E-04         0.00000E+00
    0.13072E-03        -0.30847E-04         0.00000E+00
    0.14605E-03        -0.40750E-04         0.00000E+00
    0.16111E-03        -0.51042E-04         0.00000E+00
    0.17604E-03        -0.61626E-04         0.00000E+00
    0.19091E-03        -0.72443E-04         0.00000E+00
    0.20584E-03        -0.83459E-04         0.00000E+00
    0.22090E-03        -0.94664E-04         0.00000E+00
    0.23618E-03        -0.10606E-03         0.00000E+00
    0.25178E-03        -0.11768E-03         0.00000E+00
    0.26777E-03        -0.12953E-03         0.00000E+00
    0.28424E-03        -0.14166E-03         0.00000E+00
    0.30126E-03        -0.15411E-03         0.00000E+00
    0.31893E-03        -0.16692E-03         0.00000E+00
    0.33731E-03        -0.18015E-03         0.00000E+00
    0.35650E-03        -0.19384E-03         0.00000E+00
    0.37657E-03        -0.20804E-03         0.00000E+00
    0.39761E-03        -0.22281E-03         0.00000E+00
    0.41969E-03        -0.23820E-03         0.00000E+00
    0.44290E-03        -0.25427E-03         0.00000E+00
    0.46733E-03        -0.27108E-03         0.00000E+00
    0.49307E-03        -0.28869E-03         0.00000E+00
    0.52019E-03        -0.30716E-03         0.00000E+00
    0.54880E-03        -0.32656E-03         0.00000E+00
    0.57897E-03        -0.34695E-03         0.00000E+00
    0.61083E-03        -0.36841E-03         0.00000E+00
    0.64445E-03        -0.39100E-03         0.00000E+00
    0.67994E-03        -0.41480E-03         0.00000E+00
    0.71742E-03        -0.43990E-03         0.00000E+00
    0.75698E-03        -0.46637E-03         0.00000E+00
    0.79875E-03        -0.49431E-03         0.00000E+00
    0.84285E-03        -0.52381E-03         0.00000E+00
    0.88940E-03        -0.55498E-03         0.00000E+00
    0.93853E-03        -0.58790E-03         0.00000E+00
    0.99037E-03        -0.62271E-03         0.00000E+00
    0.10451E-02        -0.65951E-03         0.00000E+00
    0.11028E-02        -0.69843E-03         0.00000E+00
    0.11636E-02        -0.73961E-03         0.00000E+00
    0.12278E-02        -0.78318E-03         0.00000E+00
    0.12954E-02        -0.82930E-03         0.00000E+00
    0.13666E-02        -0.87814E-03         0.00000E+00
    0.14417E-02        -0.92986E-03         0.00000E+00
    0.15207E-02        -0.98464E-03         0.00000E+00
    0.16038E-02        -0.10427E-02         0.00000E+00
    0.16913E-02        -0.11042E-02         0.00000E+00
    0.17834E-02        -0.11695E-02         0.00000E+00
    0.18801E-02        -0.12386E-02         0.00000E+00
    0.19817E-02        -0.13120E-02         0.00000E+00
    0.20884E-02        -0.13899E-02         0.00000E+00
    0.22004E-02        -0.14726E-02         0.00000E+00
    0.23178E-02        -0.15604E-02         0.00000E+00
    0.24408E-02        -0.16536E-02         0.00000E+00
    0.25695E-02        -0.17527E-02         0.00000E+00
    0.27042E-02        -0.18581E-02         0.00000E+00
    0.28450E-02        -0.19702E-02         0.00000E+00
    0.29919E-02        -0.20895E-02         0.00000E+00
    0.31450E-02        -0.22165E-02         0.00000E+00
    0.33044E-02        -0.23519E-02         0.00000E+00
    0.34702E-02        -0.24962E-02         0.00000E+00
    0.36422E-02        -0.26501E-02         0.00000E+00
    0.38203E-02        -0.28144E-02         0.00000E+00
    0.40045E-02        -0.29900E-02         0.00000E+00
    0.41944E-02        -0.31777E-02         0.00000E+00
    0.43898E-02        -0.33786E-02         0.00000E+00
    0.45902E-02        -0.35937E-02         0.00000E+00
    0.47950E-02        -0.38243E-02         0.00000E+00
    0.50035E-02        -0.40717E-02         0.00000E+00
    0.52149E-02        -0.43374E-02         0.00000E+00
    0.54282E-02        -0.46230E-02         0.00000E+00
    0.56420E-02        -0.49304E-02         0.00000E+00
    0.58550E-02        -0.52613E-02         0.00000E+00
    0.60655E-02        -0.56181E-02         0.00000E+00
    0.62715E-02        -0.60029E-02         0.00000E+00
    0.64708E-02        -0.64181E-02         0.00000E+00
    0.66608E-02        -0.68664E-02         0.00000E+00
    0.68386E-02        -0.73505E-02         0.00000E+00
    0.70011E-02        -0.78732E-02         0.00000E+00
    0.71446E-02        -0.84371E-02         0.00000E+00
    0.72654E-02        -0.90449E-02         0.00000E+00
    0.73590E-02        -0.96989E-02         0.00000E+00
    0.74209E-02        -0.10401E-01         0.00000E+00
    0.74461E-02        -0.11152E-01         0.00000E+00
    0.74289E-02        -0.11952E-01         0.00000E+00
    0.73636E-02        -0.12800E-01         0.00000E+00
    0.72436E-02        -0.13691E-01         0.00000E+00
    0.70615E-02        -0.14618E-01         0.00000E+00
    0.68089E-02        -0.15572E-01         0.00000E+00
    0.64754E-02        -0.16536E-01         0.00000E+00
    0.60481E-02        -0.17490E-01         0.00000E+00
    0.55098E-02        -0.18405E-01         0.00000E+00
    0.48371E-02        -0.19247E-01         0.00000E+00
    0.39980E-02        -0.19974E-01         0.00000E+00
    0.29498E-02        -0.20541E-01         0.00000E+00
    0.16383E-02        -0.20904E-01         0.00000E+00
    0.00000E+00        -0.21028E-01         0.00000E+00
    0.00000E+00         0.10390E-04         0.00000E+00
    0.24289E-04         0.92658E-05         0.00000E+00
    0.46346E-04         0.59725E-05         0.00000E+00
    0.66636E-04         0.74135E-06         0.00000E+00
    0.85564E-04        -0.61138E-05         0.00000E+00
    0.10346E-03        -0.14265E-04         0.00000E+00
    0.12057E-03        -0.23413E-04         0.00000E+00
    0.13711E-03        -0.33310E-04         0.00000E+00
    0.15323E-03        -0.43762E-04         0.00000E+00
    0.16908E-03        -0.54623E-04         0.00000E+00
    0.18476E-03        -0.65795E-04         0.00000E+00
    0.20038E-03        -0.77214E-04         0.00000E+00
    0.21605E-03        -0.88846E-04         0.00000E+00
    0.23186E-03        -0.10068E-03         0.00000E+00
    0.24789E-03        -0.11272E-03         0.00000E+00
    0.26425E-03        -0.12499E-03         0.00000E+00
    0.28102E-03        -0.13752E-03         0.00000E+00
    0.29829E-03        -0.15035E-03         0.00000E+00
    0.31614E-03        -0.16351E-03         0.00000E+00
    0.33466E-03        -0.17707E-03         0.00000E+00
    0.35394E-03        -0.19106E-03         0.00000E+00
    0.37406E-03        -0.20555E-03         0.00000E+00
    0.39510E-03        -0.22058E-03         0.00000E+00
    0.41716E-03        -0.23621E-03         0.00000E+00
    0.44032E-03        -0.25251E-03         0.00000E+00
    0.46467E-03        -0.26952E-03         0.00000E+00
    0.49029E-03        -0.28733E-03         0.00000E+00
    0.51728E-03        -0.30597E-03         0.00000E+00
    0.54573E-03        -0.32554E-03         0.00000E+00
    0.57573E-03        -0.34608E-03         0.00000E+00
    0.60739E-03        -0.36768E-03         0.00000E+00
    0.64080E-03        -0.39041E-03         0.00000E+00
    0.67607E-03        -0.41433E-03         0.00000E+00
    0.71330E-03        -0.43955E-03         0.00000E+00
    0.75261E-03        -0.46613E-03         0.00000E+00
    0.79412E-03        -0.49418E-03         0.00000E+00
    0.83794E-03        -0.52378E-03         0.00000E+00
    0.88421E-03        -0.55503E-03         0.00000E+00
    0.93304E-03        -0.58804E-03         0.00000E+00
    0.98459E-03        -0.62292E-03         0.00000E+00
    0.10390E-02        -0.65978E-03         0.00000E+00
    0.10964E-02        -0.69876E-03         0.00000E+00
    0.11569E-02        -0.73999E-03         0.00000E+00
    0.12207E-02        -0.78360E-03         0.00000E+00
    0.12880E-02        -0.82975E-03         0.00000E+00
    0.13590E-02        -0.87860E-03         0.00000E+00
    0.14337E-02        -0.93031E-03         0.00000E+00
    0.15125E-02        -0.98508E-03         0.00000E+00
    0.15954E-02        -0.10431E-02         0.00000E+00
    0.16827E-02        -0.11046E-02         0.00000E+00
    0.17745E-02        -0.11697E-02         0.00000E+00
    0.18711E-02        -0.12388E-02         0.00000E+00
    0.19726E-02        -0.13120E-02         0.00000E+00
    0.20792E-02        -0.13897E-02         0.00000E+00
    0.21912E-02        -0.14721E-02         0.00000E+00
    0.23087E-02        -0.15596E-02         0.00000E+00
    0.24320E-02        -0.16525E-02         0.00000E+00
    0.25611E-02        -0.17512E-02         0.00000E+00
    0.26963E-02        -0.18561E-02         0.00000E+00
    0.28377E-02        -0.19676E-02         0.00000E+00
    0.29855E-02        -0.20861E-02         0.00000E+00
    0.31397E-02        -0.22123E-02         0.00000E+00
    0.33005E-02        -0.23467E-02         0.00000E+00
    0.34680E-02        -0.24898E-02         0.00000E+00
    0.36421E-02        -0.26424E-02         0.00000E+00
    0.38228E-02        -0.28051E-02         0.00000E+00
    0.40100E-02        -0.29787E-02         0.00000E+00
    0.42035E-02        -0.31643E-02         0.00000E+00
    0.44032E-02        -0.33626E-02         0.00000E+00
    0.46086E-02        -0.35747E-02         0.00000E+00
    0.48193E-02        -0.38019E-02         0.00000E+00
    0.50347E-02        -0.40453E-02         0.00000E+00
    0.52541E-02        -0.43065E-02         0.00000E+00
    0.54766E-02        -0.45869E-02         0.00000E+00
    0.57011E-02        -0.48883E-02         0.00000E+00
    0.59263E-02        -0.52124E-02         0.00000E+00
    0.61508E-02        -0.55615E-02         0.00000E+00
    0.63727E-02        -0.59375E-02         0.00000E+00
    0.65899E-02        -0.63431E-02         0.00000E+00
    0.68002E-02        -0.67807E-02         0.00000E+00
    0.70007E-02        -0.72530E-02         0.00000E+00
    0.71886E-02        -0.77629E-02         0.00000E+00
    0.73603E-02        -0.83133E-02         0.00000E+00
    0.75121E-02        -0.89071E-02         0.00000E+00
    0.76398E-02        -0.95470E-02         0.00000E+00
    0.77388E-02        -0.10235E-01         0.00000E+00
    0.78041E-02        -0.10974E-01         0.00000E+00
    0.78303E-02        -0.11765E-01         0.00000E+00
    0.78114E-02        -0.12607E-01         0.00000E+00
    0.77412E-02        -0.13499E-01         0.00000E+00
    0.76124E-02        -0.14437E-01         0.00000E+00
    0.74172E-02        -0.15414E-01         0.00000E+00
    0.71466E-02        -0.16418E-01         0.00000E+00
    0.67898E-02        -0.17433E-01         0.00000E+00
    0.63333E-02        -0.18438E-01         0.00000E+00
    0.57599E-02        -0.19402E-01         0.00000E+00
    0.50460E-02        -0.20289E-01         0.00000E+00
    0.41603E-02        -0.21055E-01         0.00000E+00
    0.30607E-02        -0.21651E-01         0.00000E+00
    0.16946E-02        -0.22032E-01         0.00000E+00
    0.00000E+00        -0.22163E-01         0.00000E+00
    0.00000E+00         0.10135E-04         0.00000E+00
    0.25251E-04         0.89537E-05         0.00000E+00
    0.48261E-04         0.54919E-05         0.00000E+00
    0.69487E-04        -0.97442E-08         0.00000E+00
    0.89324E-04        -0.72225E-05         0.00000E+00
    0.10810E-03        -0.15801E-04         0.00000E+00
    0.12606E-03        -0.25429E-04         0.00000E+00
    0.14342E-03        -0.35845E-04         0.00000E+00
    0.16033E-03        -0.46844E-04         0.00000E+00
    0.17694E-03        -0.58276E-04         0.00000E+00
    0.19337E-03        -0.70035E-04         0.00000E+00
    0.20973E-03        -0.82056E-04         0.00000E+00
    0.22613E-03        -0.94303E-04         0.00000E+00
    0.24267E-03        -0.10677E-03         0.00000E+00
    0.25945E-03        -0.11945E-03         0.00000E+00
    0.27656E-03        -0.13238E-03         0.00000E+00
    0.29409E-03        -0.14559E-03         0.00000E+00
    0.31214E-03        -0.15911E-03         0.00000E+00
    0.33080E-03        -0.17300E-03         0.00000E+00
    0.35017E-03        -0.18729E-03         0.00000E+00
    0.37032E-03        -0.20205E-03         0.00000E+00
    0.39136E-03        -0.21734E-03         0.00000E+00
    0.41336E-03        -0.23320E-03         0.00000E+00
    0.43643E-03        -0.24970E-03         0.00000E+00
    0.46065E-03        -0.26691E-03         0.00000E+00
    0.48610E-03        -0.28488E-03         0.00000E+00
    0.51290E-03        -0.30368E-03         0.00000E+00
    0.54113E-03        -0.32337E-03         0.00000E+00
    0.57088E-03        -0.34403E-03         0.00000E+00
    0.60226E-03        -0.36573E-03         0.00000E+00
    0.63537E-03        -0.38854E-03         0.00000E+00
    0.67032E-03        -0.41254E-03         0.00000E+00
    0.70721E-03        -0.43782E-03         0.00000E+00
    0.74615E-03        -0.46445E-03         0.00000E+00
    0.78728E-03        -0.49253E-03         0.00000E+00
    0.83070E-03        -0.52216E-03         0.00000E+00
    0.87654E-03        -0.55342E-03         0.00000E+00
    0.92493E-03        -0.58643E-03         0.00000E+00
    0.97602E-03        -0.62130E-03         0.00000E+00
    0.10299E-02        -0.65814E-03         0.00000E+00
    0.10868E-02        -0.69708E-03         0.00000E+00
    0.11469E-02        -0.73825E-03         0.00000E+00
    0.12102E-02        -0.78179E-03         0.00000E+00
    0.12770E-02        -0.82785E-03         0.00000E+00
    0.13474E-02        -0.87659E-03         0.00000E+00
    0.14216E-02        -0.92818E-03         0.00000E+00
    0.14999E-02        -0.98279E-03         0.00000E+00
    0.15822E-02        -0.10406E-02         0.00000E+00
    0.16690E-02        -0.11019E-02         0.00000E+00
    0.17603E-02        -0.11668E-02         0.00000E+00
    0.18564E-02        -0.12356E-02         0.00000E+00
    0.19575E-02        -0.13085E-02         0.00000E+00
    0.20637E-02        -0.13858E-02         0.00000E+00
    0.21753E-02        -0.14678E-02         0.00000E+00
    0.22925E-02        -0.15548E-02         0.00000E+00
    0.24155E-02        -0.16471E-02         0.00000E+00
    0.25445E-02        -0.17452E-02         0.00000E+00
    0.26797E-02        -0.18493E-02         0.00000E+00
    0.28212E-02        -0.19600E-02         0.00000E+00
    0.29692E-02        -0.20776E-02         0.00000E+00
    0.31240E-02        -0.22027E-02         0.00000E+00
    0.32855E-02        -0.23358E-02         0.00000E+00
    0.34539E-02        -0.24774E-02         0.00000E+00
    0.36293E-02        -0.26283E-02         0.00000E+00
    0.38116E-02        -0.27892E-02         0.00000E+00
    0.40009E-02        -0.29607E-02         0.00000E+00
    0.41971E-02        -0.31437E-02         0.00000E+00
    0.43999E-02        -0.33392E-02         0.00000E+00
    0.46092E-02        -0.35481E-02         0.00000E+00
    0.48245E-02        -0.37716E-02         0.00000E+00
    0.50455E-02        -0.40108E-02         0.00000E+00
    0.52714E-02        -0.42671E-02         0.00000E+00
    0.55016E-02        -0.45420E-02         0.00000E+00
    0.57352E-02        -0.48371E-02         0.00000E+00
    0.59709E-02        -0.51542E-02         0.00000E+00
    0.62075E-02        -0.54952E-02         0.00000E+00
    0.64434E-02        -0.58622E-02         0.00000E+00
    0.66767E-02        -0.62576E-02         0.00000E+00
    0.69052E-02        -0.66839E-02         0.00000E+00
    0.71265E-02        -0.71437E-02         0.00000E+00
    0.73377E-02        -0.76399E-02         0.00000E+00
    0.75357E-02        -0.81755E-02         0.00000E+00
    0.77167E-02        -0.87536E-02         0.00000E+00
    0.78769E-02        -0.93770E-02         0.00000E+00
    0.80116E-02        -0.10049E-01         0.00000E+00
    0.81161E-02        -0.10772E-01         0.00000E+00
    0.81850E-02        -0.11547E-01         0.00000E+00
    0.82124E-02        -0.12377E-01         0.00000E+00
    0.81920E-02        -0.13261E-01         0.00000E+00
    0.81169E-02        -0.14198E-01         0.00000E+00
    0.79794E-02        -0.15182E-01         0.00000E+00
    0.77711E-02        -0.16207E-01         0.00000E+00
    0.74825E-02        -0.17262E-01         0.00000E+00
    0.71022E-02        -0.18328E-01         0.00000E+00
    0.66164E-02        -0.19384E-01         0.00000E+00
    0.60076E-02        -0.20397E-01         0.00000E+00
    0.52525E-02        -0.21329E-01         0.00000E+00
    0.43202E-02        -0.22133E-01         0.00000E+00
    0.31699E-02        -0.22759E-01         0.00000E+00
    0.17500E-02        -0.23159E-01         0.00000E+00
    0.00000E+00        -0.23297E-01         0.00000E+00
    0.00000E+00         0.98326E-05         0.00000E+00
    0.26199E-04         0.85923E-05         0.00000E+00
    0.50148E-04         0.49578E-05         0.00000E+00
    0.72297E-04        -0.81952E-06         0.00000E+00
    0.93035E-04        -0.83944E-05         0.00000E+00
    0.11268E-03        -0.17403E-04         0.00000E+00
    0.13148E-03        -0.27513E-04         0.00000E+00
    0.14965E-03        -0.38449E-04         0.00000E+00
    0.16734E-03        -0.49997E-04         0.00000E+00
    0.18471E-03        -0.61998E-04         0.00000E+00
    0.20188E-03        -0.74345E-04         0.00000E+00
    0.21897E-03        -0.86967E-04         0.00000E+00
    0.23609E-03        -0.99830E-04         0.00000E+00
    0.25335E-03        -0.11292E-03         0.00000E+00
    0.27085E-03        -0.12625E-03         0.00000E+00
    0.28869E-03        -0.13984E-03         0.00000E+00
    0.30697E-03        -0.15373E-03         0.00000E+00
    0.32580E-03        -0.16795E-03         0.00000E+00
    0.34526E-03        -0.18255E-03         0.00000E+00
    0.36545E-03        -0.19759E-03         0.00000E+00
    0.38646E-03        -0.21313E-03         0.00000E+00
    0.40840E-03        -0.22921E-03         0.00000E+00
    0.43135E-03        -0.24591E-03         0.00000E+00
    0.45540E-03        -0.26329E-03         0.00000E+00
    0.48066E-03        -0.28141E-03         0.00000E+00
    0.50721E-03        -0.30033E-03         0.00000E+00
    0.53516E-03        -0.32013E-03         0.00000E+00
    0.56460E-03        -0.34087E-03         0.00000E+00
    0.59564E-03        -0.36264E-03         0.00000E+00
    0.62838E-03        -0.38550E-03         0.00000E+00
    0.66292E-03        -0.40953E-03         0.00000E+00
    0.69937E-03        -0.43482E-03         0.00000E+00
    0.73786E-03        -0.46145E-03         0.00000E+00
    0.77849E-03        -0.48951E-03         0.00000E+00
    0.82140E-03        -0.51909E-03         0.00000E+00
    0.86670E-03        -0.55030E-03         0.00000E+00
    0.91453E-03        -0.58324E-03         0.00000E+00
    0.96502E-03        -0.61802E-03         0.00000E+00
    0.10183E-02        -0.65475E-03         0.00000E+00
    0.10746E-02        -0.69357E-03         0.00000E+00
    0.11340E-02        -0.73459E-03         0.00000E+00
    0.11966E-02        -0.77796E-03         0.00000E+00
    0.12627E-02        -0.82383E-03         0.00000E+00
    0.13324E-02        -0.87235E-03         0.00000E+00
    0.14059E-02        -0.92370E-03         0.00000E+00
    0.14833E-02        -0.97803E-03         0.00000E+00
    0.15649E-02        -0.10356E-02         0.00000E+00
    0.16509E-02        -0.10965E-02         0.00000E+00
    0.17415E-02        -0.11610E-02         0.00000E+00
    0.18368E-02        -0.12293E-02         0.00000E+00
    0.19371E-02        -0.13018E-02         0.00000E+00
    0.20426E-02        -0.13786E-02         0.00000E+00
    0.21534E-02        -0.14600E-02         0.00000E+00
    0.22700E-02        -0.15463E-02         0.00000E+00
    0.23923E-02        -0.16379E-02         0.00000E+00
    0.25207E-02        -0.17351E-02         0.00000E+00
    0.26554E-02        -0.18383E-02         0.00000E+00
    0.27965E-02        -0.19479E-02         0.00000E+00
    0.29442E-02        -0.20644E-02         0.00000E+00
    0.30988E-02        -0.21881E-02         0.00000E+00
    0.32604E-02        -0.23198E-02         0.00000E+00
    0.34291E-02        -0.24598E-02         0.00000E+00
    0.36051E-02        -0.26088E-02         0.00000E+00
    0.37883E-02        -0.27675E-02         0.00000E+00
    0.39788E-02        -0.29366E-02         0.00000E+00
    0.41766E-02        -0.31170E-02         0.00000E+00
    0.43816E-02        -0.33094E-02         0.00000E+00
    0.45937E-02        -0.35149E-02         0.00000E+00
    0.48125E-02        -0.37344E-02         0.00000E+00
    0.50377E-02        -0.39692E-02         0.00000E+00
    0.52688E-02        -0.42205E-02         0.00000E+00
    0.55052E-02        -0.44897E-02         0.00000E+00
    0.57462E-02        -0.47783E-02         0.00000E+00
    0.59907E-02        -0.50880E-02         0.00000E+00
    0.62377E-02        -0.54208E-02         0.00000E+00
    0.64856E-02        -0.57785E-02         0.00000E+00
    0.67329E-02        -0.61635E-02         0.00000E+00
    0.69776E-02        -0.65782E-02         0.00000E+00
    0.72174E-02        -0.70251E-02         0.00000E+00
    0.74498E-02        -0.75071E-02         0.00000E+00
    0.76718E-02        -0.80271E-02         0.00000E+00
    0.78799E-02        -0.85883E-02         0.00000E+00
    0.80704E-02        -0.91938E-02         0.00000E+00
    0.82391E-02        -0.98468E-02         0.00000E+00
    0.83811E-02        -0.10550E-01         0.00000E+00
    0.84913E-02        -0.11307E-01         0.00000E+00
    0.85639E-02        -0.12119E-01         0.00000E+00
    0.85928E-02        -0.12988E-01         0.00000E+00
    0.85709E-02        -0.13914E-01         0.00000E+00
    0.84910E-02        -0.14894E-01         0.00000E+00
    0.83449E-02        -0.15925E-01         0.00000E+00
    0.81236E-02        -0.16999E-01         0.00000E+00
    0.78169E-02        -0.18103E-01         0.00000E+00
    0.74130E-02        -0.19221E-01         0.00000E+00
    0.68977E-02        -0.20327E-01         0.00000E+00
    0.62534E-02        -0.21389E-01         0.00000E+00
    0.54571E-02        -0.22367E-01         0.00000E+00
    0.44784E-02        -0.23211E-01         0.00000E+00
    0.32775E-02        -0.23867E-01         0.00000E+00
    0.18045E-02        -0.24286E-01         0.00000E+00
    0.00000E+00        -0.24431E-01         0.00000E+00
    0.00000E+00         0.94860E-05         0.00000E+00
    0.27133E-04         0.81850E-05         0.00000E+00
    0.52008E-04         0.43733E-05         0.00000E+00
    0.75069E-04        -0.16852E-05         0.00000E+00
    0.96698E-04        -0.96272E-05         0.00000E+00
    0.11720E-03        -0.19070E-04         0.00000E+00
    0.13684E-03        -0.29664E-04         0.00000E+00
    0.15581E-03        -0.41122E-04         0.00000E+00
    0.17427E-03        -0.53218E-04         0.00000E+00
    0.19239E-03        -0.65790E-04         0.00000E+00
    0.21028E-03        -0.78723E-04         0.00000E+00
    0.22809E-03        -0.91947E-04         0.00000E+00
    0.24591E-03        -0.10543E-03         0.00000E+00
    0.26388E-03        -0.11915E-03         0.00000E+00
    0.28209E-03        -0.13312E-03         0.00000E+00
    0.30065E-03        -0.14737E-03         0.00000E+00
    0.31967E-03        -0.16193E-03         0.00000E+00
    0.33925E-03        -0.17685E-03         0.00000E+00
    0.35950E-03        -0.19218E-03         0.00000E+00
    0.38050E-03        -0.20797E-03         0.00000E+00
    0.40236E-03        -0.22428E-03         0.00000E+00
    0.42518E-03        -0.24117E-03         0.00000E+00
    0.44905E-03        -0.25871E-03         0.00000E+00
    0.47408E-03        -0.27696E-03         0.00000E+00
    0.50036E-03        -0.29600E-03         0.00000E+00
    0.52799E-03        -0.31588E-03         0.00000E+00
    0.55707E-03        -0.33668E-03         0.00000E+00
    0.58771E-03        -0.35848E-03         0.00000E+00
    0.62000E-03        -0.38136E-03         0.00000E+00
    0.65407E-03        -0.40538E-03         0.00000E+00
    0.69002E-03        -0.43064E-03         0.00000E+00
    0.72796E-03        -0.45722E-03         0.00000E+00
    0.76802E-03        -0.48521E-03         0.00000E+00
    0.81031E-03        -0.51470E-03         0.00000E+00
    0.85497E-03        -0.54580E-03         0.00000E+00
    0.90212E-03        -0.57861E-03         0.00000E+00
    0.95191E-03        -0.61323E-03         0.00000E+00
    0.10045E-02        -0.64979E-03         0.00000E+00
    0.10600E-02        -0.68840E-03         0.00000E+00
    0.11185E-02        -0.72919E-03         0.00000E+00
    0.11803E-02        -0.77231E-03         0.00000E+00
    0.12455E-02        -0.81790E-03         0.00000E+00
    0.13143E-02        -0.86611E-03         0.00000E+00
    0.13869E-02        -0.91710E-03         0.00000E+00
    0.14634E-02        -0.97106E-03         0.00000E+00
    0.15440E-02        -0.10282E-02         0.00000E+00
    0.16290E-02        -0.10886E-02         0.00000E+00
    0.17185E-02        -0.11526E-02         0.00000E+00
    0.18128E-02        -0.12204E-02         0.00000E+00
    0.19120E-02        -0.12922E-02         0.00000E+00
    0.20165E-02        -0.13683E-02         0.00000E+00
    0.21263E-02        -0.14490E-02         0.00000E+00
    0.22418E-02        -0.15345E-02         0.00000E+00
    0.23631E-02        -0.16252E-02         0.00000E+00
    0.24905E-02        -0.17214E-02         0.00000E+00
    0.26243E-02        -0.18235E-02         0.00000E+00
    0.27645E-02        -0.19319E-02         0.00000E+00
    0.29115E-02        -0.20470E-02         0.00000E+00
    0.30655E-02        -0.21693E-02         0.00000E+00
    0.32265E-02        -0.22992E-02         0.00000E+00
    0.33949E-02        -0.24374E-02         0.00000E+00
    0.35707E-02        -0.25843E-02         0.00000E+00
    0.37540E-02        -0.27408E-02         0.00000E+00
    0.39450E-02        -0.29073E-02         0.00000E+00
    0.41436E-02        -0.30847E-02         0.00000E+00
    0.43498E-02        -0.32739E-02         0.00000E+00
    0.45636E-02        -0.34757E-02         0.00000E+00
    0.47848E-02        -0.36912E-02         0.00000E+00
    0.50130E-02        -0.39214E-02         0.00000E+00
    0.52480E-02        -0.41675E-02         0.00000E+00
    0.54892E-02        -0.44308E-02         0.00000E+00
    0.57361E-02        -0.47129E-02         0.00000E+00
    0.59877E-02        -0.50152E-02         0.00000E+00
    0.62432E-02        -0.53396E-02         0.00000E+00
    0.65013E-02        -0.56880E-02         0.00000E+00
    0.67605E-02        -0.60625E-02         0.00000E+00
    0.70192E-02        -0.64654E-02         0.00000E+00
    0.72754E-02        -0.68993E-02         0.00000E+00
    0.75266E-02        -0.73668E-02         0.00000E+00
    0.77701E-02        -0.78709E-02         0.00000E+00
    0.80029E-02        -0.84146E-02         0.00000E+00
    0.82213E-02        -0.90012E-02         0.00000E+00
    0.84215E-02        -0.96340E-02         0.00000E+00
    0.85988E-02        -0.10316E-01         0.00000E+00
    0.87482E-02        -0.11051E-01         0.00000E+00
    0.88643E-02        -0.11842E-01         0.00000E+00
    0.89409E-02        -0.12690E-01         0.00000E+00
    0.89714E-02        -0.13598E-01         0.00000E+00
    0.89484E-02        -0.14565E-01         0.00000E+00
    0.88639E-02        -0.15589E-01         0.00000E+00
    0.87093E-02        -0.16666E-01         0.00000E+00
    0.84750E-02        -0.17788E-01         0.00000E+00
    0.81502E-02        -0.18942E-01         0.00000E+00
    0.77227E-02        -0.20110E-01         0.00000E+00
    0.71778E-02        -0.21267E-01         0.00000E+00
    0.64979E-02        -0.22379E-01         0.00000E+00
    0.56602E-02        -0.23403E-01         0.00000E+00
    0.46351E-02        -0.24287E-01         0.00000E+00
    0.33841E-02        -0.24975E-01         0.00000E+00
    0.18584E-02        -0.25414E-01         0.00000E+00
    0.00000E+00        -0.25565E-01         0.00000E+00
    0.00000E+00         0.90992E-05         0.00000E+00
    0.28055E-04         0.77357E-05         0.00000E+00
    0.53844E-04         0.37417E-05         0.00000E+00
    0.77807E-04        -0.26040E-05         0.00000E+00
    0.10032E-03        -0.10919E-04         0.00000E+00
    0.12168E-03        -0.20800E-04         0.00000E+00
    0.14214E-03        -0.31881E-04         0.00000E+00
    0.16189E-03        -0.43862E-04         0.00000E+00
    0.18112E-03        -0.56507E-04         0.00000E+00
    0.19997E-03        -0.69648E-04         0.00000E+00
    0.21858E-03        -0.83168E-04         0.00000E+00
    0.23709E-03        -0.96993E-04         0.00000E+00
    0.25561E-03        -0.11109E-03         0.00000E+00
    0.27427E-03        -0.12544E-03         0.00000E+00
    0.29317E-03        -0.14006E-03         0.00000E+00
    0.31244E-03        -0.15497E-03         0.00000E+00
    0.33219E-03        -0.17021E-03         0.00000E+00
    0.35251E-03        -0.18583E-03         0.00000E+00
    0.37352E-03        -0.20188E-03         0.00000E+00
    0.39532E-03        -0.21842E-03         0.00000E+00
    0.41801E-03        -0.23550E-03         0.00000E+00
    0.44169E-03        -0.25321E-03         0.00000E+00
    0.46647E-03        -0.27159E-03         0.00000E+00
    0.49245E-03        -0.29072E-03         0.00000E+00
    0.51974E-03        -0.31067E-03         0.00000E+00
    0.54842E-03        -0.33152E-03         0.00000E+00
    0.57862E-03        -0.35333E-03         0.00000E+00
    0.61043E-03        -0.37620E-03         0.00000E+00
    0.64397E-03        -0.40018E-03         0.00000E+00
    0.67935E-03        -0.42538E-03         0.00000E+00
    0.71668E-03        -0.45187E-03         0.00000E+00
    0.75608E-03        -0.47975E-03         0.00000E+00
    0.79768E-03        -0.50910E-03         0.00000E+00
    0.84160E-03        -0.54004E-03         0.00000E+00
    0.88798E-03        -0.57266E-03         0.00000E+00
    0.93696E-03        -0.60707E-03         0.00000E+00
    0.98867E-03        -0.64338E-03         0.00000E+00
    0.10433E-02        -0.68173E-03         0.00000E+00
    0.11009E-02        -0.72222E-03         0.00000E+00
    0.11617E-02        -0.76501E-03         0.00000E+00
    0.12259E-02        -0.81024E-03         0.00000E+00
    0.12937E-02        -0.85805E-03         0.00000E+00
    0.13651E-02        -0.90861E-03         0.00000E+00
    0.14405E-02        -0.96209E-03         0.00000E+00
    0.15200E-02        -0.10187E-02         0.00000E+00
    0.16037E-02        -0.10786E-02         0.00000E+00
    0.16920E-02        -0.11420E-02         0.00000E+00
    0.17850E-02        -0.12091E-02         0.00000E+00
    0.18830E-02        -0.12802E-02         0.00000E+00
    0.19861E-02        -0.13555E-02         0.00000E+00
    0.20946E-02        -0.14352E-02         0.00000E+00
    0.22087E-02        -0.15198E-02         0.00000E+00
    0.23287E-02        -0.16095E-02         0.00000E+00
    0.24548E-02        -0.17045E-02         0.00000E+00
    0.25872E-02        -0.18054E-02         0.00000E+00
    0.27262E-02        -0.19124E-02         0.00000E+00
    0.28720E-02        -0.20260E-02         0.00000E+00
    0.30248E-02        -0.21466E-02         0.00000E+00
    0.31848E-02        -0.22747E-02         0.00000E+00
    0.33522E-02        -0.24108E-02         0.00000E+00
    0.35273E-02        -0.25555E-02         0.00000E+00
    0.37101E-02        -0.27095E-02         0.00000E+00
    0.39007E-02        -0.28733E-02         0.00000E+00
    0.40993E-02        -0.30477E-02         0.00000E+00
    0.43059E-02        -0.32334E-02         0.00000E+00
    0.45205E-02        -0.34315E-02         0.00000E+00
    0.47430E-02        -0.36427E-02         0.00000E+00
    0.49731E-02        -0.38682E-02         0.00000E+00
    0.52108E-02        -0.41090E-02         0.00000E+00
    0.54555E-02        -0.43664E-02         0.00000E+00
    0.57067E-02        -0.46418E-02         0.00000E+00
    0.59639E-02        -0.49367E-02         0.00000E+00
    0.62262E-02        -0.52528E-02         0.00000E+00
    0.64926E-02        -0.55919E-02         0.00000E+00
    0.67618E-02        -0.59559E-02         0.00000E+00
    0.70323E-02        -0.63471E-02         0.00000E+00
    0.73024E-02        -0.67679E-02         0.00000E+00
    0.75700E-02        -0.72209E-02         0.00000E+00
    0.78326E-02        -0.77089E-02         0.00000E+00
    0.80874E-02        -0.82350E-02         0.00000E+00
    0.83311E-02        -0.88023E-02         0.00000E+00
    0.85600E-02        -0.94142E-02         0.00000E+00
    0.87699E-02        -0.10074E-01         0.00000E+00
    0.89560E-02        -0.10786E-01         0.00000E+00
    0.91131E-02        -0.11552E-01         0.00000E+00
    0.92353E-02        -0.12376E-01         0.00000E+00
    0.93162E-02        -0.13260E-01         0.00000E+00
    0.93485E-02        -0.14206E-01         0.00000E+00
    0.93245E-02        -0.15214E-01         0.00000E+00
    0.92358E-02        -0.16282E-01         0.00000E+00
    0.90729E-02        -0.17405E-01         0.00000E+00
    0.88258E-02        -0.18574E-01         0.00000E+00
    0.84830E-02        -0.19779E-01         0.00000E+00
    0.80318E-02        -0.20998E-01         0.00000E+00
    0.74573E-02        -0.22206E-01         0.00000E+00
    0.67416E-02        -0.23367E-01         0.00000E+00
    0.58624E-02        -0.24437E-01         0.00000E+00
    0.47910E-02        -0.25362E-01         0.00000E+00
    0.34899E-02        -0.26082E-01         0.00000E+00
    0.19119E-02        -0.26542E-01         0.00000E+00
    0.00000E+00        -0.26700E-01         0.00000E+00
    0.00000E+00         0.86760E-05         0.00000E+00
    0.28965E-04         0.72478E-05         0.00000E+00
    0.55659E-04         0.30662E-05         0.00000E+00
    0.80514E-04        -0.35734E-05         0.00000E+00
    0.10390E-03        -0.12267E-04         0.00000E+00
    0.12610E-03        -0.22590E-04         0.00000E+00
    0.14737E-03        -0.34162E-04         0.00000E+00
    0.16791E-03        -0.46666E-04         0.00000E+00
    0.18789E-03        -0.59862E-04         0.00000E+00
    0.20746E-03        -0.73573E-04         0.00000E+00
    0.22678E-03        -0.87678E-04         0.00000E+00
    0.24597E-03        -0.10210E-03         0.00000E+00
    0.26517E-03        -0.11681E-03         0.00000E+00
    0.28451E-03        -0.13179E-03         0.00000E+00
    0.30410E-03        -0.14706E-03         0.00000E+00
    0.32406E-03        -0.16263E-03         0.00000E+00
    0.34451E-03        -0.17855E-03         0.00000E+00
    0.36556E-03        -0.19487E-03         0.00000E+00
    0.38732E-03        -0.21165E-03         0.00000E+00
    0.40990E-03        -0.22894E-03         0.00000E+00
    0.43340E-03        -0.24680E-03         0.00000E+00
    0.45794E-03        -0.26532E-03         0.00000E+00
    0.48361E-03        -0.28455E-03         0.00000E+00
    0.51053E-03        -0.30456E-03         0.00000E+00
    0.53879E-03        -0.32544E-03         0.00000E+00
    0.56852E-03        -0.34725E-03         0.00000E+00
    0.59981E-03        -0.37008E-03         0.00000E+00
    0.63277E-03        -0.39401E-03         0.00000E+00
    0.66753E-03        -0.41911E-03         0.00000E+00
    0.70419E-03        -0.44549E-03         0.00000E+00
    0.74288E-03        -0.47322E-03         0.00000E+00
    0.78372E-03        -0.50240E-03         0.00000E+00
    0.82684E-03        -0.53313E-03         0.00000E+00
    0.87237E-03        -0.56551E-03         0.00000E+00
    0.92044E-03        -0.59966E-03         0.00000E+00
    0.97120E-03        -0.63568E-03         0.00000E+00
    0.10248E-02        -0.67370E-03         0.00000E+00
    0.10814E-02        -0.71384E-03         0.00000E+00
    0.11411E-02        -0.75623E-03         0.00000E+00
    0.12042E-02        -0.80102E-03         0.00000E+00
    0.12708E-02        -0.84836E-03         0.00000E+00
    0.13410E-02        -0.89841E-03         0.00000E+00
    0.14151E-02        -0.95133E-03         0.00000E+00
    0.14932E-02        -0.10073E-02         0.00000E+00
    0.15756E-02        -0.10665E-02         0.00000E+00
    0.16625E-02        -0.11292E-02         0.00000E+00
    0.17540E-02        -0.11956E-02         0.00000E+00
    0.18504E-02        -0.12658E-02         0.00000E+00
    0.19520E-02        -0.13402E-02         0.00000E+00
    0.20589E-02        -0.14190E-02         0.00000E+00
    0.21714E-02        -0.15025E-02         0.00000E+00
    0.22898E-02        -0.15910E-02         0.00000E+00
    0.24142E-02        -0.16847E-02         0.00000E+00
    0.25450E-02        -0.17842E-02         0.00000E+00
    0.26823E-02        -0.18897E-02         0.00000E+00
    0.28265E-02        -0.20016E-02         0.00000E+00
    0.29777E-02        -0.21204E-02         0.00000E+00
    0.31362E-02        -0.22466E-02         0.00000E+00
    0.33022E-02        -0.23805E-02         0.00000E+00
    0.34759E-02        -0.25229E-02         0.00000E+00
    0.36576E-02        -0.26742E-02         0.00000E+00
    0.38473E-02        -0.28351E-02         0.00000E+00
    0.40452E-02        -0.30063E-02         0.00000E+00
    0.42513E-02        -0.31886E-02         0.00000E+00
    0.44659E-02        -0.33827E-02         0.00000E+00
    0.46887E-02        -0.35896E-02         0.00000E+00
    0.49197E-02        -0.38103E-02         0.00000E+00
    0.51588E-02        -0.40458E-02         0.00000E+00
    0.54057E-02        -0.42972E-02         0.00000E+00
    0.56600E-02        -0.45660E-02         0.00000E+00
    0.59213E-02        -0.48535E-02         0.00000E+00
    0.61887E-02        -0.51613E-02         0.00000E+00
    0.64616E-02        -0.54911E-02         0.00000E+00
    0.67388E-02        -0.58447E-02         0.00000E+00
    0.70191E-02        -0.62244E-02         0.00000E+00
    0.73009E-02        -0.66323E-02         0.00000E+00
    0.75825E-02        -0.70709E-02         0.00000E+00
    0.78615E-02        -0.75430E-02         0.00000E+00
    0.81356E-02        -0.80514E-02         0.00000E+00
    0.84017E-02        -0.85994E-02         0.00000E+00
    0.86564E-02        -0.91902E-02         0.00000E+00
    0.88959E-02        -0.98273E-02         0.00000E+00
    0.91157E-02        -0.10514E-01         0.00000E+00
    0.93109E-02        -0.11255E-01         0.00000E+00
    0.94759E-02        -0.12052E-01         0.00000E+00
    0.96044E-02        -0.12910E-01         0.00000E+00
    0.96898E-02        -0.13830E-01         0.00000E+00
    0.97242E-02        -0.14814E-01         0.00000E+00
    0.96996E-02        -0.15862E-01         0.00000E+00
    0.96068E-02        -0.16973E-01         0.00000E+00
    0.94359E-02        -0.18141E-01         0.00000E+00
    0.91762E-02        -0.19359E-01         0.00000E+00
    0.88156E-02        -0.20613E-01         0.00000E+00
    0.83408E-02        -0.21883E-01         0.00000E+00
    0.77366E-02        -0.23142E-01         0.00000E+00
    0.69851E-02        -0.24353E-01         0.00000E+00
    0.60643E-02        -0.25470E-01         0.00000E+00
    0.49463E-02        -0.26436E-01         0.00000E+00
    0.35952E-02        -0.27190E-01         0.00000E+00
    0.19650E-02        -0.27671E-01         0.00000E+00
    0.00000E+00        -0.27836E-01         0.00000E+00
    0.00000E+00         0.82201E-05         0.00000E+00
    0.29866E-04         0.67250E-05         0.00000E+00
    0.57454E-04         0.23499E-05         0.00000E+00
    0.83191E-04        -0.45907E-05         0.00000E+00
    0.10744E-03        -0.13669E-04         0.00000E+00
    0.13048E-03        -0.24440E-04         0.00000E+00
    0.15255E-03        -0.36504E-04         0.00000E+00
    0.17386E-03        -0.49535E-04         0.00000E+00
    0.19458E-03        -0.63281E-04         0.00000E+00
    0.21486E-03        -0.77561E-04         0.00000E+00
    0.23487E-03        -0.92253E-04         0.00000E+00
    0.25474E-03        -0.10728E-03         0.00000E+00
    0.27461E-03        -0.12260E-03         0.00000E+00
    0.29461E-03        -0.13821E-03         0.00000E+00
    0.31487E-03        -0.15412E-03         0.00000E+00
    0.33551E-03        -0.17035E-03         0.00000E+00
    0.35665E-03        -0.18696E-03         0.00000E+00
    0.37841E-03        -0.20398E-03         0.00000E+00
    0.40091E-03        -0.22148E-03         0.00000E+00
    0.42425E-03        -0.23952E-03         0.00000E+00
    0.44855E-03        -0.25817E-03         0.00000E+00
    0.47392E-03        -0.27750E-03         0.00000E+00
    0.50046E-03        -0.29758E-03         0.00000E+00
    0.52830E-03        -0.31848E-03         0.00000E+00
    0.55753E-03        -0.34029E-03         0.00000E+00
    0.58827E-03        -0.36307E-03         0.00000E+00
    0.62063E-03        -0.38692E-03         0.00000E+00
    0.65473E-03        -0.41191E-03         0.00000E+00
    0.69068E-03        -0.43815E-03         0.00000E+00
    0.72861E-03        -0.46570E-03         0.00000E+00
    0.76863E-03        -0.49468E-03         0.00000E+00
    0.81088E-03        -0.52517E-03         0.00000E+00
    0.85549E-03        -0.55728E-03         0.00000E+00
    0.90259E-03        -0.59112E-03         0.00000E+00
    0.95232E-03        -0.62680E-03         0.00000E+00
    0.10048E-02        -0.66444E-03         0.00000E+00
    0.10603E-02        -0.70416E-03         0.00000E+00
    0.11189E-02        -0.74611E-03         0.00000E+00
    0.11807E-02        -0.79041E-03         0.00000E+00
    0.12459E-02        -0.83721E-03         0.00000E+00
    0.13148E-02        -0.88667E-03         0.00000E+00
    0.13875E-02        -0.93897E-03         0.00000E+00
    0.14641E-02        -0.99426E-03         0.00000E+00
    0.15450E-02        -0.10528E-02         0.00000E+00
    0.16303E-02        -0.11146E-02         0.00000E+00
    0.17201E-02        -0.11801E-02         0.00000E+00
    0.18149E-02        -0.12494E-02         0.00000E+00
    0.19147E-02        -0.13228E-02         0.00000E+00
    0.20198E-02        -0.14005E-02         0.00000E+00
    0.21305E-02        -0.14828E-02         0.00000E+00
    0.22469E-02        -0.15700E-02         0.00000E+00
    0.23694E-02        -0.16624E-02         0.00000E+00
    0.24982E-02        -0.17604E-02         0.00000E+00
    0.26336E-02        -0.18643E-02         0.00000E+00
    0.27758E-02        -0.19744E-02         0.00000E+00
    0.29251E-02        -0.20913E-02         0.00000E+00
    0.30816E-02        -0.22153E-02         0.00000E+00
    0.32458E-02        -0.23470E-02         0.00000E+00
    0.34177E-02        -0.24869E-02         0.00000E+00
    0.35976E-02        -0.26354E-02         0.00000E+00
    0.37858E-02        -0.27934E-02         0.00000E+00
    0.39823E-02        -0.29613E-02         0.00000E+00
    0.41873E-02        -0.31399E-02         0.00000E+00
    0.44010E-02        -0.33301E-02         0.00000E+00
    0.46233E-02        -0.35326E-02         0.00000E+00
    0.48542E-02        -0.37484E-02         0.00000E+00
    0.50938E-02        -0.39785E-02         0.00000E+00
    0.53417E-02        -0.42240E-02         0.00000E+00
    0.55978E-02        -0.44861E-02         0.00000E+00
    0.58617E-02        -0.47662E-02         0.00000E+00
    0.61328E-02        -0.50658E-02         0.00000E+00
    0.64105E-02        -0.53864E-02         0.00000E+00
    0.66939E-02        -0.57299E-02         0.00000E+00
    0.69819E-02        -0.60982E-02         0.00000E+00
    0.72733E-02        -0.64934E-02         0.00000E+00
    0.75664E-02        -0.69180E-02         0.00000E+00
    0.78593E-02        -0.73744E-02         0.00000E+00
    0.81499E-02        -0.78655E-02         0.00000E+00
    0.84355E-02        -0.83944E-02         0.00000E+00
    0.87129E-02        -0.89641E-02         0.00000E+00
    0.89788E-02        -0.95783E-02         0.00000E+00
    0.92290E-02        -0.10240E-01         0.00000E+00
    0.94589E-02        -0.10954E-01         0.00000E+00
    0.96634E-02        -0.11724E-01         0.00000E+00
    0.98365E-02        -0.12552E-01         0.00000E+00
    0.99718E-02        -0.13443E-01         0.00000E+00
    0.10062E-01        -0.14398E-01         0.00000E+00
    0.10099E-01        -0.15420E-01         0.00000E+00
    0.10074E-01        -0.16509E-01         0.00000E+00
    0.99773E-02        -0.17663E-01         0.00000E+00
    0.97988E-02        -0.18876E-01         0.00000E+00
    0.95266E-02        -0.20141E-01         0.00000E+00
    0.91484E-02        -0.21444E-01         0.00000E+00
    0.86502E-02        -0.22765E-01         0.00000E+00
    0.80163E-02        -0.24075E-01         0.00000E+00
    0.72289E-02        -0.25337E-01         0.00000E+00
    0.62663E-02        -0.26501E-01         0.00000E+00
    0.51017E-02        -0.27510E-01         0.00000E+00
    0.37005E-02        -0.28297E-01         0.00000E+00
    0.20181E-02        -0.28801E-01         0.00000E+00
    0.00000E+00        -0.28974E-01         0.00000E+00
    0.00000E+00         0.77352E-05         0.00000E+00
    0.30757E-04         0.61707E-05         0.00000E+00
    0.59231E-04         0.15959E-05         0.00000E+00
    0.85843E-04        -0.56535E-05         0.00000E+00
    0.11094E-03        -0.15124E-04         0.00000E+00
    0.13481E-03        -0.26348E-04         0.00000E+00
    0.15768E-03        -0.38908E-04         0.00000E+00
    0.17975E-03        -0.52465E-04         0.00000E+00
    0.20119E-03        -0.66762E-04         0.00000E+00
    0.22218E-03        -0.81612E-04         0.00000E+00
    0.24286E-03        -0.96889E-04         0.00000E+00
    0.26339E-03        -0.11252E-03         0.00000E+00
    0.28392E-03        -0.12845E-03         0.00000E+00
    0.30457E-03        -0.14469E-03         0.00000E+00
    0.32548E-03        -0.16124E-03         0.00000E+00
    0.34678E-03        -0.17814E-03         0.00000E+00
    0.36860E-03        -0.19543E-03         0.00000E+00
    0.39106E-03        -0.21315E-03         0.00000E+00
    0.41427E-03        -0.23138E-03         0.00000E+00
    0.43836E-03        -0.25018E-03         0.00000E+00
    0.46344E-03        -0.26961E-03         0.00000E+00
    0.48962E-03        -0.28976E-03         0.00000E+00
    0.51702E-03        -0.31069E-03         0.00000E+00
    0.54575E-03        -0.33248E-03         0.00000E+00
    0.57593E-03        -0.35521E-03         0.00000E+00
    0.60767E-03        -0.37897E-03         0.00000E+00
    0.64108E-03        -0.40385E-03         0.00000E+00
    0.67629E-03        -0.42992E-03         0.00000E+00
    0.71342E-03        -0.45727E-03         0.00000E+00
    0.75258E-03        -0.48602E-03         0.00000E+00
    0.79392E-03        -0.51624E-03         0.00000E+00
    0.83755E-03        -0.54805E-03         0.00000E+00
    0.88362E-03        -0.58155E-03         0.00000E+00
    0.93227E-03        -0.61685E-03         0.00000E+00
    0.98364E-03        -0.65407E-03         0.00000E+00
    0.10379E-02        -0.69334E-03         0.00000E+00
    0.10952E-02        -0.73478E-03         0.00000E+00
    0.11557E-02        -0.77854E-03         0.00000E+00
    0.12195E-02        -0.82475E-03         0.00000E+00
    0.12869E-02        -0.87357E-03         0.00000E+00
    0.13581E-02        -0.92517E-03         0.00000E+00
    0.14331E-02        -0.97972E-03         0.00000E+00
    0.15123E-02        -0.10374E-02         0.00000E+00
    0.15959E-02        -0.10984E-02         0.00000E+00
    0.16839E-02        -0.11630E-02         0.00000E+00
    0.17768E-02        -0.12312E-02         0.00000E+00
    0.18747E-02        -0.13035E-02         0.00000E+00
    0.19778E-02        -0.13801E-02         0.00000E+00
    0.20864E-02        -0.14611E-02         0.00000E+00
    0.22008E-02        -0.15469E-02         0.00000E+00
    0.23211E-02        -0.16379E-02         0.00000E+00
    0.24477E-02        -0.17342E-02         0.00000E+00
    0.25808E-02        -0.18364E-02         0.00000E+00
    0.27207E-02        -0.19447E-02         0.00000E+00
    0.28677E-02        -0.20595E-02         0.00000E+00
    0.30220E-02        -0.21813E-02         0.00000E+00
    0.31838E-02        -0.23106E-02         0.00000E+00
    0.33535E-02        -0.24479E-02         0.00000E+00
    0.35312E-02        -0.25936E-02         0.00000E+00
    0.37173E-02        -0.27484E-02         0.00000E+00
    0.39119E-02        -0.29130E-02         0.00000E+00
    0.41151E-02        -0.30879E-02         0.00000E+00
    0.43272E-02        -0.32740E-02         0.00000E+00
    0.45482E-02        -0.34721E-02         0.00000E+00
    0.47782E-02        -0.36830E-02         0.00000E+00
    0.50172E-02        -0.39077E-02         0.00000E+00
    0.52652E-02        -0.41472E-02         0.00000E+00
    0.55219E-02        -0.44028E-02         0.00000E+00
    0.57871E-02        -0.46756E-02         0.00000E+00
    0.60604E-02        -0.49670E-02         0.00000E+00
    0.63413E-02        -0.52787E-02         0.00000E+00
    0.66292E-02        -0.56122E-02         0.00000E+00
    0.69230E-02        -0.59694E-02         0.00000E+00
    0.72218E-02        -0.63523E-02         0.00000E+00
    0.75242E-02        -0.67631E-02         0.00000E+00
    0.78286E-02        -0.72042E-02         0.00000E+00
    0.81330E-02        -0.76784E-02         0.00000E+00
    0.84351E-02        -0.81885E-02         0.00000E+00
    0.87322E-02        -0.87376E-02         0.00000E+00
    0.90212E-02        -0.93291E-02         0.00000E+00
    0.92983E-02        -0.99666E-02         0.00000E+00
    0.95594E-02        -0.10654E-01         0.00000E+00
    0.97997E-02        -0.11394E-01         0.00000E+00
    0.10014E-01        -0.12192E-01         0.00000E+00
    0.10195E-01        -0.13051E-01         0.00000E+00
    0.10337E-01        -0.13975E-01         0.00000E+00
    0.10433E-01        -0.14966E-01         0.00000E+00
    0.10472E-01        -0.16025E-01         0.00000E+00
    0.10448E-01        -0.17154E-01         0.00000E+00
    0.10348E-01        -0.18350E-01         0.00000E+00
    0.10162E-01        -0.19609E-01         0.00000E+00
    0.98775E-02        -0.20921E-01         0.00000E+00
    0.94819E-02        -0.22274E-01         0.00000E+00
    0.89604E-02        -0.23645E-01         0.00000E+00
    0.82970E-02        -0.25006E-01         0.00000E+00
    0.74736E-02        -0.26318E-01         0.00000E+00
    0.64691E-02        -0.27531E-01         0.00000E+00
    0.52576E-02        -0.28583E-01         0.00000E+00
    0.38060E-02        -0.29405E-01         0.00000E+00
    0.20713E-02        -0.29932E-01         0.00000E+00
    0.00000E+00        -0.30114E-01         0.00000E+00
    0.00000E+00         0.72251E-05         0.00000E+00
    0.31640E-04         0.55885E-05         0.00000E+00
    0.60992E-04         0.80703E-06         0.00000E+00
    0.88472E-04        -0.67592E-05         0.00000E+00
    0.11442E-03        -0.16629E-04         0.00000E+00
    0.13911E-03        -0.28311E-04         0.00000E+00
    0.16276E-03        -0.41370E-04         0.00000E+00
    0.18557E-03        -0.55456E-04         0.00000E+00
    0.20773E-03        -0.70305E-04         0.00000E+00
    0.22941E-03        -0.85724E-04         0.00000E+00
    0.25075E-03        -0.10159E-03         0.00000E+00
    0.27193E-03        -0.11781E-03         0.00000E+00
    0.29309E-03        -0.13436E-03         0.00000E+00
    0.31438E-03        -0.15123E-03         0.00000E+00
    0.33593E-03        -0.16843E-03         0.00000E+00
    0.35788E-03        -0.18599E-03         0.00000E+00
    0.38036E-03        -0.20396E-03         0.00000E+00
    0.40349E-03        -0.22239E-03         0.00000E+00
    0.42741E-03        -0.24135E-03         0.00000E+00
    0.45223E-03        -0.26090E-03         0.00000E+00
    0.47807E-03        -0.28112E-03         0.00000E+00
    0.50505E-03        -0.30208E-03         0.00000E+00
    0.53329E-03        -0.32386E-03         0.00000E+00
    0.56290E-03        -0.34655E-03         0.00000E+00
    0.59400E-03        -0.37022E-03         0.00000E+00
    0.62672E-03        -0.39496E-03         0.00000E+00
    0.66116E-03        -0.42086E-03         0.00000E+00
    0.69746E-03        -0.44801E-03         0.00000E+00
    0.73574E-03        -0.47650E-03         0.00000E+00
    0.77612E-03        -0.50643E-03         0.00000E+00
    0.81873E-03        -0.53791E-03         0.00000E+00
    0.86372E-03        -0.57104E-03         0.00000E+00
    0.91123E-03        -0.60594E-03         0.00000E+00
    0.96139E-03        -0.64270E-03         0.00000E+00
    0.10144E-02        -0.68148E-03         0.00000E+00
    0.10703E-02        -0.72238E-03         0.00000E+00
    0.11294E-02        -0.76554E-03         0.00000E+00
    0.11918E-02        -0.81112E-03         0.00000E+00
    0.12576E-02        -0.85925E-03         0.00000E+00
    0.13271E-02        -0.91010E-03         0.00000E+00
    0.14005E-02        -0.96385E-03         0.00000E+00
    0.14779E-02        -0.10207E-02         0.00000E+00
    0.15596E-02        -0.10807E-02         0.00000E+00
    0.16458E-02        -0.11443E-02         0.00000E+00
    0.17366E-02        -0.12115E-02         0.00000E+00
    0.18324E-02        -0.12826E-02         0.00000E+00
    0.19334E-02        -0.13579E-02         0.00000E+00
    0.20398E-02        -0.14376E-02         0.00000E+00
    0.21518E-02        -0.15220E-02         0.00000E+00
    0.22698E-02        -0.16113E-02         0.00000E+00
    0.23939E-02        -0.17060E-02         0.00000E+00
    0.25246E-02        -0.18063E-02         0.00000E+00
    0.26619E-02        -0.19127E-02         0.00000E+00
    0.28063E-02        -0.20254E-02         0.00000E+00
    0.29579E-02        -0.21450E-02         0.00000E+00
    0.31172E-02        -0.22718E-02         0.00000E+00
    0.32842E-02        -0.24063E-02         0.00000E+00
    0.34593E-02        -0.25492E-02         0.00000E+00
    0.36428E-02        -0.27008E-02         0.00000E+00
    0.38349E-02        -0.28619E-02         0.00000E+00
    0.40358E-02        -0.30331E-02         0.00000E+00
    0.42457E-02        -0.32151E-02         0.00000E+00
    0.44647E-02        -0.34086E-02         0.00000E+00
    0.46930E-02        -0.36146E-02         0.00000E+00
    0.49306E-02        -0.38339E-02         0.00000E+00
    0.51776E-02        -0.40675E-02         0.00000E+00
    0.54339E-02        -0.43165E-02         0.00000E+00
    0.56992E-02        -0.45821E-02         0.00000E+00
    0.59735E-02        -0.48656E-02         0.00000E+00
    0.62562E-02        -0.51684E-02         0.00000E+00
    0.65468E-02        -0.54922E-02         0.00000E+00
    0.68447E-02        -0.58385E-02         0.00000E+00
    0.71490E-02        -0.62094E-02         0.00000E+00
    0.74585E-02        -0.66069E-02         0.00000E+00
    0.77719E-02        -0.70332E-02         0.00000E+00
    0.80876E-02        -0.74910E-02         0.00000E+00
    0.84034E-02        -0.79829E-02         0.00000E+00
    0.87171E-02        -0.85119E-02         0.00000E+00
    0.90259E-02        -0.90812E-02         0.00000E+00
    0.93265E-02        -0.96944E-02         0.00000E+00
    0.96150E-02        -0.10355E-01         0.00000E+00
    0.98871E-02        -0.11067E-01         0.00000E+00
    0.10138E-01        -0.11834E-01         0.00000E+00
    0.10362E-01        -0.12661E-01         0.00000E+00
    0.10552E-01        -0.13550E-01         0.00000E+00
    0.10701E-01        -0.14507E-01         0.00000E+00
    0.10802E-01        -0.15532E-01         0.00000E+00
    0.10845E-01        -0.16629E-01         0.00000E+00
    0.10821E-01        -0.17798E-01         0.00000E+00
    0.10718E-01        -0.19036E-01         0.00000E+00
    0.10525E-01        -0.20340E-01         0.00000E+00
    0.10229E-01        -0.21699E-01         0.00000E+00
    0.98166E-02        -0.23100E-01         0.00000E+00
    0.92720E-02        -0.24522E-01         0.00000E+00
    0.85791E-02        -0.25935E-01         0.00000E+00
    0.77197E-02        -0.27298E-01         0.00000E+00
    0.66731E-02        -0.28560E-01         0.00000E+00
    0.54145E-02        -0.29656E-01         0.00000E+00
    0.39122E-02        -0.30514E-01         0.00000E+00
    0.21248E-02        -0.31065E-01         0.00000E+00
    0.00000E+00        -0.31255E-01         0.00000E+00
    0.00000E+00         0.66934E-05         0.00000E+00
    0.32517E-04         0.49818E-05         0.00000E+00
    0.62741E-04        -0.13676E-07         0.00000E+00
    0.91082E-04        -0.79056E-05         0.00000E+00
    0.11787E-03        -0.18182E-04         0.00000E+00
    0.14337E-03        -0.30327E-04         0.00000E+00
    0.16779E-03        -0.43889E-04         0.00000E+00
    0.19134E-03        -0.58506E-04         0.00000E+00
    0.21420E-03        -0.73907E-04         0.00000E+00
    0.23655E-03        -0.89896E-04         0.00000E+00
    0.25855E-03        -0.10634E-03         0.00000E+00
    0.28036E-03        -0.12317E-03         0.00000E+00
    0.30214E-03        -0.14033E-03         0.00000E+00
    0.32405E-03        -0.15783E-03         0.00000E+00
    0.34622E-03        -0.17567E-03         0.00000E+00
    0.36880E-03        -0.19389E-03         0.00000E+00
    0.39192E-03        -0.21254E-03         0.00000E+00
    0.41572E-03        -0.23168E-03         0.00000E+00
    0.44032E-03        -0.25137E-03         0.00000E+00
    0.46585E-03        -0.27168E-03         0.00000E+00
    0.49244E-03        -0.29269E-03         0.00000E+00
    0.52020E-03        -0.31447E-03         0.00000E+00
    0.54925E-03        -0.33711E-03         0.00000E+00
    0.57973E-03        -0.36069E-03         0.00000E+00
    0.61174E-03        -0.38530E-03         0.00000E+00
    0.64541E-03        -0.41102E-03         0.00000E+00
    0.68087E-03        -0.43795E-03         0.00000E+00
    0.71823E-03        -0.46618E-03         0.00000E+00
    0.75763E-03        -0.49581E-03         0.00000E+00
    0.79920E-03        -0.52695E-03         0.00000E+00
    0.84308E-03        -0.55969E-03         0.00000E+00
    0.88940E-03        -0.59414E-03         0.00000E+00
    0.93831E-03        -0.63043E-03         0.00000E+00
    0.98997E-03        -0.66868E-03         0.00000E+00
    0.10445E-02        -0.70900E-03         0.00000E+00
    0.11021E-02        -0.75154E-03         0.00000E+00
    0.11630E-02        -0.79644E-03         0.00000E+00
    0.12272E-02        -0.84384E-03         0.00000E+00
    0.12950E-02        -0.89390E-03         0.00000E+00
    0.13666E-02        -0.94680E-03         0.00000E+00
    0.14422E-02        -0.10027E-02         0.00000E+00
    0.15219E-02        -0.10618E-02         0.00000E+00
    0.16060E-02        -0.11243E-02         0.00000E+00
    0.16948E-02        -0.11903E-02         0.00000E+00
    0.17884E-02        -0.12602E-02         0.00000E+00
    0.18870E-02        -0.13342E-02         0.00000E+00
    0.19910E-02        -0.14125E-02         0.00000E+00
    0.21006E-02        -0.14954E-02         0.00000E+00
    0.22160E-02        -0.15831E-02         0.00000E+00
    0.23375E-02        -0.16760E-02         0.00000E+00
    0.24654E-02        -0.17745E-02         0.00000E+00
    0.26000E-02        -0.18788E-02         0.00000E+00
    0.27415E-02        -0.19893E-02         0.00000E+00
    0.28903E-02        -0.21065E-02         0.00000E+00
    0.30466E-02        -0.22307E-02         0.00000E+00
    0.32106E-02        -0.23625E-02         0.00000E+00
    0.33828E-02        -0.25024E-02         0.00000E+00
    0.35633E-02        -0.26508E-02         0.00000E+00
    0.37525E-02        -0.28084E-02         0.00000E+00
    0.39505E-02        -0.29758E-02         0.00000E+00
    0.41576E-02        -0.31536E-02         0.00000E+00
    0.43740E-02        -0.33427E-02         0.00000E+00
    0.45999E-02        -0.35437E-02         0.00000E+00
    0.48354E-02        -0.37576E-02         0.00000E+00
    0.50805E-02        -0.39853E-02         0.00000E+00
    0.53353E-02        -0.42278E-02         0.00000E+00
    0.55998E-02        -0.44863E-02         0.00000E+00
    0.58738E-02        -0.47620E-02         0.00000E+00
    0.61569E-02        -0.50562E-02         0.00000E+00
    0.64489E-02        -0.53704E-02         0.00000E+00
    0.67492E-02        -0.57062E-02         0.00000E+00
    0.70572E-02        -0.60654E-02         0.00000E+00
    0.73718E-02        -0.64500E-02         0.00000E+00
    0.76920E-02        -0.68620E-02         0.00000E+00
    0.80164E-02        -0.73039E-02         0.00000E+00
    0.83433E-02        -0.77782E-02         0.00000E+00
    0.86706E-02        -0.82878E-02         0.00000E+00
    0.89960E-02        -0.88357E-02         0.00000E+00
    0.93165E-02        -0.94252E-02         0.00000E+00
    0.96287E-02        -0.10060E-01         0.00000E+00
    0.99288E-02        -0.10744E-01         0.00000E+00
    0.10212E-01        -0.11480E-01         0.00000E+00
    0.10474E-01        -0.12274E-01         0.00000E+00
    0.10707E-01        -0.13129E-01         0.00000E+00
    0.10907E-01        -0.14049E-01         0.00000E+00
    0.11064E-01        -0.15037E-01         0.00000E+00
    0.11171E-01        -0.16098E-01         0.00000E+00
    0.11217E-01        -0.17232E-01         0.00000E+00
    0.11194E-01        -0.18440E-01         0.00000E+00
    0.11089E-01        -0.19721E-01         0.00000E+00
    0.10889E-01        -0.21069E-01         0.00000E+00
    0.10582E-01        -0.22475E-01         0.00000E+00
    0.10153E-01        -0.23925E-01         0.00000E+00
    0.95856E-02        -0.25397E-01         0.00000E+00
    0.88634E-02        -0.26861E-01         0.00000E+00
    0.79680E-02        -0.28276E-01         0.00000E+00
    0.68791E-02        -0.29587E-01         0.00000E+00
    0.55728E-02        -0.30728E-01         0.00000E+00
    0.40193E-02        -0.31624E-01         0.00000E+00
    0.21788E-02        -0.32200E-01         0.00000E+00
    0.00000E+00        -0.32399E-01         0.00000E+00
    0.00000E+00         0.61439E-05         0.00000E+00
    0.33389E-04         0.43540E-05         0.00000E+00
    0.64479E-04        -0.86344E-06         0.00000E+00
    0.93675E-04        -0.90904E-05         0.00000E+00
    0.12130E-03        -0.19782E-04         0.00000E+00
    0.14759E-03        -0.32396E-04         0.00000E+00
    0.17278E-03        -0.46463E-04         0.00000E+00
    0.19706E-03        -0.61613E-04         0.00000E+00
    0.22061E-03        -0.77566E-04         0.00000E+00
    0.24361E-03        -0.94125E-04         0.00000E+00
    0.26624E-03        -0.11116E-03         0.00000E+00
    0.28867E-03        -0.12858E-03         0.00000E+00
    0.31106E-03        -0.14636E-03         0.00000E+00
    0.33357E-03        -0.16448E-03         0.00000E+00
    0.35635E-03        -0.18296E-03         0.00000E+00
    0.37954E-03        -0.20185E-03         0.00000E+00
    0.40329E-03        -0.22119E-03         0.00000E+00
    0.42773E-03        -0.24103E-03         0.00000E+00
    0.45300E-03        -0.26145E-03         0.00000E+00
    0.47923E-03        -0.28252E-03         0.00000E+00
    0.50654E-03        -0.30432E-03         0.00000E+00
    0.53506E-03        -0.32692E-03         0.00000E+00
    0.56492E-03        -0.35042E-03         0.00000E+00
    0.59624E-03        -0.37490E-03         0.00000E+00
    0.62914E-03        -0.40045E-03         0.00000E+00
    0.66374E-03        -0.42716E-03         0.00000E+00
    0.70019E-03        -0.45512E-03         0.00000E+00
    0.73860E-03        -0.48444E-03         0.00000E+00
    0.77910E-03        -0.51522E-03         0.00000E+00
    0.82184E-03        -0.54755E-03         0.00000E+00
    0.86695E-03        -0.58155E-03         0.00000E+00
    0.91458E-03        -0.61734E-03         0.00000E+00
    0.96487E-03        -0.65504E-03         0.00000E+00
    0.10180E-02        -0.69476E-03         0.00000E+00
    0.10741E-02        -0.73665E-03         0.00000E+00
    0.11333E-02        -0.78084E-03         0.00000E+00
    0.11959E-02        -0.82747E-03         0.00000E+00
    0.12619E-02        -0.87671E-03         0.00000E+00
    0.13317E-02        -0.92871E-03         0.00000E+00
    0.14053E-02        -0.98364E-03         0.00000E+00
    0.14830E-02        -0.10417E-02         0.00000E+00
    0.15650E-02        -0.11031E-02         0.00000E+00
    0.16515E-02        -0.11680E-02         0.00000E+00
    0.17428E-02        -0.12366E-02         0.00000E+00
    0.18391E-02        -0.13092E-02         0.00000E+00
    0.19405E-02        -0.13860E-02         0.00000E+00
    0.20475E-02        -0.14673E-02         0.00000E+00
    0.21602E-02        -0.15534E-02         0.00000E+00
    0.22790E-02        -0.16445E-02         0.00000E+00
    0.24040E-02        -0.17410E-02         0.00000E+00
    0.25356E-02        -0.18432E-02         0.00000E+00
    0.26740E-02        -0.19515E-02         0.00000E+00
    0.28196E-02        -0.20662E-02         0.00000E+00
    0.29727E-02        -0.21879E-02         0.00000E+00
    0.31335E-02        -0.23169E-02         0.00000E+00
    0.33024E-02        -0.24537E-02         0.00000E+00
    0.34795E-02        -0.25988E-02         0.00000E+00
    0.36654E-02        -0.27529E-02         0.00000E+00
    0.38601E-02        -0.29164E-02         0.00000E+00
    0.40639E-02        -0.30901E-02         0.00000E+00
    0.42772E-02        -0.32746E-02         0.00000E+00
    0.45000E-02        -0.34707E-02         0.00000E+00
    0.47327E-02        -0.36792E-02         0.00000E+00
    0.49752E-02        -0.39011E-02         0.00000E+00
    0.52278E-02        -0.41372E-02         0.00000E+00
    0.54904E-02        -0.43887E-02         0.00000E+00
    0.57630E-02        -0.46567E-02         0.00000E+00
    0.60454E-02        -0.49424E-02         0.00000E+00
    0.63374E-02        -0.52473E-02         0.00000E+00
    0.66387E-02        -0.55729E-02         0.00000E+00
    0.69486E-02        -0.59208E-02         0.00000E+00
    0.72664E-02        -0.62928E-02         0.00000E+00
    0.75914E-02        -0.66911E-02         0.00000E+00
    0.79223E-02        -0.71177E-02         0.00000E+00
    0.82576E-02        -0.75751E-02         0.00000E+00
    0.85958E-02        -0.80659E-02         0.00000E+00
    0.89346E-02        -0.85931E-02         0.00000E+00
    0.92716E-02        -0.91598E-02         0.00000E+00
    0.96039E-02        -0.97694E-02         0.00000E+00
    0.99279E-02        -0.10426E-01         0.00000E+00
    0.10240E-01        -0.11132E-01         0.00000E+00
    0.10535E-01        -0.11894E-01         0.00000E+00
    0.10807E-01        -0.12714E-01         0.00000E+00
    0.11051E-01        -0.13597E-01         0.00000E+00
    0.11260E-01        -0.14547E-01         0.00000E+00
    0.11425E-01        -0.15568E-01         0.00000E+00
    0.11538E-01        -0.16663E-01         0.00000E+00
    0.11589E-01        -0.17834E-01         0.00000E+00
    0.11567E-01        -0.19081E-01         0.00000E+00
    0.11460E-01        -0.20403E-01         0.00000E+00
    0.11254E-01        -0.21795E-01         0.00000E+00
    0.10937E-01        -0.23248E-01         0.00000E+00
    0.10491E-01        -0.24747E-01         0.00000E+00
    0.99016E-02        -0.26269E-01         0.00000E+00
    0.91503E-02        -0.27785E-01         0.00000E+00
    0.82189E-02        -0.29251E-01         0.00000E+00
    0.70875E-02        -0.30613E-01         0.00000E+00
    0.57332E-02        -0.31801E-01         0.00000E+00
    0.41278E-02        -0.32735E-01         0.00000E+00
    0.22334E-02        -0.33337E-01         0.00000E+00
    0.00000E+00        -0.33546E-01         0.00000E+00
    0.00000E+00         0.55802E-05         0.00000E+00
    0.34256E-04         0.37085E-05         0.00000E+00
    0.66210E-04        -0.17395E-05         0.00000E+00
    0.96256E-04        -0.10312E-04         0.00000E+00
    0.12470E-03        -0.21427E-04         0.00000E+00
    0.15179E-03        -0.34515E-04         0.00000E+00
    0.17773E-03        -0.49092E-04         0.00000E+00
    0.20272E-03        -0.64776E-04         0.00000E+00
    0.22694E-03        -0.81282E-04         0.00000E+00
    0.25059E-03        -0.98409E-04         0.00000E+00
    0.27384E-03        -0.11602E-03         0.00000E+00
    0.29687E-03        -0.13404E-03         0.00000E+00
    0.31985E-03        -0.15243E-03         0.00000E+00
    0.34294E-03        -0.17118E-03         0.00000E+00
    0.36631E-03        -0.19031E-03         0.00000E+00
    0.39010E-03        -0.20986E-03         0.00000E+00
    0.41446E-03        -0.22988E-03         0.00000E+00
    0.43953E-03        -0.25043E-03         0.00000E+00
    0.46546E-03        -0.27159E-03         0.00000E+00
    0.49236E-03        -0.29342E-03         0.00000E+00
    0.52038E-03        -0.31601E-03         0.00000E+00
    0.54965E-03        -0.33944E-03         0.00000E+00
    0.58029E-03        -0.36380E-03         0.00000E+00
    0.61243E-03        -0.38918E-03         0.00000E+00
    0.64619E-03        -0.41567E-03         0.00000E+00
    0.68171E-03        -0.44337E-03         0.00000E+00
    0.71913E-03        -0.47237E-03         0.00000E+00
    0.75856E-03        -0.50278E-03         0.00000E+00
    0.80014E-03        -0.53470E-03         0.00000E+00
    0.84402E-03        -0.56824E-03         0.00000E+00
    0.89034E-03        -0.60352E-03         0.00000E+00
    0.93924E-03        -0.64064E-03         0.00000E+00
    0.99088E-03        -0.67975E-03         0.00000E+00
    0.10454E-02        -0.72096E-03         0.00000E+00
    0.11030E-02        -0.76441E-03         0.00000E+00
    0.11639E-02        -0.81025E-03         0.00000E+00
    0.12281E-02        -0.85863E-03         0.00000E+00
    0.12959E-02        -0.90971E-03         0.00000E+00
    0.13676E-02        -0.96365E-03         0.00000E+00
    0.14432E-02        -0.10206E-02         0.00000E+00
    0.15230E-02        -0.10809E-02         0.00000E+00
    0.16072E-02        -0.11445E-02         0.00000E+00
    0.16961E-02        -0.12118E-02         0.00000E+00
    0.17899E-02        -0.12830E-02         0.00000E+00
    0.18887E-02        -0.13583E-02         0.00000E+00
    0.19930E-02        -0.14380E-02         0.00000E+00
    0.21029E-02        -0.15223E-02         0.00000E+00
    0.22187E-02        -0.16116E-02         0.00000E+00
    0.23407E-02        -0.17061E-02         0.00000E+00
    0.24691E-02        -0.18061E-02         0.00000E+00
    0.26043E-02        -0.19121E-02         0.00000E+00
    0.27466E-02        -0.20244E-02         0.00000E+00
    0.28962E-02        -0.21434E-02         0.00000E+00
    0.30535E-02        -0.22696E-02         0.00000E+00
    0.32188E-02        -0.24033E-02         0.00000E+00
    0.33923E-02        -0.25451E-02         0.00000E+00
    0.35745E-02        -0.26956E-02         0.00000E+00
    0.37655E-02        -0.28553E-02         0.00000E+00
    0.39656E-02        -0.30247E-02         0.00000E+00
    0.41753E-02        -0.32047E-02         0.00000E+00
    0.43945E-02        -0.33959E-02         0.00000E+00
    0.46237E-02        -0.35991E-02         0.00000E+00
    0.48631E-02        -0.38152E-02         0.00000E+00
    0.51126E-02        -0.40450E-02         0.00000E+00
    0.53725E-02        -0.42896E-02         0.00000E+00
    0.56428E-02        -0.45500E-02         0.00000E+00
    0.59234E-02        -0.48275E-02         0.00000E+00
    0.62142E-02        -0.51234E-02         0.00000E+00
    0.65150E-02        -0.54390E-02         0.00000E+00
    0.68254E-02        -0.57759E-02         0.00000E+00
    0.71448E-02        -0.61359E-02         0.00000E+00
    0.74725E-02        -0.65208E-02         0.00000E+00
    0.78077E-02        -0.69327E-02         0.00000E+00
    0.81492E-02        -0.73738E-02         0.00000E+00
    0.84955E-02        -0.78467E-02         0.00000E+00
    0.88449E-02        -0.83541E-02         0.00000E+00
    0.91953E-02        -0.88989E-02         0.00000E+00
    0.95440E-02        -0.94843E-02         0.00000E+00
    0.98882E-02        -0.10114E-01         0.00000E+00
    0.10224E-01        -0.10792E-01         0.00000E+00
    0.10548E-01        -0.11521E-01         0.00000E+00
    0.10854E-01        -0.12307E-01         0.00000E+00
    0.11138E-01        -0.13153E-01         0.00000E+00
    0.11393E-01        -0.14064E-01         0.00000E+00
    0.11611E-01        -0.15044E-01         0.00000E+00
    0.11785E-01        -0.16097E-01         0.00000E+00
    0.11905E-01        -0.17226E-01         0.00000E+00
    0.11960E-01        -0.18434E-01         0.00000E+00
    0.11940E-01        -0.19720E-01         0.00000E+00
    0.11832E-01        -0.21084E-01         0.00000E+00
    0.11621E-01        -0.22520E-01         0.00000E+00
    0.11293E-01        -0.24019E-01         0.00000E+00
    0.10832E-01        -0.25566E-01         0.00000E+00
    0.10221E-01        -0.27139E-01         0.00000E+00
    0.94406E-02        -0.28707E-01         0.00000E+00
    0.84733E-02        -0.30225E-01         0.00000E+00
    0.72990E-02        -0.31638E-01         0.00000E+00
    0.58962E-02        -0.32873E-01         0.00000E+00
    0.42381E-02        -0.33848E-01         0.00000E+00
    0.22889E-02        -0.34477E-01         0.00000E+00
    0.00000E+00        -0.34695E-01         0.00000E+00
    0.00000E+00         0.50060E-05         0.00000E+00
    0.35121E-04         0.30487E-05         0.00000E+00
    0.67935E-04        -0.26393E-05         0.00000E+00
    0.98828E-04        -0.11567E-04         0.00000E+00
    0.12810E-03        -0.23114E-04         0.00000E+00
    0.15597E-03        -0.36683E-04         0.00000E+00
    0.18265E-03        -0.51772E-04         0.00000E+00
    0.20833E-03        -0.67991E-04         0.00000E+00
    0.23322E-03        -0.85051E-04         0.00000E+00
    0.25749E-03        -0.10275E-03         0.00000E+00
    0.28134E-03        -0.12095E-03         0.00000E+00
    0.30496E-03        -0.13956E-03         0.00000E+00
    0.32851E-03        -0.15856E-03         0.00000E+00
    0.35218E-03        -0.17794E-03         0.00000E+00
    0.37611E-03        -0.19771E-03         0.00000E+00
    0.40048E-03        -0.21793E-03         0.00000E+00
    0.42544E-03        -0.23863E-03         0.00000E+00
    0.45112E-03        -0.25989E-03         0.00000E+00
    0.47768E-03        -0.28178E-03         0.00000E+00
    0.50524E-03        -0.30437E-03         0.00000E+00
    0.53396E-03        -0.32775E-03         0.00000E+00
    0.56395E-03        -0.35201E-03         0.00000E+00
    0.59535E-03        -0.37724E-03         0.00000E+00
    0.62829E-03        -0.40352E-03         0.00000E+00
    0.66290E-03        -0.43096E-03         0.00000E+00
    0.69932E-03        -0.45965E-03         0.00000E+00
    0.73767E-03        -0.48969E-03         0.00000E+00
    0.77810E-03        -0.52120E-03         0.00000E+00
    0.82075E-03        -0.55427E-03         0.00000E+00
    0.86574E-03        -0.58902E-03         0.00000E+00
    0.91324E-03        -0.62556E-03         0.00000E+00
    0.96340E-03        -0.66403E-03         0.00000E+00
    0.10164E-02        -0.70455E-03         0.00000E+00
    0.10723E-02        -0.74725E-03         0.00000E+00
    0.11314E-02        -0.79228E-03         0.00000E+00
    0.11938E-02        -0.83978E-03         0.00000E+00
    0.12597E-02        -0.88991E-03         0.00000E+00
    0.13293E-02        -0.94283E-03         0.00000E+00
    0.14027E-02        -0.99873E-03         0.00000E+00
    0.14803E-02        -0.10578E-02         0.00000E+00
    0.15622E-02        -0.11202E-02         0.00000E+00
    0.16486E-02        -0.11861E-02         0.00000E+00
    0.17398E-02        -0.12559E-02         0.00000E+00
    0.18360E-02        -0.13296E-02         0.00000E+00
    0.19374E-02        -0.14077E-02         0.00000E+00
    0.20444E-02        -0.14902E-02         0.00000E+00
    0.21571E-02        -0.15776E-02         0.00000E+00
    0.22759E-02        -0.16700E-02         0.00000E+00
    0.24011E-02        -0.17679E-02         0.00000E+00
    0.25329E-02        -0.18716E-02         0.00000E+00
    0.26717E-02        -0.19813E-02         0.00000E+00
    0.28177E-02        -0.20977E-02         0.00000E+00
    0.29713E-02        -0.22209E-02         0.00000E+00
    0.31327E-02        -0.23515E-02         0.00000E+00
    0.33024E-02        -0.24900E-02         0.00000E+00
    0.34805E-02        -0.26369E-02         0.00000E+00
    0.36675E-02        -0.27927E-02         0.00000E+00
    0.38636E-02        -0.29580E-02         0.00000E+00
    0.40692E-02        -0.31335E-02         0.00000E+00
    0.42845E-02        -0.33198E-02         0.00000E+00
    0.45097E-02        -0.35177E-02         0.00000E+00
    0.47451E-02        -0.37280E-02         0.00000E+00
    0.49910E-02        -0.39516E-02         0.00000E+00
    0.52475E-02        -0.41894E-02         0.00000E+00
    0.55146E-02        -0.44424E-02         0.00000E+00
    0.57924E-02        -0.47118E-02         0.00000E+00
    0.60810E-02        -0.49988E-02         0.00000E+00
    0.63801E-02        -0.53048E-02         0.00000E+00
    0.66896E-02        -0.56311E-02         0.00000E+00
    0.70090E-02        -0.59794E-02         0.00000E+00
    0.73378E-02        -0.63515E-02         0.00000E+00
    0.76754E-02        -0.67492E-02         0.00000E+00
    0.80208E-02        -0.71748E-02         0.00000E+00
    0.83728E-02        -0.76305E-02         0.00000E+00
    0.87301E-02        -0.81188E-02         0.00000E+00
    0.90907E-02        -0.86426E-02         0.00000E+00
    0.94526E-02        -0.92050E-02         0.00000E+00
    0.98132E-02        -0.98092E-02         0.00000E+00
    0.10169E-01        -0.10459E-01         0.00000E+00
    0.10517E-01        -0.11158E-01         0.00000E+00
    0.10853E-01        -0.11910E-01         0.00000E+00
    0.11171E-01        -0.12720E-01         0.00000E+00
    0.11467E-01        -0.13592E-01         0.00000E+00
    0.11732E-01        -0.14531E-01         0.00000E+00
    0.11961E-01        -0.15541E-01         0.00000E+00
    0.12143E-01        -0.16626E-01         0.00000E+00
    0.12270E-01        -0.17789E-01         0.00000E+00
    0.12331E-01        -0.19033E-01         0.00000E+00
    0.12314E-01        -0.20358E-01         0.00000E+00
    0.12205E-01        -0.21763E-01         0.00000E+00
    0.11990E-01        -0.23243E-01         0.00000E+00
    0.11652E-01        -0.24788E-01         0.00000E+00
    0.11176E-01        -0.26383E-01         0.00000E+00
    0.10543E-01        -0.28007E-01         0.00000E+00
    0.97347E-02        -0.29626E-01         0.00000E+00
    0.87316E-02        -0.31197E-01         0.00000E+00
    0.75144E-02        -0.32661E-01         0.00000E+00
    0.60623E-02        -0.33945E-01         0.00000E+00
    0.43506E-02        -0.34961E-01         0.00000E+00
    0.23456E-02        -0.35620E-01         0.00000E+00
    0.00000E+00        -0.35848E-01         0.00000E+00
    0.00000E+00         0.44252E-05         0.00000E+00
    0.35986E-04         0.23780E-05         0.00000E+00
    0.69658E-04        -0.35602E-05         0.00000E+00
    0.10140E-03        -0.12854E-04         0.00000E+00
    0.13148E-03        -0.24842E-04         0.00000E+00
    0.16012E-03        -0.38897E-04         0.00000E+00
    0.18753E-03        -0.54503E-04         0.00000E+00
    0.21390E-03        -0.71259E-04         0.00000E+00
    0.23943E-03        -0.88873E-04         0.00000E+00
    0.26431E-03        -0.10714E-03         0.00000E+00
    0.28875E-03        -0.12592E-03         0.00000E+00
    0.31293E-03        -0.14513E-03         0.00000E+00
    0.33704E-03        -0.16474E-03         0.00000E+00
    0.36126E-03        -0.18475E-03         0.00000E+00
    0.38575E-03        -0.20516E-03         0.00000E+00
    0.41069E-03        -0.22604E-03         0.00000E+00
    0.43622E-03        -0.24743E-03         0.00000E+00
    0.46249E-03        -0.26940E-03         0.00000E+00
    0.48967E-03        -0.29202E-03         0.00000E+00
    0.51787E-03        -0.31537E-03         0.00000E+00
    0.54726E-03        -0.33955E-03         0.00000E+00
    0.57795E-03        -0.36464E-03         0.00000E+00
    0.61010E-03        -0.39073E-03         0.00000E+00
    0.64382E-03        -0.41792E-03         0.00000E+00
    0.67926E-03        -0.44631E-03         0.00000E+00
    0.71655E-03        -0.47599E-03         0.00000E+00
    0.75583E-03        -0.50708E-03         0.00000E+00
    0.79724E-03        -0.53968E-03         0.00000E+00
    0.84091E-03        -0.57391E-03         0.00000E+00
    0.88700E-03        -0.60987E-03         0.00000E+00
    0.93565E-03        -0.64770E-03         0.00000E+00
    0.98703E-03        -0.68751E-03         0.00000E+00
    0.10413E-02        -0.72945E-03         0.00000E+00
    0.10986E-02        -0.77365E-03         0.00000E+00
    0.11591E-02        -0.82025E-03         0.00000E+00
    0.12230E-02        -0.86942E-03         0.00000E+00
    0.12906E-02        -0.92130E-03         0.00000E+00
    0.13619E-02        -0.97608E-03         0.00000E+00
    0.14371E-02        -0.10339E-02         0.00000E+00
    0.15166E-02        -0.10951E-02         0.00000E+00
    0.16005E-02        -0.11596E-02         0.00000E+00
    0.16891E-02        -0.12279E-02         0.00000E+00
    0.17825E-02        -0.13001E-02         0.00000E+00
    0.18811E-02        -0.13764E-02         0.00000E+00
    0.19850E-02        -0.14572E-02         0.00000E+00
    0.20947E-02        -0.15426E-02         0.00000E+00
    0.22102E-02        -0.16330E-02         0.00000E+00
    0.23320E-02        -0.17287E-02         0.00000E+00
    0.24603E-02        -0.18300E-02         0.00000E+00
    0.25954E-02        -0.19372E-02         0.00000E+00
    0.27376E-02        -0.20508E-02         0.00000E+00
    0.28873E-02        -0.21711E-02         0.00000E+00
    0.30448E-02        -0.22986E-02         0.00000E+00
    0.32103E-02        -0.24338E-02         0.00000E+00
    0.33842E-02        -0.25770E-02         0.00000E+00
    0.35669E-02        -0.27290E-02         0.00000E+00
    0.37587E-02        -0.28901E-02         0.00000E+00
    0.39598E-02        -0.30611E-02         0.00000E+00
    0.41707E-02        -0.32425E-02         0.00000E+00
    0.43915E-02        -0.34352E-02         0.00000E+00
    0.46226E-02        -0.36398E-02         0.00000E+00
    0.48642E-02        -0.38572E-02         0.00000E+00
    0.51165E-02        -0.40884E-02         0.00000E+00
    0.53798E-02        -0.43341E-02         0.00000E+00
    0.56540E-02        -0.45957E-02         0.00000E+00
    0.59393E-02        -0.48740E-02         0.00000E+00
    0.62357E-02        -0.51706E-02         0.00000E+00
    0.65430E-02        -0.54866E-02         0.00000E+00
    0.68611E-02        -0.58237E-02         0.00000E+00
    0.71895E-02        -0.61834E-02         0.00000E+00
    0.75277E-02        -0.65675E-02         0.00000E+00
    0.78750E-02        -0.69781E-02         0.00000E+00
    0.82306E-02        -0.74173E-02         0.00000E+00
    0.85931E-02        -0.78875E-02         0.00000E+00
    0.89613E-02        -0.83913E-02         0.00000E+00
    0.93332E-02        -0.89316E-02         0.00000E+00
    0.97066E-02        -0.95115E-02         0.00000E+00
    0.10079E-01        -0.10134E-01         0.00000E+00
    0.10447E-01        -0.10804E-01         0.00000E+00
    0.10807E-01        -0.11524E-01         0.00000E+00
    0.11155E-01        -0.12299E-01         0.00000E+00
    0.11486E-01        -0.13133E-01         0.00000E+00
    0.11793E-01        -0.14031E-01         0.00000E+00
    0.12070E-01        -0.14998E-01         0.00000E+00
    0.12309E-01        -0.16037E-01         0.00000E+00
    0.12501E-01        -0.17154E-01         0.00000E+00
    0.12636E-01        -0.18351E-01         0.00000E+00
    0.12702E-01        -0.19631E-01         0.00000E+00
    0.12688E-01        -0.20995E-01         0.00000E+00
    0.12579E-01        -0.22440E-01         0.00000E+00
    0.12360E-01        -0.23963E-01         0.00000E+00
    0.12014E-01        -0.25554E-01         0.00000E+00
    0.11524E-01        -0.27198E-01         0.00000E+00
    0.10870E-01        -0.28872E-01         0.00000E+00
    0.10033E-01        -0.30543E-01         0.00000E+00
    0.89947E-02        -0.32166E-01         0.00000E+00
    0.77342E-02        -0.33683E-01         0.00000E+00
    0.62322E-02        -0.35017E-01         0.00000E+00
    0.44658E-02        -0.36077E-01         0.00000E+00
    0.24036E-02        -0.36765E-01         0.00000E+00
    0.00000E+00        -0.37005E-01         0.00000E+00
    0.00000E+00         0.38415E-05         0.00000E+00
    0.36851E-04         0.16997E-05         0.00000E+00
    0.71383E-04        -0.44998E-05         0.00000E+00
    0.10396E-03        -0.14173E-04         0.00000E+00
    0.13485E-03        -0.26610E-04         0.00000E+00
    0.16427E-03        -0.41157E-04         0.00000E+00
    0.19239E-03        -0.57282E-04         0.00000E+00
    0.21943E-03        -0.74577E-04         0.00000E+00
    0.24558E-03        -0.92745E-04         0.00000E+00
    0.27106E-03        -0.11158E-03         0.00000E+00
    0.29607E-03        -0.13094E-03         0.00000E+00
    0.32080E-03        -0.15075E-03         0.00000E+00
    0.34545E-03        -0.17097E-03         0.00000E+00
    0.37020E-03        -0.19160E-03         0.00000E+00
    0.39523E-03        -0.21266E-03         0.00000E+00
    0.42071E-03        -0.23420E-03         0.00000E+00
    0.44679E-03        -0.25627E-03         0.00000E+00
    0.47365E-03        -0.27895E-03         0.00000E+00
    0.50142E-03        -0.30231E-03         0.00000E+00
    0.53025E-03        -0.32643E-03         0.00000E+00
    0.56029E-03        -0.35140E-03         0.00000E+00
    0.59167E-03        -0.37732E-03         0.00000E+00
    0.62454E-03        -0.40428E-03         0.00000E+00
    0.65903E-03        -0.43238E-03         0.00000E+00
    0.69527E-03        -0.46172E-03         0.00000E+00
    0.73341E-03        -0.49240E-03         0.00000E+00
    0.77359E-03        -0.52454E-03         0.00000E+00
    0.81595E-03        -0.55824E-03         0.00000E+00
    0.86063E-03        -0.59362E-03         0.00000E+00
    0.90779E-03        -0.63080E-03         0.00000E+00
    0.95757E-03        -0.66991E-03         0.00000E+00
    0.10101E-02        -0.71108E-03         0.00000E+00
    0.10657E-02        -0.75444E-03         0.00000E+00
    0.11243E-02        -0.80014E-03         0.00000E+00
    0.11862E-02        -0.84833E-03         0.00000E+00
    0.12517E-02        -0.89916E-03         0.00000E+00
    0.13208E-02        -0.95281E-03         0.00000E+00
    0.13937E-02        -0.10094E-02         0.00000E+00
    0.14708E-02        -0.10693E-02         0.00000E+00
    0.15521E-02        -0.11325E-02         0.00000E+00
    0.16380E-02        -0.11992E-02         0.00000E+00
    0.17287E-02        -0.12698E-02         0.00000E+00
    0.18243E-02        -0.13445E-02         0.00000E+00
    0.19252E-02        -0.14234E-02         0.00000E+00
    0.20316E-02        -0.15068E-02         0.00000E+00
    0.21438E-02        -0.15952E-02         0.00000E+00
    0.22622E-02        -0.16886E-02         0.00000E+00
    0.23868E-02        -0.17875E-02         0.00000E+00
    0.25182E-02        -0.18922E-02         0.00000E+00
    0.26565E-02        -0.20031E-02         0.00000E+00
    0.28022E-02        -0.21205E-02         0.00000E+00
    0.29555E-02        -0.22449E-02         0.00000E+00
    0.31167E-02        -0.23766E-02         0.00000E+00
    0.32862E-02        -0.25163E-02         0.00000E+00
    0.34644E-02        -0.26643E-02         0.00000E+00
    0.36515E-02        -0.28213E-02         0.00000E+00
    0.38480E-02        -0.29878E-02         0.00000E+00
    0.40540E-02        -0.31644E-02         0.00000E+00
    0.42701E-02        -0.33519E-02         0.00000E+00
    0.44964E-02        -0.35509E-02         0.00000E+00
    0.47332E-02        -0.37623E-02         0.00000E+00
    0.49809E-02        -0.39868E-02         0.00000E+00
    0.52396E-02        -0.42255E-02         0.00000E+00
    0.55095E-02        -0.44793E-02         0.00000E+00
    0.57908E-02        -0.47493E-02         0.00000E+00
    0.60835E-02        -0.50367E-02         0.00000E+00
    0.63876E-02        -0.53427E-02         0.00000E+00
    0.67030E-02        -0.56689E-02         0.00000E+00
    0.70295E-02        -0.60167E-02         0.00000E+00
    0.73668E-02        -0.63878E-02         0.00000E+00
    0.77143E-02        -0.67840E-02         0.00000E+00
    0.80713E-02        -0.72075E-02         0.00000E+00
    0.84370E-02        -0.76603E-02         0.00000E+00
    0.88100E-02        -0.81450E-02         0.00000E+00
    0.91891E-02        -0.86642E-02         0.00000E+00
    0.95722E-02        -0.92209E-02         0.00000E+00
    0.99573E-02        -0.98183E-02         0.00000E+00
    0.10342E-01        -0.10460E-01         0.00000E+00
    0.10722E-01        -0.11149E-01         0.00000E+00
    0.11094E-01        -0.11890E-01         0.00000E+00
    0.11455E-01        -0.12688E-01         0.00000E+00
    0.11798E-01        -0.13546E-01         0.00000E+00
    0.12117E-01        -0.14470E-01         0.00000E+00
    0.12405E-01        -0.15464E-01         0.00000E+00
    0.12655E-01        -0.16533E-01         0.00000E+00
    0.12857E-01        -0.17681E-01         0.00000E+00
    0.13000E-01        -0.18912E-01         0.00000E+00
    0.13074E-01        -0.20228E-01         0.00000E+00
    0.13064E-01        -0.21630E-01         0.00000E+00
    0.12955E-01        -0.23116E-01         0.00000E+00
    0.12733E-01        -0.24682E-01         0.00000E+00
    0.12379E-01        -0.26319E-01         0.00000E+00
    0.11875E-01        -0.28010E-01         0.00000E+00
    0.11201E-01        -0.29734E-01         0.00000E+00
    0.10337E-01        -0.31457E-01         0.00000E+00
    0.92633E-02        -0.33134E-01         0.00000E+00
    0.79593E-02        -0.34705E-01         0.00000E+00
    0.64067E-02        -0.36090E-01         0.00000E+00
    0.45843E-02        -0.37194E-01         0.00000E+00
    0.24633E-02        -0.37914E-01         0.00000E+00
    0.00000E+00        -0.38165E-01         0.00000E+00
    0.00000E+00         0.32586E-05         0.00000E+00
    0.37720E-04         0.10170E-05         0.00000E+00
    0.73114E-04        -0.54559E-05         0.00000E+00
    0.10654E-03        -0.15520E-04         0.00000E+00
    0.13823E-03        -0.28416E-04         0.00000E+00
    0.16840E-03        -0.43461E-04         0.00000E+00
    0.19723E-03        -0.60108E-04         0.00000E+00
    0.22492E-03        -0.77943E-04         0.00000E+00
    0.25168E-03        -0.96665E-04         0.00000E+00
    0.27774E-03        -0.11607E-03         0.00000E+00
    0.30329E-03        -0.13601E-03         0.00000E+00
    0.32856E-03        -0.15641E-03         0.00000E+00
    0.35373E-03        -0.17724E-03         0.00000E+00
    0.37899E-03        -0.19850E-03         0.00000E+00
    0.40454E-03        -0.22020E-03         0.00000E+00
    0.43055E-03        -0.24241E-03         0.00000E+00
    0.45717E-03        -0.26516E-03         0.00000E+00
    0.48458E-03        -0.28855E-03         0.00000E+00
    0.51293E-03        -0.31264E-03         0.00000E+00
    0.54237E-03        -0.33753E-03         0.00000E+00
    0.57304E-03        -0.36330E-03         0.00000E+00
    0.60509E-03        -0.39005E-03         0.00000E+00
    0.63866E-03        -0.41788E-03         0.00000E+00
    0.67389E-03        -0.44689E-03         0.00000E+00
    0.71093E-03        -0.47718E-03         0.00000E+00
    0.74990E-03        -0.50887E-03         0.00000E+00
    0.79095E-03        -0.54205E-03         0.00000E+00
    0.83424E-03        -0.57686E-03         0.00000E+00
    0.87991E-03        -0.61340E-03         0.00000E+00
    0.92810E-03        -0.65181E-03         0.00000E+00
    0.97899E-03        -0.69220E-03         0.00000E+00
    0.10327E-02        -0.73472E-03         0.00000E+00
    0.10895E-02        -0.77951E-03         0.00000E+00
    0.11494E-02        -0.82672E-03         0.00000E+00
    0.12127E-02        -0.87649E-03         0.00000E+00
    0.12796E-02        -0.92900E-03         0.00000E+00
    0.13503E-02        -0.98442E-03         0.00000E+00
    0.14249E-02        -0.10429E-02         0.00000E+00
    0.15037E-02        -0.11047E-02         0.00000E+00
    0.15868E-02        -0.11700E-02         0.00000E+00
    0.16747E-02        -0.12390E-02         0.00000E+00
    0.17673E-02        -0.13119E-02         0.00000E+00
    0.18651E-02        -0.13890E-02         0.00000E+00
    0.19683E-02        -0.14705E-02         0.00000E+00
    0.20772E-02        -0.15567E-02         0.00000E+00
    0.21919E-02        -0.16479E-02         0.00000E+00
    0.23129E-02        -0.17444E-02         0.00000E+00
    0.24404E-02        -0.18465E-02         0.00000E+00
    0.25748E-02        -0.19547E-02         0.00000E+00
    0.27163E-02        -0.20691E-02         0.00000E+00
    0.28653E-02        -0.21904E-02         0.00000E+00
    0.30221E-02        -0.23188E-02         0.00000E+00
    0.31870E-02        -0.24549E-02         0.00000E+00
    0.33605E-02        -0.25991E-02         0.00000E+00
    0.35428E-02        -0.27519E-02         0.00000E+00
    0.37343E-02        -0.29139E-02         0.00000E+00
    0.39353E-02        -0.30858E-02         0.00000E+00
    0.41462E-02        -0.32681E-02         0.00000E+00
    0.43674E-02        -0.34616E-02         0.00000E+00
    0.45990E-02        -0.36670E-02         0.00000E+00
    0.48415E-02        -0.38851E-02         0.00000E+00
    0.50952E-02        -0.41168E-02         0.00000E+00
    0.53601E-02        -0.43630E-02         0.00000E+00
    0.56366E-02        -0.46248E-02         0.00000E+00
    0.59248E-02        -0.49033E-02         0.00000E+00
    0.62248E-02        -0.51997E-02         0.00000E+00
    0.65366E-02        -0.55153E-02         0.00000E+00
    0.68600E-02        -0.58516E-02         0.00000E+00
    0.71949E-02        -0.62101E-02         0.00000E+00
    0.75410E-02        -0.65926E-02         0.00000E+00
    0.78977E-02        -0.70009E-02         0.00000E+00
    0.82643E-02        -0.74372E-02         0.00000E+00
    0.86400E-02        -0.79037E-02         0.00000E+00
    0.90235E-02        -0.84029E-02         0.00000E+00
    0.94134E-02        -0.89376E-02         0.00000E+00
    0.98078E-02        -0.95106E-02         0.00000E+00
    0.10205E-01        -0.10125E-01         0.00000E+00
    0.10601E-01        -0.10785E-01         0.00000E+00
    0.10993E-01        -0.11495E-01         0.00000E+00
    0.11378E-01        -0.12257E-01         0.00000E+00
    0.11751E-01        -0.13077E-01         0.00000E+00
    0.12107E-01        -0.13960E-01         0.00000E+00
    0.12438E-01        -0.14909E-01         0.00000E+00
    0.12739E-01        -0.15931E-01         0.00000E+00
    0.13000E-01        -0.17029E-01         0.00000E+00
    0.13212E-01        -0.18208E-01         0.00000E+00
    0.13365E-01        -0.19472E-01         0.00000E+00
    0.13445E-01        -0.20823E-01         0.00000E+00
    0.13440E-01        -0.22263E-01         0.00000E+00
    0.13333E-01        -0.23790E-01         0.00000E+00
    0.13109E-01        -0.25399E-01         0.00000E+00
    0.12748E-01        -0.27081E-01         0.00000E+00
    0.12231E-01        -0.28820E-01         0.00000E+00
    0.11538E-01        -0.30594E-01         0.00000E+00
    0.10647E-01        -0.32369E-01         0.00000E+00
    0.95381E-02        -0.34100E-01         0.00000E+00
    0.81905E-02        -0.35725E-01         0.00000E+00
    0.65863E-02        -0.37162E-01         0.00000E+00
    0.47066E-02        -0.38313E-01         0.00000E+00
    0.25250E-02        -0.39066E-01         0.00000E+00
    0.00000E+00        -0.39330E-01         0.00000E+00
    0.00000E+00         0.26805E-05         0.00000E+00
    0.38594E-04         0.33307E-06         0.00000E+00
    0.74853E-04        -0.64263E-05         0.00000E+00
    0.10912E-03        -0.16894E-04         0.00000E+00
    0.14161E-03        -0.30258E-04         0.00000E+00
    0.17252E-03        -0.45807E-04         0.00000E+00
    0.20204E-03        -0.62978E-04         0.00000E+00
    0.23037E-03        -0.81354E-04         0.00000E+00
    0.25773E-03        -0.10063E-03         0.00000E+00
    0.28434E-03        -0.12060E-03         0.00000E+00
    0.31043E-03        -0.14112E-03         0.00000E+00
    0.33621E-03        -0.16212E-03         0.00000E+00
    0.36188E-03        -0.18356E-03         0.00000E+00
    0.38764E-03        -0.20544E-03         0.00000E+00
    0.41369E-03        -0.22779E-03         0.00000E+00
    0.44020E-03        -0.25065E-03         0.00000E+00
    0.46735E-03        -0.27410E-03         0.00000E+00
    0.49530E-03        -0.29819E-03         0.00000E+00
    0.52421E-03        -0.32302E-03         0.00000E+00
    0.55423E-03        -0.34868E-03         0.00000E+00
    0.58552E-03        -0.37525E-03         0.00000E+00
    0.61822E-03        -0.40283E-03         0.00000E+00
    0.65247E-03        -0.43153E-03         0.00000E+00
    0.68843E-03        -0.46145E-03         0.00000E+00
    0.72622E-03        -0.49270E-03         0.00000E+00
    0.76600E-03        -0.52539E-03         0.00000E+00
    0.80791E-03        -0.55963E-03         0.00000E+00
    0.85211E-03        -0.59554E-03         0.00000E+00
    0.89873E-03        -0.63325E-03         0.00000E+00
    0.94794E-03        -0.67288E-03         0.00000E+00
    0.99990E-03        -0.71456E-03         0.00000E+00
    0.10548E-02        -0.75845E-03         0.00000E+00
    0.11127E-02        -0.80467E-03         0.00000E+00
    0.11740E-02        -0.85338E-03         0.00000E+00
    0.12386E-02        -0.90475E-03         0.00000E+00
    0.13069E-02        -0.95894E-03         0.00000E+00
    0.13791E-02        -0.10161E-02         0.00000E+00
    0.14553E-02        -0.10765E-02         0.00000E+00
    0.15358E-02        -0.11403E-02         0.00000E+00
    0.16207E-02        -0.12076E-02         0.00000E+00
    0.17104E-02        -0.12788E-02         0.00000E+00
    0.18051E-02        -0.13541E-02         0.00000E+00
    0.19050E-02        -0.14336E-02         0.00000E+00
    0.20104E-02        -0.15177E-02         0.00000E+00
    0.21216E-02        -0.16067E-02         0.00000E+00
    0.22389E-02        -0.17008E-02         0.00000E+00
    0.23625E-02        -0.18003E-02         0.00000E+00
    0.24928E-02        -0.19057E-02         0.00000E+00
    0.26301E-02        -0.20173E-02         0.00000E+00
    0.27747E-02        -0.21354E-02         0.00000E+00
    0.29269E-02        -0.22605E-02         0.00000E+00
    0.30872E-02        -0.23930E-02         0.00000E+00
    0.32558E-02        -0.25333E-02         0.00000E+00
    0.34331E-02        -0.26820E-02         0.00000E+00
    0.36194E-02        -0.28397E-02         0.00000E+00
    0.38152E-02        -0.30068E-02         0.00000E+00
    0.40207E-02        -0.31841E-02         0.00000E+00
    0.42364E-02        -0.33721E-02         0.00000E+00
    0.44626E-02        -0.35716E-02         0.00000E+00
    0.46995E-02        -0.37834E-02         0.00000E+00
    0.49476E-02        -0.40082E-02         0.00000E+00
    0.52070E-02        -0.42471E-02         0.00000E+00
    0.54781E-02        -0.45009E-02         0.00000E+00
    0.57611E-02        -0.47707E-02         0.00000E+00
    0.60562E-02        -0.50577E-02         0.00000E+00
    0.63633E-02        -0.53631E-02         0.00000E+00
    0.66826E-02        -0.56883E-02         0.00000E+00
    0.70140E-02        -0.60347E-02         0.00000E+00
    0.73572E-02        -0.64039E-02         0.00000E+00
    0.77120E-02        -0.67978E-02         0.00000E+00
    0.80778E-02        -0.72183E-02         0.00000E+00
    0.84540E-02        -0.76674E-02         0.00000E+00
    0.88396E-02        -0.81475E-02         0.00000E+00
    0.92336E-02        -0.86612E-02         0.00000E+00
    0.96343E-02        -0.92112E-02         0.00000E+00
    0.10040E-01        -0.98007E-02         0.00000E+00
    0.10448E-01        -0.10433E-01         0.00000E+00
    0.10857E-01        -0.11111E-01         0.00000E+00
    0.11262E-01        -0.11840E-01         0.00000E+00
    0.11659E-01        -0.12624E-01         0.00000E+00
    0.12045E-01        -0.13466E-01         0.00000E+00
    0.12413E-01        -0.14373E-01         0.00000E+00
    0.12757E-01        -0.15348E-01         0.00000E+00
    0.13070E-01        -0.16396E-01         0.00000E+00
    0.13343E-01        -0.17524E-01         0.00000E+00
    0.13567E-01        -0.18734E-01         0.00000E+00
    0.13729E-01        -0.20031E-01         0.00000E+00
    0.13817E-01        -0.21418E-01         0.00000E+00
    0.13817E-01        -0.22895E-01         0.00000E+00
    0.13713E-01        -0.24462E-01         0.00000E+00
    0.13488E-01        -0.26114E-01         0.00000E+00
    0.13121E-01        -0.27841E-01         0.00000E+00
    0.12593E-01        -0.29628E-01         0.00000E+00
    0.11881E-01        -0.31452E-01         0.00000E+00
    0.10964E-01        -0.33279E-01         0.00000E+00
    0.98199E-02        -0.35064E-01         0.00000E+00
    0.84286E-02        -0.36743E-01         0.00000E+00
    0.67721E-02        -0.38234E-01         0.00000E+00
    0.48333E-02        -0.39433E-01         0.00000E+00
    0.25889E-02        -0.40222E-01         0.00000E+00
    0.00000E+00        -0.40499E-01         0.00000E+00
    0.00000E+00         0.21108E-05         0.00000E+00
    0.39475E-04        -0.34887E-06         0.00000E+00
    0.76607E-04        -0.74092E-05         0.00000E+00
    0.11172E-03        -0.18294E-04         0.00000E+00
    0.14501E-03        -0.32136E-04         0.00000E+00
    0.17665E-03        -0.48192E-04         0.00000E+00
    0.20684E-03        -0.65892E-04         0.00000E+00
    0.23579E-03        -0.84810E-04         0.00000E+00
    0.26373E-03        -0.10464E-03         0.00000E+00
    0.29088E-03        -0.12518E-03         0.00000E+00
    0.31748E-03        -0.14628E-03         0.00000E+00
    0.34374E-03        -0.16787E-03         0.00000E+00
    0.36990E-03        -0.18992E-03         0.00000E+00
    0.39614E-03        -0.21242E-03         0.00000E+00
    0.42267E-03        -0.23541E-03         0.00000E+00
    0.44967E-03        -0.25894E-03         0.00000E+00
    0.47732E-03        -0.28307E-03         0.00000E+00
    0.50579E-03        -0.30787E-03         0.00000E+00
    0.53524E-03        -0.33344E-03         0.00000E+00
    0.56583E-03        -0.35986E-03         0.00000E+00
    0.59772E-03        -0.38723E-03         0.00000E+00
    0.63105E-03        -0.41565E-03         0.00000E+00
    0.66596E-03        -0.44523E-03         0.00000E+00
    0.70262E-03        -0.47606E-03         0.00000E+00
    0.74116E-03        -0.50827E-03         0.00000E+00
    0.78172E-03        -0.54196E-03         0.00000E+00
    0.82447E-03        -0.57726E-03         0.00000E+00
    0.86954E-03        -0.61428E-03         0.00000E+00
    0.91710E-03        -0.65316E-03         0.00000E+00
    0.96730E-03        -0.69402E-03         0.00000E+00
    0.10203E-02        -0.73699E-03         0.00000E+00
    0.10763E-02        -0.78224E-03         0.00000E+00
    0.11354E-02        -0.82989E-03         0.00000E+00
    0.11979E-02        -0.88012E-03         0.00000E+00
    0.12639E-02        -0.93309E-03         0.00000E+00
    0.13336E-02        -0.98896E-03         0.00000E+00
    0.14072E-02        -0.10479E-02         0.00000E+00
    0.14850E-02        -0.11102E-02         0.00000E+00
    0.15671E-02        -0.11759E-02         0.00000E+00
    0.16538E-02        -0.12454E-02         0.00000E+00
    0.17453E-02        -0.13188E-02         0.00000E+00
    0.18420E-02        -0.13963E-02         0.00000E+00
    0.19439E-02        -0.14784E-02         0.00000E+00
    0.20515E-02        -0.15651E-02         0.00000E+00
    0.21650E-02        -0.16568E-02         0.00000E+00
    0.22847E-02        -0.17538E-02         0.00000E+00
    0.24109E-02        -0.18565E-02         0.00000E+00
    0.25439E-02        -0.19651E-02         0.00000E+00
    0.26841E-02        -0.20801E-02         0.00000E+00
    0.28317E-02        -0.22018E-02         0.00000E+00
    0.29871E-02        -0.23308E-02         0.00000E+00
    0.31508E-02        -0.24673E-02         0.00000E+00
    0.33229E-02        -0.26120E-02         0.00000E+00
    0.35040E-02        -0.27653E-02         0.00000E+00
    0.36943E-02        -0.29277E-02         0.00000E+00
    0.38943E-02        -0.31000E-02         0.00000E+00
    0.41042E-02        -0.32826E-02         0.00000E+00
    0.43245E-02        -0.34763E-02         0.00000E+00
    0.45556E-02        -0.36819E-02         0.00000E+00
    0.47977E-02        -0.39000E-02         0.00000E+00
    0.50512E-02        -0.41317E-02         0.00000E+00
    0.53165E-02        -0.43777E-02         0.00000E+00
    0.55936E-02        -0.46391E-02         0.00000E+00
    0.58830E-02        -0.49169E-02         0.00000E+00
    0.61847E-02        -0.52125E-02         0.00000E+00
    0.64990E-02        -0.55269E-02         0.00000E+00
    0.68257E-02        -0.58616E-02         0.00000E+00
    0.71648E-02        -0.62181E-02         0.00000E+00
    0.75163E-02        -0.65982E-02         0.00000E+00
    0.78797E-02        -0.70034E-02         0.00000E+00
    0.82546E-02        -0.74360E-02         0.00000E+00
    0.86402E-02        -0.78979E-02         0.00000E+00
    0.90358E-02        -0.83917E-02         0.00000E+00
    0.94401E-02        -0.89198E-02         0.00000E+00
    0.98517E-02        -0.94852E-02         0.00000E+00
    0.10269E-01        -0.10091E-01         0.00000E+00
    0.10689E-01        -0.10741E-01         0.00000E+00
    0.11109E-01        -0.11438E-01         0.00000E+00
    0.11527E-01        -0.12186E-01         0.00000E+00
    0.11937E-01        -0.12991E-01         0.00000E+00
    0.12336E-01        -0.13856E-01         0.00000E+00
    0.12717E-01        -0.14786E-01         0.00000E+00
    0.13074E-01        -0.15786E-01         0.00000E+00
    0.13400E-01        -0.16862E-01         0.00000E+00
    0.13685E-01        -0.18018E-01         0.00000E+00
    0.13920E-01        -0.19259E-01         0.00000E+00
    0.14093E-01        -0.20589E-01         0.00000E+00
    0.14190E-01        -0.22011E-01         0.00000E+00
    0.14196E-01        -0.23526E-01         0.00000E+00
    0.14096E-01        -0.25133E-01         0.00000E+00
    0.13870E-01        -0.26827E-01         0.00000E+00
    0.13498E-01        -0.28599E-01         0.00000E+00
    0.12959E-01        -0.30433E-01         0.00000E+00
    0.12230E-01        -0.32307E-01         0.00000E+00
    0.11288E-01        -0.34187E-01         0.00000E+00
    0.10110E-01        -0.36026E-01         0.00000E+00
    0.86744E-02        -0.37761E-01         0.00000E+00
    0.69647E-02        -0.39307E-01         0.00000E+00
    0.49651E-02        -0.40556E-01         0.00000E+00
    0.26555E-02        -0.41382E-01         0.00000E+00
    0.00000E+00        -0.41673E-01         0.00000E+00
    0.00000E+00         0.15537E-05         0.00000E+00
    0.40368E-04        -0.10258E-05         0.00000E+00
    0.78380E-04        -0.84028E-05         0.00000E+00
    0.11434E-03        -0.19719E-04         0.00000E+00
    0.14842E-03        -0.34047E-04         0.00000E+00
    0.18079E-03        -0.50617E-04         0.00000E+00
    0.21164E-03        -0.68846E-04         0.00000E+00
    0.24119E-03        -0.88307E-04         0.00000E+00
    0.26968E-03        -0.10869E-03         0.00000E+00
    0.29735E-03        -0.12980E-03         0.00000E+00
    0.32444E-03        -0.15148E-03         0.00000E+00
    0.35118E-03        -0.17366E-03         0.00000E+00
    0.37779E-03        -0.19631E-03         0.00000E+00
    0.40449E-03        -0.21944E-03         0.00000E+00
    0.43148E-03        -0.24307E-03         0.00000E+00
    0.45895E-03        -0.26726E-03         0.00000E+00
    0.48708E-03        -0.29208E-03         0.00000E+00
    0.51605E-03        -0.31760E-03         0.00000E+00
    0.54603E-03        -0.34390E-03         0.00000E+00
    0.57717E-03        -0.37109E-03         0.00000E+00
    0.60963E-03        -0.39926E-03         0.00000E+00
    0.64357E-03        -0.42852E-03         0.00000E+00
    0.67913E-03        -0.45897E-03         0.00000E+00
    0.71647E-03        -0.49072E-03         0.00000E+00
    0.75573E-03        -0.52389E-03         0.00000E+00
    0.79706E-03        -0.55859E-03         0.00000E+00
    0.84061E-03        -0.59494E-03         0.00000E+00
    0.88654E-03        -0.63308E-03         0.00000E+00
    0.93501E-03        -0.67312E-03         0.00000E+00
    0.98617E-03        -0.71521E-03         0.00000E+00
    0.10402E-02        -0.75949E-03         0.00000E+00
    0.10973E-02        -0.80610E-03         0.00000E+00
    0.11575E-02        -0.85519E-03         0.00000E+00
    0.12212E-02        -0.90694E-03         0.00000E+00
    0.12885E-02        -0.96150E-03         0.00000E+00
    0.13595E-02        -0.10191E-02         0.00000E+00
    0.14346E-02        -0.10798E-02         0.00000E+00
    0.15139E-02        -0.11440E-02         0.00000E+00
    0.15976E-02        -0.12117E-02         0.00000E+00
    0.16860E-02        -0.12832E-02         0.00000E+00
    0.17794E-02        -0.13588E-02         0.00000E+00
    0.18779E-02        -0.14388E-02         0.00000E+00
    0.19819E-02        -0.15232E-02         0.00000E+00
    0.20916E-02        -0.16126E-02         0.00000E+00
    0.22073E-02        -0.17070E-02         0.00000E+00
    0.23294E-02        -0.18070E-02         0.00000E+00
    0.24581E-02        -0.19127E-02         0.00000E+00
    0.25938E-02        -0.20246E-02         0.00000E+00
    0.27367E-02        -0.21431E-02         0.00000E+00
    0.28873E-02        -0.22685E-02         0.00000E+00
    0.30459E-02        -0.24012E-02         0.00000E+00
    0.32128E-02        -0.25419E-02         0.00000E+00
    0.33884E-02        -0.26908E-02         0.00000E+00
    0.35732E-02        -0.28487E-02         0.00000E+00
    0.37674E-02        -0.30160E-02         0.00000E+00
    0.39714E-02        -0.31933E-02         0.00000E+00
    0.41857E-02        -0.33813E-02         0.00000E+00
    0.44106E-02        -0.35808E-02         0.00000E+00
    0.46465E-02        -0.37924E-02         0.00000E+00
    0.48937E-02        -0.40169E-02         0.00000E+00
    0.51526E-02        -0.42554E-02         0.00000E+00
    0.54234E-02        -0.45086E-02         0.00000E+00
    0.57066E-02        -0.47776E-02         0.00000E+00
    0.60022E-02        -0.50635E-02         0.00000E+00
    0.63105E-02        -0.53675E-02         0.00000E+00
    0.66317E-02        -0.56910E-02         0.00000E+00
    0.69658E-02        -0.60353E-02         0.00000E+00
    0.73127E-02        -0.64019E-02         0.00000E+00
    0.76722E-02        -0.67927E-02         0.00000E+00
    0.80441E-02        -0.72094E-02         0.00000E+00
    0.84280E-02        -0.76540E-02         0.00000E+00
    0.88231E-02        -0.81288E-02         0.00000E+00
    0.92285E-02        -0.86362E-02         0.00000E+00
    0.96431E-02        -0.91788E-02         0.00000E+00
    0.10066E-01        -0.97596E-02         0.00000E+00
    0.10494E-01        -0.10382E-01         0.00000E+00
    0.10926E-01        -0.11049E-01         0.00000E+00
    0.11358E-01        -0.11764E-01         0.00000E+00
    0.11788E-01        -0.12532E-01         0.00000E+00
    0.12211E-01        -0.13358E-01         0.00000E+00
    0.12623E-01        -0.14245E-01         0.00000E+00
    0.13018E-01        -0.15199E-01         0.00000E+00
    0.13389E-01        -0.16225E-01         0.00000E+00
    0.13728E-01        -0.17327E-01         0.00000E+00
    0.14026E-01        -0.18512E-01         0.00000E+00
    0.14273E-01        -0.19784E-01         0.00000E+00
    0.14457E-01        -0.21147E-01         0.00000E+00
    0.14563E-01        -0.22604E-01         0.00000E+00
    0.14577E-01        -0.24156E-01         0.00000E+00
    0.14481E-01        -0.25802E-01         0.00000E+00
    0.14256E-01        -0.27538E-01         0.00000E+00
    0.13881E-01        -0.29355E-01         0.00000E+00
    0.13332E-01        -0.31237E-01         0.00000E+00
    0.12587E-01        -0.33161E-01         0.00000E+00
    0.11620E-01        -0.35093E-01         0.00000E+00
    0.10408E-01        -0.36986E-01         0.00000E+00
    0.89291E-02        -0.38777E-01         0.00000E+00
    0.71652E-02        -0.40379E-01         0.00000E+00
    0.51028E-02        -0.41681E-01         0.00000E+00
    0.27253E-02        -0.42547E-01         0.00000E+00
    0.00000E+00        -0.42853E-01         0.00000E+00
    0.00000E+00         0.10130E-05         0.00000E+00
    0.41275E-04        -0.16949E-05         0.00000E+00
    0.80179E-04        -0.94057E-05         0.00000E+00
    0.11698E-03        -0.21168E-04         0.00000E+00
    0.15185E-03        -0.35990E-04         0.00000E+00
    0.18493E-03        -0.53078E-04         0.00000E+00
    0.21642E-03        -0.71839E-04         0.00000E+00
    0.24656E-03        -0.91844E-04         0.00000E+00
    0.27559E-03        -0.11279E-03         0.00000E+00
    0.30375E-03        -0.13445E-03         0.00000E+00
    0.33131E-03        -0.15671E-03         0.00000E+00
    0.35850E-03        -0.17948E-03         0.00000E+00
    0.38556E-03        -0.20274E-03         0.00000E+00
    0.41269E-03        -0.22649E-03         0.00000E+00
    0.44012E-03        -0.25077E-03         0.00000E+00
    0.46804E-03        -0.27562E-03         0.00000E+00
    0.49664E-03        -0.30112E-03         0.00000E+00
    0.52609E-03        -0.32735E-03         0.00000E+00
    0.55657E-03        -0.35440E-03         0.00000E+00
    0.58824E-03        -0.38236E-03         0.00000E+00
    0.62126E-03        -0.41133E-03         0.00000E+00
    0.65579E-03        -0.44142E-03         0.00000E+00
    0.69198E-03        -0.47275E-03         0.00000E+00
    0.72997E-03        -0.50542E-03         0.00000E+00
    0.76993E-03        -0.53955E-03         0.00000E+00
    0.81200E-03        -0.57526E-03         0.00000E+00
    0.85634E-03        -0.61267E-03         0.00000E+00
    0.90310E-03        -0.65192E-03         0.00000E+00
    0.95245E-03        -0.69314E-03         0.00000E+00
    0.10046E-02        -0.73646E-03         0.00000E+00
    0.10596E-02        -0.78204E-03         0.00000E+00
    0.11177E-02        -0.83002E-03         0.00000E+00
    0.11791E-02        -0.88056E-03         0.00000E+00
    0.12439E-02        -0.93382E-03         0.00000E+00
    0.13125E-02        -0.98999E-03         0.00000E+00
    0.13848E-02        -0.10493E-02         0.00000E+00
    0.14613E-02        -0.11118E-02         0.00000E+00
    0.15421E-02        -0.11778E-02         0.00000E+00
    0.16274E-02        -0.12475E-02         0.00000E+00
    0.17174E-02        -0.13212E-02         0.00000E+00
    0.18125E-02        -0.13990E-02         0.00000E+00
    0.19129E-02        -0.14813E-02         0.00000E+00
    0.20188E-02        -0.15682E-02         0.00000E+00
    0.21306E-02        -0.16602E-02         0.00000E+00
    0.22486E-02        -0.17574E-02         0.00000E+00
    0.23729E-02        -0.18603E-02         0.00000E+00
    0.25041E-02        -0.19691E-02         0.00000E+00
    0.26423E-02        -0.20843E-02         0.00000E+00
    0.27880E-02        -0.22062E-02         0.00000E+00
    0.29415E-02        -0.23352E-02         0.00000E+00
    0.31031E-02        -0.24719E-02         0.00000E+00
    0.32733E-02        -0.26166E-02         0.00000E+00
    0.34523E-02        -0.27699E-02         0.00000E+00
    0.36407E-02        -0.29323E-02         0.00000E+00
    0.38387E-02        -0.31044E-02         0.00000E+00
    0.40467E-02        -0.32869E-02         0.00000E+00
    0.42652E-02        -0.34803E-02         0.00000E+00
    0.44946E-02        -0.36855E-02         0.00000E+00
    0.47352E-02        -0.39031E-02         0.00000E+00
    0.49874E-02        -0.41341E-02         0.00000E+00
    0.52515E-02        -0.43793E-02         0.00000E+00
    0.55279E-02        -0.46397E-02         0.00000E+00
    0.58169E-02        -0.49163E-02         0.00000E+00
    0.61187E-02        -0.52103E-02         0.00000E+00
    0.64335E-02        -0.55229E-02         0.00000E+00
    0.67616E-02        -0.58554E-02         0.00000E+00
    0.71028E-02        -0.62092E-02         0.00000E+00
    0.74573E-02        -0.65861E-02         0.00000E+00
    0.78249E-02        -0.69876E-02         0.00000E+00
    0.82053E-02        -0.74157E-02         0.00000E+00
    0.85980E-02        -0.78724E-02         0.00000E+00
    0.90024E-02        -0.83600E-02         0.00000E+00
    0.94177E-02        -0.88810E-02         0.00000E+00
    0.98426E-02        -0.94381E-02         0.00000E+00
    0.10276E-01        -0.10034E-01         0.00000E+00
    0.10715E-01        -0.10673E-01         0.00000E+00
    0.11159E-01        -0.11357E-01         0.00000E+00
    0.11604E-01        -0.12091E-01         0.00000E+00
    0.12046E-01        -0.12879E-01         0.00000E+00
    0.12483E-01        -0.13725E-01         0.00000E+00
    0.12908E-01        -0.14634E-01         0.00000E+00
    0.13316E-01        -0.15612E-01         0.00000E+00
    0.13701E-01        -0.16663E-01         0.00000E+00
    0.14054E-01        -0.17792E-01         0.00000E+00
    0.14365E-01        -0.19006E-01         0.00000E+00
    0.14625E-01        -0.20308E-01         0.00000E+00
    0.14820E-01        -0.21704E-01         0.00000E+00
    0.14937E-01        -0.23195E-01         0.00000E+00
    0.14960E-01        -0.24784E-01         0.00000E+00
    0.14869E-01        -0.26470E-01         0.00000E+00
    0.14646E-01        -0.28248E-01         0.00000E+00
    0.14268E-01        -0.30109E-01         0.00000E+00
    0.13712E-01        -0.32038E-01         0.00000E+00
    0.12951E-01        -0.34012E-01         0.00000E+00
    0.11961E-01        -0.35996E-01         0.00000E+00
    0.10716E-01        -0.37944E-01         0.00000E+00
    0.91935E-02        -0.39792E-01         0.00000E+00
    0.73746E-02        -0.41452E-01         0.00000E+00
    0.52473E-02        -0.42807E-01         0.00000E+00
    0.27986E-02        -0.43715E-01         0.00000E+00
    0.00000E+00        -0.44038E-01         0.00000E+00
    0.00000E+00         0.49268E-06         0.00000E+00
    0.42199E-04        -0.23532E-05         0.00000E+00
    0.82009E-04        -0.10417E-04         0.00000E+00
    0.11967E-03        -0.22639E-04         0.00000E+00
    0.15531E-03        -0.37964E-04         0.00000E+00
    0.18909E-03        -0.55574E-04         0.00000E+00
    0.22121E-03        -0.74869E-04         0.00000E+00
    0.25191E-03        -0.95418E-04         0.00000E+00
    0.28145E-03        -0.11691E-03         0.00000E+00
    0.31010E-03        -0.13915E-03         0.00000E+00
    0.33810E-03        -0.16198E-03         0.00000E+00
    0.36572E-03        -0.18535E-03         0.00000E+00
    0.39320E-03        -0.20921E-03         0.00000E+00
    0.42075E-03        -0.23358E-03         0.00000E+00
    0.44860E-03        -0.25850E-03         0.00000E+00
    0.47695E-03        -0.28402E-03         0.00000E+00
    0.50599E-03        -0.31020E-03         0.00000E+00
    0.53591E-03        -0.33714E-03         0.00000E+00
    0.56687E-03        -0.36492E-03         0.00000E+00
    0.59905E-03        -0.39365E-03         0.00000E+00
    0.63261E-03        -0.42343E-03         0.00000E+00
    0.66770E-03        -0.45436E-03         0.00000E+00
    0.70449E-03        -0.48657E-03         0.00000E+00
    0.74312E-03        -0.52016E-03         0.00000E+00
    0.78376E-03        -0.55525E-03         0.00000E+00
    0.82655E-03        -0.59197E-03         0.00000E+00
    0.87165E-03        -0.63045E-03         0.00000E+00
    0.91923E-03        -0.67082E-03         0.00000E+00
    0.96943E-03        -0.71321E-03         0.00000E+00
    0.10224E-02        -0.75777E-03         0.00000E+00
    0.10784E-02        -0.80465E-03         0.00000E+00
    0.11376E-02        -0.85400E-03         0.00000E+00
    0.12000E-02        -0.90598E-03         0.00000E+00
    0.12660E-02        -0.96077E-03         0.00000E+00
    0.13358E-02        -0.10186E-02         0.00000E+00
    0.14094E-02        -0.10795E-02         0.00000E+00
    0.14873E-02        -0.11438E-02         0.00000E+00
    0.15695E-02        -0.12117E-02         0.00000E+00
    0.16563E-02        -0.12835E-02         0.00000E+00
    0.17480E-02        -0.13592E-02         0.00000E+00
    0.18448E-02        -0.14393E-02         0.00000E+00
    0.19470E-02        -0.15239E-02         0.00000E+00
    0.20548E-02        -0.16133E-02         0.00000E+00
    0.21686E-02        -0.17079E-02         0.00000E+00
    0.22887E-02        -0.18079E-02         0.00000E+00
    0.24153E-02        -0.19137E-02         0.00000E+00
    0.25489E-02        -0.20256E-02         0.00000E+00
    0.26896E-02        -0.21441E-02         0.00000E+00
    0.28380E-02        -0.22695E-02         0.00000E+00
    0.29943E-02        -0.24022E-02         0.00000E+00
    0.31589E-02        -0.25427E-02         0.00000E+00
    0.33322E-02        -0.26915E-02         0.00000E+00
    0.35146E-02        -0.28491E-02         0.00000E+00
    0.37064E-02        -0.30161E-02         0.00000E+00
    0.39081E-02        -0.31931E-02         0.00000E+00
    0.41201E-02        -0.33806E-02         0.00000E+00
    0.43428E-02        -0.35795E-02         0.00000E+00
    0.45765E-02        -0.37904E-02         0.00000E+00
    0.48217E-02        -0.40141E-02         0.00000E+00
    0.50788E-02        -0.42515E-02         0.00000E+00
    0.53480E-02        -0.45035E-02         0.00000E+00
    0.56299E-02        -0.47711E-02         0.00000E+00
    0.59246E-02        -0.50553E-02         0.00000E+00
    0.62325E-02        -0.53574E-02         0.00000E+00
    0.65537E-02        -0.56785E-02         0.00000E+00
    0.68885E-02        -0.60200E-02         0.00000E+00
    0.72369E-02        -0.63835E-02         0.00000E+00
    0.75989E-02        -0.67705E-02         0.00000E+00
    0.79744E-02        -0.71828E-02         0.00000E+00
    0.83631E-02        -0.76223E-02         0.00000E+00
    0.87646E-02        -0.80911E-02         0.00000E+00
    0.91783E-02        -0.85915E-02         0.00000E+00
    0.96033E-02        -0.91261E-02         0.00000E+00
    0.10038E-01        -0.96977E-02         0.00000E+00
    0.10482E-01        -0.10309E-01         0.00000E+00
    0.10933E-01        -0.10964E-01         0.00000E+00
    0.11388E-01        -0.11665E-01         0.00000E+00
    0.11846E-01        -0.12418E-01         0.00000E+00
    0.12301E-01        -0.13225E-01         0.00000E+00
    0.12751E-01        -0.14092E-01         0.00000E+00
    0.13190E-01        -0.15024E-01         0.00000E+00
    0.13612E-01        -0.16025E-01         0.00000E+00
    0.14011E-01        -0.17101E-01         0.00000E+00
    0.14377E-01        -0.18257E-01         0.00000E+00
    0.14703E-01        -0.19499E-01         0.00000E+00
    0.14976E-01        -0.20832E-01         0.00000E+00
    0.15184E-01        -0.22260E-01         0.00000E+00
    0.15312E-01        -0.23786E-01         0.00000E+00
    0.15344E-01        -0.25412E-01         0.00000E+00
    0.15260E-01        -0.27136E-01         0.00000E+00
    0.15041E-01        -0.28956E-01         0.00000E+00
    0.14661E-01        -0.30861E-01         0.00000E+00
    0.14098E-01        -0.32837E-01         0.00000E+00
    0.13324E-01        -0.34860E-01         0.00000E+00
    0.12312E-01        -0.36897E-01         0.00000E+00
    0.11035E-01        -0.38901E-01         0.00000E+00
    0.94687E-02        -0.40806E-01         0.00000E+00
    0.75941E-02        -0.42524E-01         0.00000E+00
    0.53996E-02        -0.43936E-01         0.00000E+00
    0.28762E-02        -0.44888E-01         0.00000E+00
    0.00000E+00        -0.45229E-01         0.00000E+00
    0.00000E+00        -0.30339E-08         0.00000E+00
    0.43147E-04        -0.29984E-05         0.00000E+00
    0.83880E-04        -0.11435E-04         0.00000E+00
    0.12240E-03        -0.24132E-04         0.00000E+00
    0.15882E-03        -0.39968E-04         0.00000E+00
    0.19328E-03        -0.58103E-04         0.00000E+00
    0.22601E-03        -0.77934E-04         0.00000E+00
    0.25725E-03        -0.99027E-04         0.00000E+00
    0.28728E-03        -0.12108E-03         0.00000E+00
    0.31638E-03        -0.14387E-03         0.00000E+00
    0.34481E-03        -0.16728E-03         0.00000E+00
    0.37283E-03        -0.19124E-03         0.00000E+00
    0.40071E-03        -0.21571E-03         0.00000E+00
    0.42866E-03        -0.24070E-03         0.00000E+00
    0.45691E-03        -0.26626E-03         0.00000E+00
    0.48567E-03        -0.29244E-03         0.00000E+00
    0.51513E-03        -0.31931E-03         0.00000E+00
    0.54549E-03        -0.34696E-03         0.00000E+00
    0.57692E-03        -0.37548E-03         0.00000E+00
    0.60959E-03        -0.40498E-03         0.00000E+00
    0.64366E-03        -0.43556E-03         0.00000E+00
    0.67931E-03        -0.46734E-03         0.00000E+00
    0.71668E-03        -0.50042E-03         0.00000E+00
    0.75593E-03        -0.53493E-03         0.00000E+00
    0.79722E-03        -0.57099E-03         0.00000E+00
    0.84070E-03        -0.60872E-03         0.00000E+00
    0.88654E-03        -0.64827E-03         0.00000E+00
    0.93490E-03        -0.68975E-03         0.00000E+00
    0.98594E-03        -0.73332E-03         0.00000E+00
    0.10398E-02        -0.77912E-03         0.00000E+00
    0.10968E-02        -0.82730E-03         0.00000E+00
    0.11569E-02        -0.87803E-03         0.00000E+00
    0.12204E-02        -0.93146E-03         0.00000E+00
    0.12875E-02        -0.98778E-03         0.00000E+00
    0.13584E-02        -0.10472E-02         0.00000E+00
    0.14334E-02        -0.11098E-02         0.00000E+00
    0.15125E-02        -0.11759E-02         0.00000E+00
    0.15961E-02        -0.12458E-02         0.00000E+00
    0.16844E-02        -0.13195E-02         0.00000E+00
    0.17777E-02        -0.13973E-02         0.00000E+00
    0.18761E-02        -0.14796E-02         0.00000E+00
    0.19801E-02        -0.15666E-02         0.00000E+00
    0.20898E-02        -0.16585E-02         0.00000E+00
    0.22056E-02        -0.17557E-02         0.00000E+00
    0.23277E-02        -0.18585E-02         0.00000E+00
    0.24565E-02        -0.19673E-02         0.00000E+00
    0.25924E-02        -0.20823E-02         0.00000E+00
    0.27356E-02        -0.22040E-02         0.00000E+00
    0.28866E-02        -0.23328E-02         0.00000E+00
    0.30456E-02        -0.24692E-02         0.00000E+00
    0.32131E-02        -0.26136E-02         0.00000E+00
    0.33895E-02        -0.27665E-02         0.00000E+00
    0.35751E-02        -0.29285E-02         0.00000E+00
    0.37704E-02        -0.31000E-02         0.00000E+00
    0.39757E-02        -0.32819E-02         0.00000E+00
    0.41915E-02        -0.34746E-02         0.00000E+00
    0.44183E-02        -0.36789E-02         0.00000E+00
    0.46563E-02        -0.38955E-02         0.00000E+00
    0.49060E-02        -0.41253E-02         0.00000E+00
    0.51678E-02        -0.43692E-02         0.00000E+00
    0.54421E-02        -0.46280E-02         0.00000E+00
    0.57293E-02        -0.49027E-02         0.00000E+00
    0.60297E-02        -0.51946E-02         0.00000E+00
    0.63435E-02        -0.55047E-02         0.00000E+00
    0.66710E-02        -0.58344E-02         0.00000E+00
    0.70124E-02        -0.61850E-02         0.00000E+00
    0.73678E-02        -0.65580E-02         0.00000E+00
    0.77372E-02        -0.69552E-02         0.00000E+00
    0.81205E-02        -0.73782E-02         0.00000E+00
    0.85175E-02        -0.78291E-02         0.00000E+00
    0.89277E-02        -0.83101E-02         0.00000E+00
    0.93506E-02        -0.88233E-02         0.00000E+00
    0.97853E-02        -0.93715E-02         0.00000E+00
    0.10231E-01        -0.99575E-02         0.00000E+00
    0.10685E-01        -0.10584E-01         0.00000E+00
    0.11147E-01        -0.11255E-01         0.00000E+00
    0.11614E-01        -0.11974E-01         0.00000E+00
    0.12084E-01        -0.12745E-01         0.00000E+00
    0.12552E-01        -0.13572E-01         0.00000E+00
    0.13015E-01        -0.14459E-01         0.00000E+00
    0.13468E-01        -0.15413E-01         0.00000E+00
    0.13905E-01        -0.16438E-01         0.00000E+00
    0.14318E-01        -0.17539E-01         0.00000E+00
    0.14699E-01        -0.18722E-01         0.00000E+00
    0.15040E-01        -0.19992E-01         0.00000E+00
    0.15327E-01        -0.21355E-01         0.00000E+00
    0.15548E-01        -0.22815E-01         0.00000E+00
    0.15689E-01        -0.24375E-01         0.00000E+00
    0.15731E-01        -0.26038E-01         0.00000E+00
    0.15655E-01        -0.27801E-01         0.00000E+00
    0.15440E-01        -0.29662E-01         0.00000E+00
    0.15061E-01        -0.31612E-01         0.00000E+00
    0.14492E-01        -0.33634E-01         0.00000E+00
    0.13706E-01        -0.35707E-01         0.00000E+00
    0.12673E-01        -0.37797E-01         0.00000E+00
    0.11365E-01        -0.39855E-01         0.00000E+00
    0.97561E-02        -0.41818E-01         0.00000E+00
    0.78250E-02        -0.43595E-01         0.00000E+00
    0.55608E-02        -0.45066E-01         0.00000E+00
    0.29586E-02        -0.46066E-01         0.00000E+00
    0.00000E+00        -0.46426E-01         0.00000E+00
    0.00000E+00        -0.46997E-06         0.00000E+00
    0.44122E-04        -0.36281E-05         0.00000E+00
    0.85799E-04        -0.12461E-04         0.00000E+00
    0.12519E-03        -0.25647E-04         0.00000E+00
    0.16237E-03        -0.41999E-04         0.00000E+00
    0.19750E-03        -0.60662E-04         0.00000E+00
    0.23081E-03        -0.81030E-04         0.00000E+00
    0.26257E-03        -0.10267E-03         0.00000E+00
    0.29307E-03        -0.12527E-03         0.00000E+00
    0.32260E-03        -0.14863E-03         0.00000E+00
    0.35143E-03        -0.17262E-03         0.00000E+00
    0.37984E-03        -0.19716E-03         0.00000E+00
    0.40809E-03        -0.22223E-03         0.00000E+00
    0.43642E-03        -0.24785E-03         0.00000E+00
    0.46505E-03        -0.27405E-03         0.00000E+00
    0.49419E-03        -0.30089E-03         0.00000E+00
    0.52406E-03        -0.32844E-03         0.00000E+00
    0.55484E-03        -0.35681E-03         0.00000E+00
    0.58672E-03        -0.38607E-03         0.00000E+00
    0.61985E-03        -0.41634E-03         0.00000E+00
    0.65443E-03        -0.44773E-03         0.00000E+00
    0.69060E-03        -0.48034E-03         0.00000E+00
    0.72853E-03        -0.51430E-03         0.00000E+00
    0.76838E-03        -0.54974E-03         0.00000E+00
    0.81030E-03        -0.58676E-03         0.00000E+00
    0.85446E-03        -0.62551E-03         0.00000E+00
    0.90101E-03        -0.66612E-03         0.00000E+00
    0.95013E-03        -0.70873E-03         0.00000E+00
    0.10020E-02        -0.75348E-03         0.00000E+00
    0.10567E-02        -0.80052E-03         0.00000E+00
    0.11146E-02        -0.85001E-03         0.00000E+00
    0.11756E-02        -0.90211E-03         0.00000E+00
    0.12402E-02        -0.95699E-03         0.00000E+00
    0.13084E-02        -0.10148E-02         0.00000E+00
    0.13804E-02        -0.10758E-02         0.00000E+00
    0.14566E-02        -0.11402E-02         0.00000E+00
    0.15370E-02        -0.12081E-02         0.00000E+00
    0.16220E-02        -0.12798E-02         0.00000E+00
    0.17117E-02        -0.13556E-02         0.00000E+00
    0.18065E-02        -0.14355E-02         0.00000E+00
    0.19066E-02        -0.15201E-02         0.00000E+00
    0.20122E-02        -0.16094E-02         0.00000E+00
    0.21237E-02        -0.17038E-02         0.00000E+00
    0.22414E-02        -0.18036E-02         0.00000E+00
    0.23656E-02        -0.19092E-02         0.00000E+00
    0.24966E-02        -0.20209E-02         0.00000E+00
    0.26347E-02        -0.21390E-02         0.00000E+00
    0.27803E-02        -0.22640E-02         0.00000E+00
    0.29338E-02        -0.23964E-02         0.00000E+00
    0.30955E-02        -0.25364E-02         0.00000E+00
    0.32659E-02        -0.26847E-02         0.00000E+00
    0.34452E-02        -0.28417E-02         0.00000E+00
    0.36340E-02        -0.30080E-02         0.00000E+00
    0.38326E-02        -0.31842E-02         0.00000E+00
    0.40415E-02        -0.33708E-02         0.00000E+00
    0.42611E-02        -0.35687E-02         0.00000E+00
    0.44917E-02        -0.37784E-02         0.00000E+00
    0.47339E-02        -0.40008E-02         0.00000E+00
    0.49880E-02        -0.42367E-02         0.00000E+00
    0.52545E-02        -0.44870E-02         0.00000E+00
    0.55338E-02        -0.47526E-02         0.00000E+00
    0.58262E-02        -0.50346E-02         0.00000E+00
    0.61321E-02        -0.53341E-02         0.00000E+00
    0.64517E-02        -0.56523E-02         0.00000E+00
    0.67854E-02        -0.59905E-02         0.00000E+00
    0.71334E-02        -0.63502E-02         0.00000E+00
    0.74957E-02        -0.67328E-02         0.00000E+00
    0.78724E-02        -0.71401E-02         0.00000E+00
    0.82634E-02        -0.75740E-02         0.00000E+00
    0.86685E-02        -0.80363E-02         0.00000E+00
    0.90873E-02        -0.85293E-02         0.00000E+00
    0.95193E-02        -0.90554E-02         0.00000E+00
    0.99636E-02        -0.96172E-02         0.00000E+00
    0.10419E-01        -0.10218E-01         0.00000E+00
    0.10884E-01        -0.10860E-01         0.00000E+00
    0.11358E-01        -0.11547E-01         0.00000E+00
    0.11837E-01        -0.12283E-01         0.00000E+00
    0.12319E-01        -0.13072E-01         0.00000E+00
    0.12800E-01        -0.13918E-01         0.00000E+00
    0.13277E-01        -0.14827E-01         0.00000E+00
    0.13744E-01        -0.15802E-01         0.00000E+00
    0.14195E-01        -0.16850E-01         0.00000E+00
    0.14623E-01        -0.17976E-01         0.00000E+00
    0.15019E-01        -0.19186E-01         0.00000E+00
    0.15375E-01        -0.20484E-01         0.00000E+00
    0.15677E-01        -0.21878E-01         0.00000E+00
    0.15912E-01        -0.23370E-01         0.00000E+00
    0.16066E-01        -0.24964E-01         0.00000E+00
    0.16120E-01        -0.26663E-01         0.00000E+00
    0.16053E-01        -0.28465E-01         0.00000E+00
    0.15844E-01        -0.30367E-01         0.00000E+00
    0.15467E-01        -0.32361E-01         0.00000E+00
    0.14895E-01        -0.34430E-01         0.00000E+00
    0.14098E-01        -0.36552E-01         0.00000E+00
    0.13046E-01        -0.38694E-01         0.00000E+00
    0.11708E-01        -0.40808E-01         0.00000E+00
    0.10057E-01        -0.42829E-01         0.00000E+00
    0.80685E-02        -0.44667E-01         0.00000E+00
    0.57323E-02        -0.46197E-01         0.00000E+00
    0.30466E-02        -0.47248E-01         0.00000E+00
    0.00000E+00        -0.47629E-01         0.00000E+00
    0.00000E+00        -0.90379E-06         0.00000E+00
    0.45133E-04        -0.42405E-05         0.00000E+00
    0.87779E-04        -0.13493E-04         0.00000E+00
    0.12804E-03        -0.27182E-04         0.00000E+00
    0.16598E-03        -0.44057E-04         0.00000E+00
    0.20176E-03        -0.63251E-04         0.00000E+00
    0.23563E-03        -0.84156E-04         0.00000E+00
    0.26789E-03        -0.10634E-03         0.00000E+00
    0.29883E-03        -0.12950E-03         0.00000E+00
    0.32876E-03        -0.15342E-03         0.00000E+00
    0.35797E-03        -0.17798E-03         0.00000E+00
    0.38675E-03        -0.20311E-03         0.00000E+00
    0.41535E-03        -0.22879E-03         0.00000E+00
    0.44403E-03        -0.25502E-03         0.00000E+00
    0.47301E-03        -0.28186E-03         0.00000E+00
    0.50253E-03        -0.30936E-03         0.00000E+00
    0.53278E-03        -0.33760E-03         0.00000E+00
    0.56396E-03        -0.36668E-03         0.00000E+00
    0.59626E-03        -0.39668E-03         0.00000E+00
    0.62985E-03        -0.42773E-03         0.00000E+00
    0.66490E-03        -0.45992E-03         0.00000E+00
    0.70158E-03        -0.49337E-03         0.00000E+00
    0.74004E-03        -0.52822E-03         0.00000E+00
    0.78047E-03        -0.56457E-03         0.00000E+00
    0.82300E-03        -0.60256E-03         0.00000E+00
    0.86781E-03        -0.64233E-03         0.00000E+00
    0.91506E-03        -0.68401E-03         0.00000E+00
    0.96491E-03        -0.72774E-03         0.00000E+00
    0.10175E-02        -0.77367E-03         0.00000E+00
    0.10731E-02        -0.82195E-03         0.00000E+00
    0.11318E-02        -0.87275E-03         0.00000E+00
    0.11938E-02        -0.92623E-03         0.00000E+00
    0.12594E-02        -0.98257E-03         0.00000E+00
    0.13286E-02        -0.10420E-02         0.00000E+00
    0.14018E-02        -0.11046E-02         0.00000E+00
    0.14791E-02        -0.11706E-02         0.00000E+00
    0.15608E-02        -0.12404E-02         0.00000E+00
    0.16471E-02        -0.13140E-02         0.00000E+00
    0.17382E-02        -0.13917E-02         0.00000E+00
    0.18345E-02        -0.14738E-02         0.00000E+00
    0.19361E-02        -0.15606E-02         0.00000E+00
    0.20434E-02        -0.16522E-02         0.00000E+00
    0.21567E-02        -0.17492E-02         0.00000E+00
    0.22762E-02        -0.18516E-02         0.00000E+00
    0.24024E-02        -0.19600E-02         0.00000E+00
    0.25354E-02        -0.20746E-02         0.00000E+00
    0.26758E-02        -0.21959E-02         0.00000E+00
    0.28237E-02        -0.23242E-02         0.00000E+00
    0.29797E-02        -0.24600E-02         0.00000E+00
    0.31440E-02        -0.26037E-02         0.00000E+00
    0.33171E-02        -0.27559E-02         0.00000E+00
    0.34993E-02        -0.29170E-02         0.00000E+00
    0.36912E-02        -0.30876E-02         0.00000E+00
    0.38931E-02        -0.32684E-02         0.00000E+00
    0.41054E-02        -0.34599E-02         0.00000E+00
    0.43286E-02        -0.36629E-02         0.00000E+00
    0.45631E-02        -0.38781E-02         0.00000E+00
    0.48094E-02        -0.41063E-02         0.00000E+00
    0.50678E-02        -0.43482E-02         0.00000E+00
    0.53389E-02        -0.46050E-02         0.00000E+00
    0.56230E-02        -0.48774E-02         0.00000E+00
    0.59205E-02        -0.51666E-02         0.00000E+00
    0.62318E-02        -0.54738E-02         0.00000E+00
    0.65572E-02        -0.58000E-02         0.00000E+00
    0.68969E-02        -0.61468E-02         0.00000E+00
    0.72513E-02        -0.65156E-02         0.00000E+00
    0.76204E-02        -0.69078E-02         0.00000E+00
    0.80043E-02        -0.73253E-02         0.00000E+00
    0.84029E-02        -0.77699E-02         0.00000E+00
    0.88161E-02        -0.82436E-02         0.00000E+00
    0.92434E-02        -0.87488E-02         0.00000E+00
    0.96844E-02        -0.92877E-02         0.00000E+00
    0.10138E-01        -0.98631E-02         0.00000E+00
    0.10604E-01        -0.10478E-01         0.00000E+00
    0.11080E-01        -0.11135E-01         0.00000E+00
    0.11564E-01        -0.11839E-01         0.00000E+00
    0.12055E-01        -0.12592E-01         0.00000E+00
    0.12550E-01        -0.13399E-01         0.00000E+00
    0.13044E-01        -0.14265E-01         0.00000E+00
    0.13535E-01        -0.15194E-01         0.00000E+00
    0.14016E-01        -0.16192E-01         0.00000E+00
    0.14482E-01        -0.17263E-01         0.00000E+00
    0.14925E-01        -0.18414E-01         0.00000E+00
    0.15337E-01        -0.19650E-01         0.00000E+00
    0.15708E-01        -0.20977E-01         0.00000E+00
    0.16026E-01        -0.22400E-01         0.00000E+00
    0.16277E-01        -0.23923E-01         0.00000E+00
    0.16445E-01        -0.25552E-01         0.00000E+00
    0.16511E-01        -0.27287E-01         0.00000E+00
    0.16455E-01        -0.29128E-01         0.00000E+00
    0.16254E-01        -0.31071E-01         0.00000E+00
    0.15880E-01        -0.33108E-01         0.00000E+00
    0.15306E-01        -0.35224E-01         0.00000E+00
    0.14500E-01        -0.37395E-01         0.00000E+00
    0.13431E-01        -0.39589E-01         0.00000E+00
    0.12065E-01        -0.41759E-01         0.00000E+00
    0.10372E-01        -0.43838E-01         0.00000E+00
    0.83264E-02        -0.45737E-01         0.00000E+00
    0.59156E-02        -0.47330E-01         0.00000E+00
    0.31414E-02        -0.48435E-01         0.00000E+00
    0.00000E+00        -0.48840E-01         0.00000E+00
    0.00000E+00        -0.13000E-05         0.00000E+00
    0.46187E-04        -0.48343E-05         0.00000E+00
    0.89829E-04        -0.14533E-04         0.00000E+00
    0.13097E-03        -0.28736E-04         0.00000E+00
    0.16965E-03        -0.46138E-04         0.00000E+00
    0.20606E-03        -0.65866E-04         0.00000E+00
    0.24048E-03        -0.87310E-04         0.00000E+00
    0.27321E-03        -0.11004E-03         0.00000E+00
    0.30457E-03        -0.13375E-03         0.00000E+00
    0.33487E-03        -0.15823E-03         0.00000E+00
    0.36444E-03        -0.18337E-03         0.00000E+00
    0.39355E-03        -0.20908E-03         0.00000E+00
    0.42248E-03        -0.23536E-03         0.00000E+00
    0.45148E-03        -0.26222E-03         0.00000E+00
    0.48081E-03        -0.28970E-03         0.00000E+00
    0.51067E-03        -0.31786E-03         0.00000E+00
    0.54128E-03        -0.34679E-03         0.00000E+00
    0.57285E-03        -0.37657E-03         0.00000E+00
    0.60555E-03        -0.40732E-03         0.00000E+00
    0.63956E-03        -0.43913E-03         0.00000E+00
    0.67507E-03        -0.47213E-03         0.00000E+00
    0.71224E-03        -0.50643E-03         0.00000E+00
    0.75122E-03        -0.54215E-03         0.00000E+00
    0.79220E-03        -0.57943E-03         0.00000E+00
    0.83532E-03        -0.61840E-03         0.00000E+00
    0.88076E-03        -0.65918E-03         0.00000E+00
    0.92867E-03        -0.70193E-03         0.00000E+00
    0.97923E-03        -0.74678E-03         0.00000E+00
    0.10326E-02        -0.79389E-03         0.00000E+00
    0.10890E-02        -0.84342E-03         0.00000E+00
    0.11485E-02        -0.89553E-03         0.00000E+00
    0.12115E-02        -0.95039E-03         0.00000E+00
    0.12780E-02        -0.10082E-02         0.00000E+00
    0.13482E-02        -0.10691E-02         0.00000E+00
    0.14225E-02        -0.11334E-02         0.00000E+00
    0.15009E-02        -0.12011E-02         0.00000E+00
    0.15838E-02        -0.12726E-02         0.00000E+00
    0.16714E-02        -0.13482E-02         0.00000E+00
    0.17639E-02        -0.14279E-02         0.00000E+00
    0.18616E-02        -0.15121E-02         0.00000E+00
    0.19647E-02        -0.16011E-02         0.00000E+00
    0.20737E-02        -0.16952E-02         0.00000E+00
    0.21886E-02        -0.17946E-02         0.00000E+00
    0.23100E-02        -0.18997E-02         0.00000E+00
    0.24380E-02        -0.20109E-02         0.00000E+00
    0.25731E-02        -0.21284E-02         0.00000E+00
    0.27156E-02        -0.22528E-02         0.00000E+00
    0.28658E-02        -0.23844E-02         0.00000E+00
    0.30241E-02        -0.25237E-02         0.00000E+00
    0.31910E-02        -0.26711E-02         0.00000E+00
    0.33667E-02        -0.28271E-02         0.00000E+00
    0.35518E-02        -0.29924E-02         0.00000E+00
    0.37467E-02        -0.31674E-02         0.00000E+00
    0.39517E-02        -0.33528E-02         0.00000E+00
    0.41674E-02        -0.35492E-02         0.00000E+00
    0.43942E-02        -0.37573E-02         0.00000E+00
    0.46325E-02        -0.39779E-02         0.00000E+00
    0.48827E-02        -0.42119E-02         0.00000E+00
    0.51454E-02        -0.44599E-02         0.00000E+00
    0.54209E-02        -0.47231E-02         0.00000E+00
    0.57097E-02        -0.50024E-02         0.00000E+00
    0.60122E-02        -0.52988E-02         0.00000E+00
    0.63288E-02        -0.56136E-02         0.00000E+00
    0.66598E-02        -0.59480E-02         0.00000E+00
    0.70055E-02        -0.63033E-02         0.00000E+00
    0.73661E-02        -0.66812E-02         0.00000E+00
    0.77419E-02        -0.70830E-02         0.00000E+00
    0.81329E-02        -0.75107E-02         0.00000E+00
    0.85390E-02        -0.79661E-02         0.00000E+00
    0.89601E-02        -0.84512E-02         0.00000E+00
    0.93959E-02        -0.89684E-02         0.00000E+00
    0.98458E-02        -0.95202E-02         0.00000E+00
    0.10309E-01        -0.10109E-01         0.00000E+00
    0.10785E-01        -0.10738E-01         0.00000E+00
    0.11271E-01        -0.11411E-01         0.00000E+00
    0.11767E-01        -0.12131E-01         0.00000E+00
    0.12270E-01        -0.12901E-01         0.00000E+00
    0.12777E-01        -0.13727E-01         0.00000E+00
    0.13285E-01        -0.14612E-01         0.00000E+00
    0.13789E-01        -0.15562E-01         0.00000E+00
    0.14285E-01        -0.16581E-01         0.00000E+00
    0.14766E-01        -0.17676E-01         0.00000E+00
    0.15225E-01        -0.18851E-01         0.00000E+00
    0.15653E-01        -0.20114E-01         0.00000E+00
    0.16041E-01        -0.21468E-01         0.00000E+00
    0.16375E-01        -0.22921E-01         0.00000E+00
    0.16642E-01        -0.24477E-01         0.00000E+00
    0.16825E-01        -0.26139E-01         0.00000E+00
    0.16905E-01        -0.27910E-01         0.00000E+00
    0.16861E-01        -0.29790E-01         0.00000E+00
    0.16669E-01        -0.31774E-01         0.00000E+00
    0.16300E-01        -0.33854E-01         0.00000E+00
    0.15726E-01        -0.36016E-01         0.00000E+00
    0.14914E-01        -0.38236E-01         0.00000E+00
    0.13829E-01        -0.40483E-01         0.00000E+00
    0.12436E-01        -0.42708E-01         0.00000E+00
    0.10703E-01        -0.44846E-01         0.00000E+00
    0.86002E-02        -0.46807E-01         0.00000E+00
    0.61125E-02        -0.48464E-01         0.00000E+00
    0.32440E-02        -0.49627E-01         0.00000E+00
    0.00000E+00        -0.50058E-01         0.00000E+00
    0.00000E+00        -0.16538E-05         0.00000E+00
    0.47295E-04        -0.54091E-05         0.00000E+00
    0.91967E-04        -0.15581E-04         0.00000E+00
    0.13399E-03        -0.30310E-04         0.00000E+00
    0.17340E-03        -0.48242E-04         0.00000E+00
    0.21042E-03        -0.68504E-04         0.00000E+00
    0.24535E-03        -0.90487E-04         0.00000E+00
    0.27852E-03        -0.11376E-03         0.00000E+00
    0.31027E-03        -0.13802E-03         0.00000E+00
    0.34093E-03        -0.16307E-03         0.00000E+00
    0.37082E-03        -0.18878E-03         0.00000E+00
    0.40024E-03        -0.21508E-03         0.00000E+00
    0.42948E-03        -0.24196E-03         0.00000E+00
    0.45879E-03        -0.26944E-03         0.00000E+00
    0.48843E-03        -0.29755E-03         0.00000E+00
    0.51862E-03        -0.32638E-03         0.00000E+00
    0.54957E-03        -0.35599E-03         0.00000E+00
    0.58150E-03        -0.38649E-03         0.00000E+00
    0.61458E-03        -0.41797E-03         0.00000E+00
    0.64900E-03        -0.45056E-03         0.00000E+00
    0.68495E-03        -0.48436E-03         0.00000E+00
    0.72258E-03        -0.51951E-03         0.00000E+00
    0.76206E-03        -0.55611E-03         0.00000E+00
    0.80357E-03        -0.59432E-03         0.00000E+00
    0.84726E-03        -0.63425E-03         0.00000E+00
    0.89330E-03        -0.67605E-03         0.00000E+00
    0.94185E-03        -0.71987E-03         0.00000E+00
    0.99310E-03        -0.76585E-03         0.00000E+00
    0.10472E-02        -0.81415E-03         0.00000E+00
    0.11044E-02        -0.86492E-03         0.00000E+00
    0.11647E-02        -0.91834E-03         0.00000E+00
    0.12285E-02        -0.97459E-03         0.00000E+00
    0.12960E-02        -0.10338E-02         0.00000E+00
    0.13672E-02        -0.10963E-02         0.00000E+00
    0.14425E-02        -0.11622E-02         0.00000E+00
    0.15220E-02        -0.12316E-02         0.00000E+00
    0.16061E-02        -0.13050E-02         0.00000E+00
    0.16949E-02        -0.13824E-02         0.00000E+00
    0.17887E-02        -0.14641E-02         0.00000E+00
    0.18878E-02        -0.15505E-02         0.00000E+00
    0.19924E-02        -0.16417E-02         0.00000E+00
    0.21029E-02        -0.17382E-02         0.00000E+00
    0.22195E-02        -0.18401E-02         0.00000E+00
    0.23426E-02        -0.19478E-02         0.00000E+00
    0.24725E-02        -0.20618E-02         0.00000E+00
    0.26096E-02        -0.21823E-02         0.00000E+00
    0.27541E-02        -0.23098E-02         0.00000E+00
    0.29065E-02        -0.24447E-02         0.00000E+00
    0.30672E-02        -0.25875E-02         0.00000E+00
    0.32365E-02        -0.27386E-02         0.00000E+00
    0.34148E-02        -0.28985E-02         0.00000E+00
    0.36027E-02        -0.30679E-02         0.00000E+00
    0.38005E-02        -0.32472E-02         0.00000E+00
    0.40086E-02        -0.34372E-02         0.00000E+00
    0.42275E-02        -0.36385E-02         0.00000E+00
    0.44578E-02        -0.38518E-02         0.00000E+00
    0.46997E-02        -0.40779E-02         0.00000E+00
    0.49538E-02        -0.43176E-02         0.00000E+00
    0.52206E-02        -0.45718E-02         0.00000E+00
    0.55005E-02        -0.48414E-02         0.00000E+00
    0.57939E-02        -0.51275E-02         0.00000E+00
    0.61013E-02        -0.54312E-02         0.00000E+00
    0.64231E-02        -0.57536E-02         0.00000E+00
    0.67596E-02        -0.60961E-02         0.00000E+00
    0.71111E-02        -0.64600E-02         0.00000E+00
    0.74779E-02        -0.68469E-02         0.00000E+00
    0.78602E-02        -0.72584E-02         0.00000E+00
    0.82582E-02        -0.76962E-02         0.00000E+00
    0.86717E-02        -0.81624E-02         0.00000E+00
    0.91006E-02        -0.86590E-02         0.00000E+00
    0.95448E-02        -0.91883E-02         0.00000E+00
    0.10004E-01        -0.97529E-02         0.00000E+00
    0.10476E-01        -0.10355E-01         0.00000E+00
    0.10962E-01        -0.10999E-01         0.00000E+00
    0.11459E-01        -0.11687E-01         0.00000E+00
    0.11966E-01        -0.12423E-01         0.00000E+00
    0.12481E-01        -0.13211E-01         0.00000E+00
    0.13001E-01        -0.14055E-01         0.00000E+00
    0.13522E-01        -0.14959E-01         0.00000E+00
    0.14040E-01        -0.15929E-01         0.00000E+00
    0.14551E-01        -0.16971E-01         0.00000E+00
    0.15047E-01        -0.18089E-01         0.00000E+00
    0.15522E-01        -0.19289E-01         0.00000E+00
    0.15967E-01        -0.20577E-01         0.00000E+00
    0.16372E-01        -0.21960E-01         0.00000E+00
    0.16723E-01        -0.23443E-01         0.00000E+00
    0.17007E-01        -0.25030E-01         0.00000E+00
    0.17206E-01        -0.26726E-01         0.00000E+00
    0.17302E-01        -0.28533E-01         0.00000E+00
    0.17271E-01        -0.30450E-01         0.00000E+00
    0.17090E-01        -0.32475E-01         0.00000E+00
    0.16729E-01        -0.34598E-01         0.00000E+00
    0.16156E-01        -0.36806E-01         0.00000E+00
    0.15339E-01        -0.39076E-01         0.00000E+00
    0.14241E-01        -0.41375E-01         0.00000E+00
    0.12824E-01        -0.43655E-01         0.00000E+00
    0.11051E-01        -0.45852E-01         0.00000E+00
    0.88918E-02        -0.47876E-01         0.00000E+00
    0.63250E-02        -0.49598E-01         0.00000E+00
    0.33559E-02        -0.50823E-01         0.00000E+00
    0.00000E+00        -0.51284E-01         0.00000E+00
    0.00000E+00        -0.19602E-05         0.00000E+00
    0.48470E-04        -0.59654E-05         0.00000E+00
    0.94207E-04        -0.16639E-04         0.00000E+00
    0.13711E-03        -0.31901E-04         0.00000E+00
    0.17723E-03        -0.50367E-04         0.00000E+00
    0.21483E-03        -0.71164E-04         0.00000E+00
    0.25025E-03        -0.93686E-04         0.00000E+00
    0.28384E-03        -0.11750E-03         0.00000E+00
    0.31595E-03        -0.14231E-03         0.00000E+00
    0.34694E-03        -0.16792E-03         0.00000E+00
    0.37713E-03        -0.19420E-03         0.00000E+00
    0.40684E-03        -0.22109E-03         0.00000E+00
    0.43635E-03        -0.24857E-03         0.00000E+00
    0.46595E-03        -0.27667E-03         0.00000E+00
    0.49588E-03        -0.30542E-03         0.00000E+00
    0.52637E-03        -0.33491E-03         0.00000E+00
    0.55764E-03        -0.36521E-03         0.00000E+00
    0.58991E-03        -0.39642E-03         0.00000E+00
    0.62335E-03        -0.42864E-03         0.00000E+00
    0.65816E-03        -0.46200E-03         0.00000E+00
    0.69452E-03        -0.49661E-03         0.00000E+00
    0.73260E-03        -0.53260E-03         0.00000E+00
    0.77256E-03        -0.57009E-03         0.00000E+00
    0.81457E-03        -0.60922E-03         0.00000E+00
    0.85880E-03        -0.65013E-03         0.00000E+00
    0.90542E-03        -0.69295E-03         0.00000E+00
    0.95460E-03        -0.73784E-03         0.00000E+00
    0.10065E-02        -0.78494E-03         0.00000E+00
    0.10613E-02        -0.83442E-03         0.00000E+00
    0.11192E-02        -0.88645E-03         0.00000E+00
    0.11804E-02        -0.94118E-03         0.00000E+00
    0.12450E-02        -0.99882E-03         0.00000E+00
    0.13133E-02        -0.10595E-02         0.00000E+00
    0.13855E-02        -0.11235E-02         0.00000E+00
    0.14618E-02        -0.11910E-02         0.00000E+00
    0.15424E-02        -0.12622E-02         0.00000E+00
    0.16276E-02        -0.13373E-02         0.00000E+00
    0.17176E-02        -0.14167E-02         0.00000E+00
    0.18127E-02        -0.15004E-02         0.00000E+00
    0.19131E-02        -0.15889E-02         0.00000E+00
    0.20192E-02        -0.16824E-02         0.00000E+00
    0.21312E-02        -0.17812E-02         0.00000E+00
    0.22494E-02        -0.18856E-02         0.00000E+00
    0.23742E-02        -0.19960E-02         0.00000E+00
    0.25059E-02        -0.21128E-02         0.00000E+00
    0.26448E-02        -0.22363E-02         0.00000E+00
    0.27913E-02        -0.23669E-02         0.00000E+00
    0.29459E-02        -0.25051E-02         0.00000E+00
    0.31088E-02        -0.26513E-02         0.00000E+00
    0.32805E-02        -0.28061E-02         0.00000E+00
    0.34614E-02        -0.29700E-02         0.00000E+00
    0.36519E-02        -0.31435E-02         0.00000E+00
    0.38525E-02        -0.33272E-02         0.00000E+00
    0.40636E-02        -0.35218E-02         0.00000E+00
    0.42858E-02        -0.37280E-02         0.00000E+00
    0.45193E-02        -0.39464E-02         0.00000E+00
    0.47648E-02        -0.41780E-02         0.00000E+00
    0.50228E-02        -0.44234E-02         0.00000E+00
    0.52935E-02        -0.46837E-02         0.00000E+00
    0.55777E-02        -0.49598E-02         0.00000E+00
    0.58756E-02        -0.52527E-02         0.00000E+00
    0.61878E-02        -0.55637E-02         0.00000E+00
    0.65146E-02        -0.58938E-02         0.00000E+00
    0.68564E-02        -0.62443E-02         0.00000E+00
    0.72137E-02        -0.66169E-02         0.00000E+00
    0.75866E-02        -0.70128E-02         0.00000E+00
    0.79753E-02        -0.74339E-02         0.00000E+00
    0.83801E-02        -0.78820E-02         0.00000E+00
    0.88009E-02        -0.83589E-02         0.00000E+00
    0.92376E-02        -0.88669E-02         0.00000E+00
    0.96900E-02        -0.94083E-02         0.00000E+00
    0.10158E-01        -0.99857E-02         0.00000E+00
    0.10640E-01        -0.10602E-01         0.00000E+00
    0.11135E-01        -0.11260E-01         0.00000E+00
    0.11643E-01        -0.11963E-01         0.00000E+00
    0.12161E-01        -0.12715E-01         0.00000E+00
    0.12688E-01        -0.13520E-01         0.00000E+00
    0.13220E-01        -0.14382E-01         0.00000E+00
    0.13755E-01        -0.15306E-01         0.00000E+00
    0.14288E-01        -0.16297E-01         0.00000E+00
    0.14813E-01        -0.17360E-01         0.00000E+00
    0.15325E-01        -0.18501E-01         0.00000E+00
    0.15817E-01        -0.19726E-01         0.00000E+00
    0.16279E-01        -0.21041E-01         0.00000E+00
    0.16701E-01        -0.22451E-01         0.00000E+00
    0.17070E-01        -0.23964E-01         0.00000E+00
    0.17372E-01        -0.25582E-01         0.00000E+00
    0.17589E-01        -0.27312E-01         0.00000E+00
    0.17701E-01        -0.29154E-01         0.00000E+00
    0.17686E-01        -0.31110E-01         0.00000E+00
    0.17517E-01        -0.33175E-01         0.00000E+00
    0.17165E-01        -0.35342E-01         0.00000E+00
    0.16597E-01        -0.37596E-01         0.00000E+00
    0.15777E-01        -0.39915E-01         0.00000E+00
    0.14668E-01        -0.42265E-01         0.00000E+00
    0.13228E-01        -0.44601E-01         0.00000E+00
    0.11419E-01        -0.46857E-01         0.00000E+00
    0.92031E-02        -0.48944E-01         0.00000E+00
    0.65557E-02        -0.50733E-01         0.00000E+00
    0.34792E-02        -0.52024E-01         0.00000E+00
    0.00000E+00        -0.52519E-01         0.00000E+00
    0.00000E+00        -0.22137E-05         0.00000E+00
    0.49730E-04        -0.65055E-05         0.00000E+00
    0.96569E-04        -0.17709E-04         0.00000E+00
    0.14034E-03        -0.33508E-04         0.00000E+00
    0.18116E-03        -0.52508E-04         0.00000E+00
    0.21932E-03        -0.73843E-04         0.00000E+00
    0.25519E-03        -0.96903E-04         0.00000E+00
    0.28917E-03        -0.12126E-03         0.00000E+00
    0.32161E-03        -0.14663E-03         0.00000E+00
    0.35290E-03        -0.17280E-03         0.00000E+00
    0.38336E-03        -0.19965E-03         0.00000E+00
    0.41333E-03        -0.22712E-03         0.00000E+00
    0.44310E-03        -0.25520E-03         0.00000E+00
    0.47296E-03        -0.28392E-03         0.00000E+00
    0.50315E-03        -0.31331E-03         0.00000E+00
    0.53392E-03        -0.34346E-03         0.00000E+00
    0.56549E-03        -0.37444E-03         0.00000E+00
    0.59807E-03        -0.40636E-03         0.00000E+00
    0.63186E-03        -0.43933E-03         0.00000E+00
    0.66704E-03        -0.47346E-03         0.00000E+00
    0.70379E-03        -0.50888E-03         0.00000E+00
    0.74229E-03        -0.54571E-03         0.00000E+00
    0.78271E-03        -0.58409E-03         0.00000E+00
    0.82521E-03        -0.62414E-03         0.00000E+00
    0.86996E-03        -0.66602E-03         0.00000E+00
    0.91713E-03        -0.70986E-03         0.00000E+00
    0.96690E-03        -0.75582E-03         0.00000E+00
    0.10194E-02        -0.80406E-03         0.00000E+00
    0.10749E-02        -0.85472E-03         0.00000E+00
    0.11335E-02        -0.90800E-03         0.00000E+00
    0.11955E-02        -0.96405E-03         0.00000E+00
    0.12609E-02        -0.10231E-02         0.00000E+00
    0.13301E-02        -0.10852E-02         0.00000E+00
    0.14032E-02        -0.11508E-02         0.00000E+00
    0.14805E-02        -0.12199E-02         0.00000E+00
    0.15621E-02        -0.12928E-02         0.00000E+00
    0.16484E-02        -0.13697E-02         0.00000E+00
    0.17396E-02        -0.14510E-02         0.00000E+00
    0.18359E-02        -0.15368E-02         0.00000E+00
    0.19376E-02        -0.16274E-02         0.00000E+00
    0.20450E-02        -0.17231E-02         0.00000E+00
    0.21585E-02        -0.18243E-02         0.00000E+00
    0.22782E-02        -0.19312E-02         0.00000E+00
    0.24047E-02        -0.20443E-02         0.00000E+00
    0.25381E-02        -0.21638E-02         0.00000E+00
    0.26788E-02        -0.22903E-02         0.00000E+00
    0.28273E-02        -0.24240E-02         0.00000E+00
    0.29839E-02        -0.25655E-02         0.00000E+00
    0.31490E-02        -0.27153E-02         0.00000E+00
    0.33230E-02        -0.28737E-02         0.00000E+00
    0.35063E-02        -0.30415E-02         0.00000E+00
    0.36995E-02        -0.32191E-02         0.00000E+00
    0.39028E-02        -0.34072E-02         0.00000E+00
    0.41169E-02        -0.36064E-02         0.00000E+00
    0.43421E-02        -0.38175E-02         0.00000E+00
    0.45789E-02        -0.40411E-02         0.00000E+00
    0.48279E-02        -0.42781E-02         0.00000E+00
    0.50895E-02        -0.45293E-02         0.00000E+00
    0.53641E-02        -0.47958E-02         0.00000E+00
    0.56524E-02        -0.50783E-02         0.00000E+00
    0.59547E-02        -0.53781E-02         0.00000E+00
    0.62716E-02        -0.56962E-02         0.00000E+00
    0.66033E-02        -0.60340E-02         0.00000E+00
    0.69504E-02        -0.63927E-02         0.00000E+00
    0.73133E-02        -0.67738E-02         0.00000E+00
    0.76921E-02        -0.71789E-02         0.00000E+00
    0.80872E-02        -0.76096E-02         0.00000E+00
    0.84987E-02        -0.80678E-02         0.00000E+00
    0.89266E-02        -0.85555E-02         0.00000E+00
    0.93710E-02        -0.90750E-02         0.00000E+00
    0.98315E-02        -0.96285E-02         0.00000E+00
    0.10308E-01        -0.10219E-01         0.00000E+00
    0.10799E-01        -0.10849E-01         0.00000E+00
    0.11304E-01        -0.11521E-01         0.00000E+00
    0.11823E-01        -0.12239E-01         0.00000E+00
    0.12352E-01        -0.13008E-01         0.00000E+00
    0.12891E-01        -0.13830E-01         0.00000E+00
    0.13436E-01        -0.14710E-01         0.00000E+00
    0.13984E-01        -0.15653E-01         0.00000E+00
    0.14531E-01        -0.16665E-01         0.00000E+00
    0.15072E-01        -0.17750E-01         0.00000E+00
    0.15601E-01        -0.18914E-01         0.00000E+00
    0.16109E-01        -0.20163E-01         0.00000E+00
    0.16589E-01        -0.21504E-01         0.00000E+00
    0.17029E-01        -0.22943E-01         0.00000E+00
    0.17417E-01        -0.24484E-01         0.00000E+00
    0.17738E-01        -0.26134E-01         0.00000E+00
    0.17973E-01        -0.27897E-01         0.00000E+00
    0.18104E-01        -0.29776E-01         0.00000E+00
    0.18105E-01        -0.31769E-01         0.00000E+00
    0.17950E-01        -0.33875E-01         0.00000E+00
    0.17609E-01        -0.36084E-01         0.00000E+00
    0.17048E-01        -0.38384E-01         0.00000E+00
    0.16228E-01        -0.40752E-01         0.00000E+00
    0.15110E-01        -0.43155E-01         0.00000E+00
    0.13650E-01        -0.45546E-01         0.00000E+00
    0.11806E-01        -0.47861E-01         0.00000E+00
    0.95361E-02        -0.50011E-01         0.00000E+00
    0.68073E-02        -0.51867E-01         0.00000E+00
    0.36163E-02        -0.53228E-01         0.00000E+00
    0.00000E+00        -0.53762E-01         0.00000E+00
    0.00000E+00        -0.24084E-05         0.00000E+00
    0.51098E-04        -0.70340E-05         0.00000E+00
    0.99076E-04        -0.18790E-04         0.00000E+00
    0.14371E-03        -0.35128E-04         0.00000E+00
    0.18519E-03        -0.54665E-04         0.00000E+00
    0.22388E-03        -0.76536E-04         0.00000E+00
    0.26018E-03        -0.10014E-03         0.00000E+00
    0.29451E-03        -0.12504E-03         0.00000E+00
    0.32726E-03        -0.15095E-03         0.00000E+00
    0.35881E-03        -0.17768E-03         0.00000E+00
    0.38952E-03        -0.20510E-03         0.00000E+00
    0.41972E-03        -0.23316E-03         0.00000E+00
    0.44972E-03        -0.26185E-03         0.00000E+00
    0.47981E-03        -0.29118E-03         0.00000E+00
    0.51025E-03        -0.32121E-03         0.00000E+00
    0.54128E-03        -0.35202E-03         0.00000E+00
    0.57312E-03        -0.38368E-03         0.00000E+00
    0.60600E-03        -0.41632E-03         0.00000E+00
    0.64011E-03        -0.45003E-03         0.00000E+00
    0.67564E-03        -0.48493E-03         0.00000E+00
    0.71276E-03        -0.52116E-03         0.00000E+00
    0.75166E-03        -0.55884E-03         0.00000E+00
    0.79251E-03        -0.59809E-03         0.00000E+00
    0.83547E-03        -0.63908E-03         0.00000E+00
    0.88072E-03        -0.68193E-03         0.00000E+00
    0.92843E-03        -0.72679E-03         0.00000E+00
    0.97877E-03        -0.77382E-03         0.00000E+00
    0.10319E-02        -0.82319E-03         0.00000E+00
    0.10880E-02        -0.87504E-03         0.00000E+00
    0.11473E-02        -0.92956E-03         0.00000E+00
    0.12100E-02        -0.98693E-03         0.00000E+00
    0.12762E-02        -0.10473E-02         0.00000E+00
    0.13462E-02        -0.11110E-02         0.00000E+00
    0.14202E-02        -0.11781E-02         0.00000E+00
    0.14984E-02        -0.12488E-02         0.00000E+00
    0.15811E-02        -0.13234E-02         0.00000E+00
    0.16684E-02        -0.14022E-02         0.00000E+00
    0.17607E-02        -0.14853E-02         0.00000E+00
    0.18582E-02        -0.15731E-02         0.00000E+00
    0.19611E-02        -0.16658E-02         0.00000E+00
    0.20699E-02        -0.17638E-02         0.00000E+00
    0.21848E-02        -0.18674E-02         0.00000E+00
    0.23060E-02        -0.19768E-02         0.00000E+00
    0.24340E-02        -0.20925E-02         0.00000E+00
    0.25691E-02        -0.22149E-02         0.00000E+00
    0.27116E-02        -0.23443E-02         0.00000E+00
    0.28620E-02        -0.24812E-02         0.00000E+00
    0.30206E-02        -0.26260E-02         0.00000E+00
    0.31878E-02        -0.27792E-02         0.00000E+00
    0.33640E-02        -0.29414E-02         0.00000E+00
    0.35497E-02        -0.31131E-02         0.00000E+00
    0.37453E-02        -0.32948E-02         0.00000E+00
    0.39514E-02        -0.34873E-02         0.00000E+00
    0.41682E-02        -0.36911E-02         0.00000E+00
    0.43964E-02        -0.39071E-02         0.00000E+00
    0.46364E-02        -0.41359E-02         0.00000E+00
    0.48888E-02        -0.43783E-02         0.00000E+00
    0.51539E-02        -0.46353E-02         0.00000E+00
    0.54324E-02        -0.49079E-02         0.00000E+00
    0.57247E-02        -0.51969E-02         0.00000E+00
    0.60313E-02        -0.55035E-02         0.00000E+00
    0.63526E-02        -0.58289E-02         0.00000E+00
    0.66892E-02        -0.61744E-02         0.00000E+00
    0.70415E-02        -0.65412E-02         0.00000E+00
    0.74098E-02        -0.69309E-02         0.00000E+00
    0.77944E-02        -0.73450E-02         0.00000E+00
    0.81957E-02        -0.77853E-02         0.00000E+00
    0.86138E-02        -0.82537E-02         0.00000E+00
    0.90488E-02        -0.87523E-02         0.00000E+00
    0.95007E-02        -0.92831E-02         0.00000E+00
    0.99692E-02        -0.98488E-02         0.00000E+00
    0.10454E-01        -0.10452E-01         0.00000E+00
    0.10954E-01        -0.11095E-01         0.00000E+00
    0.11470E-01        -0.11782E-01         0.00000E+00
    0.11999E-01        -0.12516E-01         0.00000E+00
    0.12539E-01        -0.13300E-01         0.00000E+00
    0.13090E-01        -0.14140E-01         0.00000E+00
    0.13648E-01        -0.15038E-01         0.00000E+00
    0.14210E-01        -0.16001E-01         0.00000E+00
    0.14771E-01        -0.17032E-01         0.00000E+00
    0.15328E-01        -0.18139E-01         0.00000E+00
    0.15873E-01        -0.19326E-01         0.00000E+00
    0.16399E-01        -0.20600E-01         0.00000E+00
    0.16897E-01        -0.21967E-01         0.00000E+00
    0.17356E-01        -0.23433E-01         0.00000E+00
    0.17763E-01        -0.25005E-01         0.00000E+00
    0.18104E-01        -0.26686E-01         0.00000E+00
    0.18359E-01        -0.28483E-01         0.00000E+00
    0.18509E-01        -0.30396E-01         0.00000E+00
    0.18529E-01        -0.32428E-01         0.00000E+00
    0.18391E-01        -0.34574E-01         0.00000E+00
    0.18063E-01        -0.36826E-01         0.00000E+00
    0.17510E-01        -0.39172E-01         0.00000E+00
    0.16693E-01        -0.41588E-01         0.00000E+00
    0.15569E-01        -0.44043E-01         0.00000E+00
    0.14092E-01        -0.46490E-01         0.00000E+00
    0.12216E-01        -0.48864E-01         0.00000E+00
    0.98930E-02        -0.51077E-01         0.00000E+00
    0.70831E-02        -0.53000E-01         0.00000E+00
    0.37707E-02        -0.54435E-01         0.00000E+00
    0.00000E+00        -0.55014E-01         0.00000E+00
    0.00000E+00        -0.25378E-05         0.00000E+00
    0.52609E-04        -0.75588E-05         0.00000E+00
    0.10175E-03        -0.19884E-04         0.00000E+00
    0.14722E-03        -0.36759E-04         0.00000E+00
    0.18934E-03        -0.56834E-04         0.00000E+00
    0.22852E-03        -0.79242E-04         0.00000E+00
    0.26522E-03        -0.10338E-03         0.00000E+00
    0.29987E-03        -0.12883E-03         0.00000E+00
    0.33288E-03        -0.15529E-03         0.00000E+00
    0.36467E-03        -0.18258E-03         0.00000E+00
    0.39559E-03        -0.21057E-03         0.00000E+00
    0.42600E-03        -0.23921E-03         0.00000E+00
    0.45621E-03        -0.26850E-03         0.00000E+00
    0.48651E-03        -0.29845E-03         0.00000E+00
    0.51716E-03        -0.32912E-03         0.00000E+00
    0.54843E-03        -0.36058E-03         0.00000E+00
    0.58053E-03        -0.39294E-03         0.00000E+00
    0.61369E-03        -0.42628E-03         0.00000E+00
    0.64809E-03        -0.46073E-03         0.00000E+00
    0.68394E-03        -0.49641E-03         0.00000E+00
    0.72142E-03        -0.53345E-03         0.00000E+00
    0.76070E-03        -0.57197E-03         0.00000E+00
    0.80196E-03        -0.61211E-03         0.00000E+00
    0.84536E-03        -0.65402E-03         0.00000E+00
    0.89109E-03        -0.69784E-03         0.00000E+00
    0.93930E-03        -0.74373E-03         0.00000E+00
    0.99019E-03        -0.79184E-03         0.00000E+00
    0.10439E-02        -0.84233E-03         0.00000E+00
    0.11007E-02        -0.89537E-03         0.00000E+00
    0.11606E-02        -0.95114E-03         0.00000E+00
    0.12240E-02        -0.10098E-02         0.00000E+00
    0.12910E-02        -0.10716E-02         0.00000E+00
    0.13618E-02        -0.11367E-02         0.00000E+00
    0.14366E-02        -0.12053E-02         0.00000E+00
    0.15157E-02        -0.12777E-02         0.00000E+00
    0.15993E-02        -0.13540E-02         0.00000E+00
    0.16876E-02        -0.14346E-02         0.00000E+00
    0.17810E-02        -0.15197E-02         0.00000E+00
    0.18796E-02        -0.16095E-02         0.00000E+00
    0.19838E-02        -0.17044E-02         0.00000E+00
    0.20938E-02        -0.18046E-02         0.00000E+00
    0.22100E-02        -0.19105E-02         0.00000E+00
    0.23327E-02        -0.20225E-02         0.00000E+00
    0.24623E-02        -0.21408E-02         0.00000E+00
    0.25990E-02        -0.22660E-02         0.00000E+00
    0.27432E-02        -0.23984E-02         0.00000E+00
    0.28954E-02        -0.25384E-02         0.00000E+00
    0.30559E-02        -0.26865E-02         0.00000E+00
    0.32251E-02        -0.28432E-02         0.00000E+00
    0.34035E-02        -0.30091E-02         0.00000E+00
    0.35915E-02        -0.31847E-02         0.00000E+00
    0.37895E-02        -0.33706E-02         0.00000E+00
    0.39981E-02        -0.35674E-02         0.00000E+00
    0.42177E-02        -0.37759E-02         0.00000E+00
    0.44488E-02        -0.39967E-02         0.00000E+00
    0.46919E-02        -0.42307E-02         0.00000E+00
    0.49475E-02        -0.44786E-02         0.00000E+00
    0.52161E-02        -0.47414E-02         0.00000E+00
    0.54983E-02        -0.50200E-02         0.00000E+00
    0.57945E-02        -0.53155E-02         0.00000E+00
    0.61052E-02        -0.56290E-02         0.00000E+00
    0.64310E-02        -0.59617E-02         0.00000E+00
    0.67723E-02        -0.63148E-02         0.00000E+00
    0.71296E-02        -0.66897E-02         0.00000E+00
    0.75032E-02        -0.70880E-02         0.00000E+00
    0.78936E-02        -0.75112E-02         0.00000E+00
    0.83009E-02        -0.79612E-02         0.00000E+00
    0.87255E-02        -0.84398E-02         0.00000E+00
    0.91674E-02        -0.89491E-02         0.00000E+00
    0.96267E-02        -0.94914E-02         0.00000E+00
    0.10103E-01        -0.10069E-01         0.00000E+00
    0.10596E-01        -0.10685E-01         0.00000E+00
    0.11106E-01        -0.11342E-01         0.00000E+00
    0.11631E-01        -0.12043E-01         0.00000E+00
    0.12170E-01        -0.12792E-01         0.00000E+00
    0.12722E-01        -0.13593E-01         0.00000E+00
    0.13285E-01        -0.14449E-01         0.00000E+00
    0.13856E-01        -0.15366E-01         0.00000E+00
    0.14431E-01        -0.16348E-01         0.00000E+00
    0.15007E-01        -0.17400E-01         0.00000E+00
    0.15580E-01        -0.18529E-01         0.00000E+00
    0.16141E-01        -0.19739E-01         0.00000E+00
    0.16685E-01        -0.21038E-01         0.00000E+00
    0.17202E-01        -0.22431E-01         0.00000E+00
    0.17681E-01        -0.23924E-01         0.00000E+00
    0.18109E-01        -0.25525E-01         0.00000E+00
    0.18470E-01        -0.27238E-01         0.00000E+00
    0.18747E-01        -0.29068E-01         0.00000E+00
    0.18918E-01        -0.31017E-01         0.00000E+00
    0.18958E-01        -0.33086E-01         0.00000E+00
    0.18838E-01        -0.35272E-01         0.00000E+00
    0.18526E-01        -0.37567E-01         0.00000E+00
    0.17984E-01        -0.39958E-01         0.00000E+00
    0.17173E-01        -0.42423E-01         0.00000E+00
    0.16046E-01        -0.44930E-01         0.00000E+00
    0.14555E-01        -0.47432E-01         0.00000E+00
    0.12649E-01        -0.49866E-01         0.00000E+00
    0.10276E-01        -0.52142E-01         0.00000E+00
    0.73865E-02        -0.54133E-01         0.00000E+00
    0.39471E-02        -0.55643E-01         0.00000E+00
    0.00000E+00        -0.56277E-01         0.00000E+00
    0.00000E+00        -0.25950E-05         0.00000E+00
    0.54311E-04        -0.80922E-05         0.00000E+00
    0.10462E-03        -0.20987E-04         0.00000E+00
    0.15090E-03        -0.38398E-04         0.00000E+00
    0.19361E-03        -0.59011E-04         0.00000E+00
    0.23326E-03        -0.81955E-04         0.00000E+00
    0.27031E-03        -0.10663E-03         0.00000E+00
    0.30525E-03        -0.13262E-03         0.00000E+00
    0.33850E-03        -0.15964E-03         0.00000E+00
    0.37049E-03        -0.18748E-03         0.00000E+00
    0.40160E-03        -0.21605E-03         0.00000E+00
    0.43218E-03        -0.24527E-03         0.00000E+00
    0.46257E-03        -0.27515E-03         0.00000E+00
    0.49305E-03        -0.30572E-03         0.00000E+00
    0.52390E-03        -0.33703E-03         0.00000E+00
    0.55538E-03        -0.36916E-03         0.00000E+00
    0.58772E-03        -0.40219E-03         0.00000E+00
    0.62113E-03        -0.43625E-03         0.00000E+00
    0.65581E-03        -0.47145E-03         0.00000E+00
    0.69196E-03        -0.50790E-03         0.00000E+00
    0.72977E-03        -0.54574E-03         0.00000E+00
    0.76941E-03        -0.58511E-03         0.00000E+00
    0.81105E-03        -0.62614E-03         0.00000E+00
    0.85488E-03        -0.66897E-03         0.00000E+00
    0.90105E-03        -0.71377E-03         0.00000E+00
    0.94976E-03        -0.76068E-03         0.00000E+00
    0.10012E-02        -0.80986E-03         0.00000E+00
    0.10554E-02        -0.86148E-03         0.00000E+00
    0.11128E-02        -0.91571E-03         0.00000E+00
    0.11734E-02        -0.97273E-03         0.00000E+00
    0.12374E-02        -0.10327E-02         0.00000E+00
    0.13051E-02        -0.10959E-02         0.00000E+00
    0.13767E-02        -0.11625E-02         0.00000E+00
    0.14523E-02        -0.12326E-02         0.00000E+00
    0.15323E-02        -0.13066E-02         0.00000E+00
    0.16168E-02        -0.13847E-02         0.00000E+00
    0.17061E-02        -0.14671E-02         0.00000E+00
    0.18005E-02        -0.15540E-02         0.00000E+00
    0.19002E-02        -0.16459E-02         0.00000E+00
    0.20055E-02        -0.17429E-02         0.00000E+00
    0.21168E-02        -0.18454E-02         0.00000E+00
    0.22343E-02        -0.19537E-02         0.00000E+00
    0.23584E-02        -0.20681E-02         0.00000E+00
    0.24894E-02        -0.21892E-02         0.00000E+00
    0.26276E-02        -0.23171E-02         0.00000E+00
    0.27735E-02        -0.24524E-02         0.00000E+00
    0.29274E-02        -0.25956E-02         0.00000E+00
    0.30898E-02        -0.27470E-02         0.00000E+00
    0.32610E-02        -0.29073E-02         0.00000E+00
    0.34415E-02        -0.30768E-02         0.00000E+00
    0.36317E-02        -0.32563E-02         0.00000E+00
    0.38321E-02        -0.34464E-02         0.00000E+00
    0.40431E-02        -0.36476E-02         0.00000E+00
    0.42654E-02        -0.38607E-02         0.00000E+00
    0.44993E-02        -0.40864E-02         0.00000E+00
    0.47453E-02        -0.43255E-02         0.00000E+00
    0.50041E-02        -0.45789E-02         0.00000E+00
    0.52761E-02        -0.48475E-02         0.00000E+00
    0.55618E-02        -0.51323E-02         0.00000E+00
    0.58618E-02        -0.54342E-02         0.00000E+00
    0.61766E-02        -0.57546E-02         0.00000E+00
    0.65067E-02        -0.60945E-02         0.00000E+00
    0.68526E-02        -0.64552E-02         0.00000E+00
    0.72147E-02        -0.68383E-02         0.00000E+00
    0.75936E-02        -0.72451E-02         0.00000E+00
    0.79895E-02        -0.76775E-02         0.00000E+00
    0.84028E-02        -0.81371E-02         0.00000E+00
    0.88337E-02        -0.86258E-02         0.00000E+00
    0.92824E-02        -0.91459E-02         0.00000E+00
    0.97490E-02        -0.96997E-02         0.00000E+00
    0.10233E-01        -0.10290E-01         0.00000E+00
    0.10735E-01        -0.10918E-01         0.00000E+00
    0.11253E-01        -0.11589E-01         0.00000E+00
    0.11788E-01        -0.12304E-01         0.00000E+00
    0.12338E-01        -0.13069E-01         0.00000E+00
    0.12901E-01        -0.13886E-01         0.00000E+00
    0.13475E-01        -0.14759E-01         0.00000E+00
    0.14059E-01        -0.15694E-01         0.00000E+00
    0.14649E-01        -0.16695E-01         0.00000E+00
    0.15240E-01        -0.17768E-01         0.00000E+00
    0.15828E-01        -0.18918E-01         0.00000E+00
    0.16407E-01        -0.20152E-01         0.00000E+00
    0.16969E-01        -0.21475E-01         0.00000E+00
    0.17505E-01        -0.22894E-01         0.00000E+00
    0.18004E-01        -0.24415E-01         0.00000E+00
    0.18453E-01        -0.26045E-01         0.00000E+00
    0.18837E-01        -0.27789E-01         0.00000E+00
    0.19136E-01        -0.29652E-01         0.00000E+00
    0.19329E-01        -0.31637E-01         0.00000E+00
    0.19391E-01        -0.33744E-01         0.00000E+00
    0.19292E-01        -0.35970E-01         0.00000E+00
    0.18998E-01        -0.38308E-01         0.00000E+00
    0.18471E-01        -0.40745E-01         0.00000E+00
    0.17667E-01        -0.43258E-01         0.00000E+00
    0.16541E-01        -0.45817E-01         0.00000E+00
    0.15039E-01        -0.48374E-01         0.00000E+00
    0.13107E-01        -0.50867E-01         0.00000E+00
    0.10687E-01        -0.53207E-01         0.00000E+00
    0.77210E-02        -0.55264E-01         0.00000E+00
    0.41526E-02        -0.56850E-01         0.00000E+00
    0.00000E+00        -0.57550E-01         0.00000E+00
    0.00000E+00        -0.25741E-05         0.00000E+00
    0.56278E-04        -0.86529E-05         0.00000E+00
    0.10770E-03        -0.22088E-04         0.00000E+00
    0.15475E-03        -0.40043E-04         0.00000E+00
    0.19803E-03        -0.61193E-04         0.00000E+00
    0.23809E-03        -0.84673E-04         0.00000E+00
    0.27546E-03        -0.10989E-03         0.00000E+00
    0.31065E-03        -0.13642E-03         0.00000E+00
    0.34411E-03        -0.16398E-03         0.00000E+00
    0.37627E-03        -0.19239E-03         0.00000E+00
    0.40753E-03        -0.22152E-03         0.00000E+00
    0.43826E-03        -0.25133E-03         0.00000E+00
    0.46880E-03        -0.28182E-03         0.00000E+00
    0.49944E-03        -0.31300E-03         0.00000E+00
    0.53047E-03        -0.34495E-03         0.00000E+00
    0.56213E-03        -0.37773E-03         0.00000E+00
    0.59468E-03        -0.41146E-03         0.00000E+00
    0.62832E-03        -0.44623E-03         0.00000E+00
    0.66326E-03        -0.48216E-03         0.00000E+00
    0.69969E-03        -0.51939E-03         0.00000E+00
    0.73781E-03        -0.55804E-03         0.00000E+00
    0.77778E-03        -0.59825E-03         0.00000E+00
    0.81979E-03        -0.64016E-03         0.00000E+00
    0.86402E-03        -0.68393E-03         0.00000E+00
    0.91062E-03        -0.72970E-03         0.00000E+00
    0.95978E-03        -0.77763E-03         0.00000E+00
    0.10117E-02        -0.82788E-03         0.00000E+00
    0.10665E-02        -0.88063E-03         0.00000E+00
    0.11244E-02        -0.93605E-03         0.00000E+00
    0.11856E-02        -0.99433E-03         0.00000E+00
    0.12503E-02        -0.10556E-02         0.00000E+00
    0.13187E-02        -0.11202E-02         0.00000E+00
    0.13910E-02        -0.11882E-02         0.00000E+00
    0.14674E-02        -0.12599E-02         0.00000E+00
    0.15482E-02        -0.13356E-02         0.00000E+00
    0.16335E-02        -0.14153E-02         0.00000E+00
    0.17238E-02        -0.14995E-02         0.00000E+00
    0.18192E-02        -0.15884E-02         0.00000E+00
    0.19199E-02        -0.16823E-02         0.00000E+00
    0.20264E-02        -0.17814E-02         0.00000E+00
    0.21388E-02        -0.18861E-02         0.00000E+00
    0.22576E-02        -0.19968E-02         0.00000E+00
    0.23830E-02        -0.21138E-02         0.00000E+00
    0.25154E-02        -0.22375E-02         0.00000E+00
    0.26551E-02        -0.23682E-02         0.00000E+00
    0.28026E-02        -0.25065E-02         0.00000E+00
    0.29582E-02        -0.26528E-02         0.00000E+00
    0.31223E-02        -0.28076E-02         0.00000E+00
    0.32954E-02        -0.29713E-02         0.00000E+00
    0.34779E-02        -0.31446E-02         0.00000E+00
    0.36702E-02        -0.33280E-02         0.00000E+00
    0.38729E-02        -0.35222E-02         0.00000E+00
    0.40863E-02        -0.37277E-02         0.00000E+00
    0.43111E-02        -0.39454E-02         0.00000E+00
    0.45477E-02        -0.41760E-02         0.00000E+00
    0.47967E-02        -0.44203E-02         0.00000E+00
    0.50585E-02        -0.46792E-02         0.00000E+00
    0.53337E-02        -0.49536E-02         0.00000E+00
    0.56229E-02        -0.52445E-02         0.00000E+00
    0.59266E-02        -0.55529E-02         0.00000E+00
    0.62453E-02        -0.58801E-02         0.00000E+00
    0.65796E-02        -0.62273E-02         0.00000E+00
    0.69299E-02        -0.65957E-02         0.00000E+00
    0.72968E-02        -0.69869E-02         0.00000E+00
    0.76808E-02        -0.74023E-02         0.00000E+00
    0.80821E-02        -0.78437E-02         0.00000E+00
    0.85012E-02        -0.83130E-02         0.00000E+00
    0.89384E-02        -0.88119E-02         0.00000E+00
    0.93938E-02        -0.93428E-02         0.00000E+00
    0.98675E-02        -0.99080E-02         0.00000E+00
    0.10359E-01        -0.10510E-01         0.00000E+00
    0.10869E-01        -0.11151E-01         0.00000E+00
    0.11397E-01        -0.11836E-01         0.00000E+00
    0.11941E-01        -0.12566E-01         0.00000E+00
    0.12501E-01        -0.13345E-01         0.00000E+00
    0.13075E-01        -0.14178E-01         0.00000E+00
    0.13662E-01        -0.15069E-01         0.00000E+00
    0.14258E-01        -0.16022E-01         0.00000E+00
    0.14862E-01        -0.17042E-01         0.00000E+00
    0.15468E-01        -0.18136E-01         0.00000E+00
    0.16072E-01        -0.19308E-01         0.00000E+00
    0.16669E-01        -0.20564E-01         0.00000E+00
    0.17249E-01        -0.21912E-01         0.00000E+00
    0.17805E-01        -0.23357E-01         0.00000E+00
    0.18325E-01        -0.24906E-01         0.00000E+00
    0.18797E-01        -0.26565E-01         0.00000E+00
    0.19204E-01        -0.28341E-01         0.00000E+00
    0.19527E-01        -0.30237E-01         0.00000E+00
    0.19744E-01        -0.32257E-01         0.00000E+00
    0.19830E-01        -0.34401E-01         0.00000E+00
    0.19753E-01        -0.36667E-01         0.00000E+00
    0.19480E-01        -0.39048E-01         0.00000E+00
    0.18970E-01        -0.41531E-01         0.00000E+00
    0.18178E-01        -0.44093E-01         0.00000E+00
    0.17055E-01        -0.46703E-01         0.00000E+00
    0.15546E-01        -0.49316E-01         0.00000E+00
    0.13592E-01        -0.51868E-01         0.00000E+00
    0.11129E-01        -0.54271E-01         0.00000E+00
    0.80893E-02        -0.56396E-01         0.00000E+00
    0.43979E-02        -0.58054E-01         0.00000E+00
    0.00000E+00        -0.58835E-01         0.00000E+00
CELL_DATA       5000
VECTORS vDarcy double 
    0.62899E-09         0.93784E-13         0.00000E+00
    0.62610E-09         0.21906E-12         0.00000E+00
    0.62433E-09         0.27007E-12         0.00000E+00
    0.62416E-09         0.29933E-12         0.00000E+00
    0.62586E-09         0.31365E-12         0.00000E+00
    0.62964E-09         0.31950E-12         0.00000E+00
    0.63563E-09         0.32029E-12         0.00000E+00
    0.64393E-09         0.31856E-12         0.00000E+00
    0.65461E-09         0.31603E-12         0.00000E+00
    0.66773E-09         0.31386E-12         0.00000E+00
    0.68333E-09         0.31283E-12         0.00000E+00
    0.70145E-09         0.31345E-12         0.00000E+00
    0.72213E-09         0.31598E-12         0.00000E+00
    0.74539E-09         0.32059E-12         0.00000E+00
    0.77130E-09         0.32732E-12         0.00000E+00
    0.79989E-09         0.33618E-12         0.00000E+00
    0.83123E-09         0.34713E-12         0.00000E+00
    0.86539E-09         0.36011E-12         0.00000E+00
    0.90245E-09         0.37506E-12         0.00000E+00
    0.94249E-09         0.39195E-12         0.00000E+00
    0.98563E-09         0.41071E-12         0.00000E+00
    0.10320E-08         0.43133E-12         0.00000E+00
    0.10816E-08         0.45377E-12         0.00000E+00
    0.11348E-08         0.47803E-12         0.00000E+00
    0.11915E-08         0.50412E-12         0.00000E+00
    0.12521E-08         0.53207E-12         0.00000E+00
    0.13166E-08         0.56189E-12         0.00000E+00
    0.13853E-08         0.59364E-12         0.00000E+00
    0.14583E-08         0.62736E-12         0.00000E+00
    0.15359E-08         0.66313E-12         0.00000E+00
    0.16184E-08         0.70101E-12         0.00000E+00
    0.17059E-08         0.74110E-12         0.00000E+00
    0.17987E-08         0.78347E-12         0.00000E+00
    0.18972E-08         0.82823E-12         0.00000E+00
    0.20017E-08         0.87549E-12         0.00000E+00
    0.21123E-08         0.92535E-12         0.00000E+00
    0.22296E-08         0.97794E-12         0.00000E+00
    0.23539E-08         0.10334E-11         0.00000E+00
    0.24856E-08         0.10918E-11         0.00000E+00
    0.26250E-08         0.11534E-11         0.00000E+00
    0.27727E-08         0.12182E-11         0.00000E+00
    0.29291E-08         0.12865E-11         0.00000E+00
    0.30947E-08         0.13583E-11         0.00000E+00
    0.32700E-08         0.14338E-11         0.00000E+00
    0.34556E-08         0.15133E-11         0.00000E+00
    0.36521E-08         0.15968E-11         0.00000E+00
    0.38601E-08         0.16846E-11         0.00000E+00
    0.40803E-08         0.17767E-11         0.00000E+00
    0.43135E-08         0.18734E-11         0.00000E+00
    0.45603E-08         0.19748E-11         0.00000E+00
    0.48216E-08         0.20811E-11         0.00000E+00
    0.50983E-08         0.21925E-11         0.00000E+00
    0.53912E-08         0.23091E-11         0.00000E+00
    0.57014E-08         0.24310E-11         0.00000E+00
    0.60299E-08         0.25584E-11         0.00000E+00
    0.63778E-08         0.26913E-11         0.00000E+00
    0.67463E-08         0.28299E-11         0.00000E+00
    0.71367E-08         0.29741E-11         0.00000E+00
    0.75502E-08         0.31240E-11         0.00000E+00
    0.79884E-08         0.32796E-11         0.00000E+00
    0.84527E-08         0.34407E-11         0.00000E+00
    0.89449E-08         0.36071E-11         0.00000E+00
    0.94666E-08         0.37787E-11         0.00000E+00
    0.10020E-07         0.39549E-11         0.00000E+00
    0.10607E-07         0.41354E-11         0.00000E+00
    0.11229E-07         0.43193E-11         0.00000E+00
    0.11889E-07         0.45059E-11         0.00000E+00
    0.12590E-07         0.46939E-11         0.00000E+00
    0.13335E-07         0.48821E-11         0.00000E+00
    0.14125E-07         0.50686E-11         0.00000E+00
    0.14965E-07         0.52512E-11         0.00000E+00
    0.15857E-07         0.54273E-11         0.00000E+00
    0.16806E-07         0.55936E-11         0.00000E+00
    0.17815E-07         0.57461E-11         0.00000E+00
    0.18890E-07         0.58799E-11         0.00000E+00
    0.20034E-07         0.59894E-11         0.00000E+00
    0.21252E-07         0.60676E-11         0.00000E+00
    0.22551E-07         0.61062E-11         0.00000E+00
    0.23937E-07         0.60959E-11         0.00000E+00
    0.25415E-07         0.60252E-11         0.00000E+00
    0.26994E-07         0.58815E-11         0.00000E+00
    0.28681E-07         0.56499E-11         0.00000E+00
    0.30485E-07         0.53142E-11         0.00000E+00
    0.32415E-07         0.48563E-11         0.00000E+00
    0.34480E-07         0.42571E-11         0.00000E+00
    0.36693E-07         0.34967E-11         0.00000E+00
    0.39062E-07         0.25559E-11         0.00000E+00
    0.41602E-07         0.14176E-11         0.00000E+00
    0.44324E-07         0.69079E-13         0.00000E+00
    0.47240E-07        -0.14945E-11         0.00000E+00
    0.50364E-07        -0.32656E-11         0.00000E+00
    0.53709E-07        -0.52188E-11         0.00000E+00
    0.57285E-07        -0.73036E-11         0.00000E+00
    0.61104E-07        -0.94343E-11         0.00000E+00
    0.65174E-07        -0.11484E-10         0.00000E+00
    0.69500E-07        -0.13257E-10         0.00000E+00
    0.74086E-07        -0.14510E-10         0.00000E+00
    0.78927E-07        -0.14736E-10         0.00000E+00
    0.84014E-07        -0.13585E-10         0.00000E+00
    0.89322E-07        -0.63371E-11         0.00000E+00
    0.62907E-09         0.26753E-12         0.00000E+00
    0.62613E-09         0.63490E-12         0.00000E+00
    0.62434E-09         0.79323E-12         0.00000E+00
    0.62416E-09         0.88182E-12         0.00000E+00
    0.62587E-09         0.92593E-12         0.00000E+00
    0.62964E-09         0.94397E-12         0.00000E+00
    0.63563E-09         0.94669E-12         0.00000E+00
    0.64393E-09         0.94168E-12         0.00000E+00
    0.65461E-09         0.93412E-12         0.00000E+00
    0.66773E-09         0.92757E-12         0.00000E+00
    0.68333E-09         0.92439E-12         0.00000E+00
    0.70145E-09         0.92604E-12         0.00000E+00
    0.72213E-09         0.93341E-12         0.00000E+00
    0.74539E-09         0.94694E-12         0.00000E+00
    0.77130E-09         0.96678E-12         0.00000E+00
    0.79989E-09         0.99292E-12         0.00000E+00
    0.83124E-09         0.10253E-11         0.00000E+00
    0.86540E-09         0.10636E-11         0.00000E+00
    0.90245E-09         0.11079E-11         0.00000E+00
    0.94250E-09         0.11578E-11         0.00000E+00
    0.98564E-09         0.12133E-11         0.00000E+00
    0.10320E-08         0.12743E-11         0.00000E+00
    0.10816E-08         0.13407E-11         0.00000E+00
    0.11348E-08         0.14124E-11         0.00000E+00
    0.11916E-08         0.14896E-11         0.00000E+00
    0.12521E-08         0.15722E-11         0.00000E+00
    0.13166E-08         0.16604E-11         0.00000E+00
    0.13853E-08         0.17543E-11         0.00000E+00
    0.14583E-08         0.18540E-11         0.00000E+00
    0.15359E-08         0.19598E-11         0.00000E+00
    0.16184E-08         0.20718E-11         0.00000E+00
    0.17059E-08         0.21903E-11         0.00000E+00
    0.17988E-08         0.23156E-11         0.00000E+00
    0.18972E-08         0.24480E-11         0.00000E+00
    0.20017E-08         0.25877E-11         0.00000E+00
    0.21124E-08         0.27351E-11         0.00000E+00
    0.22297E-08         0.28907E-11         0.00000E+00
    0.23539E-08         0.30546E-11         0.00000E+00
    0.24856E-08         0.32274E-11         0.00000E+00
    0.26251E-08         0.34094E-11         0.00000E+00
    0.27727E-08         0.36011E-11         0.00000E+00
    0.29291E-08         0.38029E-11         0.00000E+00
    0.30947E-08         0.40153E-11         0.00000E+00
    0.32700E-08         0.42388E-11         0.00000E+00
    0.34556E-08         0.44738E-11         0.00000E+00
    0.36521E-08         0.47208E-11         0.00000E+00
    0.38601E-08         0.49803E-11         0.00000E+00
    0.40803E-08         0.52528E-11         0.00000E+00
    0.43135E-08         0.55389E-11         0.00000E+00
    0.45603E-08         0.58390E-11         0.00000E+00
    0.48216E-08         0.61536E-11         0.00000E+00
    0.50983E-08         0.64831E-11         0.00000E+00
    0.53913E-08         0.68281E-11         0.00000E+00
    0.57015E-08         0.71889E-11         0.00000E+00
    0.60300E-08         0.75659E-11         0.00000E+00
    0.63779E-08         0.79594E-11         0.00000E+00
    0.67464E-08         0.83697E-11         0.00000E+00
    0.71367E-08         0.87968E-11         0.00000E+00
    0.75503E-08         0.92409E-11         0.00000E+00
    0.79884E-08         0.97018E-11         0.00000E+00
    0.84528E-08         0.10179E-10         0.00000E+00
    0.89450E-08         0.10673E-10         0.00000E+00
    0.94667E-08         0.11181E-10         0.00000E+00
    0.10020E-07         0.11704E-10         0.00000E+00
    0.10607E-07         0.12239E-10         0.00000E+00
    0.11229E-07         0.12785E-10         0.00000E+00
    0.11889E-07         0.13340E-10         0.00000E+00
    0.12590E-07         0.13898E-10         0.00000E+00
    0.13335E-07         0.14458E-10         0.00000E+00
    0.14125E-07         0.15013E-10         0.00000E+00
    0.14965E-07         0.15557E-10         0.00000E+00
    0.15857E-07         0.16082E-10         0.00000E+00
    0.16806E-07         0.16579E-10         0.00000E+00
    0.17815E-07         0.17035E-10         0.00000E+00
    0.18890E-07         0.17436E-10         0.00000E+00
    0.20034E-07         0.17766E-10         0.00000E+00
    0.21252E-07         0.18003E-10         0.00000E+00
    0.22551E-07         0.18124E-10         0.00000E+00
    0.23937E-07         0.18100E-10         0.00000E+00
    0.25415E-07         0.17897E-10         0.00000E+00
    0.26994E-07         0.17477E-10         0.00000E+00
    0.28681E-07         0.16796E-10         0.00000E+00
    0.30485E-07         0.15805E-10         0.00000E+00
    0.32415E-07         0.14451E-10         0.00000E+00
    0.34480E-07         0.12675E-10         0.00000E+00
    0.36692E-07         0.10419E-10         0.00000E+00
    0.39062E-07         0.76239E-11         0.00000E+00
    0.41601E-07         0.42393E-11         0.00000E+00
    0.44323E-07         0.22690E-12         0.00000E+00
    0.47239E-07        -0.44276E-11         0.00000E+00
    0.50364E-07        -0.97013E-11         0.00000E+00
    0.53708E-07        -0.15516E-10         0.00000E+00
    0.57284E-07        -0.21718E-10         0.00000E+00
    0.61103E-07        -0.28046E-10         0.00000E+00
    0.65173E-07        -0.34107E-10         0.00000E+00
    0.69500E-07        -0.39316E-10         0.00000E+00
    0.74085E-07        -0.42876E-10         0.00000E+00
    0.78927E-07        -0.43376E-10         0.00000E+00
    0.84015E-07        -0.39190E-10         0.00000E+00
    0.89327E-07        -0.17880E-10         0.00000E+00
    0.62920E-09         0.41673E-12         0.00000E+00
    0.62618E-09         0.10090E-11         0.00000E+00
    0.62437E-09         0.12826E-11         0.00000E+00
    0.62418E-09         0.14324E-11         0.00000E+00
    0.62587E-09         0.15082E-11         0.00000E+00
    0.62964E-09         0.15395E-11         0.00000E+00
    0.63563E-09         0.15448E-11         0.00000E+00
    0.64393E-09         0.15368E-11         0.00000E+00
    0.65461E-09         0.15243E-11         0.00000E+00
    0.66773E-09         0.15133E-11         0.00000E+00
    0.68333E-09         0.15077E-11         0.00000E+00
    0.70145E-09         0.15101E-11         0.00000E+00
    0.72213E-09         0.15218E-11         0.00000E+00
    0.74540E-09         0.15437E-11         0.00000E+00
    0.77131E-09         0.15759E-11         0.00000E+00
    0.79990E-09         0.16185E-11         0.00000E+00
    0.83124E-09         0.16712E-11         0.00000E+00
    0.86541E-09         0.17338E-11         0.00000E+00
    0.90246E-09         0.18061E-11         0.00000E+00
    0.94251E-09         0.18876E-11         0.00000E+00
    0.98565E-09         0.19783E-11         0.00000E+00
    0.10320E-08         0.20779E-11         0.00000E+00
    0.10817E-08         0.21863E-11         0.00000E+00
    0.11348E-08         0.23036E-11         0.00000E+00
    0.11916E-08         0.24296E-11         0.00000E+00
    0.12521E-08         0.25646E-11         0.00000E+00
    0.13166E-08         0.27086E-11         0.00000E+00
    0.13853E-08         0.28619E-11         0.00000E+00
    0.14584E-08         0.30248E-11         0.00000E+00
    0.15360E-08         0.31975E-11         0.00000E+00
    0.16184E-08         0.33804E-11         0.00000E+00
    0.17059E-08         0.35739E-11         0.00000E+00
    0.17988E-08         0.37784E-11         0.00000E+00
    0.18973E-08         0.39945E-11         0.00000E+00
    0.20017E-08         0.42226E-11         0.00000E+00
    0.21124E-08         0.44633E-11         0.00000E+00
    0.22297E-08         0.47172E-11         0.00000E+00
    0.23540E-08         0.49848E-11         0.00000E+00
    0.24857E-08         0.52669E-11         0.00000E+00
    0.26251E-08         0.55642E-11         0.00000E+00
    0.27728E-08         0.58772E-11         0.00000E+00
    0.29292E-08         0.62067E-11         0.00000E+00
    0.30947E-08         0.65536E-11         0.00000E+00
    0.32701E-08         0.69185E-11         0.00000E+00
    0.34557E-08         0.73022E-11         0.00000E+00
    0.36522E-08         0.77057E-11         0.00000E+00
    0.38602E-08         0.81296E-11         0.00000E+00
    0.40804E-08         0.85748E-11         0.00000E+00
    0.43136E-08         0.90421E-11         0.00000E+00
    0.45604E-08         0.95324E-11         0.00000E+00
    0.48217E-08         0.10046E-10         0.00000E+00
    0.50984E-08         0.10585E-10         0.00000E+00
    0.53914E-08         0.11149E-10         0.00000E+00
    0.57016E-08         0.11739E-10         0.00000E+00
    0.60301E-08         0.12355E-10         0.00000E+00
    0.63780E-08         0.12999E-10         0.00000E+00
    0.67465E-08         0.13670E-10         0.00000E+00
    0.71368E-08         0.14369E-10         0.00000E+00
    0.75504E-08         0.15096E-10         0.00000E+00
    0.79886E-08         0.15850E-10         0.00000E+00
    0.84529E-08         0.16632E-10         0.00000E+00
    0.89451E-08         0.17441E-10         0.00000E+00
    0.94669E-08         0.18274E-10         0.00000E+00
    0.10020E-07         0.19132E-10         0.00000E+00
    0.10607E-07         0.20010E-10         0.00000E+00
    0.11229E-07         0.20907E-10         0.00000E+00
    0.11890E-07         0.21817E-10         0.00000E+00
    0.12591E-07         0.22736E-10         0.00000E+00
    0.13335E-07         0.23657E-10         0.00000E+00
    0.14125E-07         0.24572E-10         0.00000E+00
    0.14965E-07         0.25469E-10         0.00000E+00
    0.15857E-07         0.26337E-10         0.00000E+00
    0.16806E-07         0.27159E-10         0.00000E+00
    0.17816E-07         0.27916E-10         0.00000E+00
    0.18890E-07         0.28585E-10         0.00000E+00
    0.20034E-07         0.29137E-10         0.00000E+00
    0.21252E-07         0.29540E-10         0.00000E+00
    0.22551E-07         0.29752E-10         0.00000E+00
    0.23937E-07         0.29727E-10         0.00000E+00
    0.25415E-07         0.29409E-10         0.00000E+00
    0.26994E-07         0.28735E-10         0.00000E+00
    0.28681E-07         0.27633E-10         0.00000E+00
    0.30485E-07         0.26021E-10         0.00000E+00
    0.32414E-07         0.23809E-10         0.00000E+00
    0.34480E-07         0.20901E-10         0.00000E+00
    0.36692E-07         0.17200E-10         0.00000E+00
    0.39061E-07         0.12607E-10         0.00000E+00
    0.41600E-07         0.70388E-11         0.00000E+00
    0.44322E-07         0.43074E-12         0.00000E+00
    0.47238E-07        -0.72401E-11         0.00000E+00
    0.50362E-07        -0.15934E-10         0.00000E+00
    0.53706E-07        -0.25519E-10         0.00000E+00
    0.57283E-07        -0.35730E-10         0.00000E+00
    0.61102E-07        -0.46124E-10         0.00000E+00
    0.65172E-07        -0.56024E-10         0.00000E+00
    0.69499E-07        -0.64442E-10         0.00000E+00
    0.74085E-07        -0.69949E-10         0.00000E+00
    0.78927E-07        -0.70316E-10         0.00000E+00
    0.84017E-07        -0.61887E-10         0.00000E+00
    0.89336E-07        -0.27453E-10         0.00000E+00
    0.62940E-09         0.54674E-12         0.00000E+00
    0.62627E-09         0.13467E-11         0.00000E+00
    0.62442E-09         0.17388E-11         0.00000E+00
    0.62421E-09         0.19519E-11         0.00000E+00
    0.62589E-09         0.20608E-11         0.00000E+00
    0.62965E-09         0.21062E-11         0.00000E+00
    0.63563E-09         0.21146E-11         0.00000E+00
    0.64392E-09         0.21039E-11         0.00000E+00
    0.65461E-09         0.20865E-11         0.00000E+00
    0.66773E-09         0.20710E-11         0.00000E+00
    0.68333E-09         0.20629E-11         0.00000E+00
    0.70146E-09         0.20656E-11         0.00000E+00
    0.72213E-09         0.20813E-11         0.00000E+00
    0.74541E-09         0.21109E-11         0.00000E+00
    0.77131E-09         0.21548E-11         0.00000E+00
    0.79991E-09         0.22130E-11         0.00000E+00
    0.83126E-09         0.22851E-11         0.00000E+00
    0.86542E-09         0.23709E-11         0.00000E+00
    0.90248E-09         0.24698E-11         0.00000E+00
    0.94253E-09         0.25816E-11         0.00000E+00
    0.98567E-09         0.27059E-11         0.00000E+00
    0.10320E-08         0.28424E-11         0.00000E+00
    0.10817E-08         0.29910E-11         0.00000E+00
    0.11348E-08         0.31516E-11         0.00000E+00
    0.11916E-08         0.33244E-11         0.00000E+00
    0.12522E-08         0.35093E-11         0.00000E+00
    0.13167E-08         0.37066E-11         0.00000E+00
    0.13854E-08         0.39167E-11         0.00000E+00
    0.14584E-08         0.41398E-11         0.00000E+00
    0.15360E-08         0.43763E-11         0.00000E+00
    0.16185E-08         0.46268E-11         0.00000E+00
    0.17060E-08         0.48919E-11         0.00000E+00
    0.17988E-08         0.51721E-11         0.00000E+00
    0.18973E-08         0.54680E-11         0.00000E+00
    0.20018E-08         0.57805E-11         0.00000E+00
    0.21125E-08         0.61101E-11         0.00000E+00
    0.22298E-08         0.64579E-11         0.00000E+00
    0.23541E-08         0.68245E-11         0.00000E+00
    0.24857E-08         0.72109E-11         0.00000E+00
    0.26252E-08         0.76180E-11         0.00000E+00
    0.27729E-08         0.80468E-11         0.00000E+00
    0.29292E-08         0.84982E-11         0.00000E+00
    0.30948E-08         0.89734E-11         0.00000E+00
    0.32701E-08         0.94733E-11         0.00000E+00
    0.34558E-08         0.99991E-11         0.00000E+00
    0.36523E-08         0.10552E-10         0.00000E+00
    0.38603E-08         0.11133E-10         0.00000E+00
    0.40805E-08         0.11743E-10         0.00000E+00
    0.43137E-08         0.12384E-10         0.00000E+00
    0.45605E-08         0.13056E-10         0.00000E+00
    0.48219E-08         0.13760E-10         0.00000E+00
    0.50985E-08         0.14499E-10         0.00000E+00
    0.53915E-08         0.15272E-10         0.00000E+00
    0.57017E-08         0.16081E-10         0.00000E+00
    0.60302E-08         0.16927E-10         0.00000E+00
    0.63782E-08         0.17810E-10         0.00000E+00
    0.67467E-08         0.18731E-10         0.00000E+00
    0.71370E-08         0.19691E-10         0.00000E+00
    0.75506E-08         0.20689E-10         0.00000E+00
    0.79888E-08         0.21726E-10         0.00000E+00
    0.84531E-08         0.22800E-10         0.00000E+00
    0.89453E-08         0.23912E-10         0.00000E+00
    0.94671E-08         0.25058E-10         0.00000E+00
    0.10020E-07         0.26238E-10         0.00000E+00
    0.10607E-07         0.27448E-10         0.00000E+00
    0.11229E-07         0.28683E-10         0.00000E+00
    0.11890E-07         0.29939E-10         0.00000E+00
    0.12591E-07         0.31207E-10         0.00000E+00
    0.13335E-07         0.32479E-10         0.00000E+00
    0.14125E-07         0.33744E-10         0.00000E+00
    0.14965E-07         0.34987E-10         0.00000E+00
    0.15857E-07         0.36190E-10         0.00000E+00
    0.16806E-07         0.37333E-10         0.00000E+00
    0.17816E-07         0.38388E-10         0.00000E+00
    0.18890E-07         0.39324E-10         0.00000E+00
    0.20034E-07         0.40101E-10         0.00000E+00
    0.21252E-07         0.40674E-10         0.00000E+00
    0.22551E-07         0.40987E-10         0.00000E+00
    0.23937E-07         0.40974E-10         0.00000E+00
    0.25415E-07         0.40560E-10         0.00000E+00
    0.26994E-07         0.39655E-10         0.00000E+00
    0.28681E-07         0.38159E-10         0.00000E+00
    0.30484E-07         0.35959E-10         0.00000E+00
    0.32414E-07         0.32929E-10         0.00000E+00
    0.34479E-07         0.28936E-10         0.00000E+00
    0.36691E-07         0.23842E-10         0.00000E+00
    0.39060E-07         0.17512E-10         0.00000E+00
    0.41599E-07         0.98250E-11         0.00000E+00
    0.44320E-07         0.69372E-12         0.00000E+00
    0.47236E-07        -0.99141E-11         0.00000E+00
    0.50360E-07        -0.21941E-10         0.00000E+00
    0.53704E-07        -0.35197E-10         0.00000E+00
    0.57280E-07        -0.49305E-10         0.00000E+00
    0.61099E-07        -0.63631E-10         0.00000E+00
    0.65169E-07        -0.77201E-10         0.00000E+00
    0.69497E-07        -0.88596E-10         0.00000E+00
    0.74084E-07        -0.95741E-10         0.00000E+00
    0.78928E-07        -0.95521E-10         0.00000E+00
    0.84021E-07        -0.82103E-10         0.00000E+00
    0.89349E-07        -0.35553E-10         0.00000E+00
    0.62964E-09         0.66137E-12         0.00000E+00
    0.62639E-09         0.16526E-11         0.00000E+00
    0.62449E-09         0.21632E-11         0.00000E+00
    0.62424E-09         0.24411E-11         0.00000E+00
    0.62590E-09         0.25841E-11         0.00000E+00
    0.62965E-09         0.26443E-11         0.00000E+00
    0.63563E-09         0.26562E-11         0.00000E+00
    0.64392E-09         0.26430E-11         0.00000E+00
    0.65460E-09         0.26209E-11         0.00000E+00
    0.66772E-09         0.26008E-11         0.00000E+00
    0.68333E-09         0.25899E-11         0.00000E+00
    0.70146E-09         0.25928E-11         0.00000E+00
    0.72214E-09         0.26119E-11         0.00000E+00
    0.74541E-09         0.26487E-11         0.00000E+00
    0.77133E-09         0.27036E-11         0.00000E+00
    0.79993E-09         0.27766E-11         0.00000E+00
    0.83128E-09         0.28672E-11         0.00000E+00
    0.86544E-09         0.29749E-11         0.00000E+00
    0.90251E-09         0.30994E-11         0.00000E+00
    0.94256E-09         0.32399E-11         0.00000E+00
    0.98570E-09         0.33962E-11         0.00000E+00
    0.10321E-08         0.35679E-11         0.00000E+00
    0.10817E-08         0.37548E-11         0.00000E+00
    0.11349E-08         0.39569E-11         0.00000E+00
    0.11916E-08         0.41741E-11         0.00000E+00
    0.12522E-08         0.44066E-11         0.00000E+00
    0.13167E-08         0.46548E-11         0.00000E+00
    0.13854E-08         0.49188E-11         0.00000E+00
    0.14584E-08         0.51993E-11         0.00000E+00
    0.15361E-08         0.54966E-11         0.00000E+00
    0.16185E-08         0.58116E-11         0.00000E+00
    0.17060E-08         0.61447E-11         0.00000E+00
    0.17989E-08         0.64969E-11         0.00000E+00
    0.18974E-08         0.68689E-11         0.00000E+00
    0.20018E-08         0.72616E-11         0.00000E+00
    0.21125E-08         0.76760E-11         0.00000E+00
    0.22298E-08         0.81130E-11         0.00000E+00
    0.23541E-08         0.85739E-11         0.00000E+00
    0.24858E-08         0.90596E-11         0.00000E+00
    0.26253E-08         0.95713E-11         0.00000E+00
    0.27730E-08         0.10110E-10         0.00000E+00
    0.29293E-08         0.10678E-10         0.00000E+00
    0.30949E-08         0.11275E-10         0.00000E+00
    0.32703E-08         0.11904E-10         0.00000E+00
    0.34559E-08         0.12565E-10         0.00000E+00
    0.36524E-08         0.13260E-10         0.00000E+00
    0.38604E-08         0.13991E-10         0.00000E+00
    0.40807E-08         0.14758E-10         0.00000E+00
    0.43138E-08         0.15564E-10         0.00000E+00
    0.45607E-08         0.16409E-10         0.00000E+00
    0.48220E-08         0.17296E-10         0.00000E+00
    0.50987E-08         0.18225E-10         0.00000E+00
    0.53917E-08         0.19199E-10         0.00000E+00
    0.57019E-08         0.20217E-10         0.00000E+00
    0.60304E-08         0.21282E-10         0.00000E+00
    0.63784E-08         0.22394E-10         0.00000E+00
    0.67469E-08         0.23554E-10         0.00000E+00
    0.71372E-08         0.24763E-10         0.00000E+00
    0.75508E-08         0.26021E-10         0.00000E+00
    0.79890E-08         0.27328E-10         0.00000E+00
    0.84534E-08         0.28684E-10         0.00000E+00
    0.89455E-08         0.30086E-10         0.00000E+00
    0.94673E-08         0.31534E-10         0.00000E+00
    0.10021E-07         0.33024E-10         0.00000E+00
    0.10607E-07         0.34553E-10         0.00000E+00
    0.11230E-07         0.36115E-10         0.00000E+00
    0.11890E-07         0.37704E-10         0.00000E+00
    0.12591E-07         0.39310E-10         0.00000E+00
    0.13335E-07         0.40924E-10         0.00000E+00
    0.14126E-07         0.42529E-10         0.00000E+00
    0.14965E-07         0.44109E-10         0.00000E+00
    0.15858E-07         0.45641E-10         0.00000E+00
    0.16807E-07         0.47099E-10         0.00000E+00
    0.17816E-07         0.48449E-10         0.00000E+00
    0.18890E-07         0.49651E-10         0.00000E+00
    0.20034E-07         0.50655E-10         0.00000E+00
    0.21252E-07         0.51404E-10         0.00000E+00
    0.22551E-07         0.51826E-10         0.00000E+00
    0.23936E-07         0.51839E-10         0.00000E+00
    0.25415E-07         0.51345E-10         0.00000E+00
    0.26993E-07         0.50232E-10         0.00000E+00
    0.28680E-07         0.48371E-10         0.00000E+00
    0.30484E-07         0.45618E-10         0.00000E+00
    0.32413E-07         0.41812E-10         0.00000E+00
    0.34478E-07         0.36781E-10         0.00000E+00
    0.36689E-07         0.30349E-10         0.00000E+00
    0.39058E-07         0.22342E-10         0.00000E+00
    0.41597E-07         0.12606E-10         0.00000E+00
    0.44318E-07         0.10283E-11         0.00000E+00
    0.47234E-07        -0.12432E-10         0.00000E+00
    0.50357E-07        -0.27700E-10         0.00000E+00
    0.53701E-07        -0.44525E-10         0.00000E+00
    0.57277E-07        -0.62413E-10         0.00000E+00
    0.61096E-07        -0.80533E-10         0.00000E+00
    0.65167E-07        -0.97604E-10         0.00000E+00
    0.69495E-07        -0.11176E-09         0.00000E+00
    0.74083E-07        -0.12026E-09         0.00000E+00
    0.78929E-07        -0.11903E-09         0.00000E+00
    0.84026E-07        -0.10021E-09         0.00000E+00
    0.89365E-07        -0.42528E-10         0.00000E+00
    0.62992E-09         0.76338E-12         0.00000E+00
    0.62653E-09         0.19305E-11         0.00000E+00
    0.62457E-09         0.25573E-11         0.00000E+00
    0.62428E-09         0.29008E-11         0.00000E+00
    0.62592E-09         0.30784E-11         0.00000E+00
    0.62966E-09         0.31540E-11         0.00000E+00
    0.63563E-09         0.31697E-11         0.00000E+00
    0.64392E-09         0.31542E-11         0.00000E+00
    0.65460E-09         0.31274E-11         0.00000E+00
    0.66772E-09         0.31027E-11         0.00000E+00
    0.68333E-09         0.30889E-11         0.00000E+00
    0.70146E-09         0.30915E-11         0.00000E+00
    0.72214E-09         0.31138E-11         0.00000E+00
    0.74542E-09         0.31573E-11         0.00000E+00
    0.77134E-09         0.32225E-11         0.00000E+00
    0.79995E-09         0.33094E-11         0.00000E+00
    0.83130E-09         0.34175E-11         0.00000E+00
    0.86547E-09         0.35462E-11         0.00000E+00
    0.90254E-09         0.36948E-11         0.00000E+00
    0.94259E-09         0.38628E-11         0.00000E+00
    0.98574E-09         0.40496E-11         0.00000E+00
    0.10321E-08         0.42547E-11         0.00000E+00
    0.10818E-08         0.44781E-11         0.00000E+00
    0.11349E-08         0.47195E-11         0.00000E+00
    0.11917E-08         0.49790E-11         0.00000E+00
    0.12523E-08         0.52568E-11         0.00000E+00
    0.13168E-08         0.55532E-11         0.00000E+00
    0.13855E-08         0.58686E-11         0.00000E+00
    0.14585E-08         0.62035E-11         0.00000E+00
    0.15361E-08         0.65587E-11         0.00000E+00
    0.16186E-08         0.69348E-11         0.00000E+00
    0.17061E-08         0.73326E-11         0.00000E+00
    0.17990E-08         0.77531E-11         0.00000E+00
    0.18975E-08         0.81973E-11         0.00000E+00
    0.20019E-08         0.86663E-11         0.00000E+00
    0.21126E-08         0.91611E-11         0.00000E+00
    0.22299E-08         0.96830E-11         0.00000E+00
    0.23542E-08         0.10233E-10         0.00000E+00
    0.24859E-08         0.10813E-10         0.00000E+00
    0.26254E-08         0.11424E-10         0.00000E+00
    0.27731E-08         0.12068E-10         0.00000E+00
    0.29295E-08         0.12746E-10         0.00000E+00
    0.30951E-08         0.13460E-10         0.00000E+00
    0.32704E-08         0.14210E-10         0.00000E+00
    0.34560E-08         0.15000E-10         0.00000E+00
    0.36525E-08         0.15831E-10         0.00000E+00
    0.38606E-08         0.16703E-10         0.00000E+00
    0.40808E-08         0.17620E-10         0.00000E+00
    0.43140E-08         0.18583E-10         0.00000E+00
    0.45609E-08         0.19594E-10         0.00000E+00
    0.48222E-08         0.20654E-10         0.00000E+00
    0.50989E-08         0.21765E-10         0.00000E+00
    0.53919E-08         0.22928E-10         0.00000E+00
    0.57021E-08         0.24147E-10         0.00000E+00
    0.60307E-08         0.25420E-10         0.00000E+00
    0.63786E-08         0.26751E-10         0.00000E+00
    0.67471E-08         0.28139E-10         0.00000E+00
    0.71375E-08         0.29587E-10         0.00000E+00
    0.75511E-08         0.31093E-10         0.00000E+00
    0.79893E-08         0.32659E-10         0.00000E+00
    0.84537E-08         0.34283E-10         0.00000E+00
    0.89459E-08         0.35964E-10         0.00000E+00
    0.94676E-08         0.37701E-10         0.00000E+00
    0.10021E-07         0.39489E-10         0.00000E+00
    0.10608E-07         0.41325E-10         0.00000E+00
    0.11230E-07         0.43202E-10         0.00000E+00
    0.11890E-07         0.45113E-10         0.00000E+00
    0.12591E-07         0.47046E-10         0.00000E+00
    0.13336E-07         0.48990E-10         0.00000E+00
    0.14126E-07         0.50926E-10         0.00000E+00
    0.14966E-07         0.52834E-10         0.00000E+00
    0.15858E-07         0.54689E-10         0.00000E+00
    0.16807E-07         0.56456E-10         0.00000E+00
    0.17816E-07         0.58097E-10         0.00000E+00
    0.18890E-07         0.59564E-10         0.00000E+00
    0.20034E-07         0.60797E-10         0.00000E+00
    0.21253E-07         0.61725E-10         0.00000E+00
    0.22551E-07         0.62265E-10         0.00000E+00
    0.23936E-07         0.62317E-10         0.00000E+00
    0.25415E-07         0.61761E-10         0.00000E+00
    0.26993E-07         0.60463E-10         0.00000E+00
    0.28680E-07         0.58267E-10         0.00000E+00
    0.30483E-07         0.54995E-10         0.00000E+00
    0.32412E-07         0.50454E-10         0.00000E+00
    0.34477E-07         0.44435E-10         0.00000E+00
    0.36688E-07         0.36722E-10         0.00000E+00
    0.39056E-07         0.27103E-10         0.00000E+00
    0.41595E-07         0.15391E-10         0.00000E+00
    0.44315E-07         0.14463E-11         0.00000E+00
    0.47230E-07        -0.14778E-10         0.00000E+00
    0.50353E-07        -0.33189E-10         0.00000E+00
    0.53697E-07        -0.53475E-10         0.00000E+00
    0.57273E-07        -0.75023E-10         0.00000E+00
    0.61092E-07        -0.96798E-10         0.00000E+00
    0.65163E-07        -0.11721E-09         0.00000E+00
    0.69492E-07        -0.13391E-09         0.00000E+00
    0.74082E-07        -0.14351E-09         0.00000E+00
    0.78931E-07        -0.14091E-09         0.00000E+00
    0.84033E-07        -0.11653E-09         0.00000E+00
    0.89383E-07        -0.48629E-10         0.00000E+00
    0.63025E-09         0.85487E-12         0.00000E+00
    0.62671E-09         0.21836E-11         0.00000E+00
    0.62466E-09         0.29227E-11         0.00000E+00
    0.62434E-09         0.33317E-11         0.00000E+00
    0.62595E-09         0.35442E-11         0.00000E+00
    0.62967E-09         0.36355E-11         0.00000E+00
    0.63563E-09         0.36552E-11         0.00000E+00
    0.64391E-09         0.36376E-11         0.00000E+00
    0.65459E-09         0.36061E-11         0.00000E+00
    0.66772E-09         0.35767E-11         0.00000E+00
    0.68333E-09         0.35599E-11         0.00000E+00
    0.70146E-09         0.35621E-11         0.00000E+00
    0.72215E-09         0.35870E-11         0.00000E+00
    0.74544E-09         0.36366E-11         0.00000E+00
    0.77136E-09         0.37115E-11         0.00000E+00
    0.79997E-09         0.38116E-11         0.00000E+00
    0.83132E-09         0.39363E-11         0.00000E+00
    0.86550E-09         0.40848E-11         0.00000E+00
    0.90257E-09         0.42564E-11         0.00000E+00
    0.94263E-09         0.44504E-11         0.00000E+00
    0.98578E-09         0.46661E-11         0.00000E+00
    0.10321E-08         0.49030E-11         0.00000E+00
    0.10818E-08         0.51609E-11         0.00000E+00
    0.11350E-08         0.54397E-11         0.00000E+00
    0.11918E-08         0.57393E-11         0.00000E+00
    0.12523E-08         0.60600E-11         0.00000E+00
    0.13169E-08         0.64022E-11         0.00000E+00
    0.13855E-08         0.67662E-11         0.00000E+00
    0.14586E-08         0.71528E-11         0.00000E+00
    0.15362E-08         0.75627E-11         0.00000E+00
    0.16187E-08         0.79968E-11         0.00000E+00
    0.17062E-08         0.84559E-11         0.00000E+00
    0.17991E-08         0.89412E-11         0.00000E+00
    0.18976E-08         0.94538E-11         0.00000E+00
    0.20020E-08         0.99949E-11         0.00000E+00
    0.21127E-08         0.10566E-10         0.00000E+00
    0.22301E-08         0.11168E-10         0.00000E+00
    0.23544E-08         0.11803E-10         0.00000E+00
    0.24860E-08         0.12473E-10         0.00000E+00
    0.26255E-08         0.13178E-10         0.00000E+00
    0.27732E-08         0.13921E-10         0.00000E+00
    0.29296E-08         0.14703E-10         0.00000E+00
    0.30952E-08         0.15527E-10         0.00000E+00
    0.32706E-08         0.16393E-10         0.00000E+00
    0.34562E-08         0.17305E-10         0.00000E+00
    0.36527E-08         0.18264E-10         0.00000E+00
    0.38608E-08         0.19272E-10         0.00000E+00
    0.40810E-08         0.20331E-10         0.00000E+00
    0.43142E-08         0.21443E-10         0.00000E+00
    0.45611E-08         0.22610E-10         0.00000E+00
    0.48224E-08         0.23834E-10         0.00000E+00
    0.50992E-08         0.25118E-10         0.00000E+00
    0.53922E-08         0.26463E-10         0.00000E+00
    0.57024E-08         0.27870E-10         0.00000E+00
    0.60310E-08         0.29343E-10         0.00000E+00
    0.63789E-08         0.30881E-10         0.00000E+00
    0.67474E-08         0.32487E-10         0.00000E+00
    0.71378E-08         0.34162E-10         0.00000E+00
    0.75514E-08         0.35905E-10         0.00000E+00
    0.79896E-08         0.37718E-10         0.00000E+00
    0.84540E-08         0.39598E-10         0.00000E+00
    0.89462E-08         0.41546E-10         0.00000E+00
    0.94680E-08         0.43559E-10         0.00000E+00
    0.10021E-07         0.45633E-10         0.00000E+00
    0.10608E-07         0.47764E-10         0.00000E+00
    0.11230E-07         0.49944E-10         0.00000E+00
    0.11891E-07         0.52164E-10         0.00000E+00
    0.12592E-07         0.54414E-10         0.00000E+00
    0.13336E-07         0.56677E-10         0.00000E+00
    0.14126E-07         0.58934E-10         0.00000E+00
    0.14966E-07         0.61162E-10         0.00000E+00
    0.15858E-07         0.63330E-10         0.00000E+00
    0.16807E-07         0.65401E-10         0.00000E+00
    0.17817E-07         0.67330E-10         0.00000E+00
    0.18891E-07         0.69060E-10         0.00000E+00
    0.20034E-07         0.70522E-10         0.00000E+00
    0.21253E-07         0.71636E-10         0.00000E+00
    0.22551E-07         0.72302E-10         0.00000E+00
    0.23936E-07         0.72404E-10         0.00000E+00
    0.25414E-07         0.71805E-10         0.00000E+00
    0.26993E-07         0.70345E-10         0.00000E+00
    0.28679E-07         0.67841E-10         0.00000E+00
    0.30482E-07         0.64087E-10         0.00000E+00
    0.32411E-07         0.58854E-10         0.00000E+00
    0.34475E-07         0.51897E-10         0.00000E+00
    0.36686E-07         0.42962E-10         0.00000E+00
    0.39054E-07         0.31799E-10         0.00000E+00
    0.41592E-07         0.18185E-10         0.00000E+00
    0.44312E-07         0.19585E-11         0.00000E+00
    0.47227E-07        -0.16937E-10         0.00000E+00
    0.50349E-07        -0.38388E-10         0.00000E+00
    0.53692E-07        -0.62024E-10         0.00000E+00
    0.57268E-07        -0.87108E-10         0.00000E+00
    0.61087E-07        -0.11240E-09         0.00000E+00
    0.65159E-07        -0.13598E-09         0.00000E+00
    0.69489E-07        -0.15504E-09         0.00000E+00
    0.74081E-07        -0.16551E-09         0.00000E+00
    0.78933E-07        -0.16127E-09         0.00000E+00
    0.84041E-07        -0.13131E-09         0.00000E+00
    0.89403E-07        -0.54040E-10         0.00000E+00
    0.63060E-09         0.93739E-12         0.00000E+00
    0.62691E-09         0.24146E-11         0.00000E+00
    0.62478E-09         0.32610E-11         0.00000E+00
    0.62440E-09         0.37347E-11         0.00000E+00
    0.62598E-09         0.39819E-11         0.00000E+00
    0.62968E-09         0.40890E-11         0.00000E+00
    0.63562E-09         0.41129E-11         0.00000E+00
    0.64390E-09         0.40932E-11         0.00000E+00
    0.65458E-09         0.40571E-11         0.00000E+00
    0.66771E-09         0.40230E-11         0.00000E+00
    0.68333E-09         0.40029E-11         0.00000E+00
    0.70146E-09         0.40044E-11         0.00000E+00
    0.72216E-09         0.40317E-11         0.00000E+00
    0.74545E-09         0.40870E-11         0.00000E+00
    0.77138E-09         0.41709E-11         0.00000E+00
    0.79999E-09         0.42834E-11         0.00000E+00
    0.83135E-09         0.44237E-11         0.00000E+00
    0.86553E-09         0.45910E-11         0.00000E+00
    0.90261E-09         0.47843E-11         0.00000E+00
    0.94267E-09         0.50029E-11         0.00000E+00
    0.98583E-09         0.52459E-11         0.00000E+00
    0.10322E-08         0.55130E-11         0.00000E+00
    0.10819E-08         0.58036E-11         0.00000E+00
    0.11350E-08         0.61177E-11         0.00000E+00
    0.11918E-08         0.64553E-11         0.00000E+00
    0.12524E-08         0.68166E-11         0.00000E+00
    0.13169E-08         0.72020E-11         0.00000E+00
    0.13856E-08         0.76120E-11         0.00000E+00
    0.14587E-08         0.80474E-11         0.00000E+00
    0.15363E-08         0.85090E-11         0.00000E+00
    0.16188E-08         0.89978E-11         0.00000E+00
    0.17063E-08         0.95148E-11         0.00000E+00
    0.17992E-08         0.10061E-10         0.00000E+00
    0.18977E-08         0.10638E-10         0.00000E+00
    0.20021E-08         0.11248E-10         0.00000E+00
    0.21129E-08         0.11891E-10         0.00000E+00
    0.22302E-08         0.12569E-10         0.00000E+00
    0.23545E-08         0.13284E-10         0.00000E+00
    0.24862E-08         0.14038E-10         0.00000E+00
    0.26257E-08         0.14832E-10         0.00000E+00
    0.27734E-08         0.15669E-10         0.00000E+00
    0.29298E-08         0.16550E-10         0.00000E+00
    0.30954E-08         0.17477E-10         0.00000E+00
    0.32708E-08         0.18454E-10         0.00000E+00
    0.34564E-08         0.19481E-10         0.00000E+00
    0.36529E-08         0.20561E-10         0.00000E+00
    0.38610E-08         0.21696E-10         0.00000E+00
    0.40813E-08         0.22889E-10         0.00000E+00
    0.43145E-08         0.24142E-10         0.00000E+00
    0.45613E-08         0.25458E-10         0.00000E+00
    0.48227E-08         0.26838E-10         0.00000E+00
    0.50994E-08         0.28285E-10         0.00000E+00
    0.53925E-08         0.29801E-10         0.00000E+00
    0.57027E-08         0.31389E-10         0.00000E+00
    0.60313E-08         0.33050E-10         0.00000E+00
    0.63792E-08         0.34786E-10         0.00000E+00
    0.67478E-08         0.36598E-10         0.00000E+00
    0.71382E-08         0.38489E-10         0.00000E+00
    0.75518E-08         0.40457E-10         0.00000E+00
    0.79900E-08         0.42505E-10         0.00000E+00
    0.84544E-08         0.44630E-10         0.00000E+00
    0.89467E-08         0.46833E-10         0.00000E+00
    0.94685E-08         0.49110E-10         0.00000E+00
    0.10022E-07         0.51457E-10         0.00000E+00
    0.10608E-07         0.53870E-10         0.00000E+00
    0.11231E-07         0.56340E-10         0.00000E+00
    0.11891E-07         0.58859E-10         0.00000E+00
    0.12592E-07         0.61412E-10         0.00000E+00
    0.13337E-07         0.63984E-10         0.00000E+00
    0.14127E-07         0.66552E-10         0.00000E+00
    0.14967E-07         0.69090E-10         0.00000E+00
    0.15859E-07         0.71564E-10         0.00000E+00
    0.16808E-07         0.73933E-10         0.00000E+00
    0.17817E-07         0.76144E-10         0.00000E+00
    0.18891E-07         0.78135E-10         0.00000E+00
    0.20035E-07         0.79828E-10         0.00000E+00
    0.21253E-07         0.81131E-10         0.00000E+00
    0.22551E-07         0.81931E-10         0.00000E+00
    0.23936E-07         0.82096E-10         0.00000E+00
    0.25414E-07         0.81470E-10         0.00000E+00
    0.26992E-07         0.79871E-10         0.00000E+00
    0.28678E-07         0.77089E-10         0.00000E+00
    0.30481E-07         0.72889E-10         0.00000E+00
    0.32409E-07         0.67009E-10         0.00000E+00
    0.34473E-07         0.59166E-10         0.00000E+00
    0.36684E-07         0.49069E-10         0.00000E+00
    0.39051E-07         0.36431E-10         0.00000E+00
    0.41589E-07         0.20995E-10         0.00000E+00
    0.44308E-07         0.25749E-11         0.00000E+00
    0.47222E-07        -0.18894E-10         0.00000E+00
    0.50344E-07        -0.43279E-10         0.00000E+00
    0.53687E-07        -0.70148E-10         0.00000E+00
    0.57263E-07        -0.98642E-10         0.00000E+00
    0.61082E-07        -0.12731E-09         0.00000E+00
    0.65154E-07        -0.15391E-09         0.00000E+00
    0.69486E-07        -0.17516E-09         0.00000E+00
    0.74080E-07        -0.18629E-09         0.00000E+00
    0.78936E-07        -0.18021E-09         0.00000E+00
    0.84052E-07        -0.14479E-09         0.00000E+00
    0.89426E-07        -0.58894E-10         0.00000E+00
    0.63099E-09         0.10122E-11         0.00000E+00
    0.62714E-09         0.26258E-11         0.00000E+00
    0.62491E-09         0.35740E-11         0.00000E+00
    0.62447E-09         0.41107E-11         0.00000E+00
    0.62601E-09         0.43922E-11         0.00000E+00
    0.62969E-09         0.45148E-11         0.00000E+00
    0.63562E-09         0.45429E-11         0.00000E+00
    0.64390E-09         0.45211E-11         0.00000E+00
    0.65457E-09         0.44804E-11         0.00000E+00
    0.66770E-09         0.44415E-11         0.00000E+00
    0.68332E-09         0.44182E-11         0.00000E+00
    0.70147E-09         0.44187E-11         0.00000E+00
    0.72217E-09         0.44480E-11         0.00000E+00
    0.74546E-09         0.45085E-11         0.00000E+00
    0.77140E-09         0.46008E-11         0.00000E+00
    0.80002E-09         0.47249E-11         0.00000E+00
    0.83139E-09         0.48799E-11         0.00000E+00
    0.86557E-09         0.50648E-11         0.00000E+00
    0.90265E-09         0.52787E-11         0.00000E+00
    0.94272E-09         0.55205E-11         0.00000E+00
    0.98588E-09         0.57894E-11         0.00000E+00
    0.10322E-08         0.60848E-11         0.00000E+00
    0.10819E-08         0.64063E-11         0.00000E+00
    0.11351E-08         0.67537E-11         0.00000E+00
    0.11919E-08         0.71271E-11         0.00000E+00
    0.12525E-08         0.75266E-11         0.00000E+00
    0.13170E-08         0.79528E-11         0.00000E+00
    0.13857E-08         0.84062E-11         0.00000E+00
    0.14588E-08         0.88875E-11         0.00000E+00
    0.15364E-08         0.93978E-11         0.00000E+00
    0.16189E-08         0.99381E-11         0.00000E+00
    0.17064E-08         0.10510E-10         0.00000E+00
    0.17993E-08         0.11114E-10         0.00000E+00
    0.18978E-08         0.11752E-10         0.00000E+00
    0.20023E-08         0.12425E-10         0.00000E+00
    0.21130E-08         0.13136E-10         0.00000E+00
    0.22303E-08         0.13885E-10         0.00000E+00
    0.23547E-08         0.14676E-10         0.00000E+00
    0.24864E-08         0.15509E-10         0.00000E+00
    0.26258E-08         0.16387E-10         0.00000E+00
    0.27736E-08         0.17312E-10         0.00000E+00
    0.29300E-08         0.18286E-10         0.00000E+00
    0.30956E-08         0.19312E-10         0.00000E+00
    0.32710E-08         0.20391E-10         0.00000E+00
    0.34566E-08         0.21527E-10         0.00000E+00
    0.36532E-08         0.22721E-10         0.00000E+00
    0.38612E-08         0.23977E-10         0.00000E+00
    0.40815E-08         0.25297E-10         0.00000E+00
    0.43147E-08         0.26683E-10         0.00000E+00
    0.45616E-08         0.28138E-10         0.00000E+00
    0.48230E-08         0.29665E-10         0.00000E+00
    0.50998E-08         0.31267E-10         0.00000E+00
    0.53928E-08         0.32945E-10         0.00000E+00
    0.57031E-08         0.34703E-10         0.00000E+00
    0.60316E-08         0.36542E-10         0.00000E+00
    0.63796E-08         0.38465E-10         0.00000E+00
    0.67482E-08         0.40473E-10         0.00000E+00
    0.71386E-08         0.42568E-10         0.00000E+00
    0.75522E-08         0.44751E-10         0.00000E+00
    0.79905E-08         0.47021E-10         0.00000E+00
    0.84549E-08         0.49379E-10         0.00000E+00
    0.89471E-08         0.51824E-10         0.00000E+00
    0.94689E-08         0.54352E-10         0.00000E+00
    0.10022E-07         0.56960E-10         0.00000E+00
    0.10609E-07         0.59643E-10         0.00000E+00
    0.11231E-07         0.62391E-10         0.00000E+00
    0.11892E-07         0.65195E-10         0.00000E+00
    0.12593E-07         0.68041E-10         0.00000E+00
    0.13337E-07         0.70910E-10         0.00000E+00
    0.14127E-07         0.73778E-10         0.00000E+00
    0.14967E-07         0.76617E-10         0.00000E+00
    0.15859E-07         0.79389E-10         0.00000E+00
    0.16808E-07         0.82049E-10         0.00000E+00
    0.17817E-07         0.84538E-10         0.00000E+00
    0.18891E-07         0.86787E-10         0.00000E+00
    0.20035E-07         0.88711E-10         0.00000E+00
    0.21253E-07         0.90207E-10         0.00000E+00
    0.22552E-07         0.91148E-10         0.00000E+00
    0.23936E-07         0.91389E-10         0.00000E+00
    0.25414E-07         0.90753E-10         0.00000E+00
    0.26992E-07         0.89038E-10         0.00000E+00
    0.28678E-07         0.86008E-10         0.00000E+00
    0.30480E-07         0.81398E-10         0.00000E+00
    0.32408E-07         0.74915E-10         0.00000E+00
    0.34472E-07         0.66240E-10         0.00000E+00
    0.36681E-07         0.55044E-10         0.00000E+00
    0.39049E-07         0.41002E-10         0.00000E+00
    0.41585E-07         0.23827E-10         0.00000E+00
    0.44304E-07         0.33045E-11         0.00000E+00
    0.47217E-07        -0.20636E-10         0.00000E+00
    0.50339E-07        -0.47844E-10         0.00000E+00
    0.53681E-07        -0.77826E-10         0.00000E+00
    0.57256E-07        -0.10960E-09         0.00000E+00
    0.61076E-07        -0.14151E-09         0.00000E+00
    0.65149E-07        -0.17098E-09         0.00000E+00
    0.69482E-07        -0.19425E-09         0.00000E+00
    0.74079E-07        -0.20588E-09         0.00000E+00
    0.78940E-07        -0.19784E-09         0.00000E+00
    0.84063E-07        -0.15715E-09         0.00000E+00
    0.89450E-07        -0.63296E-10         0.00000E+00
    0.63141E-09         0.10801E-11         0.00000E+00
    0.62739E-09         0.28190E-11         0.00000E+00
    0.62505E-09         0.38630E-11         0.00000E+00
    0.62455E-09         0.44604E-11         0.00000E+00
    0.62605E-09         0.47753E-11         0.00000E+00
    0.62970E-09         0.49131E-11         0.00000E+00
    0.63562E-09         0.49453E-11         0.00000E+00
    0.64389E-09         0.49215E-11         0.00000E+00
    0.65457E-09         0.48761E-11         0.00000E+00
    0.66770E-09         0.48324E-11         0.00000E+00
    0.68332E-09         0.48056E-11         0.00000E+00
    0.70147E-09         0.48051E-11         0.00000E+00
    0.72218E-09         0.48361E-11         0.00000E+00
    0.74548E-09         0.49012E-11         0.00000E+00
    0.77142E-09         0.50014E-11         0.00000E+00
    0.80005E-09         0.51363E-11         0.00000E+00
    0.83142E-09         0.53051E-11         0.00000E+00
    0.86561E-09         0.55067E-11         0.00000E+00
    0.90270E-09         0.57398E-11         0.00000E+00
    0.94278E-09         0.60035E-11         0.00000E+00
    0.98594E-09         0.62967E-11         0.00000E+00
    0.10323E-08         0.66188E-11         0.00000E+00
    0.10820E-08         0.69693E-11         0.00000E+00
    0.11352E-08         0.73481E-11         0.00000E+00
    0.11920E-08         0.77550E-11         0.00000E+00
    0.12526E-08         0.81905E-11         0.00000E+00
    0.13171E-08         0.86549E-11         0.00000E+00
    0.13858E-08         0.91490E-11         0.00000E+00
    0.14589E-08         0.96735E-11         0.00000E+00
    0.15365E-08         0.10229E-10         0.00000E+00
    0.16190E-08         0.10818E-10         0.00000E+00
    0.17065E-08         0.11441E-10         0.00000E+00
    0.17994E-08         0.12099E-10         0.00000E+00
    0.18980E-08         0.12794E-10         0.00000E+00
    0.20024E-08         0.13527E-10         0.00000E+00
    0.21132E-08         0.14302E-10         0.00000E+00
    0.22305E-08         0.15118E-10         0.00000E+00
    0.23548E-08         0.15979E-10         0.00000E+00
    0.24865E-08         0.16887E-10         0.00000E+00
    0.26260E-08         0.17844E-10         0.00000E+00
    0.27738E-08         0.18851E-10         0.00000E+00
    0.29302E-08         0.19913E-10         0.00000E+00
    0.30958E-08         0.21030E-10         0.00000E+00
    0.32712E-08         0.22207E-10         0.00000E+00
    0.34569E-08         0.23444E-10         0.00000E+00
    0.36534E-08         0.24746E-10         0.00000E+00
    0.38615E-08         0.26115E-10         0.00000E+00
    0.40818E-08         0.27554E-10         0.00000E+00
    0.43150E-08         0.29065E-10         0.00000E+00
    0.45619E-08         0.30652E-10         0.00000E+00
    0.48233E-08         0.32317E-10         0.00000E+00
    0.51001E-08         0.34064E-10         0.00000E+00
    0.53931E-08         0.35895E-10         0.00000E+00
    0.57034E-08         0.37813E-10         0.00000E+00
    0.60320E-08         0.39821E-10         0.00000E+00
    0.63800E-08         0.41920E-10         0.00000E+00
    0.67486E-08         0.44112E-10         0.00000E+00
    0.71390E-08         0.46401E-10         0.00000E+00
    0.75527E-08         0.48785E-10         0.00000E+00
    0.79909E-08         0.51267E-10         0.00000E+00
    0.84554E-08         0.53846E-10         0.00000E+00
    0.89476E-08         0.56520E-10         0.00000E+00
    0.94695E-08         0.59287E-10         0.00000E+00
    0.10023E-07         0.62143E-10         0.00000E+00
    0.10610E-07         0.65083E-10         0.00000E+00
    0.11232E-07         0.68097E-10         0.00000E+00
    0.11892E-07         0.71174E-10         0.00000E+00
    0.12593E-07         0.74299E-10         0.00000E+00
    0.13338E-07         0.77454E-10         0.00000E+00
    0.14128E-07         0.80612E-10         0.00000E+00
    0.14968E-07         0.83741E-10         0.00000E+00
    0.15860E-07         0.86803E-10         0.00000E+00
    0.16809E-07         0.89745E-10         0.00000E+00
    0.17818E-07         0.92508E-10         0.00000E+00
    0.18892E-07         0.95013E-10         0.00000E+00
    0.20035E-07         0.97168E-10         0.00000E+00
    0.21253E-07         0.98858E-10         0.00000E+00
    0.22552E-07         0.99949E-10         0.00000E+00
    0.23936E-07         0.10028E-09         0.00000E+00
    0.25414E-07         0.99648E-10         0.00000E+00
    0.26991E-07         0.97839E-10         0.00000E+00
    0.28677E-07         0.94590E-10         0.00000E+00
    0.30479E-07         0.89609E-10         0.00000E+00
    0.32406E-07         0.82567E-10         0.00000E+00
    0.34470E-07         0.73115E-10         0.00000E+00
    0.36679E-07         0.60884E-10         0.00000E+00
    0.39045E-07         0.45514E-10         0.00000E+00
    0.41581E-07         0.26683E-10         0.00000E+00
    0.44299E-07         0.41553E-11         0.00000E+00
    0.47212E-07        -0.22151E-10         0.00000E+00
    0.50333E-07        -0.52067E-10         0.00000E+00
    0.53675E-07        -0.85038E-10         0.00000E+00
    0.57250E-07        -0.11996E-09         0.00000E+00
    0.61069E-07        -0.15498E-09         0.00000E+00
    0.65143E-07        -0.18718E-09         0.00000E+00
    0.69478E-07        -0.21232E-09         0.00000E+00
    0.74078E-07        -0.22431E-09         0.00000E+00
    0.78945E-07        -0.21427E-09         0.00000E+00
    0.84076E-07        -0.16853E-09         0.00000E+00
    0.89476E-07        -0.67323E-10         0.00000E+00
    0.63186E-09         0.11421E-11         0.00000E+00
    0.62767E-09         0.29959E-11         0.00000E+00
    0.62522E-09         0.41294E-11         0.00000E+00
    0.62464E-09         0.47848E-11         0.00000E+00
    0.62609E-09         0.51319E-11         0.00000E+00
    0.62972E-09         0.52844E-11         0.00000E+00
    0.63562E-09         0.53203E-11         0.00000E+00
    0.64388E-09         0.52943E-11         0.00000E+00
    0.65456E-09         0.52443E-11         0.00000E+00
    0.66769E-09         0.51958E-11         0.00000E+00
    0.68332E-09         0.51655E-11         0.00000E+00
    0.70147E-09         0.51636E-11         0.00000E+00
    0.72219E-09         0.51960E-11         0.00000E+00
    0.74550E-09         0.52654E-11         0.00000E+00
    0.77144E-09         0.53728E-11         0.00000E+00
    0.80008E-09         0.55178E-11         0.00000E+00
    0.83146E-09         0.56995E-11         0.00000E+00
    0.86566E-09         0.59167E-11         0.00000E+00
    0.90275E-09         0.61679E-11         0.00000E+00
    0.94283E-09         0.64520E-11         0.00000E+00
    0.98601E-09         0.67680E-11         0.00000E+00
    0.10324E-08         0.71151E-11         0.00000E+00
    0.10821E-08         0.74928E-11         0.00000E+00
    0.11353E-08         0.79009E-11         0.00000E+00
    0.11921E-08         0.83393E-11         0.00000E+00
    0.12527E-08         0.88084E-11         0.00000E+00
    0.13172E-08         0.93086E-11         0.00000E+00
    0.13859E-08         0.98407E-11         0.00000E+00
    0.14590E-08         0.10406E-10         0.00000E+00
    0.15366E-08         0.11004E-10         0.00000E+00
    0.16191E-08         0.11638E-10         0.00000E+00
    0.17067E-08         0.12308E-10         0.00000E+00
    0.17996E-08         0.13017E-10         0.00000E+00
    0.18981E-08         0.13765E-10         0.00000E+00
    0.20026E-08         0.14555E-10         0.00000E+00
    0.21133E-08         0.15389E-10         0.00000E+00
    0.22307E-08         0.16268E-10         0.00000E+00
    0.23550E-08         0.17195E-10         0.00000E+00
    0.24867E-08         0.18172E-10         0.00000E+00
    0.26262E-08         0.19202E-10         0.00000E+00
    0.27740E-08         0.20287E-10         0.00000E+00
    0.29304E-08         0.21430E-10         0.00000E+00
    0.30961E-08         0.22634E-10         0.00000E+00
    0.32714E-08         0.23901E-10         0.00000E+00
    0.34571E-08         0.25234E-10         0.00000E+00
    0.36537E-08         0.26636E-10         0.00000E+00
    0.38618E-08         0.28110E-10         0.00000E+00
    0.40821E-08         0.29660E-10         0.00000E+00
    0.43154E-08         0.31289E-10         0.00000E+00
    0.45623E-08         0.32999E-10         0.00000E+00
    0.48237E-08         0.34794E-10         0.00000E+00
    0.51005E-08         0.36677E-10         0.00000E+00
    0.53935E-08         0.38652E-10         0.00000E+00
    0.57038E-08         0.40720E-10         0.00000E+00
    0.60325E-08         0.42885E-10         0.00000E+00
    0.63805E-08         0.45150E-10         0.00000E+00
    0.67491E-08         0.47516E-10         0.00000E+00
    0.71395E-08         0.49986E-10         0.00000E+00
    0.75532E-08         0.52562E-10         0.00000E+00
    0.79915E-08         0.55242E-10         0.00000E+00
    0.84559E-08         0.58029E-10         0.00000E+00
    0.89482E-08         0.60920E-10         0.00000E+00
    0.94701E-08         0.63914E-10         0.00000E+00
    0.10023E-07         0.67005E-10         0.00000E+00
    0.10610E-07         0.70189E-10         0.00000E+00
    0.11233E-07         0.73455E-10         0.00000E+00
    0.11893E-07         0.76793E-10         0.00000E+00
    0.12594E-07         0.80186E-10         0.00000E+00
    0.13338E-07         0.83615E-10         0.00000E+00
    0.14129E-07         0.87051E-10         0.00000E+00
    0.14968E-07         0.90461E-10         0.00000E+00
    0.15861E-07         0.93802E-10         0.00000E+00
    0.16809E-07         0.97021E-10         0.00000E+00
    0.17819E-07         0.10005E-09         0.00000E+00
    0.18892E-07         0.10281E-09         0.00000E+00
    0.20036E-07         0.10519E-09         0.00000E+00
    0.21254E-07         0.10708E-09         0.00000E+00
    0.22552E-07         0.10833E-09         0.00000E+00
    0.23936E-07         0.10875E-09         0.00000E+00
    0.25414E-07         0.10815E-09         0.00000E+00
    0.26991E-07         0.10627E-09         0.00000E+00
    0.28676E-07         0.10283E-09         0.00000E+00
    0.30478E-07         0.97514E-10         0.00000E+00
    0.32405E-07         0.89962E-10         0.00000E+00
    0.34467E-07         0.79787E-10         0.00000E+00
    0.36676E-07         0.66587E-10         0.00000E+00
    0.39042E-07         0.49966E-10         0.00000E+00
    0.41577E-07         0.29569E-10         0.00000E+00
    0.44294E-07         0.51340E-11         0.00000E+00
    0.47206E-07        -0.23429E-10         0.00000E+00
    0.50326E-07        -0.55932E-10         0.00000E+00
    0.53667E-07        -0.91767E-10         0.00000E+00
    0.57242E-07        -0.12971E-09         0.00000E+00
    0.61062E-07        -0.16769E-09         0.00000E+00
    0.65137E-07        -0.20249E-09         0.00000E+00
    0.69474E-07        -0.22939E-09         0.00000E+00
    0.74078E-07        -0.24164E-09         0.00000E+00
    0.78950E-07        -0.22958E-09         0.00000E+00
    0.84090E-07        -0.17906E-09         0.00000E+00
    0.89504E-07        -0.71036E-10         0.00000E+00
    0.63232E-09         0.11986E-11         0.00000E+00
    0.62796E-09         0.31578E-11         0.00000E+00
    0.62539E-09         0.43745E-11         0.00000E+00
    0.62474E-09         0.50847E-11         0.00000E+00
    0.62614E-09         0.54625E-11         0.00000E+00
    0.62973E-09         0.56288E-11         0.00000E+00
    0.63562E-09         0.56681E-11         0.00000E+00
    0.64387E-09         0.56398E-11         0.00000E+00
    0.65454E-09         0.55851E-11         0.00000E+00
    0.66768E-09         0.55317E-11         0.00000E+00
    0.68331E-09         0.54978E-11         0.00000E+00
    0.70148E-09         0.54944E-11         0.00000E+00
    0.72220E-09         0.55279E-11         0.00000E+00
    0.74551E-09         0.56012E-11         0.00000E+00
    0.77147E-09         0.57152E-11         0.00000E+00
    0.80011E-09         0.58697E-11         0.00000E+00
    0.83150E-09         0.60634E-11         0.00000E+00
    0.86571E-09         0.62950E-11         0.00000E+00
    0.90281E-09         0.65631E-11         0.00000E+00
    0.94290E-09         0.68664E-11         0.00000E+00
    0.98607E-09         0.72036E-11         0.00000E+00
    0.10325E-08         0.75741E-11         0.00000E+00
    0.10822E-08         0.79771E-11         0.00000E+00
    0.11354E-08         0.84125E-11         0.00000E+00
    0.11922E-08         0.88803E-11         0.00000E+00
    0.12528E-08         0.93807E-11         0.00000E+00
    0.13173E-08         0.99142E-11         0.00000E+00
    0.13860E-08         0.10482E-10         0.00000E+00
    0.14591E-08         0.11084E-10         0.00000E+00
    0.15368E-08         0.11722E-10         0.00000E+00
    0.16192E-08         0.12398E-10         0.00000E+00
    0.17068E-08         0.13113E-10         0.00000E+00
    0.17997E-08         0.13868E-10         0.00000E+00
    0.18983E-08         0.14666E-10         0.00000E+00
    0.20027E-08         0.15508E-10         0.00000E+00
    0.21135E-08         0.16397E-10         0.00000E+00
    0.22309E-08         0.17334E-10         0.00000E+00
    0.23552E-08         0.18323E-10         0.00000E+00
    0.24869E-08         0.19365E-10         0.00000E+00
    0.26265E-08         0.20463E-10         0.00000E+00
    0.27742E-08         0.21620E-10         0.00000E+00
    0.29307E-08         0.22839E-10         0.00000E+00
    0.30963E-08         0.24122E-10         0.00000E+00
    0.32717E-08         0.25473E-10         0.00000E+00
    0.34574E-08         0.26895E-10         0.00000E+00
    0.36540E-08         0.28391E-10         0.00000E+00
    0.38621E-08         0.29964E-10         0.00000E+00
    0.40824E-08         0.31618E-10         0.00000E+00
    0.43157E-08         0.33356E-10         0.00000E+00
    0.45626E-08         0.35181E-10         0.00000E+00
    0.48241E-08         0.37097E-10         0.00000E+00
    0.51009E-08         0.39107E-10         0.00000E+00
    0.53939E-08         0.41215E-10         0.00000E+00
    0.57043E-08         0.43424E-10         0.00000E+00
    0.60329E-08         0.45737E-10         0.00000E+00
    0.63809E-08         0.48156E-10         0.00000E+00
    0.67496E-08         0.50685E-10         0.00000E+00
    0.71401E-08         0.53326E-10         0.00000E+00
    0.75537E-08         0.56080E-10         0.00000E+00
    0.79920E-08         0.58948E-10         0.00000E+00
    0.84565E-08         0.61931E-10         0.00000E+00
    0.89488E-08         0.65026E-10         0.00000E+00
    0.94707E-08         0.68233E-10         0.00000E+00
    0.10024E-07         0.71547E-10         0.00000E+00
    0.10611E-07         0.74961E-10         0.00000E+00
    0.11233E-07         0.78467E-10         0.00000E+00
    0.11894E-07         0.82053E-10         0.00000E+00
    0.12595E-07         0.85701E-10         0.00000E+00
    0.13339E-07         0.89391E-10         0.00000E+00
    0.14129E-07         0.93094E-10         0.00000E+00
    0.14969E-07         0.96773E-10         0.00000E+00
    0.15861E-07         0.10039E-09         0.00000E+00
    0.16810E-07         0.10387E-09         0.00000E+00
    0.17819E-07         0.10716E-09         0.00000E+00
    0.18893E-07         0.11017E-09         0.00000E+00
    0.20036E-07         0.11278E-09         0.00000E+00
    0.21254E-07         0.11487E-09         0.00000E+00
    0.22552E-07         0.11628E-09         0.00000E+00
    0.23936E-07         0.11681E-09         0.00000E+00
    0.25413E-07         0.11625E-09         0.00000E+00
    0.26990E-07         0.11432E-09         0.00000E+00
    0.28675E-07         0.11072E-09         0.00000E+00
    0.30476E-07         0.10511E-09         0.00000E+00
    0.32403E-07         0.97092E-10         0.00000E+00
    0.34465E-07         0.86252E-10         0.00000E+00
    0.36673E-07         0.72151E-10         0.00000E+00
    0.39038E-07         0.54358E-10         0.00000E+00
    0.41572E-07         0.32485E-10         0.00000E+00
    0.44289E-07         0.62459E-11         0.00000E+00
    0.47200E-07        -0.24459E-10         0.00000E+00
    0.50319E-07        -0.59427E-10         0.00000E+00
    0.53660E-07        -0.97994E-10         0.00000E+00
    0.57234E-07        -0.13882E-09         0.00000E+00
    0.61054E-07        -0.17964E-09         0.00000E+00
    0.65130E-07        -0.21691E-09         0.00000E+00
    0.69470E-07        -0.24545E-09         0.00000E+00
    0.74077E-07        -0.25790E-09         0.00000E+00
    0.78955E-07        -0.24387E-09         0.00000E+00
    0.84105E-07        -0.18884E-09         0.00000E+00
    0.89533E-07        -0.74484E-10         0.00000E+00
    0.63281E-09         0.12502E-11         0.00000E+00
    0.62827E-09         0.33059E-11         0.00000E+00
    0.62558E-09         0.45994E-11         0.00000E+00
    0.62484E-09         0.53608E-11         0.00000E+00
    0.62619E-09         0.57674E-11         0.00000E+00
    0.62975E-09         0.59467E-11         0.00000E+00
    0.63562E-09         0.59889E-11         0.00000E+00
    0.64386E-09         0.59581E-11         0.00000E+00
    0.65453E-09         0.58986E-11         0.00000E+00
    0.66767E-09         0.58403E-11         0.00000E+00
    0.68331E-09         0.58027E-11         0.00000E+00
    0.70148E-09         0.57977E-11         0.00000E+00
    0.72221E-09         0.58320E-11         0.00000E+00
    0.74553E-09         0.59087E-11         0.00000E+00
    0.77150E-09         0.60289E-11         0.00000E+00
    0.80015E-09         0.61920E-11         0.00000E+00
    0.83154E-09         0.63969E-11         0.00000E+00
    0.86576E-09         0.66420E-11         0.00000E+00
    0.90287E-09         0.69258E-11         0.00000E+00
    0.94296E-09         0.72468E-11         0.00000E+00
    0.98615E-09         0.76038E-11         0.00000E+00
    0.10325E-08         0.79959E-11         0.00000E+00
    0.10823E-08         0.84225E-11         0.00000E+00
    0.11354E-08         0.88832E-11         0.00000E+00
    0.11923E-08         0.93781E-11         0.00000E+00
    0.12529E-08         0.99075E-11         0.00000E+00
    0.13174E-08         0.10472E-10         0.00000E+00
    0.13861E-08         0.11072E-10         0.00000E+00
    0.14592E-08         0.11709E-10         0.00000E+00
    0.15369E-08         0.12384E-10         0.00000E+00
    0.16194E-08         0.13099E-10         0.00000E+00
    0.17070E-08         0.13855E-10         0.00000E+00
    0.17999E-08         0.14653E-10         0.00000E+00
    0.18984E-08         0.15497E-10         0.00000E+00
    0.20029E-08         0.16387E-10         0.00000E+00
    0.21137E-08         0.17327E-10         0.00000E+00
    0.22311E-08         0.18318E-10         0.00000E+00
    0.23554E-08         0.19364E-10         0.00000E+00
    0.24872E-08         0.20465E-10         0.00000E+00
    0.26267E-08         0.21627E-10         0.00000E+00
    0.27744E-08         0.22850E-10         0.00000E+00
    0.29309E-08         0.24139E-10         0.00000E+00
    0.30966E-08         0.25497E-10         0.00000E+00
    0.32720E-08         0.26926E-10         0.00000E+00
    0.34577E-08         0.28430E-10         0.00000E+00
    0.36543E-08         0.30012E-10         0.00000E+00
    0.38625E-08         0.31677E-10         0.00000E+00
    0.40828E-08         0.33426E-10         0.00000E+00
    0.43161E-08         0.35265E-10         0.00000E+00
    0.45630E-08         0.37197E-10         0.00000E+00
    0.48245E-08         0.39225E-10         0.00000E+00
    0.51013E-08         0.41354E-10         0.00000E+00
    0.53944E-08         0.43586E-10         0.00000E+00
    0.57047E-08         0.45926E-10         0.00000E+00
    0.60334E-08         0.48376E-10         0.00000E+00
    0.63815E-08         0.50940E-10         0.00000E+00
    0.67501E-08         0.53620E-10         0.00000E+00
    0.71406E-08         0.56420E-10         0.00000E+00
    0.75543E-08         0.59341E-10         0.00000E+00
    0.79926E-08         0.62384E-10         0.00000E+00
    0.84571E-08         0.65550E-10         0.00000E+00
    0.89495E-08         0.68838E-10         0.00000E+00
    0.94714E-08         0.72245E-10         0.00000E+00
    0.10025E-07         0.75768E-10         0.00000E+00
    0.10612E-07         0.79400E-10         0.00000E+00
    0.11234E-07         0.83132E-10         0.00000E+00
    0.11895E-07         0.86952E-10         0.00000E+00
    0.12596E-07         0.90843E-10         0.00000E+00
    0.13340E-07         0.94781E-10         0.00000E+00
    0.14130E-07         0.98739E-10         0.00000E+00
    0.14970E-07         0.10268E-09         0.00000E+00
    0.15862E-07         0.10655E-09         0.00000E+00
    0.16811E-07         0.11030E-09         0.00000E+00
    0.17820E-07         0.11384E-09         0.00000E+00
    0.18894E-07         0.11709E-09         0.00000E+00
    0.20037E-07         0.11993E-09         0.00000E+00
    0.21254E-07         0.12222E-09         0.00000E+00
    0.22552E-07         0.12379E-09         0.00000E+00
    0.23936E-07         0.12445E-09         0.00000E+00
    0.25413E-07         0.12394E-09         0.00000E+00
    0.26990E-07         0.12198E-09         0.00000E+00
    0.28674E-07         0.11826E-09         0.00000E+00
    0.30475E-07         0.11238E-09         0.00000E+00
    0.32401E-07         0.10395E-09         0.00000E+00
    0.34462E-07         0.92503E-10         0.00000E+00
    0.36669E-07         0.77571E-10         0.00000E+00
    0.39034E-07         0.58687E-10         0.00000E+00
    0.41567E-07         0.35432E-10         0.00000E+00
    0.44283E-07         0.74955E-11         0.00000E+00
    0.47193E-07        -0.25234E-10         0.00000E+00
    0.50311E-07        -0.62540E-10         0.00000E+00
    0.53651E-07        -0.10370E-09         0.00000E+00
    0.57226E-07        -0.14728E-09         0.00000E+00
    0.61046E-07        -0.19080E-09         0.00000E+00
    0.65123E-07        -0.23042E-09         0.00000E+00
    0.69465E-07        -0.26052E-09         0.00000E+00
    0.74077E-07        -0.27312E-09         0.00000E+00
    0.78962E-07        -0.25721E-09         0.00000E+00
    0.84122E-07        -0.19797E-09         0.00000E+00
    0.89564E-07        -0.77706E-10         0.00000E+00
    0.63332E-09         0.12973E-11         0.00000E+00
    0.62860E-09         0.34411E-11         0.00000E+00
    0.62578E-09         0.48052E-11         0.00000E+00
    0.62496E-09         0.56139E-11         0.00000E+00
    0.62625E-09         0.60472E-11         0.00000E+00
    0.62977E-09         0.62382E-11         0.00000E+00
    0.63562E-09         0.62828E-11         0.00000E+00
    0.64385E-09         0.62492E-11         0.00000E+00
    0.65452E-09         0.61848E-11         0.00000E+00
    0.66766E-09         0.61216E-11         0.00000E+00
    0.68330E-09         0.60803E-11         0.00000E+00
    0.70148E-09         0.60736E-11         0.00000E+00
    0.72222E-09         0.61084E-11         0.00000E+00
    0.74555E-09         0.61882E-11         0.00000E+00
    0.77153E-09         0.63140E-11         0.00000E+00
    0.80018E-09         0.64850E-11         0.00000E+00
    0.83159E-09         0.67002E-11         0.00000E+00
    0.86581E-09         0.69578E-11         0.00000E+00
    0.90293E-09         0.72560E-11         0.00000E+00
    0.94303E-09         0.75935E-11         0.00000E+00
    0.98622E-09         0.79687E-11         0.00000E+00
    0.10326E-08         0.83808E-11         0.00000E+00
    0.10823E-08         0.88291E-11         0.00000E+00
    0.11355E-08         0.93132E-11         0.00000E+00
    0.11924E-08         0.98331E-11         0.00000E+00
    0.12530E-08         0.10389E-10         0.00000E+00
    0.13175E-08         0.10982E-10         0.00000E+00
    0.13863E-08         0.11612E-10         0.00000E+00
    0.14594E-08         0.12281E-10         0.00000E+00
    0.15370E-08         0.12990E-10         0.00000E+00
    0.16195E-08         0.13740E-10         0.00000E+00
    0.17071E-08         0.14534E-10         0.00000E+00
    0.18000E-08         0.15373E-10         0.00000E+00
    0.18986E-08         0.16258E-10         0.00000E+00
    0.20031E-08         0.17193E-10         0.00000E+00
    0.21139E-08         0.18179E-10         0.00000E+00
    0.22313E-08         0.19220E-10         0.00000E+00
    0.23556E-08         0.20317E-10         0.00000E+00
    0.24874E-08         0.21474E-10         0.00000E+00
    0.26269E-08         0.22694E-10         0.00000E+00
    0.27747E-08         0.23978E-10         0.00000E+00
    0.29312E-08         0.25332E-10         0.00000E+00
    0.30969E-08         0.26757E-10         0.00000E+00
    0.32723E-08         0.28258E-10         0.00000E+00
    0.34580E-08         0.29838E-10         0.00000E+00
    0.36546E-08         0.31500E-10         0.00000E+00
    0.38628E-08         0.33248E-10         0.00000E+00
    0.40832E-08         0.35087E-10         0.00000E+00
    0.43165E-08         0.37019E-10         0.00000E+00
    0.45634E-08         0.39049E-10         0.00000E+00
    0.48249E-08         0.41181E-10         0.00000E+00
    0.51017E-08         0.43418E-10         0.00000E+00
    0.53949E-08         0.45765E-10         0.00000E+00
    0.57052E-08         0.48226E-10         0.00000E+00
    0.60339E-08         0.50803E-10         0.00000E+00
    0.63820E-08         0.53501E-10         0.00000E+00
    0.67507E-08         0.56322E-10         0.00000E+00
    0.71412E-08         0.59269E-10         0.00000E+00
    0.75549E-08         0.62345E-10         0.00000E+00
    0.79933E-08         0.65551E-10         0.00000E+00
    0.84578E-08         0.68888E-10         0.00000E+00
    0.89502E-08         0.72354E-10         0.00000E+00
    0.94721E-08         0.75949E-10         0.00000E+00
    0.10025E-07         0.79667E-10         0.00000E+00
    0.10612E-07         0.83504E-10         0.00000E+00
    0.11235E-07         0.87449E-10         0.00000E+00
    0.11895E-07         0.91490E-10         0.00000E+00
    0.12596E-07         0.95609E-10         0.00000E+00
    0.13341E-07         0.99784E-10         0.00000E+00
    0.14131E-07         0.10398E-09         0.00000E+00
    0.14971E-07         0.10817E-09         0.00000E+00
    0.15863E-07         0.11229E-09         0.00000E+00
    0.16811E-07         0.11629E-09         0.00000E+00
    0.17820E-07         0.12008E-09         0.00000E+00
    0.18894E-07         0.12357E-09         0.00000E+00
    0.20037E-07         0.12663E-09         0.00000E+00
    0.21255E-07         0.12913E-09         0.00000E+00
    0.22553E-07         0.13087E-09         0.00000E+00
    0.23936E-07         0.13165E-09         0.00000E+00
    0.25413E-07         0.13121E-09         0.00000E+00
    0.26989E-07         0.12925E-09         0.00000E+00
    0.28673E-07         0.12543E-09         0.00000E+00
    0.30474E-07         0.11933E-09         0.00000E+00
    0.32399E-07         0.11053E-09         0.00000E+00
    0.34460E-07         0.98535E-10         0.00000E+00
    0.36666E-07         0.82842E-10         0.00000E+00
    0.39030E-07         0.62951E-10         0.00000E+00
    0.41562E-07         0.38410E-10         0.00000E+00
    0.44276E-07         0.88853E-11         0.00000E+00
    0.47186E-07        -0.25747E-10         0.00000E+00
    0.50303E-07        -0.65260E-10         0.00000E+00
    0.53643E-07        -0.10889E-09         0.00000E+00
    0.57217E-07        -0.15507E-09         0.00000E+00
    0.61037E-07        -0.20117E-09         0.00000E+00
    0.65116E-07        -0.24304E-09         0.00000E+00
    0.69460E-07        -0.27461E-09         0.00000E+00
    0.74077E-07        -0.28736E-09         0.00000E+00
    0.78969E-07        -0.26968E-09         0.00000E+00
    0.84139E-07        -0.20652E-09         0.00000E+00
    0.89595E-07        -0.80732E-10         0.00000E+00
    0.63385E-09         0.13402E-11         0.00000E+00
    0.62895E-09         0.35643E-11         0.00000E+00
    0.62599E-09         0.49926E-11         0.00000E+00
    0.62508E-09         0.58447E-11         0.00000E+00
    0.62631E-09         0.63023E-11         0.00000E+00
    0.62979E-09         0.65038E-11         0.00000E+00
    0.63561E-09         0.65501E-11         0.00000E+00
    0.64384E-09         0.65134E-11         0.00000E+00
    0.65450E-09         0.64441E-11         0.00000E+00
    0.66765E-09         0.63759E-11         0.00000E+00
    0.68330E-09         0.63308E-11         0.00000E+00
    0.70148E-09         0.63222E-11         0.00000E+00
    0.72223E-09         0.63574E-11         0.00000E+00
    0.74557E-09         0.64399E-11         0.00000E+00
    0.77156E-09         0.65707E-11         0.00000E+00
    0.80022E-09         0.67490E-11         0.00000E+00
    0.83164E-09         0.69736E-11         0.00000E+00
    0.86587E-09         0.72426E-11         0.00000E+00
    0.90299E-09         0.75542E-11         0.00000E+00
    0.94310E-09         0.79067E-11         0.00000E+00
    0.98630E-09         0.82987E-11         0.00000E+00
    0.10327E-08         0.87291E-11         0.00000E+00
    0.10824E-08         0.91972E-11         0.00000E+00
    0.11356E-08         0.97027E-11         0.00000E+00
    0.11925E-08         0.10246E-10         0.00000E+00
    0.12531E-08         0.10826E-10         0.00000E+00
    0.13177E-08         0.11445E-10         0.00000E+00
    0.13864E-08         0.12103E-10         0.00000E+00
    0.14595E-08         0.12801E-10         0.00000E+00
    0.15372E-08         0.13540E-10         0.00000E+00
    0.16197E-08         0.14323E-10         0.00000E+00
    0.17073E-08         0.15151E-10         0.00000E+00
    0.18002E-08         0.16026E-10         0.00000E+00
    0.18988E-08         0.16950E-10         0.00000E+00
    0.20033E-08         0.17925E-10         0.00000E+00
    0.21141E-08         0.18954E-10         0.00000E+00
    0.22315E-08         0.20040E-10         0.00000E+00
    0.23559E-08         0.21185E-10         0.00000E+00
    0.24876E-08         0.22392E-10         0.00000E+00
    0.26272E-08         0.23664E-10         0.00000E+00
    0.27750E-08         0.25005E-10         0.00000E+00
    0.29315E-08         0.26417E-10         0.00000E+00
    0.30972E-08         0.27905E-10         0.00000E+00
    0.32726E-08         0.29471E-10         0.00000E+00
    0.34584E-08         0.31120E-10         0.00000E+00
    0.36550E-08         0.32855E-10         0.00000E+00
    0.38632E-08         0.34680E-10         0.00000E+00
    0.40835E-08         0.36599E-10         0.00000E+00
    0.43169E-08         0.38617E-10         0.00000E+00
    0.45639E-08         0.40737E-10         0.00000E+00
    0.48253E-08         0.42963E-10         0.00000E+00
    0.51022E-08         0.45301E-10         0.00000E+00
    0.53954E-08         0.47753E-10         0.00000E+00
    0.57058E-08         0.50324E-10         0.00000E+00
    0.60345E-08         0.53018E-10         0.00000E+00
    0.63826E-08         0.55839E-10         0.00000E+00
    0.67513E-08         0.58790E-10         0.00000E+00
    0.71418E-08         0.61873E-10         0.00000E+00
    0.75556E-08         0.65093E-10         0.00000E+00
    0.79940E-08         0.68449E-10         0.00000E+00
    0.84585E-08         0.71944E-10         0.00000E+00
    0.89509E-08         0.75576E-10         0.00000E+00
    0.94728E-08         0.79345E-10         0.00000E+00
    0.10026E-07         0.83246E-10         0.00000E+00
    0.10613E-07         0.87273E-10         0.00000E+00
    0.11236E-07         0.91417E-10         0.00000E+00
    0.11896E-07         0.95666E-10         0.00000E+00
    0.12597E-07         0.10000E-09         0.00000E+00
    0.13341E-07         0.10440E-09         0.00000E+00
    0.14132E-07         0.10883E-09         0.00000E+00
    0.14971E-07         0.11325E-09         0.00000E+00
    0.15864E-07         0.11761E-09         0.00000E+00
    0.16812E-07         0.12185E-09         0.00000E+00
    0.17821E-07         0.12588E-09         0.00000E+00
    0.18895E-07         0.12960E-09         0.00000E+00
    0.20038E-07         0.13288E-09         0.00000E+00
    0.21255E-07         0.13558E-09         0.00000E+00
    0.22553E-07         0.13750E-09         0.00000E+00
    0.23936E-07         0.13842E-09         0.00000E+00
    0.25413E-07         0.13807E-09         0.00000E+00
    0.26989E-07         0.13612E-09         0.00000E+00
    0.28672E-07         0.13222E-09         0.00000E+00
    0.30472E-07         0.12595E-09         0.00000E+00
    0.32397E-07         0.11682E-09         0.00000E+00
    0.34457E-07         0.10434E-09         0.00000E+00
    0.36662E-07         0.87957E-10         0.00000E+00
    0.39025E-07         0.67144E-10         0.00000E+00
    0.41557E-07         0.41418E-10         0.00000E+00
    0.44270E-07         0.10417E-10         0.00000E+00
    0.47178E-07        -0.25994E-10         0.00000E+00
    0.50295E-07        -0.67578E-10         0.00000E+00
    0.53633E-07        -0.11353E-09         0.00000E+00
    0.57207E-07        -0.16218E-09         0.00000E+00
    0.61028E-07        -0.21073E-09         0.00000E+00
    0.65108E-07        -0.25473E-09         0.00000E+00
    0.69455E-07        -0.28772E-09         0.00000E+00
    0.74076E-07        -0.30064E-09         0.00000E+00
    0.78976E-07        -0.28133E-09         0.00000E+00
    0.84158E-07        -0.21453E-09         0.00000E+00
    0.89628E-07        -0.83587E-10         0.00000E+00
    0.63440E-09         0.13793E-11         0.00000E+00
    0.62931E-09         0.36761E-11         0.00000E+00
    0.62622E-09         0.51626E-11         0.00000E+00
    0.62520E-09         0.60538E-11         0.00000E+00
    0.62637E-09         0.65332E-11         0.00000E+00
    0.62981E-09         0.67437E-11         0.00000E+00
    0.63561E-09         0.67908E-11         0.00000E+00
    0.64382E-09         0.67508E-11         0.00000E+00
    0.65449E-09         0.66763E-11         0.00000E+00
    0.66764E-09         0.66032E-11         0.00000E+00
    0.68329E-09         0.65544E-11         0.00000E+00
    0.70149E-09         0.65437E-11         0.00000E+00
    0.72224E-09         0.65791E-11         0.00000E+00
    0.74560E-09         0.66639E-11         0.00000E+00
    0.77159E-09         0.67992E-11         0.00000E+00
    0.80027E-09         0.69842E-11         0.00000E+00
    0.83169E-09         0.72174E-11         0.00000E+00
    0.86593E-09         0.74968E-11         0.00000E+00
    0.90306E-09         0.78205E-11         0.00000E+00
    0.94318E-09         0.81867E-11         0.00000E+00
    0.98639E-09         0.85939E-11         0.00000E+00
    0.10328E-08         0.90410E-11         0.00000E+00
    0.10825E-08         0.95272E-11         0.00000E+00
    0.11358E-08         0.10052E-10         0.00000E+00
    0.11926E-08         0.10616E-10         0.00000E+00
    0.12532E-08         0.11218E-10         0.00000E+00
    0.13178E-08         0.11860E-10         0.00000E+00
    0.13865E-08         0.12543E-10         0.00000E+00
    0.14596E-08         0.13268E-10         0.00000E+00
    0.15373E-08         0.14035E-10         0.00000E+00
    0.16199E-08         0.14847E-10         0.00000E+00
    0.17075E-08         0.15706E-10         0.00000E+00
    0.18004E-08         0.16614E-10         0.00000E+00
    0.18990E-08         0.17573E-10         0.00000E+00
    0.20035E-08         0.18585E-10         0.00000E+00
    0.21143E-08         0.19652E-10         0.00000E+00
    0.22317E-08         0.20779E-10         0.00000E+00
    0.23561E-08         0.21966E-10         0.00000E+00
    0.24879E-08         0.23219E-10         0.00000E+00
    0.26275E-08         0.24539E-10         0.00000E+00
    0.27753E-08         0.25930E-10         0.00000E+00
    0.29318E-08         0.27395E-10         0.00000E+00
    0.30975E-08         0.28939E-10         0.00000E+00
    0.32729E-08         0.30565E-10         0.00000E+00
    0.34587E-08         0.32276E-10         0.00000E+00
    0.36554E-08         0.34077E-10         0.00000E+00
    0.38636E-08         0.35972E-10         0.00000E+00
    0.40840E-08         0.37964E-10         0.00000E+00
    0.43173E-08         0.40060E-10         0.00000E+00
    0.45643E-08         0.42261E-10         0.00000E+00
    0.48258E-08         0.44574E-10         0.00000E+00
    0.51027E-08         0.47002E-10         0.00000E+00
    0.53959E-08         0.49550E-10         0.00000E+00
    0.57063E-08         0.52223E-10         0.00000E+00
    0.60350E-08         0.55023E-10         0.00000E+00
    0.63831E-08         0.57956E-10         0.00000E+00
    0.67519E-08         0.61025E-10         0.00000E+00
    0.71425E-08         0.64233E-10         0.00000E+00
    0.75562E-08         0.67584E-10         0.00000E+00
    0.79946E-08         0.71079E-10         0.00000E+00
    0.84592E-08         0.74719E-10         0.00000E+00
    0.89516E-08         0.78504E-10         0.00000E+00
    0.94736E-08         0.82433E-10         0.00000E+00
    0.10027E-07         0.86503E-10         0.00000E+00
    0.10614E-07         0.90707E-10         0.00000E+00
    0.11237E-07         0.95036E-10         0.00000E+00
    0.11897E-07         0.99478E-10         0.00000E+00
    0.12598E-07         0.10401E-09         0.00000E+00
    0.13342E-07         0.10862E-09         0.00000E+00
    0.14133E-07         0.11327E-09         0.00000E+00
    0.14972E-07         0.11791E-09         0.00000E+00
    0.15865E-07         0.12250E-09         0.00000E+00
    0.16813E-07         0.12697E-09         0.00000E+00
    0.17822E-07         0.13123E-09         0.00000E+00
    0.18896E-07         0.13517E-09         0.00000E+00
    0.20038E-07         0.13868E-09         0.00000E+00
    0.21256E-07         0.14158E-09         0.00000E+00
    0.22553E-07         0.14368E-09         0.00000E+00
    0.23936E-07         0.14474E-09         0.00000E+00
    0.25412E-07         0.14448E-09         0.00000E+00
    0.26988E-07         0.14258E-09         0.00000E+00
    0.28671E-07         0.13864E-09         0.00000E+00
    0.30471E-07         0.13222E-09         0.00000E+00
    0.32395E-07         0.12282E-09         0.00000E+00
    0.34454E-07         0.10991E-09         0.00000E+00
    0.36659E-07         0.92909E-10         0.00000E+00
    0.39020E-07         0.71261E-10         0.00000E+00
    0.41551E-07         0.44450E-10         0.00000E+00
    0.44263E-07         0.12090E-10         0.00000E+00
    0.47170E-07        -0.25971E-10         0.00000E+00
    0.50286E-07        -0.69488E-10         0.00000E+00
    0.53623E-07        -0.11761E-09         0.00000E+00
    0.57197E-07        -0.16860E-09         0.00000E+00
    0.61018E-07        -0.21947E-09         0.00000E+00
    0.65100E-07        -0.26552E-09         0.00000E+00
    0.69450E-07        -0.29988E-09         0.00000E+00
    0.74076E-07        -0.31299E-09         0.00000E+00
    0.78984E-07        -0.29221E-09         0.00000E+00
    0.84177E-07        -0.22207E-09         0.00000E+00
    0.89662E-07        -0.86292E-10         0.00000E+00
    0.63495E-09         0.14147E-11         0.00000E+00
    0.62968E-09         0.37772E-11         0.00000E+00
    0.62645E-09         0.53157E-11         0.00000E+00
    0.62533E-09         0.62417E-11         0.00000E+00
    0.62643E-09         0.67402E-11         0.00000E+00
    0.62983E-09         0.69580E-11         0.00000E+00
    0.63561E-09         0.70053E-11         0.00000E+00
    0.64381E-09         0.69614E-11         0.00000E+00
    0.65447E-09         0.68818E-11         0.00000E+00
    0.66762E-09         0.68037E-11         0.00000E+00
    0.68329E-09         0.67511E-11         0.00000E+00
    0.70149E-09         0.67384E-11         0.00000E+00
    0.72225E-09         0.67737E-11         0.00000E+00
    0.74562E-09         0.68606E-11         0.00000E+00
    0.77162E-09         0.69999E-11         0.00000E+00
    0.80031E-09         0.71908E-11         0.00000E+00
    0.83174E-09         0.74317E-11         0.00000E+00
    0.86599E-09         0.77205E-11         0.00000E+00
    0.90313E-09         0.80552E-11         0.00000E+00
    0.94326E-09         0.84338E-11         0.00000E+00
    0.98648E-09         0.88547E-11         0.00000E+00
    0.10329E-08         0.93168E-11         0.00000E+00
    0.10826E-08         0.98193E-11         0.00000E+00
    0.11359E-08         0.10362E-10         0.00000E+00
    0.11927E-08         0.10944E-10         0.00000E+00
    0.12533E-08         0.11566E-10         0.00000E+00
    0.13179E-08         0.12229E-10         0.00000E+00
    0.13867E-08         0.12934E-10         0.00000E+00
    0.14598E-08         0.13682E-10         0.00000E+00
    0.15375E-08         0.14475E-10         0.00000E+00
    0.16200E-08         0.15314E-10         0.00000E+00
    0.17076E-08         0.16200E-10         0.00000E+00
    0.18006E-08         0.17137E-10         0.00000E+00
    0.18992E-08         0.18127E-10         0.00000E+00
    0.20037E-08         0.19171E-10         0.00000E+00
    0.21145E-08         0.20274E-10         0.00000E+00
    0.22319E-08         0.21436E-10         0.00000E+00
    0.23564E-08         0.22662E-10         0.00000E+00
    0.24881E-08         0.23955E-10         0.00000E+00
    0.26277E-08         0.25318E-10         0.00000E+00
    0.27755E-08         0.26754E-10         0.00000E+00
    0.29321E-08         0.28267E-10         0.00000E+00
    0.30978E-08         0.29861E-10         0.00000E+00
    0.32733E-08         0.31540E-10         0.00000E+00
    0.34591E-08         0.33307E-10         0.00000E+00
    0.36557E-08         0.35167E-10         0.00000E+00
    0.38639E-08         0.37124E-10         0.00000E+00
    0.40844E-08         0.39183E-10         0.00000E+00
    0.43177E-08         0.41348E-10         0.00000E+00
    0.45648E-08         0.43623E-10         0.00000E+00
    0.48263E-08         0.46013E-10         0.00000E+00
    0.51032E-08         0.48523E-10         0.00000E+00
    0.53964E-08         0.51158E-10         0.00000E+00
    0.57068E-08         0.53921E-10         0.00000E+00
    0.60356E-08         0.56818E-10         0.00000E+00
    0.63838E-08         0.59852E-10         0.00000E+00
    0.67525E-08         0.63028E-10         0.00000E+00
    0.71431E-08         0.66350E-10         0.00000E+00
    0.75569E-08         0.69819E-10         0.00000E+00
    0.79954E-08         0.73440E-10         0.00000E+00
    0.84600E-08         0.77212E-10         0.00000E+00
    0.89524E-08         0.81137E-10         0.00000E+00
    0.94744E-08         0.85214E-10         0.00000E+00
    0.10028E-07         0.89438E-10         0.00000E+00
    0.10615E-07         0.93805E-10         0.00000E+00
    0.11237E-07         0.98305E-10         0.00000E+00
    0.11898E-07         0.10293E-09         0.00000E+00
    0.12599E-07         0.10765E-09         0.00000E+00
    0.13343E-07         0.11245E-09         0.00000E+00
    0.14134E-07         0.11730E-09         0.00000E+00
    0.14973E-07         0.12215E-09         0.00000E+00
    0.15865E-07         0.12696E-09         0.00000E+00
    0.16814E-07         0.13164E-09         0.00000E+00
    0.17823E-07         0.13612E-09         0.00000E+00
    0.18896E-07         0.14029E-09         0.00000E+00
    0.20039E-07         0.14401E-09         0.00000E+00
    0.21256E-07         0.14711E-09         0.00000E+00
    0.22553E-07         0.14939E-09         0.00000E+00
    0.23937E-07         0.15060E-09         0.00000E+00
    0.25412E-07         0.15046E-09         0.00000E+00
    0.26988E-07         0.14862E-09         0.00000E+00
    0.28670E-07         0.14466E-09         0.00000E+00
    0.30469E-07         0.13813E-09         0.00000E+00
    0.32393E-07         0.12851E-09         0.00000E+00
    0.34451E-07         0.11523E-09         0.00000E+00
    0.36655E-07         0.97690E-10         0.00000E+00
    0.39015E-07         0.75296E-10         0.00000E+00
    0.41545E-07         0.47504E-10         0.00000E+00
    0.44256E-07         0.13902E-10         0.00000E+00
    0.47162E-07        -0.25676E-10         0.00000E+00
    0.50276E-07        -0.70983E-10         0.00000E+00
    0.53613E-07        -0.12114E-09         0.00000E+00
    0.57186E-07        -0.17432E-09         0.00000E+00
    0.61008E-07        -0.22738E-09         0.00000E+00
    0.65091E-07        -0.27538E-09         0.00000E+00
    0.69444E-07        -0.31108E-09         0.00000E+00
    0.74077E-07        -0.32445E-09         0.00000E+00
    0.78993E-07        -0.30237E-09         0.00000E+00
    0.84198E-07        -0.22918E-09         0.00000E+00
    0.89697E-07        -0.88862E-10         0.00000E+00
    0.63553E-09         0.14467E-11         0.00000E+00
    0.63007E-09         0.38681E-11         0.00000E+00
    0.62669E-09         0.54527E-11         0.00000E+00
    0.62547E-09         0.64090E-11         0.00000E+00
    0.62650E-09         0.69236E-11         0.00000E+00
    0.62986E-09         0.71472E-11         0.00000E+00
    0.63561E-09         0.71936E-11         0.00000E+00
    0.64379E-09         0.71455E-11         0.00000E+00
    0.65445E-09         0.70606E-11         0.00000E+00
    0.66761E-09         0.69776E-11         0.00000E+00
    0.68328E-09         0.69212E-11         0.00000E+00
    0.70149E-09         0.69064E-11         0.00000E+00
    0.72227E-09         0.69415E-11         0.00000E+00
    0.74564E-09         0.70300E-11         0.00000E+00
    0.77165E-09         0.71729E-11         0.00000E+00
    0.80035E-09         0.73691E-11         0.00000E+00
    0.83180E-09         0.76169E-11         0.00000E+00
    0.86605E-09         0.79142E-11         0.00000E+00
    0.90320E-09         0.82586E-11         0.00000E+00
    0.94334E-09         0.86482E-11         0.00000E+00
    0.98656E-09         0.90814E-11         0.00000E+00
    0.10330E-08         0.95569E-11         0.00000E+00
    0.10828E-08         0.10074E-10         0.00000E+00
    0.11360E-08         0.10632E-10         0.00000E+00
    0.11928E-08         0.11230E-10         0.00000E+00
    0.12535E-08         0.11870E-10         0.00000E+00
    0.13181E-08         0.12552E-10         0.00000E+00
    0.13868E-08         0.13277E-10         0.00000E+00
    0.14600E-08         0.14046E-10         0.00000E+00
    0.15377E-08         0.14860E-10         0.00000E+00
    0.16202E-08         0.15722E-10         0.00000E+00
    0.17078E-08         0.16633E-10         0.00000E+00
    0.18008E-08         0.17596E-10         0.00000E+00
    0.18994E-08         0.18613E-10         0.00000E+00
    0.20039E-08         0.19686E-10         0.00000E+00
    0.21148E-08         0.20819E-10         0.00000E+00
    0.22322E-08         0.22013E-10         0.00000E+00
    0.23566E-08         0.23273E-10         0.00000E+00
    0.24884E-08         0.24602E-10         0.00000E+00
    0.26280E-08         0.26002E-10         0.00000E+00
    0.27758E-08         0.27478E-10         0.00000E+00
    0.29324E-08         0.29034E-10         0.00000E+00
    0.30981E-08         0.30672E-10         0.00000E+00
    0.32736E-08         0.32397E-10         0.00000E+00
    0.34594E-08         0.34214E-10         0.00000E+00
    0.36561E-08         0.36126E-10         0.00000E+00
    0.38644E-08         0.38139E-10         0.00000E+00
    0.40848E-08         0.40256E-10         0.00000E+00
    0.43182E-08         0.42482E-10         0.00000E+00
    0.45652E-08         0.44822E-10         0.00000E+00
    0.48268E-08         0.47282E-10         0.00000E+00
    0.51037E-08         0.49864E-10         0.00000E+00
    0.53969E-08         0.52576E-10         0.00000E+00
    0.57074E-08         0.55420E-10         0.00000E+00
    0.60362E-08         0.58403E-10         0.00000E+00
    0.63844E-08         0.61528E-10         0.00000E+00
    0.67532E-08         0.64800E-10         0.00000E+00
    0.71438E-08         0.68222E-10         0.00000E+00
    0.75577E-08         0.71799E-10         0.00000E+00
    0.79961E-08         0.75533E-10         0.00000E+00
    0.84608E-08         0.79425E-10         0.00000E+00
    0.89532E-08         0.83476E-10         0.00000E+00
    0.94753E-08         0.87686E-10         0.00000E+00
    0.10029E-07         0.92051E-10         0.00000E+00
    0.10616E-07         0.96567E-10         0.00000E+00
    0.11238E-07         0.10122E-09         0.00000E+00
    0.11899E-07         0.10601E-09         0.00000E+00
    0.12600E-07         0.11091E-09         0.00000E+00
    0.13344E-07         0.11589E-09         0.00000E+00
    0.14135E-07         0.12093E-09         0.00000E+00
    0.14974E-07         0.12598E-09         0.00000E+00
    0.15866E-07         0.13098E-09         0.00000E+00
    0.16815E-07         0.13588E-09         0.00000E+00
    0.17824E-07         0.14057E-09         0.00000E+00
    0.18897E-07         0.14494E-09         0.00000E+00
    0.20040E-07         0.14887E-09         0.00000E+00
    0.21257E-07         0.15217E-09         0.00000E+00
    0.22554E-07         0.15463E-09         0.00000E+00
    0.23937E-07         0.15601E-09         0.00000E+00
    0.25412E-07         0.15599E-09         0.00000E+00
    0.26987E-07         0.15422E-09         0.00000E+00
    0.28669E-07         0.15028E-09         0.00000E+00
    0.30467E-07         0.14368E-09         0.00000E+00
    0.32390E-07         0.13388E-09         0.00000E+00
    0.34448E-07         0.12029E-09         0.00000E+00
    0.36651E-07         0.10229E-09         0.00000E+00
    0.39010E-07         0.79238E-10         0.00000E+00
    0.41539E-07         0.50572E-10         0.00000E+00
    0.44248E-07         0.15850E-10         0.00000E+00
    0.47153E-07        -0.25109E-10         0.00000E+00
    0.50267E-07        -0.72061E-10         0.00000E+00
    0.53603E-07        -0.12410E-09         0.00000E+00
    0.57175E-07        -0.17932E-09         0.00000E+00
    0.60998E-07        -0.23445E-09         0.00000E+00
    0.65082E-07        -0.28432E-09         0.00000E+00
    0.69439E-07        -0.32134E-09         0.00000E+00
    0.74077E-07        -0.33503E-09         0.00000E+00
    0.79002E-07        -0.31184E-09         0.00000E+00
    0.84218E-07        -0.23588E-09         0.00000E+00
    0.89733E-07        -0.91312E-10         0.00000E+00
    0.63611E-09         0.14754E-11         0.00000E+00
    0.63046E-09         0.39492E-11         0.00000E+00
    0.62694E-09         0.55739E-11         0.00000E+00
    0.62561E-09         0.65561E-11         0.00000E+00
    0.62657E-09         0.70839E-11         0.00000E+00
    0.62988E-09         0.73113E-11         0.00000E+00
    0.63560E-09         0.73559E-11         0.00000E+00
    0.64378E-09         0.73033E-11         0.00000E+00
    0.65443E-09         0.72130E-11         0.00000E+00
    0.66759E-09         0.71250E-11         0.00000E+00
    0.68327E-09         0.70648E-11         0.00000E+00
    0.70149E-09         0.70479E-11         0.00000E+00
    0.72228E-09         0.70826E-11         0.00000E+00
    0.74566E-09         0.71725E-11         0.00000E+00
    0.77169E-09         0.73184E-11         0.00000E+00
    0.80040E-09         0.75193E-11         0.00000E+00
    0.83185E-09         0.77732E-11         0.00000E+00
    0.86612E-09         0.80779E-11         0.00000E+00
    0.90328E-09         0.84309E-11         0.00000E+00
    0.94342E-09         0.88303E-11         0.00000E+00
    0.98666E-09         0.92742E-11         0.00000E+00
    0.10331E-08         0.97614E-11         0.00000E+00
    0.10829E-08         0.10291E-10         0.00000E+00
    0.11361E-08         0.10862E-10         0.00000E+00
    0.11930E-08         0.11475E-10         0.00000E+00
    0.12536E-08         0.12131E-10         0.00000E+00
    0.13182E-08         0.12829E-10         0.00000E+00
    0.13870E-08         0.13570E-10         0.00000E+00
    0.14601E-08         0.14357E-10         0.00000E+00
    0.15378E-08         0.15191E-10         0.00000E+00
    0.16204E-08         0.16073E-10         0.00000E+00
    0.17080E-08         0.17005E-10         0.00000E+00
    0.18010E-08         0.17990E-10         0.00000E+00
    0.18996E-08         0.19031E-10         0.00000E+00
    0.20042E-08         0.20129E-10         0.00000E+00
    0.21150E-08         0.21288E-10         0.00000E+00
    0.22324E-08         0.22510E-10         0.00000E+00
    0.23569E-08         0.23800E-10         0.00000E+00
    0.24887E-08         0.25159E-10         0.00000E+00
    0.26283E-08         0.26592E-10         0.00000E+00
    0.27762E-08         0.28103E-10         0.00000E+00
    0.29327E-08         0.29694E-10         0.00000E+00
    0.30985E-08         0.31371E-10         0.00000E+00
    0.32740E-08         0.33137E-10         0.00000E+00
    0.34598E-08         0.34997E-10         0.00000E+00
    0.36565E-08         0.36955E-10         0.00000E+00
    0.38648E-08         0.39015E-10         0.00000E+00
    0.40852E-08         0.41183E-10         0.00000E+00
    0.43186E-08         0.43463E-10         0.00000E+00
    0.45657E-08         0.45860E-10         0.00000E+00
    0.48273E-08         0.48380E-10         0.00000E+00
    0.51043E-08         0.51026E-10         0.00000E+00
    0.53975E-08         0.53805E-10         0.00000E+00
    0.57080E-08         0.56721E-10         0.00000E+00
    0.60368E-08         0.59779E-10         0.00000E+00
    0.63850E-08         0.62984E-10         0.00000E+00
    0.67539E-08         0.66340E-10         0.00000E+00
    0.71445E-08         0.69852E-10         0.00000E+00
    0.75584E-08         0.73524E-10         0.00000E+00
    0.79969E-08         0.77358E-10         0.00000E+00
    0.84616E-08         0.81357E-10         0.00000E+00
    0.89541E-08         0.85521E-10         0.00000E+00
    0.94761E-08         0.89851E-10         0.00000E+00
    0.10030E-07         0.94343E-10         0.00000E+00
    0.10617E-07         0.98992E-10         0.00000E+00
    0.11239E-07         0.10379E-09         0.00000E+00
    0.11900E-07         0.10873E-09         0.00000E+00
    0.12601E-07         0.11378E-09         0.00000E+00
    0.13345E-07         0.11893E-09         0.00000E+00
    0.14136E-07         0.12414E-09         0.00000E+00
    0.14975E-07         0.12937E-09         0.00000E+00
    0.15867E-07         0.13457E-09         0.00000E+00
    0.16816E-07         0.13966E-09         0.00000E+00
    0.17825E-07         0.14455E-09         0.00000E+00
    0.18898E-07         0.14913E-09         0.00000E+00
    0.20041E-07         0.15325E-09         0.00000E+00
    0.21258E-07         0.15675E-09         0.00000E+00
    0.22554E-07         0.15939E-09         0.00000E+00
    0.23937E-07         0.16093E-09         0.00000E+00
    0.25412E-07         0.16105E-09         0.00000E+00
    0.26986E-07         0.15938E-09         0.00000E+00
    0.28668E-07         0.15548E-09         0.00000E+00
    0.30466E-07         0.14885E-09         0.00000E+00
    0.32388E-07         0.13892E-09         0.00000E+00
    0.34445E-07         0.12509E-09         0.00000E+00
    0.36647E-07         0.10669E-09         0.00000E+00
    0.39005E-07         0.83079E-10         0.00000E+00
    0.41532E-07         0.53646E-10         0.00000E+00
    0.44241E-07         0.17929E-10         0.00000E+00
    0.47144E-07        -0.24273E-10         0.00000E+00
    0.50256E-07        -0.72720E-10         0.00000E+00
    0.53592E-07        -0.12648E-09         0.00000E+00
    0.57164E-07        -0.18360E-09         0.00000E+00
    0.60987E-07        -0.24067E-09         0.00000E+00
    0.65073E-07        -0.29232E-09         0.00000E+00
    0.69433E-07        -0.33065E-09         0.00000E+00
    0.74077E-07        -0.34475E-09         0.00000E+00
    0.79011E-07        -0.32065E-09         0.00000E+00
    0.84240E-07        -0.24221E-09         0.00000E+00
    0.89770E-07        -0.93650E-10         0.00000E+00
    0.63671E-09         0.15010E-11         0.00000E+00
    0.63087E-09         0.40209E-11         0.00000E+00
    0.62719E-09         0.56798E-11         0.00000E+00
    0.62575E-09         0.66833E-11         0.00000E+00
    0.62663E-09         0.72212E-11         0.00000E+00
    0.62990E-09         0.74506E-11         0.00000E+00
    0.63560E-09         0.74924E-11         0.00000E+00
    0.64376E-09         0.74348E-11         0.00000E+00
    0.65441E-09         0.73390E-11         0.00000E+00
    0.66758E-09         0.72461E-11         0.00000E+00
    0.68326E-09         0.71823E-11         0.00000E+00
    0.70149E-09         0.71632E-11         0.00000E+00
    0.72229E-09         0.71974E-11         0.00000E+00
    0.74569E-09         0.72884E-11         0.00000E+00
    0.77172E-09         0.74369E-11         0.00000E+00
    0.80044E-09         0.76418E-11         0.00000E+00
    0.83191E-09         0.79010E-11         0.00000E+00
    0.86618E-09         0.82120E-11         0.00000E+00
    0.90335E-09         0.85725E-11         0.00000E+00
    0.94351E-09         0.89803E-11         0.00000E+00
    0.98675E-09         0.94335E-11         0.00000E+00
    0.10332E-08         0.99307E-11         0.00000E+00
    0.10830E-08         0.10471E-10         0.00000E+00
    0.11362E-08         0.11054E-10         0.00000E+00
    0.11931E-08         0.11679E-10         0.00000E+00
    0.12537E-08         0.12348E-10         0.00000E+00
    0.13184E-08         0.13059E-10         0.00000E+00
    0.13871E-08         0.13816E-10         0.00000E+00
    0.14603E-08         0.14618E-10         0.00000E+00
    0.15380E-08         0.15468E-10         0.00000E+00
    0.16206E-08         0.16367E-10         0.00000E+00
    0.17082E-08         0.17317E-10         0.00000E+00
    0.18012E-08         0.18321E-10         0.00000E+00
    0.18998E-08         0.19381E-10         0.00000E+00
    0.20044E-08         0.20501E-10         0.00000E+00
    0.21152E-08         0.21682E-10         0.00000E+00
    0.22327E-08         0.22928E-10         0.00000E+00
    0.23571E-08         0.24242E-10         0.00000E+00
    0.24890E-08         0.25627E-10         0.00000E+00
    0.26286E-08         0.27088E-10         0.00000E+00
    0.27765E-08         0.28628E-10         0.00000E+00
    0.29330E-08         0.30250E-10         0.00000E+00
    0.30988E-08         0.31960E-10         0.00000E+00
    0.32744E-08         0.33761E-10         0.00000E+00
    0.34602E-08         0.35657E-10         0.00000E+00
    0.36569E-08         0.37653E-10         0.00000E+00
    0.38652E-08         0.39755E-10         0.00000E+00
    0.40857E-08         0.41966E-10         0.00000E+00
    0.43191E-08         0.44292E-10         0.00000E+00
    0.45662E-08         0.46737E-10         0.00000E+00
    0.48278E-08         0.49308E-10         0.00000E+00
    0.51048E-08         0.52009E-10         0.00000E+00
    0.53981E-08         0.54846E-10         0.00000E+00
    0.57086E-08         0.57823E-10         0.00000E+00
    0.60374E-08         0.60946E-10         0.00000E+00
    0.63857E-08         0.64220E-10         0.00000E+00
    0.67545E-08         0.67650E-10         0.00000E+00
    0.71452E-08         0.71240E-10         0.00000E+00
    0.75592E-08         0.74994E-10         0.00000E+00
    0.79977E-08         0.78916E-10         0.00000E+00
    0.84624E-08         0.83008E-10         0.00000E+00
    0.89549E-08         0.87272E-10         0.00000E+00
    0.94770E-08         0.91707E-10         0.00000E+00
    0.10031E-07         0.96311E-10         0.00000E+00
    0.10618E-07         0.10108E-09         0.00000E+00
    0.11240E-07         0.10601E-09         0.00000E+00
    0.11901E-07         0.11108E-09         0.00000E+00
    0.12602E-07         0.11627E-09         0.00000E+00
    0.13346E-07         0.12157E-09         0.00000E+00
    0.14137E-07         0.12694E-09         0.00000E+00
    0.14976E-07         0.13234E-09         0.00000E+00
    0.15869E-07         0.13771E-09         0.00000E+00
    0.16817E-07         0.14299E-09         0.00000E+00
    0.17826E-07         0.14806E-09         0.00000E+00
    0.18899E-07         0.15284E-09         0.00000E+00
    0.20041E-07         0.15715E-09         0.00000E+00
    0.21258E-07         0.16084E-09         0.00000E+00
    0.22555E-07         0.16367E-09         0.00000E+00
    0.23937E-07         0.16538E-09         0.00000E+00
    0.25412E-07         0.16565E-09         0.00000E+00
    0.26986E-07         0.16409E-09         0.00000E+00
    0.28667E-07         0.16025E-09         0.00000E+00
    0.30464E-07         0.15362E-09         0.00000E+00
    0.32386E-07         0.14362E-09         0.00000E+00
    0.34441E-07         0.12960E-09         0.00000E+00
    0.36642E-07         0.11089E-09         0.00000E+00
    0.39000E-07         0.86807E-10         0.00000E+00
    0.41526E-07         0.56717E-10         0.00000E+00
    0.44233E-07         0.20131E-10         0.00000E+00
    0.47135E-07        -0.23172E-10         0.00000E+00
    0.50246E-07        -0.72959E-10         0.00000E+00
    0.53580E-07        -0.12829E-09         0.00000E+00
    0.57152E-07        -0.18715E-09         0.00000E+00
    0.60975E-07        -0.24604E-09         0.00000E+00
    0.65063E-07        -0.29939E-09         0.00000E+00
    0.69427E-07        -0.33901E-09         0.00000E+00
    0.74077E-07        -0.35362E-09         0.00000E+00
    0.79020E-07        -0.32882E-09         0.00000E+00
    0.84262E-07        -0.24818E-09         0.00000E+00
    0.89808E-07        -0.95887E-10         0.00000E+00
    0.63731E-09         0.15236E-11         0.00000E+00
    0.63128E-09         0.40834E-11         0.00000E+00
    0.62745E-09         0.57709E-11         0.00000E+00
    0.62590E-09         0.67910E-11         0.00000E+00
    0.62671E-09         0.73357E-11         0.00000E+00
    0.62992E-09         0.75652E-11         0.00000E+00
    0.63559E-09         0.76033E-11         0.00000E+00
    0.64374E-09         0.75402E-11         0.00000E+00
    0.65439E-09         0.74388E-11         0.00000E+00
    0.66756E-09         0.73411E-11         0.00000E+00
    0.68325E-09         0.72737E-11         0.00000E+00
    0.70149E-09         0.72525E-11         0.00000E+00
    0.72230E-09         0.72860E-11         0.00000E+00
    0.74571E-09         0.73778E-11         0.00000E+00
    0.77176E-09         0.75285E-11         0.00000E+00
    0.80049E-09         0.77368E-11         0.00000E+00
    0.83196E-09         0.80004E-11         0.00000E+00
    0.86625E-09         0.83169E-11         0.00000E+00
    0.90343E-09         0.86837E-11         0.00000E+00
    0.94360E-09         0.90985E-11         0.00000E+00
    0.98685E-09         0.95594E-11         0.00000E+00
    0.10333E-08         0.10065E-10         0.00000E+00
    0.10831E-08         0.10614E-10         0.00000E+00
    0.11363E-08         0.11207E-10         0.00000E+00
    0.11932E-08         0.11842E-10         0.00000E+00
    0.12539E-08         0.12521E-10         0.00000E+00
    0.13185E-08         0.13245E-10         0.00000E+00
    0.13873E-08         0.14013E-10         0.00000E+00
    0.14604E-08         0.14828E-10         0.00000E+00
    0.15382E-08         0.15691E-10         0.00000E+00
    0.16208E-08         0.16604E-10         0.00000E+00
    0.17084E-08         0.17569E-10         0.00000E+00
    0.18014E-08         0.18588E-10         0.00000E+00
    0.19000E-08         0.19665E-10         0.00000E+00
    0.20046E-08         0.20802E-10         0.00000E+00
    0.21155E-08         0.22001E-10         0.00000E+00
    0.22330E-08         0.23266E-10         0.00000E+00
    0.23574E-08         0.24600E-10         0.00000E+00
    0.24893E-08         0.26007E-10         0.00000E+00
    0.26289E-08         0.27491E-10         0.00000E+00
    0.27768E-08         0.29054E-10         0.00000E+00
    0.29334E-08         0.30702E-10         0.00000E+00
    0.30992E-08         0.32438E-10         0.00000E+00
    0.32747E-08         0.34267E-10         0.00000E+00
    0.34606E-08         0.36194E-10         0.00000E+00
    0.36573E-08         0.38222E-10         0.00000E+00
    0.38656E-08         0.40357E-10         0.00000E+00
    0.40861E-08         0.42604E-10         0.00000E+00
    0.43196E-08         0.44968E-10         0.00000E+00
    0.45667E-08         0.47454E-10         0.00000E+00
    0.48284E-08         0.50068E-10         0.00000E+00
    0.51054E-08         0.52814E-10         0.00000E+00
    0.53987E-08         0.55699E-10         0.00000E+00
    0.57092E-08         0.58728E-10         0.00000E+00
    0.60381E-08         0.61905E-10         0.00000E+00
    0.63864E-08         0.65237E-10         0.00000E+00
    0.67553E-08         0.68729E-10         0.00000E+00
    0.71460E-08         0.72385E-10         0.00000E+00
    0.75599E-08         0.76210E-10         0.00000E+00
    0.79985E-08         0.80207E-10         0.00000E+00
    0.84632E-08         0.84379E-10         0.00000E+00
    0.89558E-08         0.88729E-10         0.00000E+00
    0.94780E-08         0.93255E-10         0.00000E+00
    0.10032E-07         0.97957E-10         0.00000E+00
    0.10619E-07         0.10283E-09         0.00000E+00
    0.11241E-07         0.10787E-09         0.00000E+00
    0.11902E-07         0.11306E-09         0.00000E+00
    0.12603E-07         0.11838E-09         0.00000E+00
    0.13347E-07         0.12382E-09         0.00000E+00
    0.14138E-07         0.12933E-09         0.00000E+00
    0.14977E-07         0.13488E-09         0.00000E+00
    0.15870E-07         0.14041E-09         0.00000E+00
    0.16818E-07         0.14585E-09         0.00000E+00
    0.17827E-07         0.15111E-09         0.00000E+00
    0.18900E-07         0.15606E-09         0.00000E+00
    0.20042E-07         0.16057E-09         0.00000E+00
    0.21259E-07         0.16444E-09         0.00000E+00
    0.22555E-07         0.16745E-09         0.00000E+00
    0.23937E-07         0.16933E-09         0.00000E+00
    0.25412E-07         0.16976E-09         0.00000E+00
    0.26985E-07         0.16832E-09         0.00000E+00
    0.28666E-07         0.16458E-09         0.00000E+00
    0.30462E-07         0.15799E-09         0.00000E+00
    0.32383E-07         0.14796E-09         0.00000E+00
    0.34438E-07         0.13382E-09         0.00000E+00
    0.36638E-07         0.11487E-09         0.00000E+00
    0.38994E-07         0.90407E-10         0.00000E+00
    0.41519E-07         0.59772E-10         0.00000E+00
    0.44225E-07         0.22447E-10         0.00000E+00
    0.47126E-07        -0.21810E-10         0.00000E+00
    0.50235E-07        -0.72780E-10         0.00000E+00
    0.53568E-07        -0.12951E-09         0.00000E+00
    0.57140E-07        -0.18996E-09         0.00000E+00
    0.60963E-07        -0.25054E-09         0.00000E+00
    0.65053E-07        -0.30551E-09         0.00000E+00
    0.69421E-07        -0.34643E-09         0.00000E+00
    0.74077E-07        -0.36165E-09         0.00000E+00
    0.79030E-07        -0.33636E-09         0.00000E+00
    0.84285E-07        -0.25381E-09         0.00000E+00
    0.89847E-07        -0.98026E-10         0.00000E+00
    0.63792E-09         0.15433E-11         0.00000E+00
    0.63169E-09         0.41370E-11         0.00000E+00
    0.62771E-09         0.58472E-11         0.00000E+00
    0.62605E-09         0.68795E-11         0.00000E+00
    0.62678E-09         0.74278E-11         0.00000E+00
    0.62994E-09         0.76554E-11         0.00000E+00
    0.63558E-09         0.76886E-11         0.00000E+00
    0.64372E-09         0.76197E-11         0.00000E+00
    0.65437E-09         0.75127E-11         0.00000E+00
    0.66754E-09         0.74102E-11         0.00000E+00
    0.68324E-09         0.73393E-11         0.00000E+00
    0.70149E-09         0.73160E-11         0.00000E+00
    0.72232E-09         0.73488E-11         0.00000E+00
    0.74574E-09         0.74411E-11         0.00000E+00
    0.77179E-09         0.75935E-11         0.00000E+00
    0.80054E-09         0.78045E-11         0.00000E+00
    0.83202E-09         0.80718E-11         0.00000E+00
    0.86632E-09         0.83928E-11         0.00000E+00
    0.90351E-09         0.87647E-11         0.00000E+00
    0.94368E-09         0.91852E-11         0.00000E+00
    0.98694E-09         0.96525E-11         0.00000E+00
    0.10334E-08         0.10165E-10         0.00000E+00
    0.10832E-08         0.10721E-10         0.00000E+00
    0.11365E-08         0.11322E-10         0.00000E+00
    0.11933E-08         0.11965E-10         0.00000E+00
    0.12540E-08         0.12653E-10         0.00000E+00
    0.13187E-08         0.13385E-10         0.00000E+00
    0.13875E-08         0.14162E-10         0.00000E+00
    0.14606E-08         0.14987E-10         0.00000E+00
    0.15384E-08         0.15860E-10         0.00000E+00
    0.16209E-08         0.16784E-10         0.00000E+00
    0.17086E-08         0.17761E-10         0.00000E+00
    0.18016E-08         0.18793E-10         0.00000E+00
    0.19003E-08         0.19882E-10         0.00000E+00
    0.20049E-08         0.21032E-10         0.00000E+00
    0.21157E-08         0.22245E-10         0.00000E+00
    0.22332E-08         0.23525E-10         0.00000E+00
    0.23577E-08         0.24875E-10         0.00000E+00
    0.24895E-08         0.26299E-10         0.00000E+00
    0.26292E-08         0.27800E-10         0.00000E+00
    0.27771E-08         0.29383E-10         0.00000E+00
    0.29337E-08         0.31050E-10         0.00000E+00
    0.30995E-08         0.32807E-10         0.00000E+00
    0.32751E-08         0.34659E-10         0.00000E+00
    0.34610E-08         0.36609E-10         0.00000E+00
    0.36578E-08         0.38662E-10         0.00000E+00
    0.38661E-08         0.40824E-10         0.00000E+00
    0.40866E-08         0.43099E-10         0.00000E+00
    0.43201E-08         0.45493E-10         0.00000E+00
    0.45672E-08         0.48011E-10         0.00000E+00
    0.48289E-08         0.50659E-10         0.00000E+00
    0.51059E-08         0.53442E-10         0.00000E+00
    0.53993E-08         0.56365E-10         0.00000E+00
    0.57099E-08         0.59435E-10         0.00000E+00
    0.60388E-08         0.62657E-10         0.00000E+00
    0.63871E-08         0.66037E-10         0.00000E+00
    0.67560E-08         0.69579E-10         0.00000E+00
    0.71467E-08         0.73289E-10         0.00000E+00
    0.75607E-08         0.77172E-10         0.00000E+00
    0.79993E-08         0.81231E-10         0.00000E+00
    0.84641E-08         0.85470E-10         0.00000E+00
    0.89567E-08         0.89891E-10         0.00000E+00
    0.94789E-08         0.94495E-10         0.00000E+00
    0.10033E-07         0.99279E-10         0.00000E+00
    0.10620E-07         0.10424E-09         0.00000E+00
    0.11242E-07         0.10937E-09         0.00000E+00
    0.11903E-07         0.11467E-09         0.00000E+00
    0.12604E-07         0.12010E-09         0.00000E+00
    0.13349E-07         0.12566E-09         0.00000E+00
    0.14139E-07         0.13130E-09         0.00000E+00
    0.14979E-07         0.13699E-09         0.00000E+00
    0.15871E-07         0.14267E-09         0.00000E+00
    0.16819E-07         0.14826E-09         0.00000E+00
    0.17828E-07         0.15368E-09         0.00000E+00
    0.18901E-07         0.15880E-09         0.00000E+00
    0.20043E-07         0.16348E-09         0.00000E+00
    0.21260E-07         0.16753E-09         0.00000E+00
    0.22556E-07         0.17072E-09         0.00000E+00
    0.23938E-07         0.17278E-09         0.00000E+00
    0.25412E-07         0.17337E-09         0.00000E+00
    0.26985E-07         0.17208E-09         0.00000E+00
    0.28665E-07         0.16845E-09         0.00000E+00
    0.30461E-07         0.16194E-09         0.00000E+00
    0.32381E-07         0.15192E-09         0.00000E+00
    0.34435E-07         0.13772E-09         0.00000E+00
    0.36634E-07         0.11861E-09         0.00000E+00
    0.38989E-07         0.93866E-10         0.00000E+00
    0.41512E-07         0.62799E-10         0.00000E+00
    0.44217E-07         0.24866E-10         0.00000E+00
    0.47116E-07        -0.20198E-10         0.00000E+00
    0.50224E-07        -0.72189E-10         0.00000E+00
    0.53556E-07        -0.13016E-09         0.00000E+00
    0.57127E-07        -0.19204E-09         0.00000E+00
    0.60951E-07        -0.25417E-09         0.00000E+00
    0.65043E-07        -0.31068E-09         0.00000E+00
    0.69415E-07        -0.35290E-09         0.00000E+00
    0.74078E-07        -0.36883E-09         0.00000E+00
    0.79040E-07        -0.34329E-09         0.00000E+00
    0.84309E-07        -0.25910E-09         0.00000E+00
    0.89887E-07        -0.10007E-09         0.00000E+00
    0.63855E-09         0.15601E-11         0.00000E+00
    0.63212E-09         0.41818E-11         0.00000E+00
    0.62797E-09         0.59091E-11         0.00000E+00
    0.62620E-09         0.69487E-11         0.00000E+00
    0.62685E-09         0.74974E-11         0.00000E+00
    0.62996E-09         0.77212E-11         0.00000E+00
    0.63558E-09         0.77486E-11         0.00000E+00
    0.64370E-09         0.76734E-11         0.00000E+00
    0.65435E-09         0.75607E-11         0.00000E+00
    0.66752E-09         0.74537E-11         0.00000E+00
    0.68323E-09         0.73794E-11         0.00000E+00
    0.70150E-09         0.73540E-11         0.00000E+00
    0.72233E-09         0.73860E-11         0.00000E+00
    0.74576E-09         0.74786E-11         0.00000E+00
    0.77183E-09         0.76323E-11         0.00000E+00
    0.80059E-09         0.78454E-11         0.00000E+00
    0.83208E-09         0.81156E-11         0.00000E+00
    0.86639E-09         0.84400E-11         0.00000E+00
    0.90359E-09         0.88159E-11         0.00000E+00
    0.94377E-09         0.92408E-11         0.00000E+00
    0.98704E-09         0.97128E-11         0.00000E+00
    0.10335E-08         0.10230E-10         0.00000E+00
    0.10833E-08         0.10792E-10         0.00000E+00
    0.11366E-08         0.11398E-10         0.00000E+00
    0.11935E-08         0.12048E-10         0.00000E+00
    0.12542E-08         0.12742E-10         0.00000E+00
    0.13188E-08         0.13480E-10         0.00000E+00
    0.13876E-08         0.14265E-10         0.00000E+00
    0.14608E-08         0.15096E-10         0.00000E+00
    0.15385E-08         0.15977E-10         0.00000E+00
    0.16211E-08         0.16909E-10         0.00000E+00
    0.17088E-08         0.17894E-10         0.00000E+00
    0.18018E-08         0.18934E-10         0.00000E+00
    0.19005E-08         0.20033E-10         0.00000E+00
    0.20051E-08         0.21192E-10         0.00000E+00
    0.21160E-08         0.22416E-10         0.00000E+00
    0.22335E-08         0.23706E-10         0.00000E+00
    0.23580E-08         0.25068E-10         0.00000E+00
    0.24898E-08         0.26504E-10         0.00000E+00
    0.26295E-08         0.28017E-10         0.00000E+00
    0.27774E-08         0.29613E-10         0.00000E+00
    0.29341E-08         0.31295E-10         0.00000E+00
    0.30999E-08         0.33068E-10         0.00000E+00
    0.32755E-08         0.34935E-10         0.00000E+00
    0.34614E-08         0.36902E-10         0.00000E+00
    0.36582E-08         0.38974E-10         0.00000E+00
    0.38665E-08         0.41155E-10         0.00000E+00
    0.40871E-08         0.43451E-10         0.00000E+00
    0.43206E-08         0.45868E-10         0.00000E+00
    0.45677E-08         0.48410E-10         0.00000E+00
    0.48294E-08         0.51083E-10         0.00000E+00
    0.51065E-08         0.53893E-10         0.00000E+00
    0.53999E-08         0.56846E-10         0.00000E+00
    0.57105E-08         0.59947E-10         0.00000E+00
    0.60394E-08         0.63203E-10         0.00000E+00
    0.63878E-08         0.66618E-10         0.00000E+00
    0.67567E-08         0.70200E-10         0.00000E+00
    0.71475E-08         0.73952E-10         0.00000E+00
    0.75615E-08         0.77880E-10         0.00000E+00
    0.80002E-08         0.81989E-10         0.00000E+00
    0.84650E-08         0.86281E-10         0.00000E+00
    0.89576E-08         0.90760E-10         0.00000E+00
    0.94798E-08         0.95426E-10         0.00000E+00
    0.10033E-07         0.10028E-09         0.00000E+00
    0.10621E-07         0.10531E-09         0.00000E+00
    0.11243E-07         0.11053E-09         0.00000E+00
    0.11904E-07         0.11591E-09         0.00000E+00
    0.12605E-07         0.12144E-09         0.00000E+00
    0.13350E-07         0.12709E-09         0.00000E+00
    0.14140E-07         0.13285E-09         0.00000E+00
    0.14980E-07         0.13866E-09         0.00000E+00
    0.15872E-07         0.14446E-09         0.00000E+00
    0.16820E-07         0.15020E-09         0.00000E+00
    0.17829E-07         0.15576E-09         0.00000E+00
    0.18902E-07         0.16105E-09         0.00000E+00
    0.20044E-07         0.16589E-09         0.00000E+00
    0.21260E-07         0.17011E-09         0.00000E+00
    0.22556E-07         0.17348E-09         0.00000E+00
    0.23938E-07         0.17572E-09         0.00000E+00
    0.25412E-07         0.17647E-09         0.00000E+00
    0.26985E-07         0.17535E-09         0.00000E+00
    0.28664E-07         0.17186E-09         0.00000E+00
    0.30459E-07         0.16545E-09         0.00000E+00
    0.32378E-07         0.15549E-09         0.00000E+00
    0.34432E-07         0.14129E-09         0.00000E+00
    0.36629E-07         0.12210E-09         0.00000E+00
    0.38983E-07         0.97167E-10         0.00000E+00
    0.41505E-07         0.65781E-10         0.00000E+00
    0.44208E-07         0.27375E-10         0.00000E+00
    0.47106E-07        -0.18344E-10         0.00000E+00
    0.50213E-07        -0.71190E-10         0.00000E+00
    0.53544E-07        -0.13022E-09         0.00000E+00
    0.57114E-07        -0.19337E-09         0.00000E+00
    0.60939E-07        -0.25691E-09         0.00000E+00
    0.65032E-07        -0.31488E-09         0.00000E+00
    0.69408E-07        -0.35840E-09         0.00000E+00
    0.74078E-07        -0.37517E-09         0.00000E+00
    0.79050E-07        -0.34960E-09         0.00000E+00
    0.84332E-07        -0.26407E-09         0.00000E+00
    0.89927E-07        -0.10203E-09         0.00000E+00
    0.63917E-09         0.15741E-11         0.00000E+00
    0.63254E-09         0.42180E-11         0.00000E+00
    0.62824E-09         0.59566E-11         0.00000E+00
    0.62635E-09         0.69990E-11         0.00000E+00
    0.62691E-09         0.75448E-11         0.00000E+00
    0.62998E-09         0.77627E-11         0.00000E+00
    0.63557E-09         0.77833E-11         0.00000E+00
    0.64368E-09         0.77016E-11         0.00000E+00
    0.65432E-09         0.75832E-11         0.00000E+00
    0.66750E-09         0.74717E-11         0.00000E+00
    0.68322E-09         0.73942E-11         0.00000E+00
    0.70150E-09         0.73669E-11         0.00000E+00
    0.72234E-09         0.73979E-11         0.00000E+00
    0.74579E-09         0.74906E-11         0.00000E+00
    0.77187E-09         0.76451E-11         0.00000E+00
    0.80063E-09         0.78598E-11         0.00000E+00
    0.83214E-09         0.81320E-11         0.00000E+00
    0.86646E-09         0.84588E-11         0.00000E+00
    0.90367E-09         0.88375E-11         0.00000E+00
    0.94386E-09         0.92656E-11         0.00000E+00
    0.98714E-09         0.97409E-11         0.00000E+00
    0.10336E-08         0.10262E-10         0.00000E+00
    0.10834E-08         0.10827E-10         0.00000E+00
    0.11367E-08         0.11437E-10         0.00000E+00
    0.11936E-08         0.12091E-10         0.00000E+00
    0.12543E-08         0.12788E-10         0.00000E+00
    0.13190E-08         0.13531E-10         0.00000E+00
    0.13878E-08         0.14320E-10         0.00000E+00
    0.14610E-08         0.15156E-10         0.00000E+00
    0.15387E-08         0.16042E-10         0.00000E+00
    0.16213E-08         0.16978E-10         0.00000E+00
    0.17090E-08         0.17968E-10         0.00000E+00
    0.18020E-08         0.19013E-10         0.00000E+00
    0.19007E-08         0.20117E-10         0.00000E+00
    0.20053E-08         0.21283E-10         0.00000E+00
    0.21162E-08         0.22512E-10         0.00000E+00
    0.22337E-08         0.23810E-10         0.00000E+00
    0.23582E-08         0.25178E-10         0.00000E+00
    0.24901E-08         0.26621E-10         0.00000E+00
    0.26298E-08         0.28143E-10         0.00000E+00
    0.27778E-08         0.29747E-10         0.00000E+00
    0.29344E-08         0.31437E-10         0.00000E+00
    0.31003E-08         0.33219E-10         0.00000E+00
    0.32759E-08         0.35097E-10         0.00000E+00
    0.34618E-08         0.37075E-10         0.00000E+00
    0.36586E-08         0.39158E-10         0.00000E+00
    0.38670E-08         0.41352E-10         0.00000E+00
    0.40875E-08         0.43661E-10         0.00000E+00
    0.43211E-08         0.46092E-10         0.00000E+00
    0.45683E-08         0.48650E-10         0.00000E+00
    0.48300E-08         0.51339E-10         0.00000E+00
    0.51071E-08         0.54168E-10         0.00000E+00
    0.54005E-08         0.57140E-10         0.00000E+00
    0.57111E-08         0.60263E-10         0.00000E+00
    0.60401E-08         0.63542E-10         0.00000E+00
    0.63885E-08         0.66983E-10         0.00000E+00
    0.67574E-08         0.70592E-10         0.00000E+00
    0.71483E-08         0.74374E-10         0.00000E+00
    0.75623E-08         0.78336E-10         0.00000E+00
    0.80010E-08         0.82480E-10         0.00000E+00
    0.84659E-08         0.86812E-10         0.00000E+00
    0.89585E-08         0.91334E-10         0.00000E+00
    0.94808E-08         0.96048E-10         0.00000E+00
    0.10034E-07         0.10095E-09         0.00000E+00
    0.10622E-07         0.10605E-09         0.00000E+00
    0.11244E-07         0.11132E-09         0.00000E+00
    0.11905E-07         0.11677E-09         0.00000E+00
    0.12606E-07         0.12238E-09         0.00000E+00
    0.13351E-07         0.12812E-09         0.00000E+00
    0.14141E-07         0.13397E-09         0.00000E+00
    0.14981E-07         0.13988E-09         0.00000E+00
    0.15873E-07         0.14581E-09         0.00000E+00
    0.16821E-07         0.15166E-09         0.00000E+00
    0.17830E-07         0.15736E-09         0.00000E+00
    0.18903E-07         0.16279E-09         0.00000E+00
    0.20045E-07         0.16779E-09         0.00000E+00
    0.21261E-07         0.17217E-09         0.00000E+00
    0.22557E-07         0.17571E-09         0.00000E+00
    0.23938E-07         0.17812E-09         0.00000E+00
    0.25412E-07         0.17906E-09         0.00000E+00
    0.26984E-07         0.17810E-09         0.00000E+00
    0.28663E-07         0.17478E-09         0.00000E+00
    0.30458E-07         0.16851E-09         0.00000E+00
    0.32376E-07         0.15866E-09         0.00000E+00
    0.34428E-07         0.14451E-09         0.00000E+00
    0.36625E-07         0.12532E-09         0.00000E+00
    0.38978E-07         0.10029E-09         0.00000E+00
    0.41498E-07         0.68702E-10         0.00000E+00
    0.44200E-07         0.29957E-10         0.00000E+00
    0.47096E-07        -0.16261E-10         0.00000E+00
    0.50202E-07        -0.69793E-10         0.00000E+00
    0.53532E-07        -0.12972E-09         0.00000E+00
    0.57101E-07        -0.19395E-09         0.00000E+00
    0.60926E-07        -0.25876E-09         0.00000E+00
    0.65021E-07        -0.31810E-09         0.00000E+00
    0.69401E-07        -0.36292E-09         0.00000E+00
    0.74078E-07        -0.38066E-09         0.00000E+00
    0.79061E-07        -0.35528E-09         0.00000E+00
    0.84357E-07        -0.26870E-09         0.00000E+00
    0.89968E-07        -0.10390E-09         0.00000E+00
    0.63980E-09         0.15853E-11         0.00000E+00
    0.63297E-09         0.42456E-11         0.00000E+00
    0.62851E-09         0.59898E-11         0.00000E+00
    0.62650E-09         0.70303E-11         0.00000E+00
    0.62698E-09         0.75699E-11         0.00000E+00
    0.63000E-09         0.77800E-11         0.00000E+00
    0.63556E-09         0.77928E-11         0.00000E+00
    0.64366E-09         0.77042E-11         0.00000E+00
    0.65430E-09         0.75803E-11         0.00000E+00
    0.66748E-09         0.74645E-11         0.00000E+00
    0.68321E-09         0.73840E-11         0.00000E+00
    0.70150E-09         0.73548E-11         0.00000E+00
    0.72235E-09         0.73849E-11         0.00000E+00
    0.74581E-09         0.74774E-11         0.00000E+00
    0.77191E-09         0.76323E-11         0.00000E+00
    0.80068E-09         0.78479E-11         0.00000E+00
    0.83220E-09         0.81213E-11         0.00000E+00
    0.86653E-09         0.84497E-11         0.00000E+00
    0.90375E-09         0.88300E-11         0.00000E+00
    0.94395E-09         0.92598E-11         0.00000E+00
    0.98724E-09         0.97369E-11         0.00000E+00
    0.10337E-08         0.10260E-10         0.00000E+00
    0.10836E-08         0.10827E-10         0.00000E+00
    0.11368E-08         0.11439E-10         0.00000E+00
    0.11937E-08         0.12094E-10         0.00000E+00
    0.12544E-08         0.12793E-10         0.00000E+00
    0.13191E-08         0.13538E-10         0.00000E+00
    0.13879E-08         0.14328E-10         0.00000E+00
    0.14611E-08         0.15166E-10         0.00000E+00
    0.15389E-08         0.16054E-10         0.00000E+00
    0.16215E-08         0.16992E-10         0.00000E+00
    0.17092E-08         0.17983E-10         0.00000E+00
    0.18023E-08         0.19031E-10         0.00000E+00
    0.19009E-08         0.20137E-10         0.00000E+00
    0.20056E-08         0.21304E-10         0.00000E+00
    0.21165E-08         0.22536E-10         0.00000E+00
    0.22340E-08         0.23836E-10         0.00000E+00
    0.23585E-08         0.25206E-10         0.00000E+00
    0.24904E-08         0.26652E-10         0.00000E+00
    0.26301E-08         0.28176E-10         0.00000E+00
    0.27781E-08         0.29783E-10         0.00000E+00
    0.29348E-08         0.31478E-10         0.00000E+00
    0.31006E-08         0.33263E-10         0.00000E+00
    0.32763E-08         0.35145E-10         0.00000E+00
    0.34622E-08         0.37127E-10         0.00000E+00
    0.36590E-08         0.39215E-10         0.00000E+00
    0.38674E-08         0.41414E-10         0.00000E+00
    0.40880E-08         0.43730E-10         0.00000E+00
    0.43216E-08         0.46167E-10         0.00000E+00
    0.45688E-08         0.48732E-10         0.00000E+00
    0.48305E-08         0.51430E-10         0.00000E+00
    0.51077E-08         0.54267E-10         0.00000E+00
    0.54011E-08         0.57250E-10         0.00000E+00
    0.57118E-08         0.60384E-10         0.00000E+00
    0.60408E-08         0.63676E-10         0.00000E+00
    0.63892E-08         0.67131E-10         0.00000E+00
    0.67582E-08         0.70756E-10         0.00000E+00
    0.71491E-08         0.74557E-10         0.00000E+00
    0.75631E-08         0.78538E-10         0.00000E+00
    0.80019E-08         0.82705E-10         0.00000E+00
    0.84667E-08         0.87063E-10         0.00000E+00
    0.89595E-08         0.91615E-10         0.00000E+00
    0.94818E-08         0.96361E-10         0.00000E+00
    0.10035E-07         0.10130E-09         0.00000E+00
    0.10623E-07         0.10644E-09         0.00000E+00
    0.11246E-07         0.11176E-09         0.00000E+00
    0.11906E-07         0.11727E-09         0.00000E+00
    0.12608E-07         0.12294E-09         0.00000E+00
    0.13352E-07         0.12875E-09         0.00000E+00
    0.14142E-07         0.13467E-09         0.00000E+00
    0.14982E-07         0.14067E-09         0.00000E+00
    0.15874E-07         0.14669E-09         0.00000E+00
    0.16823E-07         0.15265E-09         0.00000E+00
    0.17831E-07         0.15847E-09         0.00000E+00
    0.18904E-07         0.16402E-09         0.00000E+00
    0.20046E-07         0.16916E-09         0.00000E+00
    0.21262E-07         0.17370E-09         0.00000E+00
    0.22558E-07         0.17741E-09         0.00000E+00
    0.23939E-07         0.17999E-09         0.00000E+00
    0.25412E-07         0.18111E-09         0.00000E+00
    0.26984E-07         0.18034E-09         0.00000E+00
    0.28662E-07         0.17719E-09         0.00000E+00
    0.30456E-07         0.17109E-09         0.00000E+00
    0.32374E-07         0.16139E-09         0.00000E+00
    0.34425E-07         0.14737E-09         0.00000E+00
    0.36621E-07         0.12824E-09         0.00000E+00
    0.38972E-07         0.10322E-09         0.00000E+00
    0.41491E-07         0.71542E-10         0.00000E+00
    0.44191E-07         0.32596E-10         0.00000E+00
    0.47086E-07        -0.13965E-10         0.00000E+00
    0.50190E-07        -0.68009E-10         0.00000E+00
    0.53519E-07        -0.12864E-09         0.00000E+00
    0.57088E-07        -0.19379E-09         0.00000E+00
    0.60913E-07        -0.25972E-09         0.00000E+00
    0.65010E-07        -0.32033E-09         0.00000E+00
    0.69394E-07        -0.36645E-09         0.00000E+00
    0.74077E-07        -0.38526E-09         0.00000E+00
    0.79071E-07        -0.36033E-09         0.00000E+00
    0.84381E-07        -0.27300E-09         0.00000E+00
    0.90010E-07        -0.10567E-09         0.00000E+00
    0.64044E-09         0.15938E-11         0.00000E+00
    0.63340E-09         0.42647E-11         0.00000E+00
    0.62878E-09         0.60088E-11         0.00000E+00
    0.62664E-09         0.70426E-11         0.00000E+00
    0.62705E-09         0.75728E-11         0.00000E+00
    0.63002E-09         0.77732E-11         0.00000E+00
    0.63554E-09         0.77773E-11         0.00000E+00
    0.64363E-09         0.76817E-11         0.00000E+00
    0.65427E-09         0.75522E-11         0.00000E+00
    0.66746E-09         0.74324E-11         0.00000E+00
    0.68320E-09         0.73491E-11         0.00000E+00
    0.70150E-09         0.73181E-11         0.00000E+00
    0.72237E-09         0.73472E-11         0.00000E+00
    0.74584E-09         0.74393E-11         0.00000E+00
    0.77194E-09         0.75943E-11         0.00000E+00
    0.80073E-09         0.78101E-11         0.00000E+00
    0.83226E-09         0.80840E-11         0.00000E+00
    0.86660E-09         0.84128E-11         0.00000E+00
    0.90383E-09         0.87937E-11         0.00000E+00
    0.94404E-09         0.92239E-11         0.00000E+00
    0.98734E-09         0.97013E-11         0.00000E+00
    0.10338E-08         0.10224E-10         0.00000E+00
    0.10837E-08         0.10792E-10         0.00000E+00
    0.11370E-08         0.11403E-10         0.00000E+00
    0.11939E-08         0.12058E-10         0.00000E+00
    0.12546E-08         0.12757E-10         0.00000E+00
    0.13193E-08         0.13501E-10         0.00000E+00
    0.13881E-08         0.14291E-10         0.00000E+00
    0.14613E-08         0.15128E-10         0.00000E+00
    0.15391E-08         0.16014E-10         0.00000E+00
    0.16217E-08         0.16951E-10         0.00000E+00
    0.17094E-08         0.17941E-10         0.00000E+00
    0.18025E-08         0.18987E-10         0.00000E+00
    0.19012E-08         0.20091E-10         0.00000E+00
    0.20058E-08         0.21257E-10         0.00000E+00
    0.21167E-08         0.22487E-10         0.00000E+00
    0.22343E-08         0.23785E-10         0.00000E+00
    0.23588E-08         0.25153E-10         0.00000E+00
    0.24907E-08         0.26597E-10         0.00000E+00
    0.26305E-08         0.28119E-10         0.00000E+00
    0.27784E-08         0.29724E-10         0.00000E+00
    0.29351E-08         0.31416E-10         0.00000E+00
    0.31010E-08         0.33200E-10         0.00000E+00
    0.32766E-08         0.35079E-10         0.00000E+00
    0.34626E-08         0.37060E-10         0.00000E+00
    0.36595E-08         0.39146E-10         0.00000E+00
    0.38679E-08         0.41343E-10         0.00000E+00
    0.40885E-08         0.43657E-10         0.00000E+00
    0.43221E-08         0.46093E-10         0.00000E+00
    0.45693E-08         0.48657E-10         0.00000E+00
    0.48311E-08         0.51355E-10         0.00000E+00
    0.51082E-08         0.54192E-10         0.00000E+00
    0.54017E-08         0.57175E-10         0.00000E+00
    0.57124E-08         0.60311E-10         0.00000E+00
    0.60414E-08         0.63605E-10         0.00000E+00
    0.63899E-08         0.67063E-10         0.00000E+00
    0.67589E-08         0.70693E-10         0.00000E+00
    0.71498E-08         0.74499E-10         0.00000E+00
    0.75639E-08         0.78488E-10         0.00000E+00
    0.80027E-08         0.82665E-10         0.00000E+00
    0.84676E-08         0.87035E-10         0.00000E+00
    0.89604E-08         0.91601E-10         0.00000E+00
    0.94827E-08         0.96366E-10         0.00000E+00
    0.10037E-07         0.10133E-09         0.00000E+00
    0.10624E-07         0.10649E-09         0.00000E+00
    0.11247E-07         0.11185E-09         0.00000E+00
    0.11907E-07         0.11739E-09         0.00000E+00
    0.12609E-07         0.12310E-09         0.00000E+00
    0.13353E-07         0.12896E-09         0.00000E+00
    0.14144E-07         0.13494E-09         0.00000E+00
    0.14983E-07         0.14101E-09         0.00000E+00
    0.15875E-07         0.14710E-09         0.00000E+00
    0.16824E-07         0.15315E-09         0.00000E+00
    0.17832E-07         0.15907E-09         0.00000E+00
    0.18905E-07         0.16474E-09         0.00000E+00
    0.20047E-07         0.17001E-09         0.00000E+00
    0.21263E-07         0.17469E-09         0.00000E+00
    0.22558E-07         0.17856E-09         0.00000E+00
    0.23939E-07         0.18131E-09         0.00000E+00
    0.25412E-07         0.18261E-09         0.00000E+00
    0.26983E-07         0.18203E-09         0.00000E+00
    0.28662E-07         0.17908E-09         0.00000E+00
    0.30455E-07         0.17319E-09         0.00000E+00
    0.32371E-07         0.16368E-09         0.00000E+00
    0.34422E-07         0.14983E-09         0.00000E+00
    0.36616E-07         0.13085E-09         0.00000E+00
    0.38966E-07         0.10592E-09         0.00000E+00
    0.41484E-07         0.74278E-10         0.00000E+00
    0.44183E-07         0.35271E-10         0.00000E+00
    0.47076E-07        -0.11473E-10         0.00000E+00
    0.50179E-07        -0.65851E-10         0.00000E+00
    0.53506E-07        -0.12700E-09         0.00000E+00
    0.57075E-07        -0.19288E-09         0.00000E+00
    0.60900E-07        -0.25977E-09         0.00000E+00
    0.64999E-07        -0.32155E-09         0.00000E+00
    0.69387E-07        -0.36897E-09         0.00000E+00
    0.74077E-07        -0.38897E-09         0.00000E+00
    0.79081E-07        -0.36472E-09         0.00000E+00
    0.84406E-07        -0.27695E-09         0.00000E+00
    0.90053E-07        -0.10735E-09         0.00000E+00
    0.64108E-09         0.15995E-11         0.00000E+00
    0.63383E-09         0.42750E-11         0.00000E+00
    0.62904E-09         0.60133E-11         0.00000E+00
    0.62679E-09         0.70358E-11         0.00000E+00
    0.62711E-09         0.75534E-11         0.00000E+00
    0.63003E-09         0.77422E-11         0.00000E+00
    0.63553E-09         0.77369E-11         0.00000E+00
    0.64361E-09         0.76340E-11         0.00000E+00
    0.65425E-09         0.74992E-11         0.00000E+00
    0.66744E-09         0.73756E-11         0.00000E+00
    0.68319E-09         0.72898E-11         0.00000E+00
    0.70149E-09         0.72572E-11         0.00000E+00
    0.72238E-09         0.72853E-11         0.00000E+00
    0.74586E-09         0.73768E-11         0.00000E+00
    0.77198E-09         0.75313E-11         0.00000E+00
    0.80078E-09         0.77468E-11         0.00000E+00
    0.83232E-09         0.80203E-11         0.00000E+00
    0.86667E-09         0.83487E-11         0.00000E+00
    0.90391E-09         0.87289E-11         0.00000E+00
    0.94414E-09         0.91582E-11         0.00000E+00
    0.98744E-09         0.96344E-11         0.00000E+00
    0.10339E-08         0.10156E-10         0.00000E+00
    0.10838E-08         0.10722E-10         0.00000E+00
    0.11371E-08         0.11331E-10         0.00000E+00
    0.11940E-08         0.11983E-10         0.00000E+00
    0.12547E-08         0.12680E-10         0.00000E+00
    0.13194E-08         0.13421E-10         0.00000E+00
    0.13883E-08         0.14207E-10         0.00000E+00
    0.14615E-08         0.15040E-10         0.00000E+00
    0.15393E-08         0.15923E-10         0.00000E+00
    0.16219E-08         0.16855E-10         0.00000E+00
    0.17096E-08         0.17841E-10         0.00000E+00
    0.18027E-08         0.18882E-10         0.00000E+00
    0.19014E-08         0.19981E-10         0.00000E+00
    0.20061E-08         0.21141E-10         0.00000E+00
    0.21170E-08         0.22366E-10         0.00000E+00
    0.22345E-08         0.23657E-10         0.00000E+00
    0.23591E-08         0.25020E-10         0.00000E+00
    0.24910E-08         0.26457E-10         0.00000E+00
    0.26308E-08         0.27972E-10         0.00000E+00
    0.27787E-08         0.29570E-10         0.00000E+00
    0.29354E-08         0.31254E-10         0.00000E+00
    0.31014E-08         0.33030E-10         0.00000E+00
    0.32770E-08         0.34901E-10         0.00000E+00
    0.34630E-08         0.36873E-10         0.00000E+00
    0.36599E-08         0.38951E-10         0.00000E+00
    0.38683E-08         0.41140E-10         0.00000E+00
    0.40890E-08         0.43445E-10         0.00000E+00
    0.43226E-08         0.45872E-10         0.00000E+00
    0.45698E-08         0.48426E-10         0.00000E+00
    0.48316E-08         0.51115E-10         0.00000E+00
    0.51088E-08         0.53943E-10         0.00000E+00
    0.54023E-08         0.56917E-10         0.00000E+00
    0.57130E-08         0.60044E-10         0.00000E+00
    0.60421E-08         0.63329E-10         0.00000E+00
    0.63906E-08         0.66780E-10         0.00000E+00
    0.67597E-08         0.70402E-10         0.00000E+00
    0.71506E-08         0.74203E-10         0.00000E+00
    0.75648E-08         0.78186E-10         0.00000E+00
    0.80036E-08         0.82360E-10         0.00000E+00
    0.84685E-08         0.86728E-10         0.00000E+00
    0.89613E-08         0.91294E-10         0.00000E+00
    0.94837E-08         0.96061E-10         0.00000E+00
    0.10038E-07         0.10103E-09         0.00000E+00
    0.10625E-07         0.10620E-09         0.00000E+00
    0.11248E-07         0.11157E-09         0.00000E+00
    0.11909E-07         0.11713E-09         0.00000E+00
    0.12610E-07         0.12287E-09         0.00000E+00
    0.13354E-07         0.12876E-09         0.00000E+00
    0.14145E-07         0.13478E-09         0.00000E+00
    0.14985E-07         0.14089E-09         0.00000E+00
    0.15877E-07         0.14705E-09         0.00000E+00
    0.16825E-07         0.15317E-09         0.00000E+00
    0.17833E-07         0.15917E-09         0.00000E+00
    0.18906E-07         0.16494E-09         0.00000E+00
    0.20048E-07         0.17032E-09         0.00000E+00
    0.21264E-07         0.17513E-09         0.00000E+00
    0.22559E-07         0.17914E-09         0.00000E+00
    0.23939E-07         0.18207E-09         0.00000E+00
    0.25412E-07         0.18355E-09         0.00000E+00
    0.26983E-07         0.18317E-09         0.00000E+00
    0.28661E-07         0.18044E-09         0.00000E+00
    0.30453E-07         0.17477E-09         0.00000E+00
    0.32369E-07         0.16550E-09         0.00000E+00
    0.34419E-07         0.15188E-09         0.00000E+00
    0.36612E-07         0.13312E-09         0.00000E+00
    0.38961E-07         0.10838E-09         0.00000E+00
    0.41477E-07         0.76888E-10         0.00000E+00
    0.44174E-07         0.37959E-10         0.00000E+00
    0.47066E-07        -0.88044E-11         0.00000E+00
    0.50167E-07        -0.63335E-10         0.00000E+00
    0.53493E-07        -0.12481E-09         0.00000E+00
    0.57061E-07        -0.19123E-09         0.00000E+00
    0.60887E-07        -0.25891E-09         0.00000E+00
    0.64987E-07        -0.32175E-09         0.00000E+00
    0.69379E-07        -0.37043E-09         0.00000E+00
    0.74076E-07        -0.39174E-09         0.00000E+00
    0.79091E-07        -0.36843E-09         0.00000E+00
    0.84431E-07        -0.28054E-09         0.00000E+00
    0.90096E-07        -0.10893E-09         0.00000E+00
    0.64172E-09         0.16023E-11         0.00000E+00
    0.63426E-09         0.42767E-11         0.00000E+00
    0.62931E-09         0.60033E-11         0.00000E+00
    0.62693E-09         0.70098E-11         0.00000E+00
    0.62717E-09         0.75116E-11         0.00000E+00
    0.63004E-09         0.76871E-11         0.00000E+00
    0.63551E-09         0.76717E-11         0.00000E+00
    0.64358E-09         0.75614E-11         0.00000E+00
    0.65422E-09         0.74215E-11         0.00000E+00
    0.66742E-09         0.72945E-11         0.00000E+00
    0.68317E-09         0.72065E-11         0.00000E+00
    0.70149E-09         0.71724E-11         0.00000E+00
    0.72239E-09         0.71994E-11         0.00000E+00
    0.74589E-09         0.72901E-11         0.00000E+00
    0.77202E-09         0.74438E-11         0.00000E+00
    0.80083E-09         0.76584E-11         0.00000E+00
    0.83238E-09         0.79307E-11         0.00000E+00
    0.86675E-09         0.82576E-11         0.00000E+00
    0.90400E-09         0.86359E-11         0.00000E+00
    0.94423E-09         0.90630E-11         0.00000E+00
    0.98754E-09         0.95365E-11         0.00000E+00
    0.10341E-08         0.10055E-10         0.00000E+00
    0.10839E-08         0.10617E-10         0.00000E+00
    0.11372E-08         0.11222E-10         0.00000E+00
    0.11942E-08         0.11870E-10         0.00000E+00
    0.12549E-08         0.12562E-10         0.00000E+00
    0.13196E-08         0.13297E-10         0.00000E+00
    0.13884E-08         0.14078E-10         0.00000E+00
    0.14616E-08         0.14905E-10         0.00000E+00
    0.15395E-08         0.15780E-10         0.00000E+00
    0.16221E-08         0.16706E-10         0.00000E+00
    0.17098E-08         0.17684E-10         0.00000E+00
    0.18029E-08         0.18717E-10         0.00000E+00
    0.19016E-08         0.19807E-10         0.00000E+00
    0.20063E-08         0.20958E-10         0.00000E+00
    0.21172E-08         0.22173E-10         0.00000E+00
    0.22348E-08         0.23454E-10         0.00000E+00
    0.23594E-08         0.24806E-10         0.00000E+00
    0.24913E-08         0.26231E-10         0.00000E+00
    0.26311E-08         0.27735E-10         0.00000E+00
    0.27791E-08         0.29320E-10         0.00000E+00
    0.29358E-08         0.30992E-10         0.00000E+00
    0.31017E-08         0.32754E-10         0.00000E+00
    0.32774E-08         0.34611E-10         0.00000E+00
    0.34634E-08         0.36569E-10         0.00000E+00
    0.36603E-08         0.38631E-10         0.00000E+00
    0.38688E-08         0.40804E-10         0.00000E+00
    0.40894E-08         0.43093E-10         0.00000E+00
    0.43231E-08         0.45503E-10         0.00000E+00
    0.45704E-08         0.48040E-10         0.00000E+00
    0.48322E-08         0.50711E-10         0.00000E+00
    0.51094E-08         0.53521E-10         0.00000E+00
    0.54029E-08         0.56476E-10         0.00000E+00
    0.57137E-08         0.59584E-10         0.00000E+00
    0.60428E-08         0.62851E-10         0.00000E+00
    0.63913E-08         0.66282E-10         0.00000E+00
    0.67604E-08         0.69886E-10         0.00000E+00
    0.71514E-08         0.73667E-10         0.00000E+00
    0.75656E-08         0.77633E-10         0.00000E+00
    0.80044E-08         0.81789E-10         0.00000E+00
    0.84694E-08         0.86141E-10         0.00000E+00
    0.89623E-08         0.90692E-10         0.00000E+00
    0.94847E-08         0.95447E-10         0.00000E+00
    0.10039E-07         0.10041E-09         0.00000E+00
    0.10626E-07         0.10557E-09         0.00000E+00
    0.11249E-07         0.11094E-09         0.00000E+00
    0.11910E-07         0.11650E-09         0.00000E+00
    0.12611E-07         0.12224E-09         0.00000E+00
    0.13356E-07         0.12814E-09         0.00000E+00
    0.14146E-07         0.13418E-09         0.00000E+00
    0.14986E-07         0.14033E-09         0.00000E+00
    0.15878E-07         0.14652E-09         0.00000E+00
    0.16826E-07         0.15269E-09         0.00000E+00
    0.17835E-07         0.15876E-09         0.00000E+00
    0.18907E-07         0.16461E-09         0.00000E+00
    0.20049E-07         0.17009E-09         0.00000E+00
    0.21265E-07         0.17502E-09         0.00000E+00
    0.22560E-07         0.17916E-09         0.00000E+00
    0.23940E-07         0.18224E-09         0.00000E+00
    0.25412E-07         0.18391E-09         0.00000E+00
    0.26983E-07         0.18374E-09         0.00000E+00
    0.28660E-07         0.18124E-09         0.00000E+00
    0.30452E-07         0.17582E-09         0.00000E+00
    0.32367E-07         0.16682E-09         0.00000E+00
    0.34415E-07         0.15349E-09         0.00000E+00
    0.36608E-07         0.13502E-09         0.00000E+00
    0.38955E-07         0.11058E-09         0.00000E+00
    0.41470E-07         0.79344E-10         0.00000E+00
    0.44166E-07         0.40634E-10         0.00000E+00
    0.47056E-07        -0.59834E-11         0.00000E+00
    0.50155E-07        -0.60480E-10         0.00000E+00
    0.53481E-07        -0.12208E-09         0.00000E+00
    0.57048E-07        -0.18884E-09         0.00000E+00
    0.60873E-07        -0.25713E-09         0.00000E+00
    0.64976E-07        -0.32090E-09         0.00000E+00
    0.69371E-07        -0.37083E-09         0.00000E+00
    0.74075E-07        -0.39355E-09         0.00000E+00
    0.79101E-07        -0.37141E-09         0.00000E+00
    0.84456E-07        -0.28374E-09         0.00000E+00
    0.90140E-07        -0.11041E-09         0.00000E+00
    0.64236E-09         0.16023E-11         0.00000E+00
    0.63469E-09         0.42694E-11         0.00000E+00
    0.62957E-09         0.59784E-11         0.00000E+00
    0.62707E-09         0.69642E-11         0.00000E+00
    0.62723E-09         0.74472E-11         0.00000E+00
    0.63005E-09         0.76079E-11         0.00000E+00
    0.63550E-09         0.75817E-11         0.00000E+00
    0.64355E-09         0.74640E-11         0.00000E+00
    0.65419E-09         0.73193E-11         0.00000E+00
    0.66739E-09         0.71893E-11         0.00000E+00
    0.68316E-09         0.70994E-11         0.00000E+00
    0.70149E-09         0.70640E-11         0.00000E+00
    0.72240E-09         0.70900E-11         0.00000E+00
    0.74591E-09         0.71797E-11         0.00000E+00
    0.77205E-09         0.73322E-11         0.00000E+00
    0.80088E-09         0.75452E-11         0.00000E+00
    0.83244E-09         0.78155E-11         0.00000E+00
    0.86682E-09         0.81399E-11         0.00000E+00
    0.90408E-09         0.85152E-11         0.00000E+00
    0.94432E-09         0.89387E-11         0.00000E+00
    0.98764E-09         0.94080E-11         0.00000E+00
    0.10342E-08         0.99217E-11         0.00000E+00
    0.10840E-08         0.10478E-10         0.00000E+00
    0.11373E-08         0.11078E-10         0.00000E+00
    0.11943E-08         0.11719E-10         0.00000E+00
    0.12550E-08         0.12404E-10         0.00000E+00
    0.13197E-08         0.13131E-10         0.00000E+00
    0.13886E-08         0.13903E-10         0.00000E+00
    0.14618E-08         0.14722E-10         0.00000E+00
    0.15396E-08         0.15587E-10         0.00000E+00
    0.16223E-08         0.16503E-10         0.00000E+00
    0.17100E-08         0.17470E-10         0.00000E+00
    0.18031E-08         0.18491E-10         0.00000E+00
    0.19018E-08         0.19569E-10         0.00000E+00
    0.20065E-08         0.20708E-10         0.00000E+00
    0.21175E-08         0.21908E-10         0.00000E+00
    0.22351E-08         0.23175E-10         0.00000E+00
    0.23596E-08         0.24512E-10         0.00000E+00
    0.24916E-08         0.25922E-10         0.00000E+00
    0.26314E-08         0.27409E-10         0.00000E+00
    0.27794E-08         0.28977E-10         0.00000E+00
    0.29361E-08         0.30630E-10         0.00000E+00
    0.31021E-08         0.32373E-10         0.00000E+00
    0.32778E-08         0.34210E-10         0.00000E+00
    0.34638E-08         0.36146E-10         0.00000E+00
    0.36607E-08         0.38187E-10         0.00000E+00
    0.38692E-08         0.40337E-10         0.00000E+00
    0.40899E-08         0.42602E-10         0.00000E+00
    0.43235E-08         0.44987E-10         0.00000E+00
    0.45709E-08         0.47499E-10         0.00000E+00
    0.48327E-08         0.50143E-10         0.00000E+00
    0.51100E-08         0.52926E-10         0.00000E+00
    0.54035E-08         0.55853E-10         0.00000E+00
    0.57143E-08         0.58932E-10         0.00000E+00
    0.60434E-08         0.62169E-10         0.00000E+00
    0.63920E-08         0.65571E-10         0.00000E+00
    0.67611E-08         0.69144E-10         0.00000E+00
    0.71522E-08         0.72894E-10         0.00000E+00
    0.75664E-08         0.76829E-10         0.00000E+00
    0.80053E-08         0.80955E-10         0.00000E+00
    0.84703E-08         0.85276E-10         0.00000E+00
    0.89632E-08         0.89798E-10         0.00000E+00
    0.94856E-08         0.94524E-10         0.00000E+00
    0.10040E-07         0.99457E-10         0.00000E+00
    0.10627E-07         0.10460E-09         0.00000E+00
    0.11250E-07         0.10994E-09         0.00000E+00
    0.11911E-07         0.11548E-09         0.00000E+00
    0.12612E-07         0.12121E-09         0.00000E+00
    0.13357E-07         0.12711E-09         0.00000E+00
    0.14147E-07         0.13315E-09         0.00000E+00
    0.14987E-07         0.13930E-09         0.00000E+00
    0.15879E-07         0.14551E-09         0.00000E+00
    0.16827E-07         0.15172E-09         0.00000E+00
    0.17836E-07         0.15783E-09         0.00000E+00
    0.18908E-07         0.16374E-09         0.00000E+00
    0.20050E-07         0.16930E-09         0.00000E+00
    0.21265E-07         0.17433E-09         0.00000E+00
    0.22560E-07         0.17860E-09         0.00000E+00
    0.23940E-07         0.18183E-09         0.00000E+00
    0.25412E-07         0.18367E-09         0.00000E+00
    0.26983E-07         0.18372E-09         0.00000E+00
    0.28659E-07         0.18146E-09         0.00000E+00
    0.30450E-07         0.17632E-09         0.00000E+00
    0.32365E-07         0.16763E-09         0.00000E+00
    0.34412E-07         0.15464E-09         0.00000E+00
    0.36603E-07         0.13654E-09         0.00000E+00
    0.38950E-07         0.11247E-09         0.00000E+00
    0.41463E-07         0.81617E-10         0.00000E+00
    0.44157E-07         0.43269E-10         0.00000E+00
    0.47046E-07        -0.30353E-11         0.00000E+00
    0.50144E-07        -0.57308E-10         0.00000E+00
    0.53468E-07        -0.11882E-09         0.00000E+00
    0.57034E-07        -0.18572E-09         0.00000E+00
    0.60860E-07        -0.25443E-09         0.00000E+00
    0.64964E-07        -0.31899E-09         0.00000E+00
    0.69363E-07        -0.37012E-09         0.00000E+00
    0.74074E-07        -0.39434E-09         0.00000E+00
    0.79111E-07        -0.37364E-09         0.00000E+00
    0.84481E-07        -0.28653E-09         0.00000E+00
    0.90184E-07        -0.11177E-09         0.00000E+00
    0.64300E-09         0.15993E-11         0.00000E+00
    0.63511E-09         0.42530E-11         0.00000E+00
    0.62982E-09         0.59384E-11         0.00000E+00
    0.62720E-09         0.68989E-11         0.00000E+00
    0.62729E-09         0.73601E-11         0.00000E+00
    0.63006E-09         0.75045E-11         0.00000E+00
    0.63548E-09         0.74671E-11         0.00000E+00
    0.64352E-09         0.73421E-11         0.00000E+00
    0.65416E-09         0.71930E-11         0.00000E+00
    0.66737E-09         0.70604E-11         0.00000E+00
    0.68315E-09         0.69689E-11         0.00000E+00
    0.70149E-09         0.69325E-11         0.00000E+00
    0.72241E-09         0.69575E-11         0.00000E+00
    0.74593E-09         0.70459E-11         0.00000E+00
    0.77209E-09         0.71968E-11         0.00000E+00
    0.80093E-09         0.74076E-11         0.00000E+00
    0.83250E-09         0.76752E-11         0.00000E+00
    0.86689E-09         0.79961E-11         0.00000E+00
    0.90415E-09         0.83671E-11         0.00000E+00
    0.94440E-09         0.87856E-11         0.00000E+00
    0.98774E-09         0.92493E-11         0.00000E+00
    0.10343E-08         0.97565E-11         0.00000E+00
    0.10841E-08         0.10306E-10         0.00000E+00
    0.11375E-08         0.10897E-10         0.00000E+00
    0.11944E-08         0.11530E-10         0.00000E+00
    0.12552E-08         0.12205E-10         0.00000E+00
    0.13199E-08         0.12923E-10         0.00000E+00
    0.13887E-08         0.13684E-10         0.00000E+00
    0.14620E-08         0.14491E-10         0.00000E+00
    0.15398E-08         0.15344E-10         0.00000E+00
    0.16225E-08         0.16246E-10         0.00000E+00
    0.17102E-08         0.17199E-10         0.00000E+00
    0.18033E-08         0.18206E-10         0.00000E+00
    0.19021E-08         0.19269E-10         0.00000E+00
    0.20068E-08         0.20390E-10         0.00000E+00
    0.21177E-08         0.21573E-10         0.00000E+00
    0.22353E-08         0.22822E-10         0.00000E+00
    0.23599E-08         0.24139E-10         0.00000E+00
    0.24919E-08         0.25528E-10         0.00000E+00
    0.26317E-08         0.26994E-10         0.00000E+00
    0.27797E-08         0.28539E-10         0.00000E+00
    0.29365E-08         0.30169E-10         0.00000E+00
    0.31024E-08         0.31887E-10         0.00000E+00
    0.32782E-08         0.33698E-10         0.00000E+00
    0.34642E-08         0.35607E-10         0.00000E+00
    0.36612E-08         0.37619E-10         0.00000E+00
    0.38696E-08         0.39739E-10         0.00000E+00
    0.40904E-08         0.41973E-10         0.00000E+00
    0.43240E-08         0.44326E-10         0.00000E+00
    0.45714E-08         0.46804E-10         0.00000E+00
    0.48333E-08         0.49413E-10         0.00000E+00
    0.51105E-08         0.52159E-10         0.00000E+00
    0.54041E-08         0.55049E-10         0.00000E+00
    0.57149E-08         0.58089E-10         0.00000E+00
    0.60441E-08         0.61286E-10         0.00000E+00
    0.63927E-08         0.64646E-10         0.00000E+00
    0.67619E-08         0.68176E-10         0.00000E+00
    0.71529E-08         0.71884E-10         0.00000E+00
    0.75672E-08         0.75775E-10         0.00000E+00
    0.80061E-08         0.79855E-10         0.00000E+00
    0.84712E-08         0.84132E-10         0.00000E+00
    0.89641E-08         0.88609E-10         0.00000E+00
    0.94866E-08         0.93291E-10         0.00000E+00
    0.10041E-07         0.98181E-10         0.00000E+00
    0.10628E-07         0.10328E-09         0.00000E+00
    0.11251E-07         0.10858E-09         0.00000E+00
    0.11912E-07         0.11409E-09         0.00000E+00
    0.12613E-07         0.11978E-09         0.00000E+00
    0.13358E-07         0.12566E-09         0.00000E+00
    0.14149E-07         0.13168E-09         0.00000E+00
    0.14988E-07         0.13782E-09         0.00000E+00
    0.15880E-07         0.14402E-09         0.00000E+00
    0.16829E-07         0.15024E-09         0.00000E+00
    0.17837E-07         0.15637E-09         0.00000E+00
    0.18910E-07         0.16232E-09         0.00000E+00
    0.20051E-07         0.16794E-09         0.00000E+00
    0.21266E-07         0.17305E-09         0.00000E+00
    0.22561E-07         0.17744E-09         0.00000E+00
    0.23941E-07         0.18081E-09         0.00000E+00
    0.25412E-07         0.18283E-09         0.00000E+00
    0.26982E-07         0.18308E-09         0.00000E+00
    0.28659E-07         0.18108E-09         0.00000E+00
    0.30449E-07         0.17624E-09         0.00000E+00
    0.32363E-07         0.16790E-09         0.00000E+00
    0.34409E-07         0.15530E-09         0.00000E+00
    0.36599E-07         0.13763E-09         0.00000E+00
    0.38944E-07         0.11403E-09         0.00000E+00
    0.41456E-07         0.83677E-10         0.00000E+00
    0.44149E-07         0.45834E-10         0.00000E+00
    0.47036E-07         0.10778E-13         0.00000E+00
    0.50132E-07        -0.53845E-10         0.00000E+00
    0.53455E-07        -0.11507E-09         0.00000E+00
    0.57020E-07        -0.18187E-09         0.00000E+00
    0.60846E-07        -0.25080E-09         0.00000E+00
    0.64951E-07        -0.31599E-09         0.00000E+00
    0.69354E-07        -0.36825E-09         0.00000E+00
    0.74073E-07        -0.39407E-09         0.00000E+00
    0.79120E-07        -0.37505E-09         0.00000E+00
    0.84506E-07        -0.28886E-09         0.00000E+00
    0.90229E-07        -0.11300E-09         0.00000E+00
    0.64364E-09         0.15933E-11         0.00000E+00
    0.63553E-09         0.42271E-11         0.00000E+00
    0.63007E-09         0.58827E-11         0.00000E+00
    0.62733E-09         0.68133E-11         0.00000E+00
    0.62734E-09         0.72501E-11         0.00000E+00
    0.63006E-09         0.73769E-11         0.00000E+00
    0.63546E-09         0.73279E-11         0.00000E+00
    0.64349E-09         0.71959E-11         0.00000E+00
    0.65413E-09         0.70429E-11         0.00000E+00
    0.66735E-09         0.69081E-11         0.00000E+00
    0.68314E-09         0.68155E-11         0.00000E+00
    0.70149E-09         0.67782E-11         0.00000E+00
    0.72242E-09         0.68023E-11         0.00000E+00
    0.74596E-09         0.68893E-11         0.00000E+00
    0.77213E-09         0.70381E-11         0.00000E+00
    0.80098E-09         0.72461E-11         0.00000E+00
    0.83256E-09         0.75100E-11         0.00000E+00
    0.86695E-09         0.78264E-11         0.00000E+00
    0.90423E-09         0.81920E-11         0.00000E+00
    0.94449E-09         0.86042E-11         0.00000E+00
    0.98783E-09         0.90607E-11         0.00000E+00
    0.10344E-08         0.95599E-11         0.00000E+00
    0.10842E-08         0.10100E-10         0.00000E+00
    0.11376E-08         0.10682E-10         0.00000E+00
    0.11945E-08         0.11304E-10         0.00000E+00
    0.12553E-08         0.11968E-10         0.00000E+00
    0.13200E-08         0.12673E-10         0.00000E+00
    0.13889E-08         0.13421E-10         0.00000E+00
    0.14621E-08         0.14213E-10         0.00000E+00
    0.15400E-08         0.15051E-10         0.00000E+00
    0.16227E-08         0.15937E-10         0.00000E+00
    0.17104E-08         0.16873E-10         0.00000E+00
    0.18035E-08         0.17861E-10         0.00000E+00
    0.19023E-08         0.18905E-10         0.00000E+00
    0.20070E-08         0.20006E-10         0.00000E+00
    0.21180E-08         0.21168E-10         0.00000E+00
    0.22356E-08         0.22394E-10         0.00000E+00
    0.23602E-08         0.23688E-10         0.00000E+00
    0.24922E-08         0.25052E-10         0.00000E+00
    0.26320E-08         0.26491E-10         0.00000E+00
    0.27800E-08         0.28009E-10         0.00000E+00
    0.29368E-08         0.29609E-10         0.00000E+00
    0.31028E-08         0.31297E-10         0.00000E+00
    0.32785E-08         0.33076E-10         0.00000E+00
    0.34646E-08         0.34951E-10         0.00000E+00
    0.36616E-08         0.36928E-10         0.00000E+00
    0.38701E-08         0.39012E-10         0.00000E+00
    0.40908E-08         0.41207E-10         0.00000E+00
    0.43245E-08         0.43520E-10         0.00000E+00
    0.45719E-08         0.45956E-10         0.00000E+00
    0.48338E-08         0.48521E-10         0.00000E+00
    0.51111E-08         0.51222E-10         0.00000E+00
    0.54047E-08         0.54064E-10         0.00000E+00
    0.57156E-08         0.57055E-10         0.00000E+00
    0.60448E-08         0.60201E-10         0.00000E+00
    0.63934E-08         0.63508E-10         0.00000E+00
    0.67626E-08         0.66984E-10         0.00000E+00
    0.71537E-08         0.70636E-10         0.00000E+00
    0.75680E-08         0.74470E-10         0.00000E+00
    0.80069E-08         0.78492E-10         0.00000E+00
    0.84721E-08         0.82710E-10         0.00000E+00
    0.89650E-08         0.87127E-10         0.00000E+00
    0.94876E-08         0.91749E-10         0.00000E+00
    0.10042E-07         0.96578E-10         0.00000E+00
    0.10629E-07         0.10162E-09         0.00000E+00
    0.11252E-07         0.10686E-09         0.00000E+00
    0.11913E-07         0.11231E-09         0.00000E+00
    0.12615E-07         0.11796E-09         0.00000E+00
    0.13359E-07         0.12378E-09         0.00000E+00
    0.14150E-07         0.12976E-09         0.00000E+00
    0.14989E-07         0.13587E-09         0.00000E+00
    0.15882E-07         0.14205E-09         0.00000E+00
    0.16830E-07         0.14825E-09         0.00000E+00
    0.17838E-07         0.15439E-09         0.00000E+00
    0.18911E-07         0.16035E-09         0.00000E+00
    0.20052E-07         0.16601E-09         0.00000E+00
    0.21267E-07         0.17119E-09         0.00000E+00
    0.22562E-07         0.17567E-09         0.00000E+00
    0.23942E-07         0.17917E-09         0.00000E+00
    0.25413E-07         0.18136E-09         0.00000E+00
    0.26982E-07         0.18182E-09         0.00000E+00
    0.28658E-07         0.18008E-09         0.00000E+00
    0.30448E-07         0.17556E-09         0.00000E+00
    0.32361E-07         0.16759E-09         0.00000E+00
    0.34406E-07         0.15543E-09         0.00000E+00
    0.36595E-07         0.13827E-09         0.00000E+00
    0.38939E-07         0.11523E-09         0.00000E+00
    0.41450E-07         0.85490E-10         0.00000E+00
    0.44140E-07         0.48293E-10         0.00000E+00
    0.47026E-07         0.31229E-11         0.00000E+00
    0.50121E-07        -0.50118E-10         0.00000E+00
    0.53442E-07        -0.11083E-09         0.00000E+00
    0.57006E-07        -0.17731E-09         0.00000E+00
    0.60832E-07        -0.24624E-09         0.00000E+00
    0.64939E-07        -0.31189E-09         0.00000E+00
    0.69346E-07        -0.36520E-09         0.00000E+00
    0.74071E-07        -0.39267E-09         0.00000E+00
    0.79130E-07        -0.37558E-09         0.00000E+00
    0.84531E-07        -0.29069E-09         0.00000E+00
    0.90275E-07        -0.11409E-09         0.00000E+00
    0.64427E-09         0.15840E-11         0.00000E+00
    0.63595E-09         0.41914E-11         0.00000E+00
    0.63031E-09         0.58110E-11         0.00000E+00
    0.62746E-09         0.67071E-11         0.00000E+00
    0.62738E-09         0.71168E-11         0.00000E+00
    0.63006E-09         0.72249E-11         0.00000E+00
    0.63543E-09         0.71642E-11         0.00000E+00
    0.64346E-09         0.70256E-11         0.00000E+00
    0.65410E-09         0.68692E-11         0.00000E+00
    0.66732E-09         0.67329E-11         0.00000E+00
    0.68312E-09         0.66395E-11         0.00000E+00
    0.70149E-09         0.66016E-11         0.00000E+00
    0.72243E-09         0.66247E-11         0.00000E+00
    0.74598E-09         0.67101E-11         0.00000E+00
    0.77216E-09         0.68565E-11         0.00000E+00
    0.80102E-09         0.70610E-11         0.00000E+00
    0.83262E-09         0.73205E-11         0.00000E+00
    0.86702E-09         0.76313E-11         0.00000E+00
    0.90431E-09         0.79903E-11         0.00000E+00
    0.94458E-09         0.83949E-11         0.00000E+00
    0.98793E-09         0.88427E-11         0.00000E+00
    0.10345E-08         0.93321E-11         0.00000E+00
    0.10844E-08         0.98619E-11         0.00000E+00
    0.11377E-08         0.10432E-10         0.00000E+00
    0.11947E-08         0.11041E-10         0.00000E+00
    0.12554E-08         0.11691E-10         0.00000E+00
    0.13202E-08         0.12381E-10         0.00000E+00
    0.13890E-08         0.13113E-10         0.00000E+00
    0.14623E-08         0.13888E-10         0.00000E+00
    0.15402E-08         0.14709E-10         0.00000E+00
    0.16228E-08         0.15575E-10         0.00000E+00
    0.17106E-08         0.16491E-10         0.00000E+00
    0.18037E-08         0.17458E-10         0.00000E+00
    0.19025E-08         0.18479E-10         0.00000E+00
    0.20072E-08         0.19556E-10         0.00000E+00
    0.21182E-08         0.20693E-10         0.00000E+00
    0.22358E-08         0.21893E-10         0.00000E+00
    0.23604E-08         0.23158E-10         0.00000E+00
    0.24925E-08         0.24493E-10         0.00000E+00
    0.26323E-08         0.25901E-10         0.00000E+00
    0.27803E-08         0.27386E-10         0.00000E+00
    0.29371E-08         0.28952E-10         0.00000E+00
    0.31031E-08         0.30603E-10         0.00000E+00
    0.32789E-08         0.32344E-10         0.00000E+00
    0.34650E-08         0.34180E-10         0.00000E+00
    0.36620E-08         0.36115E-10         0.00000E+00
    0.38705E-08         0.38155E-10         0.00000E+00
    0.40913E-08         0.40304E-10         0.00000E+00
    0.43250E-08         0.42569E-10         0.00000E+00
    0.45724E-08         0.44955E-10         0.00000E+00
    0.48343E-08         0.47468E-10         0.00000E+00
    0.51117E-08         0.50114E-10         0.00000E+00
    0.54053E-08         0.52899E-10         0.00000E+00
    0.57162E-08         0.55831E-10         0.00000E+00
    0.60454E-08         0.58915E-10         0.00000E+00
    0.63940E-08         0.62159E-10         0.00000E+00
    0.67633E-08         0.65569E-10         0.00000E+00
    0.71544E-08         0.69152E-10         0.00000E+00
    0.75688E-08         0.72916E-10         0.00000E+00
    0.80077E-08         0.76866E-10         0.00000E+00
    0.84729E-08         0.81009E-10         0.00000E+00
    0.89659E-08         0.85351E-10         0.00000E+00
    0.94885E-08         0.89897E-10         0.00000E+00
    0.10043E-07         0.94650E-10         0.00000E+00
    0.10630E-07         0.99611E-10         0.00000E+00
    0.11253E-07         0.10478E-09         0.00000E+00
    0.11914E-07         0.11016E-09         0.00000E+00
    0.12616E-07         0.11573E-09         0.00000E+00
    0.13360E-07         0.12148E-09         0.00000E+00
    0.14151E-07         0.12740E-09         0.00000E+00
    0.14991E-07         0.13345E-09         0.00000E+00
    0.15883E-07         0.13958E-09         0.00000E+00
    0.16831E-07         0.14575E-09         0.00000E+00
    0.17839E-07         0.15186E-09         0.00000E+00
    0.18912E-07         0.15782E-09         0.00000E+00
    0.20053E-07         0.16350E-09         0.00000E+00
    0.21268E-07         0.16873E-09         0.00000E+00
    0.22563E-07         0.17328E-09         0.00000E+00
    0.23942E-07         0.17689E-09         0.00000E+00
    0.25413E-07         0.17924E-09         0.00000E+00
    0.26982E-07         0.17992E-09         0.00000E+00
    0.28657E-07         0.17844E-09         0.00000E+00
    0.30447E-07         0.17426E-09         0.00000E+00
    0.32359E-07         0.16669E-09         0.00000E+00
    0.34404E-07         0.15502E-09         0.00000E+00
    0.36591E-07         0.13842E-09         0.00000E+00
    0.38934E-07         0.11604E-09         0.00000E+00
    0.41443E-07         0.87019E-10         0.00000E+00
    0.44132E-07         0.50611E-10         0.00000E+00
    0.47016E-07         0.62655E-11         0.00000E+00
    0.50109E-07        -0.46159E-10         0.00000E+00
    0.53429E-07        -0.10613E-09         0.00000E+00
    0.56992E-07        -0.17205E-09         0.00000E+00
    0.60818E-07        -0.24074E-09         0.00000E+00
    0.64927E-07        -0.30665E-09         0.00000E+00
    0.69337E-07        -0.36091E-09         0.00000E+00
    0.74068E-07        -0.39008E-09         0.00000E+00
    0.79138E-07        -0.37516E-09         0.00000E+00
    0.84556E-07        -0.29198E-09         0.00000E+00
    0.90320E-07        -0.11502E-09         0.00000E+00
    0.64491E-09         0.15714E-11         0.00000E+00
    0.63635E-09         0.41452E-11         0.00000E+00
    0.63055E-09         0.57225E-11         0.00000E+00
    0.62757E-09         0.65797E-11         0.00000E+00
    0.62743E-09         0.69599E-11         0.00000E+00
    0.63006E-09         0.70485E-11         0.00000E+00
    0.63541E-09         0.69762E-11         0.00000E+00
    0.64343E-09         0.68315E-11         0.00000E+00
    0.65407E-09         0.66723E-11         0.00000E+00
    0.66730E-09         0.65350E-11         0.00000E+00
    0.68311E-09         0.64414E-11         0.00000E+00
    0.70149E-09         0.64032E-11         0.00000E+00
    0.72245E-09         0.64254E-11         0.00000E+00
    0.74600E-09         0.65089E-11         0.00000E+00
    0.77220E-09         0.66524E-11         0.00000E+00
    0.80107E-09         0.68529E-11         0.00000E+00
    0.83268E-09         0.71070E-11         0.00000E+00
    0.86709E-09         0.74112E-11         0.00000E+00
    0.90439E-09         0.77624E-11         0.00000E+00
    0.94466E-09         0.81579E-11         0.00000E+00
    0.98802E-09         0.85955E-11         0.00000E+00
    0.10346E-08         0.90735E-11         0.00000E+00
    0.10845E-08         0.95908E-11         0.00000E+00
    0.11378E-08         0.10147E-10         0.00000E+00
    0.11948E-08         0.10741E-10         0.00000E+00
    0.12556E-08         0.11375E-10         0.00000E+00
    0.13203E-08         0.12048E-10         0.00000E+00
    0.13892E-08         0.12762E-10         0.00000E+00
    0.14625E-08         0.13518E-10         0.00000E+00
    0.15403E-08         0.14317E-10         0.00000E+00
    0.16230E-08         0.15162E-10         0.00000E+00
    0.17108E-08         0.16054E-10         0.00000E+00
    0.18039E-08         0.16997E-10         0.00000E+00
    0.19027E-08         0.17991E-10         0.00000E+00
    0.20074E-08         0.19041E-10         0.00000E+00
    0.21184E-08         0.20149E-10         0.00000E+00
    0.22361E-08         0.21318E-10         0.00000E+00
    0.23607E-08         0.22551E-10         0.00000E+00
    0.24927E-08         0.23851E-10         0.00000E+00
    0.26326E-08         0.25223E-10         0.00000E+00
    0.27806E-08         0.26671E-10         0.00000E+00
    0.29374E-08         0.28197E-10         0.00000E+00
    0.31035E-08         0.29807E-10         0.00000E+00
    0.32792E-08         0.31504E-10         0.00000E+00
    0.34653E-08         0.33294E-10         0.00000E+00
    0.36624E-08         0.35181E-10         0.00000E+00
    0.38709E-08         0.37169E-10         0.00000E+00
    0.40917E-08         0.39266E-10         0.00000E+00
    0.43254E-08         0.41475E-10         0.00000E+00
    0.45729E-08         0.43802E-10         0.00000E+00
    0.48348E-08         0.46254E-10         0.00000E+00
    0.51122E-08         0.48836E-10         0.00000E+00
    0.54058E-08         0.51555E-10         0.00000E+00
    0.57168E-08         0.54417E-10         0.00000E+00
    0.60460E-08         0.57429E-10         0.00000E+00
    0.63947E-08         0.60598E-10         0.00000E+00
    0.67640E-08         0.63930E-10         0.00000E+00
    0.71551E-08         0.67433E-10         0.00000E+00
    0.75695E-08         0.71113E-10         0.00000E+00
    0.80085E-08         0.74977E-10         0.00000E+00
    0.84738E-08         0.79031E-10         0.00000E+00
    0.89668E-08         0.83283E-10         0.00000E+00
    0.94894E-08         0.87735E-10         0.00000E+00
    0.10043E-07         0.92394E-10         0.00000E+00
    0.10631E-07         0.97261E-10         0.00000E+00
    0.11254E-07         0.10234E-09         0.00000E+00
    0.11915E-07         0.10762E-09         0.00000E+00
    0.12617E-07         0.11309E-09         0.00000E+00
    0.13361E-07         0.11876E-09         0.00000E+00
    0.14152E-07         0.12459E-09         0.00000E+00
    0.14992E-07         0.13055E-09         0.00000E+00
    0.15884E-07         0.13662E-09         0.00000E+00
    0.16832E-07         0.14272E-09         0.00000E+00
    0.17841E-07         0.14879E-09         0.00000E+00
    0.18913E-07         0.15473E-09         0.00000E+00
    0.20054E-07         0.16040E-09         0.00000E+00
    0.21269E-07         0.16565E-09         0.00000E+00
    0.22564E-07         0.17026E-09         0.00000E+00
    0.23943E-07         0.17397E-09         0.00000E+00
    0.25413E-07         0.17646E-09         0.00000E+00
    0.26982E-07         0.17734E-09         0.00000E+00
    0.28657E-07         0.17614E-09         0.00000E+00
    0.30445E-07         0.17230E-09         0.00000E+00
    0.32357E-07         0.16517E-09         0.00000E+00
    0.34401E-07         0.15402E-09         0.00000E+00
    0.36588E-07         0.13805E-09         0.00000E+00
    0.38929E-07         0.11640E-09         0.00000E+00
    0.41437E-07         0.88225E-10         0.00000E+00
    0.44124E-07         0.52747E-10         0.00000E+00
    0.47006E-07         0.93998E-11         0.00000E+00
    0.50098E-07        -0.42004E-10         0.00000E+00
    0.53416E-07        -0.10100E-09         0.00000E+00
    0.56979E-07        -0.16612E-09         0.00000E+00
    0.60805E-07        -0.23432E-09         0.00000E+00
    0.64914E-07        -0.30027E-09         0.00000E+00
    0.69327E-07        -0.35533E-09         0.00000E+00
    0.74066E-07        -0.38622E-09         0.00000E+00
    0.79147E-07        -0.37370E-09         0.00000E+00
    0.84581E-07        -0.29266E-09         0.00000E+00
    0.90367E-07        -0.11577E-09         0.00000E+00
    0.64553E-09         0.15552E-11         0.00000E+00
    0.63675E-09         0.40882E-11         0.00000E+00
    0.63077E-09         0.56165E-11         0.00000E+00
    0.62768E-09         0.64305E-11         0.00000E+00
    0.62746E-09         0.67791E-11         0.00000E+00
    0.63005E-09         0.68475E-11         0.00000E+00
    0.63538E-09         0.67639E-11         0.00000E+00
    0.64339E-09         0.66137E-11         0.00000E+00
    0.65404E-09         0.64525E-11         0.00000E+00
    0.66728E-09         0.63150E-11         0.00000E+00
    0.68309E-09         0.62217E-11         0.00000E+00
    0.70149E-09         0.61833E-11         0.00000E+00
    0.72246E-09         0.62046E-11         0.00000E+00
    0.74603E-09         0.62862E-11         0.00000E+00
    0.77223E-09         0.64263E-11         0.00000E+00
    0.80111E-09         0.66220E-11         0.00000E+00
    0.83273E-09         0.68699E-11         0.00000E+00
    0.86715E-09         0.71666E-11         0.00000E+00
    0.90446E-09         0.75088E-11         0.00000E+00
    0.94475E-09         0.78938E-11         0.00000E+00
    0.98811E-09         0.83196E-11         0.00000E+00
    0.10347E-08         0.87845E-11         0.00000E+00
    0.10846E-08         0.92874E-11         0.00000E+00
    0.11379E-08         0.98278E-11         0.00000E+00
    0.11949E-08         0.10405E-10         0.00000E+00
    0.12557E-08         0.11021E-10         0.00000E+00
    0.13204E-08         0.11674E-10         0.00000E+00
    0.13893E-08         0.12367E-10         0.00000E+00
    0.14626E-08         0.13101E-10         0.00000E+00
    0.15405E-08         0.13877E-10         0.00000E+00
    0.16232E-08         0.14697E-10         0.00000E+00
    0.17110E-08         0.15563E-10         0.00000E+00
    0.18041E-08         0.16477E-10         0.00000E+00
    0.19029E-08         0.17442E-10         0.00000E+00
    0.20076E-08         0.18461E-10         0.00000E+00
    0.21187E-08         0.19536E-10         0.00000E+00
    0.22363E-08         0.20670E-10         0.00000E+00
    0.23610E-08         0.21866E-10         0.00000E+00
    0.24930E-08         0.23129E-10         0.00000E+00
    0.26328E-08         0.24460E-10         0.00000E+00
    0.27809E-08         0.25865E-10         0.00000E+00
    0.29378E-08         0.27346E-10         0.00000E+00
    0.31038E-08         0.28908E-10         0.00000E+00
    0.32796E-08         0.30556E-10         0.00000E+00
    0.34657E-08         0.32293E-10         0.00000E+00
    0.36627E-08         0.34125E-10         0.00000E+00
    0.38713E-08         0.36056E-10         0.00000E+00
    0.40921E-08         0.38092E-10         0.00000E+00
    0.43259E-08         0.40238E-10         0.00000E+00
    0.45734E-08         0.42499E-10         0.00000E+00
    0.48353E-08         0.44881E-10         0.00000E+00
    0.51127E-08         0.47390E-10         0.00000E+00
    0.54064E-08         0.50033E-10         0.00000E+00
    0.57173E-08         0.52816E-10         0.00000E+00
    0.60466E-08         0.55745E-10         0.00000E+00
    0.63953E-08         0.58827E-10         0.00000E+00
    0.67647E-08         0.62069E-10         0.00000E+00
    0.71559E-08         0.65478E-10         0.00000E+00
    0.75703E-08         0.69061E-10         0.00000E+00
    0.80093E-08         0.72825E-10         0.00000E+00
    0.84746E-08         0.76776E-10         0.00000E+00
    0.89677E-08         0.80921E-10         0.00000E+00
    0.94903E-08         0.85264E-10         0.00000E+00
    0.10044E-07         0.89811E-10         0.00000E+00
    0.10632E-07         0.94564E-10         0.00000E+00
    0.11255E-07         0.99524E-10         0.00000E+00
    0.11916E-07         0.10469E-09         0.00000E+00
    0.12618E-07         0.11005E-09         0.00000E+00
    0.13363E-07         0.11560E-09         0.00000E+00
    0.14153E-07         0.12132E-09         0.00000E+00
    0.14993E-07         0.12719E-09         0.00000E+00
    0.15885E-07         0.13316E-09         0.00000E+00
    0.16834E-07         0.13917E-09         0.00000E+00
    0.17842E-07         0.14517E-09         0.00000E+00
    0.18914E-07         0.15105E-09         0.00000E+00
    0.20055E-07         0.15670E-09         0.00000E+00
    0.21270E-07         0.16194E-09         0.00000E+00
    0.22564E-07         0.16659E-09         0.00000E+00
    0.23943E-07         0.17038E-09         0.00000E+00
    0.25414E-07         0.17300E-09         0.00000E+00
    0.26982E-07         0.17408E-09         0.00000E+00
    0.28656E-07         0.17315E-09         0.00000E+00
    0.30444E-07         0.16966E-09         0.00000E+00
    0.32355E-07         0.16299E-09         0.00000E+00
    0.34398E-07         0.15241E-09         0.00000E+00
    0.36584E-07         0.13713E-09         0.00000E+00
    0.38924E-07         0.11630E-09         0.00000E+00
    0.41430E-07         0.89066E-10         0.00000E+00
    0.44117E-07         0.54659E-10         0.00000E+00
    0.46997E-07         0.12483E-10         0.00000E+00
    0.50087E-07        -0.37692E-10         0.00000E+00
    0.53404E-07        -0.95483E-10         0.00000E+00
    0.56965E-07        -0.15953E-09         0.00000E+00
    0.60791E-07        -0.22696E-09         0.00000E+00
    0.64901E-07        -0.29271E-09         0.00000E+00
    0.69318E-07        -0.34841E-09         0.00000E+00
    0.74062E-07        -0.38100E-09         0.00000E+00
    0.79154E-07        -0.37111E-09         0.00000E+00
    0.84605E-07        -0.29264E-09         0.00000E+00
    0.90413E-07        -0.11630E-09         0.00000E+00
    0.64615E-09         0.15351E-11         0.00000E+00
    0.63713E-09         0.40195E-11         0.00000E+00
    0.63099E-09         0.54921E-11         0.00000E+00
    0.62778E-09         0.62587E-11         0.00000E+00
    0.62749E-09         0.65739E-11         0.00000E+00
    0.63004E-09         0.66220E-11         0.00000E+00
    0.63536E-09         0.65275E-11         0.00000E+00
    0.64336E-09         0.63727E-11         0.00000E+00
    0.65401E-09         0.62103E-11         0.00000E+00
    0.66725E-09         0.60733E-11         0.00000E+00
    0.68308E-09         0.59807E-11         0.00000E+00
    0.70148E-09         0.59426E-11         0.00000E+00
    0.72247E-09         0.59631E-11         0.00000E+00
    0.74605E-09         0.60424E-11         0.00000E+00
    0.77226E-09         0.61787E-11         0.00000E+00
    0.80116E-09         0.63690E-11         0.00000E+00
    0.83278E-09         0.66098E-11         0.00000E+00
    0.86722E-09         0.68978E-11         0.00000E+00
    0.90453E-09         0.72297E-11         0.00000E+00
    0.94483E-09         0.76030E-11         0.00000E+00
    0.98820E-09         0.80154E-11         0.00000E+00
    0.10348E-08         0.84656E-11         0.00000E+00
    0.10847E-08         0.89523E-11         0.00000E+00
    0.11380E-08         0.94750E-11         0.00000E+00
    0.11950E-08         0.10034E-10         0.00000E+00
    0.12558E-08         0.10629E-10         0.00000E+00
    0.13206E-08         0.11260E-10         0.00000E+00
    0.13895E-08         0.11930E-10         0.00000E+00
    0.14628E-08         0.12639E-10         0.00000E+00
    0.15406E-08         0.13389E-10         0.00000E+00
    0.16234E-08         0.14181E-10         0.00000E+00
    0.17111E-08         0.15017E-10         0.00000E+00
    0.18043E-08         0.15900E-10         0.00000E+00
    0.19031E-08         0.16833E-10         0.00000E+00
    0.20078E-08         0.17817E-10         0.00000E+00
    0.21189E-08         0.18855E-10         0.00000E+00
    0.22365E-08         0.19950E-10         0.00000E+00
    0.23612E-08         0.21106E-10         0.00000E+00
    0.24932E-08         0.22325E-10         0.00000E+00
    0.26331E-08         0.23611E-10         0.00000E+00
    0.27812E-08         0.24968E-10         0.00000E+00
    0.29381E-08         0.26399E-10         0.00000E+00
    0.31041E-08         0.27908E-10         0.00000E+00
    0.32799E-08         0.29500E-10         0.00000E+00
    0.34661E-08         0.31179E-10         0.00000E+00
    0.36631E-08         0.32950E-10         0.00000E+00
    0.38717E-08         0.34817E-10         0.00000E+00
    0.40925E-08         0.36784E-10         0.00000E+00
    0.43263E-08         0.38859E-10         0.00000E+00
    0.45738E-08         0.41045E-10         0.00000E+00
    0.48358E-08         0.43349E-10         0.00000E+00
    0.51132E-08         0.45777E-10         0.00000E+00
    0.54069E-08         0.48334E-10         0.00000E+00
    0.57179E-08         0.51026E-10         0.00000E+00
    0.60472E-08         0.53862E-10         0.00000E+00
    0.63960E-08         0.56846E-10         0.00000E+00
    0.67653E-08         0.59986E-10         0.00000E+00
    0.71565E-08         0.63289E-10         0.00000E+00
    0.75710E-08         0.66762E-10         0.00000E+00
    0.80101E-08         0.70411E-10         0.00000E+00
    0.84754E-08         0.74244E-10         0.00000E+00
    0.89685E-08         0.78266E-10         0.00000E+00
    0.94912E-08         0.82484E-10         0.00000E+00
    0.10045E-07         0.86901E-10         0.00000E+00
    0.10633E-07         0.91522E-10         0.00000E+00
    0.11256E-07         0.96348E-10         0.00000E+00
    0.11917E-07         0.10138E-09         0.00000E+00
    0.12619E-07         0.10660E-09         0.00000E+00
    0.13364E-07         0.11202E-09         0.00000E+00
    0.14154E-07         0.11761E-09         0.00000E+00
    0.14994E-07         0.12334E-09         0.00000E+00
    0.15887E-07         0.12919E-09         0.00000E+00
    0.16835E-07         0.13509E-09         0.00000E+00
    0.17843E-07         0.14099E-09         0.00000E+00
    0.18915E-07         0.14679E-09         0.00000E+00
    0.20057E-07         0.15238E-09         0.00000E+00
    0.21271E-07         0.15760E-09         0.00000E+00
    0.22565E-07         0.16226E-09         0.00000E+00
    0.23944E-07         0.16610E-09         0.00000E+00
    0.25414E-07         0.16884E-09         0.00000E+00
    0.26982E-07         0.17011E-09         0.00000E+00
    0.28656E-07         0.16944E-09         0.00000E+00
    0.30443E-07         0.16632E-09         0.00000E+00
    0.32353E-07         0.16012E-09         0.00000E+00
    0.34396E-07         0.15014E-09         0.00000E+00
    0.36581E-07         0.13561E-09         0.00000E+00
    0.38919E-07         0.11567E-09         0.00000E+00
    0.41424E-07         0.89498E-10         0.00000E+00
    0.44109E-07         0.56301E-10         0.00000E+00
    0.46988E-07         0.15470E-10         0.00000E+00
    0.50076E-07        -0.33268E-10         0.00000E+00
    0.53392E-07        -0.89604E-10         0.00000E+00
    0.56952E-07        -0.15230E-09         0.00000E+00
    0.60777E-07        -0.21869E-09         0.00000E+00
    0.64889E-07        -0.28396E-09         0.00000E+00
    0.69308E-07        -0.34009E-09         0.00000E+00
    0.74059E-07        -0.37432E-09         0.00000E+00
    0.79161E-07        -0.36726E-09         0.00000E+00
    0.84629E-07        -0.29185E-09         0.00000E+00
    0.90460E-07        -0.11660E-09         0.00000E+00
    0.64676E-09         0.15109E-11         0.00000E+00
    0.63750E-09         0.39382E-11         0.00000E+00
    0.63119E-09         0.53483E-11         0.00000E+00
    0.62788E-09         0.60636E-11         0.00000E+00
    0.62752E-09         0.63441E-11         0.00000E+00
    0.63003E-09         0.63718E-11         0.00000E+00
    0.63533E-09         0.62672E-11         0.00000E+00
    0.64333E-09         0.61086E-11         0.00000E+00
    0.65397E-09         0.59461E-11         0.00000E+00
    0.66723E-09         0.58103E-11         0.00000E+00
    0.68307E-09         0.57190E-11         0.00000E+00
    0.70148E-09         0.56815E-11         0.00000E+00
    0.72248E-09         0.57012E-11         0.00000E+00
    0.74607E-09         0.57780E-11         0.00000E+00
    0.77230E-09         0.59101E-11         0.00000E+00
    0.80120E-09         0.60943E-11         0.00000E+00
    0.83284E-09         0.63271E-11         0.00000E+00
    0.86728E-09         0.66053E-11         0.00000E+00
    0.90460E-09         0.69257E-11         0.00000E+00
    0.94490E-09         0.72857E-11         0.00000E+00
    0.98828E-09         0.76834E-11         0.00000E+00
    0.10349E-08         0.81170E-11         0.00000E+00
    0.10848E-08         0.85857E-11         0.00000E+00
    0.11382E-08         0.90889E-11         0.00000E+00
    0.11952E-08         0.96265E-11         0.00000E+00
    0.12559E-08         0.10199E-10         0.00000E+00
    0.13207E-08         0.10806E-10         0.00000E+00
    0.13896E-08         0.11450E-10         0.00000E+00
    0.14629E-08         0.12132E-10         0.00000E+00
    0.15408E-08         0.12853E-10         0.00000E+00
    0.16235E-08         0.13614E-10         0.00000E+00
    0.17113E-08         0.14418E-10         0.00000E+00
    0.18045E-08         0.15267E-10         0.00000E+00
    0.19033E-08         0.16163E-10         0.00000E+00
    0.20080E-08         0.17108E-10         0.00000E+00
    0.21191E-08         0.18106E-10         0.00000E+00
    0.22368E-08         0.19158E-10         0.00000E+00
    0.23614E-08         0.20269E-10         0.00000E+00
    0.24935E-08         0.21441E-10         0.00000E+00
    0.26334E-08         0.22677E-10         0.00000E+00
    0.27815E-08         0.23981E-10         0.00000E+00
    0.29383E-08         0.25357E-10         0.00000E+00
    0.31044E-08         0.26808E-10         0.00000E+00
    0.32802E-08         0.28338E-10         0.00000E+00
    0.34664E-08         0.29953E-10         0.00000E+00
    0.36635E-08         0.31655E-10         0.00000E+00
    0.38721E-08         0.33450E-10         0.00000E+00
    0.40929E-08         0.35343E-10         0.00000E+00
    0.43267E-08         0.37339E-10         0.00000E+00
    0.45742E-08         0.39442E-10         0.00000E+00
    0.48363E-08         0.41659E-10         0.00000E+00
    0.51137E-08         0.43996E-10         0.00000E+00
    0.54074E-08         0.46457E-10         0.00000E+00
    0.57184E-08         0.49050E-10         0.00000E+00
    0.60478E-08         0.51781E-10         0.00000E+00
    0.63966E-08         0.54656E-10         0.00000E+00
    0.67659E-08         0.57682E-10         0.00000E+00
    0.71572E-08         0.60866E-10         0.00000E+00
    0.75717E-08         0.64215E-10         0.00000E+00
    0.80108E-08         0.67736E-10         0.00000E+00
    0.84761E-08         0.71435E-10         0.00000E+00
    0.89693E-08         0.75319E-10         0.00000E+00
    0.94920E-08         0.79394E-10         0.00000E+00
    0.10046E-07         0.83664E-10         0.00000E+00
    0.10634E-07         0.88134E-10         0.00000E+00
    0.11257E-07         0.92805E-10         0.00000E+00
    0.11918E-07         0.97677E-10         0.00000E+00
    0.12620E-07         0.10275E-09         0.00000E+00
    0.13365E-07         0.10800E-09         0.00000E+00
    0.14156E-07         0.11343E-09         0.00000E+00
    0.14995E-07         0.11901E-09         0.00000E+00
    0.15888E-07         0.12471E-09         0.00000E+00
    0.16836E-07         0.13048E-09         0.00000E+00
    0.17844E-07         0.13625E-09         0.00000E+00
    0.18917E-07         0.14194E-09         0.00000E+00
    0.20058E-07         0.14744E-09         0.00000E+00
    0.21272E-07         0.15261E-09         0.00000E+00
    0.22566E-07         0.15725E-09         0.00000E+00
    0.23945E-07         0.16113E-09         0.00000E+00
    0.25415E-07         0.16397E-09         0.00000E+00
    0.26982E-07         0.16540E-09         0.00000E+00
    0.28656E-07         0.16499E-09         0.00000E+00
    0.30443E-07         0.16224E-09         0.00000E+00
    0.32352E-07         0.15653E-09         0.00000E+00
    0.34393E-07         0.14719E-09         0.00000E+00
    0.36577E-07         0.13345E-09         0.00000E+00
    0.38915E-07         0.11449E-09         0.00000E+00
    0.41419E-07         0.89472E-10         0.00000E+00
    0.44102E-07         0.57621E-10         0.00000E+00
    0.46979E-07         0.18309E-10         0.00000E+00
    0.50066E-07        -0.28779E-10         0.00000E+00
    0.53380E-07        -0.83410E-10         0.00000E+00
    0.56939E-07        -0.14448E-09         0.00000E+00
    0.60764E-07        -0.20952E-09         0.00000E+00
    0.64876E-07        -0.27401E-09         0.00000E+00
    0.69298E-07        -0.33032E-09         0.00000E+00
    0.74055E-07        -0.36610E-09         0.00000E+00
    0.79168E-07        -0.36204E-09         0.00000E+00
    0.84652E-07        -0.29017E-09         0.00000E+00
    0.90506E-07        -0.11661E-09         0.00000E+00
    0.64736E-09         0.14821E-11         0.00000E+00
    0.63786E-09         0.38435E-11         0.00000E+00
    0.63138E-09         0.51839E-11         0.00000E+00
    0.62796E-09         0.58442E-11         0.00000E+00
    0.62754E-09         0.60890E-11         0.00000E+00
    0.63002E-09         0.60967E-11         0.00000E+00
    0.63530E-09         0.59830E-11         0.00000E+00
    0.64329E-09         0.58219E-11         0.00000E+00
    0.65394E-09         0.56602E-11         0.00000E+00
    0.66721E-09         0.55266E-11         0.00000E+00
    0.68306E-09         0.54373E-11         0.00000E+00
    0.70148E-09         0.54006E-11         0.00000E+00
    0.72249E-09         0.54195E-11         0.00000E+00
    0.74609E-09         0.54936E-11         0.00000E+00
    0.77233E-09         0.56210E-11         0.00000E+00
    0.80124E-09         0.57983E-11         0.00000E+00
    0.83289E-09         0.60223E-11         0.00000E+00
    0.86734E-09         0.62895E-11         0.00000E+00
    0.90467E-09         0.65971E-11         0.00000E+00
    0.94498E-09         0.69426E-11         0.00000E+00
    0.98837E-09         0.73238E-11         0.00000E+00
    0.10350E-08         0.77393E-11         0.00000E+00
    0.10849E-08         0.81882E-11         0.00000E+00
    0.11383E-08         0.86699E-11         0.00000E+00
    0.11953E-08         0.91843E-11         0.00000E+00
    0.12561E-08         0.97318E-11         0.00000E+00
    0.13208E-08         0.10313E-10         0.00000E+00
    0.13897E-08         0.10929E-10         0.00000E+00
    0.14630E-08         0.11580E-10         0.00000E+00
    0.15409E-08         0.12269E-10         0.00000E+00
    0.16237E-08         0.12997E-10         0.00000E+00
    0.17115E-08         0.13765E-10         0.00000E+00
    0.18046E-08         0.14577E-10         0.00000E+00
    0.19035E-08         0.15433E-10         0.00000E+00
    0.20082E-08         0.16336E-10         0.00000E+00
    0.21193E-08         0.17290E-10         0.00000E+00
    0.22370E-08         0.18296E-10         0.00000E+00
    0.23617E-08         0.19357E-10         0.00000E+00
    0.24937E-08         0.20477E-10         0.00000E+00
    0.26336E-08         0.21659E-10         0.00000E+00
    0.27818E-08         0.22905E-10         0.00000E+00
    0.29386E-08         0.24220E-10         0.00000E+00
    0.31047E-08         0.25607E-10         0.00000E+00
    0.32806E-08         0.27071E-10         0.00000E+00
    0.34667E-08         0.28614E-10         0.00000E+00
    0.36638E-08         0.30242E-10         0.00000E+00
    0.38724E-08         0.31959E-10         0.00000E+00
    0.40933E-08         0.33769E-10         0.00000E+00
    0.43271E-08         0.35678E-10         0.00000E+00
    0.45747E-08         0.37691E-10         0.00000E+00
    0.48367E-08         0.39813E-10         0.00000E+00
    0.51142E-08         0.42049E-10         0.00000E+00
    0.54079E-08         0.44405E-10         0.00000E+00
    0.57190E-08         0.46888E-10         0.00000E+00
    0.60483E-08         0.49504E-10         0.00000E+00
    0.63971E-08         0.52258E-10         0.00000E+00
    0.67666E-08         0.55158E-10         0.00000E+00
    0.71578E-08         0.58210E-10         0.00000E+00
    0.75724E-08         0.61422E-10         0.00000E+00
    0.80115E-08         0.64800E-10         0.00000E+00
    0.84769E-08         0.68350E-10         0.00000E+00
    0.89701E-08         0.72079E-10         0.00000E+00
    0.94929E-08         0.75994E-10         0.00000E+00
    0.10047E-07         0.80099E-10         0.00000E+00
    0.10635E-07         0.84399E-10         0.00000E+00
    0.11258E-07         0.88895E-10         0.00000E+00
    0.11919E-07         0.93589E-10         0.00000E+00
    0.12621E-07         0.98477E-10         0.00000E+00
    0.13366E-07         0.10355E-09         0.00000E+00
    0.14157E-07         0.10880E-09         0.00000E+00
    0.14997E-07         0.11420E-09         0.00000E+00
    0.15889E-07         0.11972E-09         0.00000E+00
    0.16837E-07         0.12532E-09         0.00000E+00
    0.17845E-07         0.13094E-09         0.00000E+00
    0.18918E-07         0.13649E-09         0.00000E+00
    0.20059E-07         0.14188E-09         0.00000E+00
    0.21273E-07         0.14696E-09         0.00000E+00
    0.22567E-07         0.15156E-09         0.00000E+00
    0.23945E-07         0.15545E-09         0.00000E+00
    0.25415E-07         0.15836E-09         0.00000E+00
    0.26983E-07         0.15994E-09         0.00000E+00
    0.28655E-07         0.15978E-09         0.00000E+00
    0.30442E-07         0.15739E-09         0.00000E+00
    0.32351E-07         0.15219E-09         0.00000E+00
    0.34391E-07         0.14351E-09         0.00000E+00
    0.36574E-07         0.13061E-09         0.00000E+00
    0.38911E-07         0.11269E-09         0.00000E+00
    0.41413E-07         0.88938E-10         0.00000E+00
    0.44095E-07         0.58568E-10         0.00000E+00
    0.46971E-07         0.20946E-10         0.00000E+00
    0.50056E-07        -0.24278E-10         0.00000E+00
    0.53369E-07        -0.76947E-10         0.00000E+00
    0.56927E-07        -0.13609E-09         0.00000E+00
    0.60751E-07        -0.19945E-09         0.00000E+00
    0.64864E-07        -0.26283E-09         0.00000E+00
    0.69288E-07        -0.31903E-09         0.00000E+00
    0.74050E-07        -0.35621E-09         0.00000E+00
    0.79173E-07        -0.35530E-09         0.00000E+00
    0.84674E-07        -0.28749E-09         0.00000E+00
    0.90553E-07        -0.11629E-09         0.00000E+00
    0.64794E-09         0.14482E-11         0.00000E+00
    0.63821E-09         0.37339E-11         0.00000E+00
    0.63156E-09         0.49976E-11         0.00000E+00
    0.62804E-09         0.55998E-11         0.00000E+00
    0.62756E-09         0.58082E-11         0.00000E+00
    0.63000E-09         0.57968E-11         0.00000E+00
    0.63527E-09         0.56753E-11         0.00000E+00
    0.64326E-09         0.55129E-11         0.00000E+00
    0.65391E-09         0.53533E-11         0.00000E+00
    0.66718E-09         0.52226E-11         0.00000E+00
    0.68304E-09         0.51359E-11         0.00000E+00
    0.70148E-09         0.51004E-11         0.00000E+00
    0.72249E-09         0.51185E-11         0.00000E+00
    0.74611E-09         0.51898E-11         0.00000E+00
    0.77236E-09         0.53118E-11         0.00000E+00
    0.80128E-09         0.54816E-11         0.00000E+00
    0.83294E-09         0.56957E-11         0.00000E+00
    0.86739E-09         0.59510E-11         0.00000E+00
    0.90473E-09         0.62445E-11         0.00000E+00
    0.94505E-09         0.65739E-11         0.00000E+00
    0.98844E-09         0.69371E-11         0.00000E+00
    0.10350E-08         0.73328E-11         0.00000E+00
    0.10850E-08         0.77600E-11         0.00000E+00
    0.11384E-08         0.82183E-11         0.00000E+00
    0.11954E-08         0.87075E-11         0.00000E+00
    0.12562E-08         0.92280E-11         0.00000E+00
    0.13209E-08         0.97804E-11         0.00000E+00
    0.13899E-08         0.10366E-10         0.00000E+00
    0.14632E-08         0.10985E-10         0.00000E+00
    0.15411E-08         0.11639E-10         0.00000E+00
    0.16238E-08         0.12330E-10         0.00000E+00
    0.17116E-08         0.13060E-10         0.00000E+00
    0.18048E-08         0.13831E-10         0.00000E+00
    0.19036E-08         0.14644E-10         0.00000E+00
    0.20084E-08         0.15502E-10         0.00000E+00
    0.21195E-08         0.16407E-10         0.00000E+00
    0.22372E-08         0.17363E-10         0.00000E+00
    0.23619E-08         0.18371E-10         0.00000E+00
    0.24940E-08         0.19434E-10         0.00000E+00
    0.26338E-08         0.20557E-10         0.00000E+00
    0.27820E-08         0.21741E-10         0.00000E+00
    0.29389E-08         0.22990E-10         0.00000E+00
    0.31050E-08         0.24307E-10         0.00000E+00
    0.32808E-08         0.25698E-10         0.00000E+00
    0.34670E-08         0.27164E-10         0.00000E+00
    0.36641E-08         0.28711E-10         0.00000E+00
    0.38728E-08         0.30343E-10         0.00000E+00
    0.40937E-08         0.32064E-10         0.00000E+00
    0.43275E-08         0.33879E-10         0.00000E+00
    0.45751E-08         0.35792E-10         0.00000E+00
    0.48372E-08         0.37810E-10         0.00000E+00
    0.51146E-08         0.39937E-10         0.00000E+00
    0.54084E-08         0.42179E-10         0.00000E+00
    0.57195E-08         0.44541E-10         0.00000E+00
    0.60489E-08         0.47030E-10         0.00000E+00
    0.63977E-08         0.49653E-10         0.00000E+00
    0.67671E-08         0.52414E-10         0.00000E+00
    0.71585E-08         0.55322E-10         0.00000E+00
    0.75730E-08         0.58383E-10         0.00000E+00
    0.80122E-08         0.61603E-10         0.00000E+00
    0.84776E-08         0.64989E-10         0.00000E+00
    0.89708E-08         0.68548E-10         0.00000E+00
    0.94936E-08         0.72285E-10         0.00000E+00
    0.10048E-07         0.76207E-10         0.00000E+00
    0.10636E-07         0.80317E-10         0.00000E+00
    0.11259E-07         0.84618E-10         0.00000E+00
    0.11920E-07         0.89111E-10         0.00000E+00
    0.12622E-07         0.93795E-10         0.00000E+00
    0.13367E-07         0.98661E-10         0.00000E+00
    0.14158E-07         0.10370E-09         0.00000E+00
    0.14998E-07         0.10889E-09         0.00000E+00
    0.15890E-07         0.11421E-09         0.00000E+00
    0.16838E-07         0.11961E-09         0.00000E+00
    0.17846E-07         0.12504E-09         0.00000E+00
    0.18919E-07         0.13043E-09         0.00000E+00
    0.20060E-07         0.13567E-09         0.00000E+00
    0.21274E-07         0.14063E-09         0.00000E+00
    0.22568E-07         0.14516E-09         0.00000E+00
    0.23946E-07         0.14903E-09         0.00000E+00
    0.25415E-07         0.15199E-09         0.00000E+00
    0.26983E-07         0.15370E-09         0.00000E+00
    0.28655E-07         0.15378E-09         0.00000E+00
    0.30441E-07         0.15175E-09         0.00000E+00
    0.32349E-07         0.14706E-09         0.00000E+00
    0.34389E-07         0.13906E-09         0.00000E+00
    0.36571E-07         0.12705E-09         0.00000E+00
    0.38907E-07         0.11024E-09         0.00000E+00
    0.41408E-07         0.87841E-10         0.00000E+00
    0.44088E-07         0.59084E-10         0.00000E+00
    0.46963E-07         0.23323E-10         0.00000E+00
    0.50046E-07        -0.19822E-10         0.00000E+00
    0.53358E-07        -0.70269E-10         0.00000E+00
    0.56915E-07        -0.12718E-09         0.00000E+00
    0.60738E-07        -0.18851E-09         0.00000E+00
    0.64851E-07        -0.25041E-09         0.00000E+00
    0.69278E-07        -0.30617E-09         0.00000E+00
    0.74045E-07        -0.34454E-09         0.00000E+00
    0.79178E-07        -0.34686E-09         0.00000E+00
    0.84696E-07        -0.28364E-09         0.00000E+00
    0.90599E-07        -0.11559E-09         0.00000E+00
    0.64851E-09         0.14087E-11         0.00000E+00
    0.63853E-09         0.36082E-11         0.00000E+00
    0.63172E-09         0.47878E-11         0.00000E+00
    0.62810E-09         0.53291E-11         0.00000E+00
    0.62757E-09         0.55013E-11         0.00000E+00
    0.62998E-09         0.54720E-11         0.00000E+00
    0.63524E-09         0.53441E-11         0.00000E+00
    0.64323E-09         0.51821E-11         0.00000E+00
    0.65388E-09         0.50257E-11         0.00000E+00
    0.66716E-09         0.48991E-11         0.00000E+00
    0.68303E-09         0.48156E-11         0.00000E+00
    0.70148E-09         0.47815E-11         0.00000E+00
    0.72250E-09         0.47989E-11         0.00000E+00
    0.74613E-09         0.48669E-11         0.00000E+00
    0.77239E-09         0.49832E-11         0.00000E+00
    0.80132E-09         0.51447E-11         0.00000E+00
    0.83298E-09         0.53480E-11         0.00000E+00
    0.86745E-09         0.55902E-11         0.00000E+00
    0.90479E-09         0.58683E-11         0.00000E+00
    0.94512E-09         0.61801E-11         0.00000E+00
    0.98852E-09         0.65238E-11         0.00000E+00
    0.10351E-08         0.68979E-11         0.00000E+00
    0.10850E-08         0.73017E-11         0.00000E+00
    0.11384E-08         0.77345E-11         0.00000E+00
    0.11955E-08         0.81965E-11         0.00000E+00
    0.12563E-08         0.86878E-11         0.00000E+00
    0.13210E-08         0.92091E-11         0.00000E+00
    0.13900E-08         0.97612E-11         0.00000E+00
    0.14633E-08         0.10345E-10         0.00000E+00
    0.15412E-08         0.10962E-10         0.00000E+00
    0.16239E-08         0.11614E-10         0.00000E+00
    0.17118E-08         0.12303E-10         0.00000E+00
    0.18050E-08         0.13029E-10         0.00000E+00
    0.19038E-08         0.13796E-10         0.00000E+00
    0.20086E-08         0.14605E-10         0.00000E+00
    0.21197E-08         0.15459E-10         0.00000E+00
    0.22374E-08         0.16360E-10         0.00000E+00
    0.23621E-08         0.17310E-10         0.00000E+00
    0.24942E-08         0.18313E-10         0.00000E+00
    0.26341E-08         0.19371E-10         0.00000E+00
    0.27822E-08         0.20488E-10         0.00000E+00
    0.29391E-08         0.21666E-10         0.00000E+00
    0.31052E-08         0.22909E-10         0.00000E+00
    0.32811E-08         0.24220E-10         0.00000E+00
    0.34673E-08         0.25604E-10         0.00000E+00
    0.36644E-08         0.27064E-10         0.00000E+00
    0.38731E-08         0.28603E-10         0.00000E+00
    0.40940E-08         0.30227E-10         0.00000E+00
    0.43279E-08         0.31940E-10         0.00000E+00
    0.45755E-08         0.33747E-10         0.00000E+00
    0.48376E-08         0.35652E-10         0.00000E+00
    0.51150E-08         0.37660E-10         0.00000E+00
    0.54089E-08         0.39778E-10         0.00000E+00
    0.57199E-08         0.42010E-10         0.00000E+00
    0.60494E-08         0.44362E-10         0.00000E+00
    0.63982E-08         0.46841E-10         0.00000E+00
    0.67677E-08         0.49452E-10         0.00000E+00
    0.71590E-08         0.52203E-10         0.00000E+00
    0.75736E-08         0.55099E-10         0.00000E+00
    0.80128E-08         0.58146E-10         0.00000E+00
    0.84783E-08         0.61353E-10         0.00000E+00
    0.89715E-08         0.64725E-10         0.00000E+00
    0.94944E-08         0.68267E-10         0.00000E+00
    0.10049E-07         0.71987E-10         0.00000E+00
    0.10636E-07         0.75887E-10         0.00000E+00
    0.11260E-07         0.79972E-10         0.00000E+00
    0.11921E-07         0.84243E-10         0.00000E+00
    0.12623E-07         0.88699E-10         0.00000E+00
    0.13368E-07         0.93333E-10         0.00000E+00
    0.14159E-07         0.98137E-10         0.00000E+00
    0.14999E-07         0.10309E-09         0.00000E+00
    0.15891E-07         0.10818E-09         0.00000E+00
    0.16839E-07         0.11335E-09         0.00000E+00
    0.17847E-07         0.11856E-09         0.00000E+00
    0.18920E-07         0.12375E-09         0.00000E+00
    0.20061E-07         0.12881E-09         0.00000E+00
    0.21275E-07         0.13363E-09         0.00000E+00
    0.22569E-07         0.13804E-09         0.00000E+00
    0.23947E-07         0.14186E-09         0.00000E+00
    0.25416E-07         0.14484E-09         0.00000E+00
    0.26983E-07         0.14666E-09         0.00000E+00
    0.28655E-07         0.14696E-09         0.00000E+00
    0.30441E-07         0.14528E-09         0.00000E+00
    0.32348E-07         0.14109E-09         0.00000E+00
    0.34387E-07         0.13380E-09         0.00000E+00
    0.36568E-07         0.12271E-09         0.00000E+00
    0.38903E-07         0.10708E-09         0.00000E+00
    0.41403E-07         0.86127E-10         0.00000E+00
    0.44082E-07         0.59108E-10         0.00000E+00
    0.46955E-07         0.25378E-10         0.00000E+00
    0.50037E-07        -0.15473E-10         0.00000E+00
    0.53347E-07        -0.63432E-10         0.00000E+00
    0.56903E-07        -0.11779E-09         0.00000E+00
    0.60726E-07        -0.17673E-09         0.00000E+00
    0.64839E-07        -0.23676E-09         0.00000E+00
    0.69268E-07        -0.29168E-09         0.00000E+00
    0.74040E-07        -0.33095E-09         0.00000E+00
    0.79182E-07        -0.33653E-09         0.00000E+00
    0.84716E-07        -0.27845E-09         0.00000E+00
    0.90645E-07        -0.11443E-09         0.00000E+00
    0.64907E-09         0.13628E-11         0.00000E+00
    0.63884E-09         0.34645E-11         0.00000E+00
    0.63187E-09         0.45529E-11         0.00000E+00
    0.62816E-09         0.50311E-11         0.00000E+00
    0.62757E-09         0.51678E-11         0.00000E+00
    0.62996E-09         0.51223E-11         0.00000E+00
    0.63520E-09         0.49899E-11         0.00000E+00
    0.64319E-09         0.48298E-11         0.00000E+00
    0.65386E-09         0.46781E-11         0.00000E+00
    0.66714E-09         0.45565E-11         0.00000E+00
    0.68302E-09         0.44769E-11         0.00000E+00
    0.70147E-09         0.44446E-11         0.00000E+00
    0.72251E-09         0.44613E-11         0.00000E+00
    0.74615E-09         0.45258E-11         0.00000E+00
    0.77241E-09         0.46357E-11         0.00000E+00
    0.80135E-09         0.47881E-11         0.00000E+00
    0.83302E-09         0.49797E-11         0.00000E+00
    0.86750E-09         0.52075E-11         0.00000E+00
    0.90485E-09         0.54689E-11         0.00000E+00
    0.94518E-09         0.57618E-11         0.00000E+00
    0.98859E-09         0.60842E-11         0.00000E+00
    0.10352E-08         0.64351E-11         0.00000E+00
    0.10851E-08         0.68135E-11         0.00000E+00
    0.11385E-08         0.72190E-11         0.00000E+00
    0.11956E-08         0.76517E-11         0.00000E+00
    0.12564E-08         0.81116E-11         0.00000E+00
    0.13212E-08         0.85995E-11         0.00000E+00
    0.13901E-08         0.91161E-11         0.00000E+00
    0.14634E-08         0.96625E-11         0.00000E+00
    0.15413E-08         0.10240E-10         0.00000E+00
    0.16241E-08         0.10850E-10         0.00000E+00
    0.17119E-08         0.11493E-10         0.00000E+00
    0.18051E-08         0.12173E-10         0.00000E+00
    0.19039E-08         0.12890E-10         0.00000E+00
    0.20087E-08         0.13646E-10         0.00000E+00
    0.21198E-08         0.14445E-10         0.00000E+00
    0.22375E-08         0.15287E-10         0.00000E+00
    0.23623E-08         0.16176E-10         0.00000E+00
    0.24944E-08         0.17114E-10         0.00000E+00
    0.26343E-08         0.18104E-10         0.00000E+00
    0.27825E-08         0.19148E-10         0.00000E+00
    0.29394E-08         0.20250E-10         0.00000E+00
    0.31055E-08         0.21413E-10         0.00000E+00
    0.32814E-08         0.22640E-10         0.00000E+00
    0.34676E-08         0.23934E-10         0.00000E+00
    0.36647E-08         0.25300E-10         0.00000E+00
    0.38734E-08         0.26741E-10         0.00000E+00
    0.40943E-08         0.28261E-10         0.00000E+00
    0.43282E-08         0.29864E-10         0.00000E+00
    0.45758E-08         0.31555E-10         0.00000E+00
    0.48379E-08         0.33339E-10         0.00000E+00
    0.51154E-08         0.35220E-10         0.00000E+00
    0.54093E-08         0.37204E-10         0.00000E+00
    0.57204E-08         0.39295E-10         0.00000E+00
    0.60498E-08         0.41500E-10         0.00000E+00
    0.63987E-08         0.43824E-10         0.00000E+00
    0.67682E-08         0.46272E-10         0.00000E+00
    0.71596E-08         0.48852E-10         0.00000E+00
    0.75742E-08         0.51570E-10         0.00000E+00
    0.80135E-08         0.54431E-10         0.00000E+00
    0.84789E-08         0.57442E-10         0.00000E+00
    0.89722E-08         0.60610E-10         0.00000E+00
    0.94951E-08         0.63941E-10         0.00000E+00
    0.10049E-07         0.67439E-10         0.00000E+00
    0.10637E-07         0.71110E-10         0.00000E+00
    0.11261E-07         0.74958E-10         0.00000E+00
    0.11922E-07         0.78984E-10         0.00000E+00
    0.12624E-07         0.83187E-10         0.00000E+00
    0.13369E-07         0.87564E-10         0.00000E+00
    0.14160E-07         0.92106E-10         0.00000E+00
    0.15000E-07         0.96798E-10         0.00000E+00
    0.15892E-07         0.10162E-09         0.00000E+00
    0.16840E-07         0.10653E-09         0.00000E+00
    0.17849E-07         0.11150E-09         0.00000E+00
    0.18921E-07         0.11644E-09         0.00000E+00
    0.20062E-07         0.12129E-09         0.00000E+00
    0.21276E-07         0.12592E-09         0.00000E+00
    0.22570E-07         0.13020E-09         0.00000E+00
    0.23948E-07         0.13393E-09         0.00000E+00
    0.25416E-07         0.13689E-09         0.00000E+00
    0.26983E-07         0.13879E-09         0.00000E+00
    0.28655E-07         0.13928E-09         0.00000E+00
    0.30440E-07         0.13794E-09         0.00000E+00
    0.32347E-07         0.13427E-09         0.00000E+00
    0.34386E-07         0.12769E-09         0.00000E+00
    0.36566E-07         0.11755E-09         0.00000E+00
    0.38899E-07         0.10315E-09         0.00000E+00
    0.41398E-07         0.83733E-10         0.00000E+00
    0.44076E-07         0.58577E-10         0.00000E+00
    0.46948E-07         0.27042E-10         0.00000E+00
    0.50029E-07        -0.11301E-10         0.00000E+00
    0.53337E-07        -0.56501E-10         0.00000E+00
    0.56892E-07        -0.10798E-09         0.00000E+00
    0.60714E-07        -0.16415E-09         0.00000E+00
    0.64828E-07        -0.22187E-09         0.00000E+00
    0.69258E-07        -0.27552E-09         0.00000E+00
    0.74034E-07        -0.31533E-09         0.00000E+00
    0.79185E-07        -0.32412E-09         0.00000E+00
    0.84735E-07        -0.27172E-09         0.00000E+00
    0.90691E-07        -0.11271E-09         0.00000E+00
    0.64960E-09         0.13096E-11         0.00000E+00
    0.63912E-09         0.33008E-11         0.00000E+00
    0.63200E-09         0.42908E-11         0.00000E+00
    0.62820E-09         0.47048E-11         0.00000E+00
    0.62757E-09         0.48074E-11         0.00000E+00
    0.62994E-09         0.47477E-11         0.00000E+00
    0.63517E-09         0.46130E-11         0.00000E+00
    0.64316E-09         0.44566E-11         0.00000E+00
    0.65383E-09         0.43111E-11         0.00000E+00
    0.66712E-09         0.41956E-11         0.00000E+00
    0.68301E-09         0.41205E-11         0.00000E+00
    0.70147E-09         0.40903E-11         0.00000E+00
    0.72252E-09         0.41062E-11         0.00000E+00
    0.74616E-09         0.41669E-11         0.00000E+00
    0.77244E-09         0.42699E-11         0.00000E+00
    0.80139E-09         0.44123E-11         0.00000E+00
    0.83307E-09         0.45911E-11         0.00000E+00
    0.86754E-09         0.48035E-11         0.00000E+00
    0.90490E-09         0.50469E-11         0.00000E+00
    0.94524E-09         0.53192E-11         0.00000E+00
    0.98865E-09         0.56189E-11         0.00000E+00
    0.10353E-08         0.59447E-11         0.00000E+00
    0.10852E-08         0.62960E-11         0.00000E+00
    0.11386E-08         0.66722E-11         0.00000E+00
    0.11956E-08         0.70734E-11         0.00000E+00
    0.12565E-08         0.74999E-11         0.00000E+00
    0.13212E-08         0.79521E-11         0.00000E+00
    0.13902E-08         0.84307E-11         0.00000E+00
    0.14635E-08         0.89369E-11         0.00000E+00
    0.15414E-08         0.94717E-11         0.00000E+00
    0.16242E-08         0.10036E-10         0.00000E+00
    0.17120E-08         0.10633E-10         0.00000E+00
    0.18052E-08         0.11262E-10         0.00000E+00
    0.19041E-08         0.11926E-10         0.00000E+00
    0.20089E-08         0.12626E-10         0.00000E+00
    0.21200E-08         0.13366E-10         0.00000E+00
    0.22377E-08         0.14146E-10         0.00000E+00
    0.23624E-08         0.14969E-10         0.00000E+00
    0.24945E-08         0.15838E-10         0.00000E+00
    0.26345E-08         0.16754E-10         0.00000E+00
    0.27827E-08         0.17722E-10         0.00000E+00
    0.29396E-08         0.18742E-10         0.00000E+00
    0.31057E-08         0.19819E-10         0.00000E+00
    0.32816E-08         0.20956E-10         0.00000E+00
    0.34679E-08         0.22155E-10         0.00000E+00
    0.36650E-08         0.23421E-10         0.00000E+00
    0.38737E-08         0.24756E-10         0.00000E+00
    0.40946E-08         0.26165E-10         0.00000E+00
    0.43285E-08         0.27651E-10         0.00000E+00
    0.45761E-08         0.29219E-10         0.00000E+00
    0.48383E-08         0.30873E-10         0.00000E+00
    0.51158E-08         0.32618E-10         0.00000E+00
    0.54097E-08         0.34458E-10         0.00000E+00
    0.57208E-08         0.36398E-10         0.00000E+00
    0.60503E-08         0.38444E-10         0.00000E+00
    0.63992E-08         0.40602E-10         0.00000E+00
    0.67687E-08         0.42876E-10         0.00000E+00
    0.71601E-08         0.45272E-10         0.00000E+00
    0.75747E-08         0.47797E-10         0.00000E+00
    0.80140E-08         0.50457E-10         0.00000E+00
    0.84795E-08         0.53257E-10         0.00000E+00
    0.89728E-08         0.56205E-10         0.00000E+00
    0.94957E-08         0.59305E-10         0.00000E+00
    0.10050E-07         0.62564E-10         0.00000E+00
    0.10638E-07         0.65985E-10         0.00000E+00
    0.11261E-07         0.69574E-10         0.00000E+00
    0.11923E-07         0.73332E-10         0.00000E+00
    0.12625E-07         0.77259E-10         0.00000E+00
    0.13370E-07         0.81352E-10         0.00000E+00
    0.14161E-07         0.85604E-10         0.00000E+00
    0.15001E-07         0.90003E-10         0.00000E+00
    0.15893E-07         0.94528E-10         0.00000E+00
    0.16841E-07         0.99150E-10         0.00000E+00
    0.17849E-07         0.10383E-09         0.00000E+00
    0.18922E-07         0.10850E-09         0.00000E+00
    0.20063E-07         0.11310E-09         0.00000E+00
    0.21277E-07         0.11751E-09         0.00000E+00
    0.22570E-07         0.12160E-09         0.00000E+00
    0.23948E-07         0.12521E-09         0.00000E+00
    0.25417E-07         0.12813E-09         0.00000E+00
    0.26983E-07         0.13008E-09         0.00000E+00
    0.28655E-07         0.13073E-09         0.00000E+00
    0.30440E-07         0.12971E-09         0.00000E+00
    0.32346E-07         0.12654E-09         0.00000E+00
    0.34384E-07         0.12068E-09         0.00000E+00
    0.36564E-07         0.11152E-09         0.00000E+00
    0.38896E-07         0.98400E-10         0.00000E+00
    0.41394E-07         0.80598E-10         0.00000E+00
    0.44071E-07         0.57421E-10         0.00000E+00
    0.46941E-07         0.28243E-10         0.00000E+00
    0.50021E-07        -0.73772E-11         0.00000E+00
    0.53328E-07        -0.49547E-10         0.00000E+00
    0.56881E-07        -0.97807E-10         0.00000E+00
    0.60703E-07        -0.15080E-09         0.00000E+00
    0.64816E-07        -0.20576E-09         0.00000E+00
    0.69248E-07        -0.25763E-09         0.00000E+00
    0.74028E-07        -0.29753E-09         0.00000E+00
    0.79187E-07        -0.30937E-09         0.00000E+00
    0.84753E-07        -0.26318E-09         0.00000E+00
    0.90735E-07        -0.11034E-09         0.00000E+00
    0.65011E-09         0.12480E-11         0.00000E+00
    0.63938E-09         0.31146E-11         0.00000E+00
    0.63212E-09         0.39995E-11         0.00000E+00
    0.62824E-09         0.43488E-11         0.00000E+00
    0.62757E-09         0.44195E-11         0.00000E+00
    0.62992E-09         0.43483E-11         0.00000E+00
    0.63514E-09         0.42137E-11         0.00000E+00
    0.64313E-09         0.40631E-11         0.00000E+00
    0.65380E-09         0.39253E-11         0.00000E+00
    0.66710E-09         0.38170E-11         0.00000E+00
    0.68300E-09         0.37471E-11         0.00000E+00
    0.70147E-09         0.37193E-11         0.00000E+00
    0.72253E-09         0.37344E-11         0.00000E+00
    0.74618E-09         0.37908E-11         0.00000E+00
    0.77246E-09         0.38863E-11         0.00000E+00
    0.80142E-09         0.40179E-11         0.00000E+00
    0.83310E-09         0.41829E-11         0.00000E+00
    0.86759E-09         0.43786E-11         0.00000E+00
    0.90495E-09         0.46025E-11         0.00000E+00
    0.94529E-09         0.48529E-11         0.00000E+00
    0.98871E-09         0.51282E-11         0.00000E+00
    0.10353E-08         0.54273E-11         0.00000E+00
    0.10853E-08         0.57495E-11         0.00000E+00
    0.11387E-08         0.60945E-11         0.00000E+00
    0.11957E-08         0.64622E-11         0.00000E+00
    0.12565E-08         0.68530E-11         0.00000E+00
    0.13213E-08         0.72672E-11         0.00000E+00
    0.13903E-08         0.77055E-11         0.00000E+00
    0.14636E-08         0.81690E-11         0.00000E+00
    0.15415E-08         0.86586E-11         0.00000E+00
    0.16243E-08         0.91755E-11         0.00000E+00
    0.17122E-08         0.97212E-11         0.00000E+00
    0.18054E-08         0.10297E-10         0.00000E+00
    0.19042E-08         0.10905E-10         0.00000E+00
    0.20090E-08         0.11546E-10         0.00000E+00
    0.21201E-08         0.12223E-10         0.00000E+00
    0.22379E-08         0.12937E-10         0.00000E+00
    0.23626E-08         0.13690E-10         0.00000E+00
    0.24947E-08         0.14485E-10         0.00000E+00
    0.26347E-08         0.15324E-10         0.00000E+00
    0.27829E-08         0.16209E-10         0.00000E+00
    0.29398E-08         0.17144E-10         0.00000E+00
    0.31059E-08         0.18130E-10         0.00000E+00
    0.32819E-08         0.19170E-10         0.00000E+00
    0.34681E-08         0.20268E-10         0.00000E+00
    0.36652E-08         0.21427E-10         0.00000E+00
    0.38740E-08         0.22650E-10         0.00000E+00
    0.40949E-08         0.23941E-10         0.00000E+00
    0.43288E-08         0.25302E-10         0.00000E+00
    0.45765E-08         0.26739E-10         0.00000E+00
    0.48386E-08         0.28255E-10         0.00000E+00
    0.51162E-08         0.29854E-10         0.00000E+00
    0.54100E-08         0.31541E-10         0.00000E+00
    0.57212E-08         0.33320E-10         0.00000E+00
    0.60507E-08         0.35197E-10         0.00000E+00
    0.63996E-08         0.37176E-10         0.00000E+00
    0.67691E-08         0.39263E-10         0.00000E+00
    0.71606E-08         0.41463E-10         0.00000E+00
    0.75752E-08         0.43782E-10         0.00000E+00
    0.80145E-08         0.46225E-10         0.00000E+00
    0.84801E-08         0.48799E-10         0.00000E+00
    0.89734E-08         0.51509E-10         0.00000E+00
    0.94964E-08         0.54361E-10         0.00000E+00
    0.10051E-07         0.57361E-10         0.00000E+00
    0.10639E-07         0.60513E-10         0.00000E+00
    0.11262E-07         0.63820E-10         0.00000E+00
    0.11924E-07         0.67287E-10         0.00000E+00
    0.12625E-07         0.70912E-10         0.00000E+00
    0.13370E-07         0.74695E-10         0.00000E+00
    0.14161E-07         0.78630E-10         0.00000E+00
    0.15001E-07         0.82705E-10         0.00000E+00
    0.15894E-07         0.86903E-10         0.00000E+00
    0.16842E-07         0.91199E-10         0.00000E+00
    0.17850E-07         0.95554E-10         0.00000E+00
    0.18923E-07         0.99919E-10         0.00000E+00
    0.20064E-07         0.10422E-09         0.00000E+00
    0.21278E-07         0.10837E-09         0.00000E+00
    0.22571E-07         0.11225E-09         0.00000E+00
    0.23949E-07         0.11570E-09         0.00000E+00
    0.25417E-07         0.11852E-09         0.00000E+00
    0.26984E-07         0.12048E-09         0.00000E+00
    0.28655E-07         0.12128E-09         0.00000E+00
    0.30439E-07         0.12055E-09         0.00000E+00
    0.32345E-07         0.11786E-09         0.00000E+00
    0.34383E-07         0.11273E-09         0.00000E+00
    0.36561E-07         0.10457E-09         0.00000E+00
    0.38893E-07         0.92768E-10         0.00000E+00
    0.41390E-07         0.76655E-10         0.00000E+00
    0.44066E-07         0.55568E-10         0.00000E+00
    0.46935E-07         0.28905E-10         0.00000E+00
    0.50013E-07        -0.37815E-11         0.00000E+00
    0.53319E-07        -0.42646E-10         0.00000E+00
    0.56871E-07        -0.87346E-10         0.00000E+00
    0.60692E-07        -0.13674E-09         0.00000E+00
    0.64806E-07        -0.18843E-09         0.00000E+00
    0.69239E-07        -0.23797E-09         0.00000E+00
    0.74022E-07        -0.27743E-09         0.00000E+00
    0.79188E-07        -0.29204E-09         0.00000E+00
    0.84769E-07        -0.25253E-09         0.00000E+00
    0.90779E-07        -0.10717E-09         0.00000E+00
    0.65060E-09         0.11765E-11         0.00000E+00
    0.63962E-09         0.29030E-11         0.00000E+00
    0.63221E-09         0.36765E-11         0.00000E+00
    0.62827E-09         0.39622E-11         0.00000E+00
    0.62756E-09         0.40040E-11         0.00000E+00
    0.62990E-09         0.39243E-11         0.00000E+00
    0.63511E-09         0.37924E-11         0.00000E+00
    0.64310E-09         0.36498E-11         0.00000E+00
    0.65378E-09         0.35214E-11         0.00000E+00
    0.66709E-09         0.34214E-11         0.00000E+00
    0.68299E-09         0.33574E-11         0.00000E+00
    0.70147E-09         0.33323E-11         0.00000E+00
    0.72253E-09         0.33464E-11         0.00000E+00
    0.74620E-09         0.33983E-11         0.00000E+00
    0.77248E-09         0.34856E-11         0.00000E+00
    0.80145E-09         0.36056E-11         0.00000E+00
    0.83314E-09         0.37556E-11         0.00000E+00
    0.86763E-09         0.39333E-11         0.00000E+00
    0.90500E-09         0.41365E-11         0.00000E+00
    0.94534E-09         0.43634E-11         0.00000E+00
    0.98877E-09         0.46126E-11         0.00000E+00
    0.10354E-08         0.48832E-11         0.00000E+00
    0.10853E-08         0.51745E-11         0.00000E+00
    0.11388E-08         0.54863E-11         0.00000E+00
    0.11958E-08         0.58185E-11         0.00000E+00
    0.12566E-08         0.61713E-11         0.00000E+00
    0.13214E-08         0.65452E-11         0.00000E+00
    0.13904E-08         0.69409E-11         0.00000E+00
    0.14637E-08         0.73591E-11         0.00000E+00
    0.15416E-08         0.78008E-11         0.00000E+00
    0.16244E-08         0.82672E-11         0.00000E+00
    0.17123E-08         0.87594E-11         0.00000E+00
    0.18055E-08         0.92789E-11         0.00000E+00
    0.19043E-08         0.98270E-11         0.00000E+00
    0.20092E-08         0.10405E-10         0.00000E+00
    0.21203E-08         0.11016E-10         0.00000E+00
    0.22380E-08         0.11660E-10         0.00000E+00
    0.23627E-08         0.12339E-10         0.00000E+00
    0.24949E-08         0.13056E-10         0.00000E+00
    0.26348E-08         0.13813E-10         0.00000E+00
    0.27830E-08         0.14612E-10         0.00000E+00
    0.29400E-08         0.15455E-10         0.00000E+00
    0.31061E-08         0.16344E-10         0.00000E+00
    0.32821E-08         0.17283E-10         0.00000E+00
    0.34683E-08         0.18274E-10         0.00000E+00
    0.36655E-08         0.19320E-10         0.00000E+00
    0.38742E-08         0.20424E-10         0.00000E+00
    0.40952E-08         0.21589E-10         0.00000E+00
    0.43291E-08         0.22818E-10         0.00000E+00
    0.45767E-08         0.24116E-10         0.00000E+00
    0.48389E-08         0.25485E-10         0.00000E+00
    0.51165E-08         0.26929E-10         0.00000E+00
    0.54104E-08         0.28453E-10         0.00000E+00
    0.57215E-08         0.30061E-10         0.00000E+00
    0.60510E-08         0.31758E-10         0.00000E+00
    0.64000E-08         0.33547E-10         0.00000E+00
    0.67695E-08         0.35435E-10         0.00000E+00
    0.71610E-08         0.37425E-10         0.00000E+00
    0.75757E-08         0.39524E-10         0.00000E+00
    0.80150E-08         0.41736E-10         0.00000E+00
    0.84806E-08         0.44068E-10         0.00000E+00
    0.89739E-08         0.46524E-10         0.00000E+00
    0.94969E-08         0.49110E-10         0.00000E+00
    0.10051E-07         0.51831E-10         0.00000E+00
    0.10639E-07         0.54692E-10         0.00000E+00
    0.11263E-07         0.57697E-10         0.00000E+00
    0.11924E-07         0.60848E-10         0.00000E+00
    0.12626E-07         0.64147E-10         0.00000E+00
    0.13371E-07         0.67592E-10         0.00000E+00
    0.14162E-07         0.71179E-10         0.00000E+00
    0.15002E-07         0.74900E-10         0.00000E+00
    0.15895E-07         0.78738E-10         0.00000E+00
    0.16843E-07         0.82672E-10         0.00000E+00
    0.17851E-07         0.86670E-10         0.00000E+00
    0.18923E-07         0.90686E-10         0.00000E+00
    0.20064E-07         0.94658E-10         0.00000E+00
    0.21279E-07         0.98504E-10         0.00000E+00
    0.22572E-07         0.10212E-09         0.00000E+00
    0.23949E-07         0.10536E-09         0.00000E+00
    0.25418E-07         0.10805E-09         0.00000E+00
    0.26984E-07         0.10999E-09         0.00000E+00
    0.28655E-07         0.11088E-09         0.00000E+00
    0.30439E-07         0.11042E-09         0.00000E+00
    0.32345E-07         0.10820E-09         0.00000E+00
    0.34381E-07         0.10378E-09         0.00000E+00
    0.36560E-07         0.96636E-10         0.00000E+00
    0.38891E-07         0.86192E-10         0.00000E+00
    0.41387E-07         0.71834E-10         0.00000E+00
    0.44061E-07         0.52943E-10         0.00000E+00
    0.46929E-07         0.28946E-10         0.00000E+00
    0.50006E-07        -0.59893E-12         0.00000E+00
    0.53311E-07        -0.35884E-10         0.00000E+00
    0.56862E-07        -0.76671E-10         0.00000E+00
    0.60682E-07        -0.12203E-09         0.00000E+00
    0.64796E-07        -0.16993E-09         0.00000E+00
    0.69229E-07        -0.21653E-09         0.00000E+00
    0.74015E-07        -0.25488E-09         0.00000E+00
    0.79188E-07        -0.27182E-09         0.00000E+00
    0.84784E-07        -0.23941E-09         0.00000E+00
    0.90821E-07        -0.10302E-09         0.00000E+00
    0.65105E-09         0.10933E-11         0.00000E+00
    0.63982E-09         0.26623E-11         0.00000E+00
    0.63229E-09         0.33193E-11         0.00000E+00
    0.62829E-09         0.35438E-11         0.00000E+00
    0.62755E-09         0.35605E-11         0.00000E+00
    0.62987E-09         0.34759E-11         0.00000E+00
    0.63508E-09         0.33497E-11         0.00000E+00
    0.64307E-09         0.32174E-11         0.00000E+00
    0.65376E-09         0.31001E-11         0.00000E+00
    0.66707E-09         0.30096E-11         0.00000E+00
    0.68298E-09         0.29522E-11         0.00000E+00
    0.70147E-09         0.29301E-11         0.00000E+00
    0.72254E-09         0.29431E-11         0.00000E+00
    0.74621E-09         0.29899E-11         0.00000E+00
    0.77250E-09         0.30683E-11         0.00000E+00
    0.80147E-09         0.31757E-11         0.00000E+00
    0.83317E-09         0.33098E-11         0.00000E+00
    0.86766E-09         0.34682E-11         0.00000E+00
    0.90504E-09         0.36492E-11         0.00000E+00
    0.94539E-09         0.38510E-11         0.00000E+00
    0.98882E-09         0.40725E-11         0.00000E+00
    0.10354E-08         0.43129E-11         0.00000E+00
    0.10854E-08         0.45715E-11         0.00000E+00
    0.11388E-08         0.48481E-11         0.00000E+00
    0.11959E-08         0.51426E-11         0.00000E+00
    0.12567E-08         0.54554E-11         0.00000E+00
    0.13215E-08         0.57868E-11         0.00000E+00
    0.13905E-08         0.61373E-11         0.00000E+00
    0.14638E-08         0.65078E-11         0.00000E+00
    0.15417E-08         0.68990E-11         0.00000E+00
    0.16245E-08         0.73120E-11         0.00000E+00
    0.17124E-08         0.77479E-11         0.00000E+00
    0.18056E-08         0.82078E-11         0.00000E+00
    0.19044E-08         0.86931E-11         0.00000E+00
    0.20093E-08         0.92052E-11         0.00000E+00
    0.21204E-08         0.97456E-11         0.00000E+00
    0.22381E-08         0.10316E-10         0.00000E+00
    0.23629E-08         0.10917E-10         0.00000E+00
    0.24950E-08         0.11552E-10         0.00000E+00
    0.26350E-08         0.12223E-10         0.00000E+00
    0.27832E-08         0.12930E-10         0.00000E+00
    0.29401E-08         0.13676E-10         0.00000E+00
    0.31063E-08         0.14464E-10         0.00000E+00
    0.32822E-08         0.15296E-10         0.00000E+00
    0.34685E-08         0.16174E-10         0.00000E+00
    0.36657E-08         0.17100E-10         0.00000E+00
    0.38744E-08         0.18078E-10         0.00000E+00
    0.40954E-08         0.19111E-10         0.00000E+00
    0.43293E-08         0.20200E-10         0.00000E+00
    0.45770E-08         0.21350E-10         0.00000E+00
    0.48392E-08         0.22564E-10         0.00000E+00
    0.51168E-08         0.23845E-10         0.00000E+00
    0.54107E-08         0.25197E-10         0.00000E+00
    0.57218E-08         0.26624E-10         0.00000E+00
    0.60514E-08         0.28129E-10         0.00000E+00
    0.64003E-08         0.29717E-10         0.00000E+00
    0.67699E-08         0.31393E-10         0.00000E+00
    0.71614E-08         0.33161E-10         0.00000E+00
    0.75761E-08         0.35025E-10         0.00000E+00
    0.80155E-08         0.36991E-10         0.00000E+00
    0.84810E-08         0.39064E-10         0.00000E+00
    0.89744E-08         0.41249E-10         0.00000E+00
    0.94974E-08         0.43551E-10         0.00000E+00
    0.10052E-07         0.45974E-10         0.00000E+00
    0.10640E-07         0.48523E-10         0.00000E+00
    0.11263E-07         0.51202E-10         0.00000E+00
    0.11925E-07         0.54014E-10         0.00000E+00
    0.12627E-07         0.56961E-10         0.00000E+00
    0.13372E-07         0.60041E-10         0.00000E+00
    0.14163E-07         0.63251E-10         0.00000E+00
    0.15003E-07         0.66585E-10         0.00000E+00
    0.15895E-07         0.70030E-10         0.00000E+00
    0.16844E-07         0.73567E-10         0.00000E+00
    0.17852E-07         0.77168E-10         0.00000E+00
    0.18924E-07         0.80794E-10         0.00000E+00
    0.20065E-07         0.84392E-10         0.00000E+00
    0.21279E-07         0.87890E-10         0.00000E+00
    0.22572E-07         0.91194E-10         0.00000E+00
    0.23950E-07         0.94184E-10         0.00000E+00
    0.25418E-07         0.96704E-10         0.00000E+00
    0.26984E-07         0.98561E-10         0.00000E+00
    0.28655E-07         0.99518E-10         0.00000E+00
    0.30439E-07         0.99283E-10         0.00000E+00
    0.32344E-07         0.97510E-10         0.00000E+00
    0.34380E-07         0.93793E-10         0.00000E+00
    0.36558E-07         0.87664E-10         0.00000E+00
    0.38888E-07         0.78607E-10         0.00000E+00
    0.41384E-07         0.66062E-10         0.00000E+00
    0.44057E-07         0.49464E-10         0.00000E+00
    0.46924E-07         0.28279E-10         0.00000E+00
    0.50000E-07         0.20794E-11         0.00000E+00
    0.53304E-07        -0.29351E-10         0.00000E+00
    0.56854E-07        -0.65869E-10         0.00000E+00
    0.60673E-07        -0.10674E-09         0.00000E+00
    0.64786E-07        -0.15028E-09         0.00000E+00
    0.69221E-07        -0.19328E-09         0.00000E+00
    0.74009E-07        -0.22979E-09         0.00000E+00
    0.79187E-07        -0.24843E-09         0.00000E+00
    0.84796E-07        -0.22337E-09         0.00000E+00
    0.90861E-07        -0.97673E-10         0.00000E+00
    0.65147E-09         0.99602E-12         0.00000E+00
    0.64000E-09         0.23882E-11         0.00000E+00
    0.63236E-09         0.29253E-11         0.00000E+00
    0.62831E-09         0.30926E-11         0.00000E+00
    0.62754E-09         0.30888E-11         0.00000E+00
    0.62985E-09         0.30033E-11         0.00000E+00
    0.63506E-09         0.28862E-11         0.00000E+00
    0.64305E-09         0.27667E-11         0.00000E+00
    0.65374E-09         0.26622E-11         0.00000E+00
    0.66706E-09         0.25825E-11         0.00000E+00
    0.68297E-09         0.25323E-11         0.00000E+00
    0.70147E-09         0.25133E-11         0.00000E+00
    0.72255E-09         0.25252E-11         0.00000E+00
    0.74622E-09         0.25665E-11         0.00000E+00
    0.77252E-09         0.26352E-11         0.00000E+00
    0.80149E-09         0.27290E-11         0.00000E+00
    0.83320E-09         0.28459E-11         0.00000E+00
    0.86770E-09         0.29838E-11         0.00000E+00
    0.90508E-09         0.31411E-11         0.00000E+00
    0.94543E-09         0.33163E-11         0.00000E+00
    0.98886E-09         0.35084E-11         0.00000E+00
    0.10355E-08         0.37167E-11         0.00000E+00
    0.10854E-08         0.39407E-11         0.00000E+00
    0.11389E-08         0.41802E-11         0.00000E+00
    0.11959E-08         0.44351E-11         0.00000E+00
    0.12567E-08         0.47056E-11         0.00000E+00
    0.13216E-08         0.49921E-11         0.00000E+00
    0.13905E-08         0.52952E-11         0.00000E+00
    0.14639E-08         0.56154E-11         0.00000E+00
    0.15418E-08         0.59535E-11         0.00000E+00
    0.16246E-08         0.63104E-11         0.00000E+00
    0.17124E-08         0.66870E-11         0.00000E+00
    0.18057E-08         0.70844E-11         0.00000E+00
    0.19045E-08         0.75037E-11         0.00000E+00
    0.20094E-08         0.79461E-11         0.00000E+00
    0.21205E-08         0.84129E-11         0.00000E+00
    0.22382E-08         0.89055E-11         0.00000E+00
    0.23630E-08         0.94254E-11         0.00000E+00
    0.24951E-08         0.99740E-11         0.00000E+00
    0.26351E-08         0.10553E-10         0.00000E+00
    0.27833E-08         0.11164E-10         0.00000E+00
    0.29403E-08         0.11809E-10         0.00000E+00
    0.31065E-08         0.12490E-10         0.00000E+00
    0.32824E-08         0.13209E-10         0.00000E+00
    0.34687E-08         0.13968E-10         0.00000E+00
    0.36659E-08         0.14769E-10         0.00000E+00
    0.38746E-08         0.15614E-10         0.00000E+00
    0.40956E-08         0.16507E-10         0.00000E+00
    0.43295E-08         0.17449E-10         0.00000E+00
    0.45772E-08         0.18444E-10         0.00000E+00
    0.48394E-08         0.19494E-10         0.00000E+00
    0.51170E-08         0.20602E-10         0.00000E+00
    0.54109E-08         0.21772E-10         0.00000E+00
    0.57221E-08         0.23007E-10         0.00000E+00
    0.60516E-08         0.24311E-10         0.00000E+00
    0.64006E-08         0.25686E-10         0.00000E+00
    0.67702E-08         0.27138E-10         0.00000E+00
    0.71617E-08         0.28670E-10         0.00000E+00
    0.75764E-08         0.30286E-10         0.00000E+00
    0.80158E-08         0.31991E-10         0.00000E+00
    0.84814E-08         0.33790E-10         0.00000E+00
    0.89748E-08         0.35686E-10         0.00000E+00
    0.94979E-08         0.37685E-10         0.00000E+00
    0.10052E-07         0.39790E-10         0.00000E+00
    0.10640E-07         0.42007E-10         0.00000E+00
    0.11264E-07         0.44337E-10         0.00000E+00
    0.11925E-07         0.46786E-10         0.00000E+00
    0.12627E-07         0.49353E-10         0.00000E+00
    0.13372E-07         0.52040E-10         0.00000E+00
    0.14163E-07         0.54844E-10         0.00000E+00
    0.15004E-07         0.57758E-10         0.00000E+00
    0.15896E-07         0.60775E-10         0.00000E+00
    0.16844E-07         0.63877E-10         0.00000E+00
    0.17853E-07         0.67041E-10         0.00000E+00
    0.18925E-07         0.70236E-10         0.00000E+00
    0.20066E-07         0.73415E-10         0.00000E+00
    0.21280E-07         0.76518E-10         0.00000E+00
    0.22573E-07         0.79465E-10         0.00000E+00
    0.23951E-07         0.82153E-10         0.00000E+00
    0.25419E-07         0.84448E-10         0.00000E+00
    0.26985E-07         0.86184E-10         0.00000E+00
    0.28655E-07         0.87155E-10         0.00000E+00
    0.30439E-07         0.87110E-10         0.00000E+00
    0.32344E-07         0.85747E-10         0.00000E+00
    0.34379E-07         0.82712E-10         0.00000E+00
    0.36557E-07         0.77596E-10         0.00000E+00
    0.38886E-07         0.69945E-10         0.00000E+00
    0.41381E-07         0.59264E-10         0.00000E+00
    0.44054E-07         0.45047E-10         0.00000E+00
    0.46920E-07         0.26811E-10         0.00000E+00
    0.49995E-07         0.41560E-11         0.00000E+00
    0.53297E-07        -0.23148E-10         0.00000E+00
    0.56847E-07        -0.55034E-10         0.00000E+00
    0.60665E-07        -0.90946E-10         0.00000E+00
    0.64778E-07        -0.12955E-09         0.00000E+00
    0.69213E-07        -0.16822E-09         0.00000E+00
    0.74003E-07        -0.20203E-09         0.00000E+00
    0.79185E-07        -0.22153E-09         0.00000E+00
    0.84806E-07        -0.20389E-09         0.00000E+00
    0.90899E-07        -0.90820E-10         0.00000E+00
    0.65185E-09         0.88139E-12         0.00000E+00
    0.64014E-09         0.20755E-11         0.00000E+00
    0.63241E-09         0.24916E-11         0.00000E+00
    0.62831E-09         0.26078E-11         0.00000E+00
    0.62753E-09         0.25890E-11         0.00000E+00
    0.62983E-09         0.25071E-11         0.00000E+00
    0.63504E-09         0.24024E-11         0.00000E+00
    0.64303E-09         0.22984E-11         0.00000E+00
    0.65372E-09         0.22086E-11         0.00000E+00
    0.66704E-09         0.21408E-11         0.00000E+00
    0.68297E-09         0.20985E-11         0.00000E+00
    0.70147E-09         0.20828E-11         0.00000E+00
    0.72255E-09         0.20933E-11         0.00000E+00
    0.74623E-09         0.21285E-11         0.00000E+00
    0.77254E-09         0.21868E-11         0.00000E+00
    0.80151E-09         0.22661E-11         0.00000E+00
    0.83322E-09         0.23646E-11         0.00000E+00
    0.86772E-09         0.24806E-11         0.00000E+00
    0.90511E-09         0.26127E-11         0.00000E+00
    0.94546E-09         0.27597E-11         0.00000E+00
    0.98890E-09         0.29208E-11         0.00000E+00
    0.10355E-08         0.30953E-11         0.00000E+00
    0.10855E-08         0.32828E-11         0.00000E+00
    0.11389E-08         0.34831E-11         0.00000E+00
    0.11960E-08         0.36962E-11         0.00000E+00
    0.12568E-08         0.39224E-11         0.00000E+00
    0.13216E-08         0.41618E-11         0.00000E+00
    0.13906E-08         0.44150E-11         0.00000E+00
    0.14639E-08         0.46825E-11         0.00000E+00
    0.15419E-08         0.49649E-11         0.00000E+00
    0.16246E-08         0.52629E-11         0.00000E+00
    0.17125E-08         0.55774E-11         0.00000E+00
    0.18057E-08         0.59092E-11         0.00000E+00
    0.19046E-08         0.62592E-11         0.00000E+00
    0.20095E-08         0.66286E-11         0.00000E+00
    0.21206E-08         0.70183E-11         0.00000E+00
    0.22383E-08         0.74296E-11         0.00000E+00
    0.23631E-08         0.78636E-11         0.00000E+00
    0.24952E-08         0.83217E-11         0.00000E+00
    0.26352E-08         0.88052E-11         0.00000E+00
    0.27834E-08         0.93155E-11         0.00000E+00
    0.29404E-08         0.98542E-11         0.00000E+00
    0.31066E-08         0.10423E-10         0.00000E+00
    0.32825E-08         0.11023E-10         0.00000E+00
    0.34688E-08         0.11657E-10         0.00000E+00
    0.36660E-08         0.12326E-10         0.00000E+00
    0.38748E-08         0.13033E-10         0.00000E+00
    0.40958E-08         0.13779E-10         0.00000E+00
    0.43297E-08         0.14566E-10         0.00000E+00
    0.45774E-08         0.15398E-10         0.00000E+00
    0.48396E-08         0.16275E-10         0.00000E+00
    0.51172E-08         0.17202E-10         0.00000E+00
    0.54111E-08         0.18181E-10         0.00000E+00
    0.57223E-08         0.19214E-10         0.00000E+00
    0.60519E-08         0.20304E-10         0.00000E+00
    0.64009E-08         0.21455E-10         0.00000E+00
    0.67705E-08         0.22671E-10         0.00000E+00
    0.71620E-08         0.23954E-10         0.00000E+00
    0.75767E-08         0.25308E-10         0.00000E+00
    0.80161E-08         0.26737E-10         0.00000E+00
    0.84818E-08         0.28244E-10         0.00000E+00
    0.89752E-08         0.29835E-10         0.00000E+00
    0.94982E-08         0.31512E-10         0.00000E+00
    0.10053E-07         0.33280E-10         0.00000E+00
    0.10641E-07         0.35142E-10         0.00000E+00
    0.11264E-07         0.37102E-10         0.00000E+00
    0.11926E-07         0.39162E-10         0.00000E+00
    0.12628E-07         0.41324E-10         0.00000E+00
    0.13373E-07         0.43588E-10         0.00000E+00
    0.14164E-07         0.45954E-10         0.00000E+00
    0.15004E-07         0.48416E-10         0.00000E+00
    0.15897E-07         0.50968E-10         0.00000E+00
    0.16845E-07         0.53597E-10         0.00000E+00
    0.17853E-07         0.56284E-10         0.00000E+00
    0.18926E-07         0.59003E-10         0.00000E+00
    0.20066E-07         0.61717E-10         0.00000E+00
    0.21281E-07         0.64377E-10         0.00000E+00
    0.22574E-07         0.66916E-10         0.00000E+00
    0.23951E-07         0.69248E-10         0.00000E+00
    0.25419E-07         0.71264E-10         0.00000E+00
    0.26985E-07         0.72826E-10         0.00000E+00
    0.28655E-07         0.73761E-10         0.00000E+00
    0.30439E-07         0.73858E-10         0.00000E+00
    0.32343E-07         0.72866E-10         0.00000E+00
    0.34379E-07         0.70485E-10         0.00000E+00
    0.36556E-07         0.66371E-10         0.00000E+00
    0.38885E-07         0.60136E-10         0.00000E+00
    0.41379E-07         0.51359E-10         0.00000E+00
    0.44051E-07         0.39603E-10         0.00000E+00
    0.46916E-07         0.24446E-10         0.00000E+00
    0.49990E-07         0.55267E-11         0.00000E+00
    0.53292E-07        -0.17382E-10         0.00000E+00
    0.56840E-07        -0.44273E-10         0.00000E+00
    0.60658E-07        -0.74751E-10         0.00000E+00
    0.64771E-07        -0.10780E-09         0.00000E+00
    0.69206E-07        -0.14137E-09         0.00000E+00
    0.73997E-07        -0.17154E-09         0.00000E+00
    0.79183E-07        -0.19081E-09         0.00000E+00
    0.84814E-07        -0.18031E-09         0.00000E+00
    0.90933E-07        -0.82068E-10         0.00000E+00
    0.65217E-09         0.74522E-12         0.00000E+00
    0.64025E-09         0.17178E-11         0.00000E+00
    0.63244E-09         0.20157E-11         0.00000E+00
    0.62832E-09         0.20887E-11         0.00000E+00
    0.62752E-09         0.20611E-11         0.00000E+00
    0.62981E-09         0.19877E-11         0.00000E+00
    0.63502E-09         0.18993E-11         0.00000E+00
    0.64301E-09         0.18134E-11         0.00000E+00
    0.65370E-09         0.17403E-11         0.00000E+00
    0.66703E-09         0.16855E-11         0.00000E+00
    0.68296E-09         0.16517E-11         0.00000E+00
    0.70147E-09         0.16394E-11         0.00000E+00
    0.72256E-09         0.16482E-11         0.00000E+00
    0.74624E-09         0.16769E-11         0.00000E+00
    0.77255E-09         0.17238E-11         0.00000E+00
    0.80153E-09         0.17875E-11         0.00000E+00
    0.83324E-09         0.18664E-11         0.00000E+00
    0.86775E-09         0.19591E-11         0.00000E+00
    0.90513E-09         0.20646E-11         0.00000E+00
    0.94549E-09         0.21818E-11         0.00000E+00
    0.98893E-09         0.23101E-11         0.00000E+00
    0.10356E-08         0.24489E-11         0.00000E+00
    0.10855E-08         0.25980E-11         0.00000E+00
    0.11389E-08         0.27572E-11         0.00000E+00
    0.11960E-08         0.29266E-11         0.00000E+00
    0.12568E-08         0.31062E-11         0.00000E+00
    0.13217E-08         0.32963E-11         0.00000E+00
    0.13906E-08         0.34973E-11         0.00000E+00
    0.14640E-08         0.37095E-11         0.00000E+00
    0.15419E-08         0.39336E-11         0.00000E+00
    0.16247E-08         0.41700E-11         0.00000E+00
    0.17126E-08         0.44195E-11         0.00000E+00
    0.18058E-08         0.46827E-11         0.00000E+00
    0.19047E-08         0.49603E-11         0.00000E+00
    0.20095E-08         0.52533E-11         0.00000E+00
    0.21206E-08         0.55624E-11         0.00000E+00
    0.22384E-08         0.58886E-11         0.00000E+00
    0.23632E-08         0.62329E-11         0.00000E+00
    0.24953E-08         0.65963E-11         0.00000E+00
    0.26353E-08         0.69798E-11         0.00000E+00
    0.27835E-08         0.73846E-11         0.00000E+00
    0.29405E-08         0.78120E-11         0.00000E+00
    0.31067E-08         0.82633E-11         0.00000E+00
    0.32826E-08         0.87396E-11         0.00000E+00
    0.34689E-08         0.92426E-11         0.00000E+00
    0.36661E-08         0.97737E-11         0.00000E+00
    0.38749E-08         0.10334E-10         0.00000E+00
    0.40959E-08         0.10927E-10         0.00000E+00
    0.43299E-08         0.11552E-10         0.00000E+00
    0.45776E-08         0.12212E-10         0.00000E+00
    0.48398E-08         0.12909E-10         0.00000E+00
    0.51174E-08         0.13645E-10         0.00000E+00
    0.54113E-08         0.14423E-10         0.00000E+00
    0.57225E-08         0.15244E-10         0.00000E+00
    0.60521E-08         0.16111E-10         0.00000E+00
    0.64011E-08         0.17026E-10         0.00000E+00
    0.67707E-08         0.17993E-10         0.00000E+00
    0.71622E-08         0.19013E-10         0.00000E+00
    0.75770E-08         0.20091E-10         0.00000E+00
    0.80164E-08         0.21229E-10         0.00000E+00
    0.84820E-08         0.22429E-10         0.00000E+00
    0.89755E-08         0.23697E-10         0.00000E+00
    0.94985E-08         0.25034E-10         0.00000E+00
    0.10053E-07         0.26444E-10         0.00000E+00
    0.10641E-07         0.27930E-10         0.00000E+00
    0.11265E-07         0.29495E-10         0.00000E+00
    0.11926E-07         0.31142E-10         0.00000E+00
    0.12628E-07         0.32871E-10         0.00000E+00
    0.13373E-07         0.34684E-10         0.00000E+00
    0.14164E-07         0.36580E-10         0.00000E+00
    0.15005E-07         0.38557E-10         0.00000E+00
    0.15897E-07         0.40607E-10         0.00000E+00
    0.16845E-07         0.42723E-10         0.00000E+00
    0.17854E-07         0.44891E-10         0.00000E+00
    0.18926E-07         0.47089E-10         0.00000E+00
    0.20067E-07         0.49289E-10         0.00000E+00
    0.21281E-07         0.51454E-10         0.00000E+00
    0.22574E-07         0.53530E-10         0.00000E+00
    0.23951E-07         0.55451E-10         0.00000E+00
    0.25420E-07         0.57131E-10         0.00000E+00
    0.26985E-07         0.58460E-10         0.00000E+00
    0.28655E-07         0.59302E-10         0.00000E+00
    0.30438E-07         0.59490E-10         0.00000E+00
    0.32343E-07         0.58822E-10         0.00000E+00
    0.34378E-07         0.57060E-10         0.00000E+00
    0.36555E-07         0.53926E-10         0.00000E+00
    0.38883E-07         0.49108E-10         0.00000E+00
    0.41377E-07         0.42265E-10         0.00000E+00
    0.44048E-07         0.33039E-10         0.00000E+00
    0.46913E-07         0.21080E-10         0.00000E+00
    0.49987E-07         0.60807E-11         0.00000E+00
    0.53287E-07        -0.12168E-10         0.00000E+00
    0.56835E-07        -0.33700E-10         0.00000E+00
    0.60652E-07        -0.58257E-10         0.00000E+00
    0.64764E-07        -0.85109E-10         0.00000E+00
    0.69200E-07        -0.11276E-09         0.00000E+00
    0.73992E-07        -0.13827E-09         0.00000E+00
    0.79181E-07        -0.15597E-09         0.00000E+00
    0.84819E-07        -0.15186E-09         0.00000E+00
    0.90964E-07        -0.70882E-10         0.00000E+00
    0.65244E-09         0.58166E-12         0.00000E+00
    0.64032E-09         0.13076E-11         0.00000E+00
    0.63247E-09         0.14953E-11         0.00000E+00
    0.62832E-09         0.15349E-11         0.00000E+00
    0.62751E-09         0.15053E-11         0.00000E+00
    0.62979E-09         0.14458E-11         0.00000E+00
    0.63500E-09         0.13775E-11         0.00000E+00
    0.64300E-09         0.13126E-11         0.00000E+00
    0.65369E-09         0.12580E-11         0.00000E+00
    0.66703E-09         0.12175E-11         0.00000E+00
    0.68296E-09         0.11928E-11         0.00000E+00
    0.70147E-09         0.11840E-11         0.00000E+00
    0.72256E-09         0.11908E-11         0.00000E+00
    0.74625E-09         0.12122E-11         0.00000E+00
    0.77256E-09         0.12469E-11         0.00000E+00
    0.80154E-09         0.12939E-11         0.00000E+00
    0.83325E-09         0.13519E-11         0.00000E+00
    0.86776E-09         0.14199E-11         0.00000E+00
    0.90515E-09         0.14972E-11         0.00000E+00
    0.94551E-09         0.15829E-11         0.00000E+00
    0.98895E-09         0.16767E-11         0.00000E+00
    0.10356E-08         0.17781E-11         0.00000E+00
    0.10855E-08         0.18869E-11         0.00000E+00
    0.11390E-08         0.20031E-11         0.00000E+00
    0.11960E-08         0.21265E-11         0.00000E+00
    0.12569E-08         0.22574E-11         0.00000E+00
    0.13217E-08         0.23960E-11         0.00000E+00
    0.13907E-08         0.25423E-11         0.00000E+00
    0.14640E-08         0.26969E-11         0.00000E+00
    0.15420E-08         0.28601E-11         0.00000E+00
    0.16247E-08         0.30322E-11         0.00000E+00
    0.17126E-08         0.32138E-11         0.00000E+00
    0.18058E-08         0.34054E-11         0.00000E+00
    0.19047E-08         0.36075E-11         0.00000E+00
    0.20096E-08         0.38208E-11         0.00000E+00
    0.21207E-08         0.40458E-11         0.00000E+00
    0.22385E-08         0.42833E-11         0.00000E+00
    0.23632E-08         0.45339E-11         0.00000E+00
    0.24954E-08         0.47984E-11         0.00000E+00
    0.26354E-08         0.50776E-11         0.00000E+00
    0.27836E-08         0.53723E-11         0.00000E+00
    0.29406E-08         0.56835E-11         0.00000E+00
    0.31068E-08         0.60120E-11         0.00000E+00
    0.32827E-08         0.63589E-11         0.00000E+00
    0.34690E-08         0.67252E-11         0.00000E+00
    0.36662E-08         0.71121E-11         0.00000E+00
    0.38750E-08         0.75205E-11         0.00000E+00
    0.40960E-08         0.79519E-11         0.00000E+00
    0.43300E-08         0.84075E-11         0.00000E+00
    0.45777E-08         0.88886E-11         0.00000E+00
    0.48399E-08         0.93968E-11         0.00000E+00
    0.51175E-08         0.99335E-11         0.00000E+00
    0.54114E-08         0.10500E-10         0.00000E+00
    0.57227E-08         0.11099E-10         0.00000E+00
    0.60522E-08         0.11731E-10         0.00000E+00
    0.64013E-08         0.12399E-10         0.00000E+00
    0.67709E-08         0.13105E-10         0.00000E+00
    0.71624E-08         0.13850E-10         0.00000E+00
    0.75772E-08         0.14637E-10         0.00000E+00
    0.80166E-08         0.15468E-10         0.00000E+00
    0.84822E-08         0.16346E-10         0.00000E+00
    0.89757E-08         0.17272E-10         0.00000E+00
    0.94988E-08         0.18250E-10         0.00000E+00
    0.10053E-07         0.19283E-10         0.00000E+00
    0.10641E-07         0.20371E-10         0.00000E+00
    0.11265E-07         0.21518E-10         0.00000E+00
    0.11927E-07         0.22725E-10         0.00000E+00
    0.12629E-07         0.23995E-10         0.00000E+00
    0.13374E-07         0.25327E-10         0.00000E+00
    0.14165E-07         0.26721E-10         0.00000E+00
    0.15005E-07         0.28176E-10         0.00000E+00
    0.15897E-07         0.29688E-10         0.00000E+00
    0.16846E-07         0.31251E-10         0.00000E+00
    0.17854E-07         0.32855E-10         0.00000E+00
    0.18926E-07         0.34485E-10         0.00000E+00
    0.20067E-07         0.36121E-10         0.00000E+00
    0.21281E-07         0.37737E-10         0.00000E+00
    0.22574E-07         0.39294E-10         0.00000E+00
    0.23952E-07         0.40745E-10         0.00000E+00
    0.25420E-07         0.42027E-10         0.00000E+00
    0.26985E-07         0.43061E-10         0.00000E+00
    0.28656E-07         0.43748E-10         0.00000E+00
    0.30438E-07         0.43966E-10         0.00000E+00
    0.32343E-07         0.43568E-10         0.00000E+00
    0.34378E-07         0.42379E-10         0.00000E+00
    0.36554E-07         0.40196E-10         0.00000E+00
    0.38882E-07         0.36786E-10         0.00000E+00
    0.41376E-07         0.31896E-10         0.00000E+00
    0.44047E-07         0.25258E-10         0.00000E+00
    0.46911E-07         0.16605E-10         0.00000E+00
    0.49984E-07         0.57002E-11         0.00000E+00
    0.53284E-07        -0.76312E-11         0.00000E+00
    0.56831E-07        -0.23442E-10         0.00000E+00
    0.60648E-07        -0.41586E-10         0.00000E+00
    0.64760E-07        -0.61588E-10         0.00000E+00
    0.69195E-07        -0.82447E-10         0.00000E+00
    0.73988E-07        -0.10218E-09         0.00000E+00
    0.79179E-07        -0.11679E-09         0.00000E+00
    0.84822E-07        -0.11759E-09         0.00000E+00
    0.90989E-07        -0.56527E-10         0.00000E+00
    0.65263E-09         0.38260E-12         0.00000E+00
    0.64036E-09         0.83571E-12         0.00000E+00
    0.63248E-09         0.92915E-12         0.00000E+00
    0.62831E-09         0.94589E-12         0.00000E+00
    0.62750E-09         0.92195E-12         0.00000E+00
    0.62978E-09         0.88210E-12         0.00000E+00
    0.63499E-09         0.83811E-12         0.00000E+00
    0.64299E-09         0.79707E-12         0.00000E+00
    0.65368E-09         0.76297E-12         0.00000E+00
    0.66702E-09         0.73789E-12         0.00000E+00
    0.68295E-09         0.72272E-12         0.00000E+00
    0.70147E-09         0.71753E-12         0.00000E+00
    0.72256E-09         0.72193E-12         0.00000E+00
    0.74625E-09         0.73530E-12         0.00000E+00
    0.77257E-09         0.75688E-12         0.00000E+00
    0.80155E-09         0.78591E-12         0.00000E+00
    0.83326E-09         0.82167E-12         0.00000E+00
    0.86777E-09         0.86356E-12         0.00000E+00
    0.90516E-09         0.91104E-12         0.00000E+00
    0.94553E-09         0.96368E-12         0.00000E+00
    0.98897E-09         0.10212E-11         0.00000E+00
    0.10356E-08         0.10833E-11         0.00000E+00
    0.10856E-08         0.11500E-11         0.00000E+00
    0.11390E-08         0.12210E-11         0.00000E+00
    0.11961E-08         0.12966E-11         0.00000E+00
    0.12569E-08         0.13766E-11         0.00000E+00
    0.13217E-08         0.14613E-11         0.00000E+00
    0.13907E-08         0.15507E-11         0.00000E+00
    0.14640E-08         0.16452E-11         0.00000E+00
    0.15420E-08         0.17449E-11         0.00000E+00
    0.16248E-08         0.18500E-11         0.00000E+00
    0.17126E-08         0.19609E-11         0.00000E+00
    0.18059E-08         0.20780E-11         0.00000E+00
    0.19048E-08         0.22014E-11         0.00000E+00
    0.20096E-08         0.23316E-11         0.00000E+00
    0.21207E-08         0.24691E-11         0.00000E+00
    0.22385E-08         0.26141E-11         0.00000E+00
    0.23633E-08         0.27672E-11         0.00000E+00
    0.24954E-08         0.29287E-11         0.00000E+00
    0.26354E-08         0.30992E-11         0.00000E+00
    0.27837E-08         0.32793E-11         0.00000E+00
    0.29406E-08         0.34694E-11         0.00000E+00
    0.31068E-08         0.36701E-11         0.00000E+00
    0.32828E-08         0.38820E-11         0.00000E+00
    0.34691E-08         0.41059E-11         0.00000E+00
    0.36663E-08         0.43422E-11         0.00000E+00
    0.38751E-08         0.45919E-11         0.00000E+00
    0.40961E-08         0.48556E-11         0.00000E+00
    0.43301E-08         0.51341E-11         0.00000E+00
    0.45777E-08         0.54282E-11         0.00000E+00
    0.48400E-08         0.57390E-11         0.00000E+00
    0.51176E-08         0.60672E-11         0.00000E+00
    0.54115E-08         0.64139E-11         0.00000E+00
    0.57228E-08         0.67802E-11         0.00000E+00
    0.60524E-08         0.71672E-11         0.00000E+00
    0.64014E-08         0.75761E-11         0.00000E+00
    0.67710E-08         0.80080E-11         0.00000E+00
    0.71626E-08         0.84644E-11         0.00000E+00
    0.75773E-08         0.89466E-11         0.00000E+00
    0.80168E-08         0.94560E-11         0.00000E+00
    0.84824E-08         0.99941E-11         0.00000E+00
    0.89759E-08         0.10562E-10         0.00000E+00
    0.94989E-08         0.11163E-10         0.00000E+00
    0.10053E-07         0.11796E-10         0.00000E+00
    0.10642E-07         0.12465E-10         0.00000E+00
    0.11265E-07         0.13170E-10         0.00000E+00
    0.11927E-07         0.13913E-10         0.00000E+00
    0.12629E-07         0.14694E-10         0.00000E+00
    0.13374E-07         0.15515E-10         0.00000E+00
    0.14165E-07         0.16375E-10         0.00000E+00
    0.15005E-07         0.17273E-10         0.00000E+00
    0.15898E-07         0.18208E-10         0.00000E+00
    0.16846E-07         0.19176E-10         0.00000E+00
    0.17854E-07         0.20171E-10         0.00000E+00
    0.18927E-07         0.21184E-10         0.00000E+00
    0.20067E-07         0.22204E-10         0.00000E+00
    0.21282E-07         0.23214E-10         0.00000E+00
    0.22575E-07         0.24193E-10         0.00000E+00
    0.23952E-07         0.25110E-10         0.00000E+00
    0.25420E-07         0.25928E-10         0.00000E+00
    0.26985E-07         0.26600E-10         0.00000E+00
    0.28656E-07         0.27064E-10         0.00000E+00
    0.30438E-07         0.27247E-10         0.00000E+00
    0.32343E-07         0.27057E-10         0.00000E+00
    0.34378E-07         0.26388E-10         0.00000E+00
    0.36554E-07         0.25114E-10         0.00000E+00
    0.38882E-07         0.23092E-10         0.00000E+00
    0.41375E-07         0.20162E-10         0.00000E+00
    0.44045E-07         0.16157E-10         0.00000E+00
    0.46909E-07         0.10908E-10         0.00000E+00
    0.49982E-07         0.42606E-11         0.00000E+00
    0.53281E-07        -0.39045E-11         0.00000E+00
    0.56828E-07        -0.13637E-10         0.00000E+00
    0.60645E-07        -0.24870E-10         0.00000E+00
    0.64756E-07        -0.37352E-10         0.00000E+00
    0.69191E-07        -0.50511E-10         0.00000E+00
    0.73985E-07        -0.63290E-10         0.00000E+00
    0.79177E-07        -0.73128E-10         0.00000E+00
    0.84823E-07        -0.76391E-10         0.00000E+00
    0.91008E-07        -0.37972E-10         0.00000E+00
    0.65273E-09         0.13650E-12         0.00000E+00
    0.64038E-09         0.29157E-12         0.00000E+00
    0.63248E-09         0.31725E-12         0.00000E+00
    0.62831E-09         0.32128E-12         0.00000E+00
    0.62749E-09         0.31172E-12         0.00000E+00
    0.62978E-09         0.29745E-12         0.00000E+00
    0.63498E-09         0.28205E-12         0.00000E+00
    0.64298E-09         0.26787E-12         0.00000E+00
    0.65368E-09         0.25618E-12         0.00000E+00
    0.66702E-09         0.24764E-12         0.00000E+00
    0.68295E-09         0.24251E-12         0.00000E+00
    0.70147E-09         0.24080E-12         0.00000E+00
    0.72256E-09         0.24235E-12         0.00000E+00
    0.74625E-09         0.24695E-12         0.00000E+00
    0.77257E-09         0.25432E-12         0.00000E+00
    0.80156E-09         0.26420E-12         0.00000E+00
    0.83327E-09         0.27636E-12         0.00000E+00
    0.86778E-09         0.29058E-12         0.00000E+00
    0.90517E-09         0.30667E-12         0.00000E+00
    0.94553E-09         0.32451E-12         0.00000E+00
    0.98897E-09         0.34397E-12         0.00000E+00
    0.10356E-08         0.36499E-12         0.00000E+00
    0.10856E-08         0.38752E-12         0.00000E+00
    0.11390E-08         0.41155E-12         0.00000E+00
    0.11961E-08         0.43707E-12         0.00000E+00
    0.12569E-08         0.46410E-12         0.00000E+00
    0.13217E-08         0.49270E-12         0.00000E+00
    0.13907E-08         0.52291E-12         0.00000E+00
    0.14641E-08         0.55480E-12         0.00000E+00
    0.15420E-08         0.58844E-12         0.00000E+00
    0.16248E-08         0.62394E-12         0.00000E+00
    0.17127E-08         0.66138E-12         0.00000E+00
    0.18059E-08         0.70088E-12         0.00000E+00
    0.19048E-08         0.74254E-12         0.00000E+00
    0.20096E-08         0.78650E-12         0.00000E+00
    0.21208E-08         0.83288E-12         0.00000E+00
    0.22385E-08         0.88183E-12         0.00000E+00
    0.23633E-08         0.93349E-12         0.00000E+00
    0.24955E-08         0.98801E-12         0.00000E+00
    0.26354E-08         0.10456E-11         0.00000E+00
    0.27837E-08         0.11063E-11         0.00000E+00
    0.29406E-08         0.11705E-11         0.00000E+00
    0.31068E-08         0.12383E-11         0.00000E+00
    0.32828E-08         0.13098E-11         0.00000E+00
    0.34691E-08         0.13854E-11         0.00000E+00
    0.36663E-08         0.14652E-11         0.00000E+00
    0.38751E-08         0.15495E-11         0.00000E+00
    0.40961E-08         0.16385E-11         0.00000E+00
    0.43301E-08         0.17326E-11         0.00000E+00
    0.45778E-08         0.18320E-11         0.00000E+00
    0.48400E-08         0.19369E-11         0.00000E+00
    0.51176E-08         0.20478E-11         0.00000E+00
    0.54116E-08         0.21650E-11         0.00000E+00
    0.57228E-08         0.22888E-11         0.00000E+00
    0.60524E-08         0.24196E-11         0.00000E+00
    0.64014E-08         0.25578E-11         0.00000E+00
    0.67711E-08         0.27038E-11         0.00000E+00
    0.71626E-08         0.28582E-11         0.00000E+00
    0.75774E-08         0.30213E-11         0.00000E+00
    0.80168E-08         0.31936E-11         0.00000E+00
    0.84825E-08         0.33757E-11         0.00000E+00
    0.89759E-08         0.35681E-11         0.00000E+00
    0.94990E-08         0.37714E-11         0.00000E+00
    0.10054E-07         0.39861E-11         0.00000E+00
    0.10642E-07         0.42127E-11         0.00000E+00
    0.11265E-07         0.44517E-11         0.00000E+00
    0.11927E-07         0.47037E-11         0.00000E+00
    0.12629E-07         0.49689E-11         0.00000E+00
    0.13374E-07         0.52476E-11         0.00000E+00
    0.14165E-07         0.55399E-11         0.00000E+00
    0.15005E-07         0.58455E-11         0.00000E+00
    0.15898E-07         0.61637E-11         0.00000E+00
    0.16846E-07         0.64935E-11         0.00000E+00
    0.17855E-07         0.68329E-11         0.00000E+00
    0.18927E-07         0.71792E-11         0.00000E+00
    0.20068E-07         0.75285E-11         0.00000E+00
    0.21282E-07         0.78752E-11         0.00000E+00
    0.22575E-07         0.82120E-11         0.00000E+00
    0.23952E-07         0.85291E-11         0.00000E+00
    0.25420E-07         0.88139E-11         0.00000E+00
    0.26986E-07         0.90502E-11         0.00000E+00
    0.28656E-07         0.92178E-11         0.00000E+00
    0.30438E-07         0.92915E-11         0.00000E+00
    0.32343E-07         0.92407E-11         0.00000E+00
    0.34377E-07         0.90291E-11         0.00000E+00
    0.36553E-07         0.86138E-11         0.00000E+00
    0.38881E-07         0.79460E-11         0.00000E+00
    0.41374E-07         0.69714E-11         0.00000E+00
    0.44045E-07         0.56323E-11         0.00000E+00
    0.46908E-07         0.38699E-11         0.00000E+00
    0.49981E-07         0.16300E-11         0.00000E+00
    0.53280E-07        -0.11305E-11         0.00000E+00
    0.56827E-07        -0.44327E-11         0.00000E+00
    0.60643E-07        -0.82590E-11         0.00000E+00
    0.64754E-07        -0.12536E-10         0.00000E+00
    0.69190E-07        -0.17075E-10         0.00000E+00
    0.73983E-07        -0.21570E-10         0.00000E+00
    0.79176E-07        -0.25089E-10         0.00000E+00
    0.84823E-07        -0.26952E-10         0.00000E+00
    0.91019E-07        -0.13747E-10         0.00000E+00
POINT_DATA       5151
VECTORS vDarcyNodal double 
    0.62897E-09         0.00000E+00         0.00000E+00
    0.62754E-09         0.18757E-12         0.00000E+00
    0.62521E-09         0.25056E-12         0.00000E+00
    0.62424E-09         0.28958E-12         0.00000E+00
    0.62501E-09         0.30908E-12         0.00000E+00
    0.62775E-09         0.31822E-12         0.00000E+00
    0.63264E-09         0.32077E-12         0.00000E+00
    0.63978E-09         0.31981E-12         0.00000E+00
    0.64927E-09         0.31732E-12         0.00000E+00
    0.66117E-09         0.31473E-12         0.00000E+00
    0.67553E-09         0.31298E-12         0.00000E+00
    0.69239E-09         0.31268E-12         0.00000E+00
    0.71179E-09         0.31421E-12         0.00000E+00
    0.73376E-09         0.31776E-12         0.00000E+00
    0.75834E-09         0.32342E-12         0.00000E+00
    0.78559E-09         0.33123E-12         0.00000E+00
    0.81556E-09         0.34114E-12         0.00000E+00
    0.84831E-09         0.35312E-12         0.00000E+00
    0.88392E-09         0.36710E-12         0.00000E+00
    0.92247E-09         0.38303E-12         0.00000E+00
    0.96406E-09         0.40087E-12         0.00000E+00
    0.10088E-08         0.42056E-12         0.00000E+00
    0.10568E-08         0.44209E-12         0.00000E+00
    0.11082E-08         0.46544E-12         0.00000E+00
    0.11632E-08         0.49062E-12         0.00000E+00
    0.12218E-08         0.51763E-12         0.00000E+00
    0.12844E-08         0.54650E-12         0.00000E+00
    0.13509E-08         0.57728E-12         0.00000E+00
    0.14218E-08         0.61000E-12         0.00000E+00
    0.14971E-08         0.64473E-12         0.00000E+00
    0.15771E-08         0.68153E-12         0.00000E+00
    0.16621E-08         0.72049E-12         0.00000E+00
    0.17523E-08         0.76170E-12         0.00000E+00
    0.18480E-08         0.80524E-12         0.00000E+00
    0.19494E-08         0.85122E-12         0.00000E+00
    0.20570E-08         0.89975E-12         0.00000E+00
    0.21710E-08         0.95095E-12         0.00000E+00
    0.22918E-08         0.10049E-11         0.00000E+00
    0.24197E-08         0.10618E-11         0.00000E+00
    0.25553E-08         0.11218E-11         0.00000E+00
    0.26989E-08         0.11850E-11         0.00000E+00
    0.28509E-08         0.12515E-11         0.00000E+00
    0.30119E-08         0.13215E-11         0.00000E+00
    0.31823E-08         0.13951E-11         0.00000E+00
    0.33628E-08         0.14726E-11         0.00000E+00
    0.35538E-08         0.15540E-11         0.00000E+00
    0.37561E-08         0.16396E-11         0.00000E+00
    0.39702E-08         0.17295E-11         0.00000E+00
    0.41969E-08         0.18239E-11         0.00000E+00
    0.44369E-08         0.19229E-11         0.00000E+00
    0.46909E-08         0.20267E-11         0.00000E+00
    0.49599E-08         0.21356E-11         0.00000E+00
    0.52447E-08         0.22495E-11         0.00000E+00
    0.55463E-08         0.23687E-11         0.00000E+00
    0.58657E-08         0.24933E-11         0.00000E+00
    0.62039E-08         0.26234E-11         0.00000E+00
    0.65621E-08         0.27592E-11         0.00000E+00
    0.69415E-08         0.29005E-11         0.00000E+00
    0.73434E-08         0.30476E-11         0.00000E+00
    0.77693E-08         0.32004E-11         0.00000E+00
    0.82205E-08         0.33588E-11         0.00000E+00
    0.86988E-08         0.35226E-11         0.00000E+00
    0.92058E-08         0.36917E-11         0.00000E+00
    0.97432E-08         0.38657E-11         0.00000E+00
    0.10313E-07         0.40442E-11         0.00000E+00
    0.10918E-07         0.42265E-11         0.00000E+00
    0.11559E-07         0.44120E-11         0.00000E+00
    0.12240E-07         0.45997E-11         0.00000E+00
    0.12962E-07         0.47882E-11         0.00000E+00
    0.13730E-07         0.49760E-11         0.00000E+00
    0.14545E-07         0.51612E-11         0.00000E+00
    0.15411E-07         0.53413E-11         0.00000E+00
    0.16331E-07         0.55134E-11         0.00000E+00
    0.17311E-07         0.56738E-11         0.00000E+00
    0.18353E-07         0.58183E-11         0.00000E+00
    0.19462E-07         0.59415E-11         0.00000E+00
    0.20643E-07         0.60372E-11         0.00000E+00
    0.21902E-07         0.60979E-11         0.00000E+00
    0.23244E-07         0.61146E-11         0.00000E+00
    0.24676E-07         0.60771E-11         0.00000E+00
    0.26205E-07         0.59734E-11         0.00000E+00
    0.27838E-07         0.57896E-11         0.00000E+00
    0.29583E-07         0.55102E-11         0.00000E+00
    0.31450E-07         0.51181E-11         0.00000E+00
    0.33448E-07         0.45945E-11         0.00000E+00
    0.35587E-07         0.39196E-11         0.00000E+00
    0.37878E-07         0.30737E-11         0.00000E+00
    0.40332E-07         0.20381E-11         0.00000E+00
    0.42963E-07         0.79709E-12         0.00000E+00
    0.45782E-07        -0.65893E-12         0.00000E+00
    0.48802E-07        -0.23300E-11         0.00000E+00
    0.52037E-07        -0.42012E-11         0.00000E+00
    0.55497E-07        -0.62364E-11         0.00000E+00
    0.59195E-07        -0.83707E-11         0.00000E+00
    0.63139E-07        -0.10498E-10         0.00000E+00
    0.67337E-07        -0.12469E-10         0.00000E+00
    0.71793E-07        -0.14044E-10         0.00000E+00
    0.76506E-07        -0.14975E-10         0.00000E+00
    0.81470E-07        -0.14496E-10         0.00000E+00
    0.86668E-07        -0.12674E-10         0.00000E+00
    0.89321E-07         0.00000E+00         0.00000E+00
    0.62901E-09         0.00000E+00         0.00000E+00
    0.62756E-09         0.36131E-12         0.00000E+00
    0.62522E-09         0.49266E-12         0.00000E+00
    0.62424E-09         0.57064E-12         0.00000E+00
    0.62501E-09         0.61052E-12         0.00000E+00
    0.62775E-09         0.62907E-12         0.00000E+00
    0.63264E-09         0.63440E-12         0.00000E+00
    0.63978E-09         0.63258E-12         0.00000E+00
    0.64927E-09         0.62766E-12         0.00000E+00
    0.66117E-09         0.62248E-12         0.00000E+00
    0.67553E-09         0.61895E-12         0.00000E+00
    0.69239E-09         0.61827E-12         0.00000E+00
    0.71179E-09         0.62122E-12         0.00000E+00
    0.73376E-09         0.62818E-12         0.00000E+00
    0.75835E-09         0.63935E-12         0.00000E+00
    0.78559E-09         0.65475E-12         0.00000E+00
    0.81556E-09         0.67435E-12         0.00000E+00
    0.84831E-09         0.69803E-12         0.00000E+00
    0.88392E-09         0.72570E-12         0.00000E+00
    0.92247E-09         0.75723E-12         0.00000E+00
    0.96406E-09         0.79252E-12         0.00000E+00
    0.10088E-08         0.83149E-12         0.00000E+00
    0.10568E-08         0.87410E-12         0.00000E+00
    0.11082E-08         0.92032E-12         0.00000E+00
    0.11632E-08         0.97014E-12         0.00000E+00
    0.12218E-08         0.10236E-11         0.00000E+00
    0.12844E-08         0.10807E-11         0.00000E+00
    0.13509E-08         0.11416E-11         0.00000E+00
    0.14218E-08         0.12063E-11         0.00000E+00
    0.14971E-08         0.12751E-11         0.00000E+00
    0.15772E-08         0.13479E-11         0.00000E+00
    0.16621E-08         0.14250E-11         0.00000E+00
    0.17523E-08         0.15065E-11         0.00000E+00
    0.18480E-08         0.15926E-11         0.00000E+00
    0.19494E-08         0.16836E-11         0.00000E+00
    0.20570E-08         0.17796E-11         0.00000E+00
    0.21710E-08         0.18809E-11         0.00000E+00
    0.22918E-08         0.19877E-11         0.00000E+00
    0.24198E-08         0.21003E-11         0.00000E+00
    0.25553E-08         0.22189E-11         0.00000E+00
    0.26989E-08         0.23439E-11         0.00000E+00
    0.28509E-08         0.24755E-11         0.00000E+00
    0.30119E-08         0.26139E-11         0.00000E+00
    0.31823E-08         0.27597E-11         0.00000E+00
    0.33628E-08         0.29130E-11         0.00000E+00
    0.35538E-08         0.30741E-11         0.00000E+00
    0.37561E-08         0.32435E-11         0.00000E+00
    0.39702E-08         0.34214E-11         0.00000E+00
    0.41969E-08         0.36081E-11         0.00000E+00
    0.44369E-08         0.38041E-11         0.00000E+00
    0.46909E-08         0.40097E-11         0.00000E+00
    0.49599E-08         0.42250E-11         0.00000E+00
    0.52448E-08         0.44506E-11         0.00000E+00
    0.55463E-08         0.46866E-11         0.00000E+00
    0.58657E-08         0.49333E-11         0.00000E+00
    0.62039E-08         0.51910E-11         0.00000E+00
    0.65621E-08         0.54597E-11         0.00000E+00
    0.69415E-08         0.57398E-11         0.00000E+00
    0.73435E-08         0.60311E-11         0.00000E+00
    0.77693E-08         0.63338E-11         0.00000E+00
    0.82206E-08         0.66476E-11         0.00000E+00
    0.86988E-08         0.69723E-11         0.00000E+00
    0.92058E-08         0.73075E-11         0.00000E+00
    0.97433E-08         0.76525E-11         0.00000E+00
    0.10313E-07         0.80065E-11         0.00000E+00
    0.10918E-07         0.83683E-11         0.00000E+00
    0.11559E-07         0.87364E-11         0.00000E+00
    0.12240E-07         0.91090E-11         0.00000E+00
    0.12962E-07         0.94834E-11         0.00000E+00
    0.13730E-07         0.98567E-11         0.00000E+00
    0.14545E-07         0.10225E-10         0.00000E+00
    0.15411E-07         0.10583E-10         0.00000E+00
    0.16332E-07         0.10926E-10         0.00000E+00
    0.17311E-07         0.11246E-10         0.00000E+00
    0.18353E-07         0.11535E-10         0.00000E+00
    0.19462E-07         0.11782E-10         0.00000E+00
    0.20643E-07         0.11974E-10         0.00000E+00
    0.21902E-07         0.12097E-10         0.00000E+00
    0.23244E-07         0.12133E-10         0.00000E+00
    0.24676E-07         0.12062E-10         0.00000E+00
    0.26205E-07         0.11860E-10         0.00000E+00
    0.27838E-07         0.11498E-10         0.00000E+00
    0.29583E-07         0.10947E-10         0.00000E+00
    0.31450E-07         0.10172E-10         0.00000E+00
    0.33448E-07         0.91350E-11         0.00000E+00
    0.35586E-07         0.77970E-11         0.00000E+00
    0.37877E-07         0.61183E-11         0.00000E+00
    0.40332E-07         0.40615E-11         0.00000E+00
    0.42963E-07         0.15954E-11         0.00000E+00
    0.45782E-07        -0.12994E-11         0.00000E+00
    0.48802E-07        -0.46226E-11         0.00000E+00
    0.52036E-07        -0.83443E-11         0.00000E+00
    0.55497E-07        -0.12391E-10         0.00000E+00
    0.59194E-07        -0.16631E-10         0.00000E+00
    0.63139E-07        -0.20850E-10         0.00000E+00
    0.67337E-07        -0.24741E-10         0.00000E+00
    0.71793E-07        -0.27832E-10         0.00000E+00
    0.76506E-07        -0.29554E-10         0.00000E+00
    0.81471E-07        -0.28558E-10         0.00000E+00
    0.86669E-07        -0.24217E-10         0.00000E+00
    0.89324E-07         0.00000E+00         0.00000E+00
    0.62912E-09         0.00000E+00         0.00000E+00
    0.62763E-09         0.68426E-12         0.00000E+00
    0.62525E-09         0.95967E-12         0.00000E+00
    0.62426E-09         0.11161E-11         0.00000E+00
    0.62502E-09         0.11981E-11         0.00000E+00
    0.62776E-09         0.12361E-11         0.00000E+00
    0.63264E-09         0.12474E-11         0.00000E+00
    0.63978E-09         0.12441E-11         0.00000E+00
    0.64927E-09         0.12344E-11         0.00000E+00
    0.66117E-09         0.12240E-11         0.00000E+00
    0.67553E-09         0.12168E-11         0.00000E+00
    0.69239E-09         0.12153E-11         0.00000E+00
    0.71179E-09         0.12209E-11         0.00000E+00
    0.73376E-09         0.12344E-11         0.00000E+00
    0.75835E-09         0.12562E-11         0.00000E+00
    0.78560E-09         0.12864E-11         0.00000E+00
    0.81557E-09         0.13249E-11         0.00000E+00
    0.84832E-09         0.13715E-11         0.00000E+00
    0.88393E-09         0.14259E-11         0.00000E+00
    0.92248E-09         0.14880E-11         0.00000E+00
    0.96407E-09         0.15574E-11         0.00000E+00
    0.10088E-08         0.16342E-11         0.00000E+00
    0.10568E-08         0.17180E-11         0.00000E+00
    0.11082E-08         0.18090E-11         0.00000E+00
    0.11632E-08         0.19070E-11         0.00000E+00
    0.12218E-08         0.20122E-11         0.00000E+00
    0.12844E-08         0.21246E-11         0.00000E+00
    0.13510E-08         0.22444E-11         0.00000E+00
    0.14218E-08         0.23718E-11         0.00000E+00
    0.14971E-08         0.25070E-11         0.00000E+00
    0.15772E-08         0.26503E-11         0.00000E+00
    0.16622E-08         0.28019E-11         0.00000E+00
    0.17523E-08         0.29623E-11         0.00000E+00
    0.18480E-08         0.31318E-11         0.00000E+00
    0.19495E-08         0.33107E-11         0.00000E+00
    0.20570E-08         0.34996E-11         0.00000E+00
    0.21710E-08         0.36989E-11         0.00000E+00
    0.22918E-08         0.39090E-11         0.00000E+00
    0.24198E-08         0.41305E-11         0.00000E+00
    0.25553E-08         0.43639E-11         0.00000E+00
    0.26989E-08         0.46097E-11         0.00000E+00
    0.28509E-08         0.48686E-11         0.00000E+00
    0.30119E-08         0.51411E-11         0.00000E+00
    0.31824E-08         0.54278E-11         0.00000E+00
    0.33628E-08         0.57294E-11         0.00000E+00
    0.35539E-08         0.60466E-11         0.00000E+00
    0.37561E-08         0.63799E-11         0.00000E+00
    0.39703E-08         0.67300E-11         0.00000E+00
    0.41969E-08         0.70976E-11         0.00000E+00
    0.44369E-08         0.74834E-11         0.00000E+00
    0.46910E-08         0.78880E-11         0.00000E+00
    0.49600E-08         0.83120E-11         0.00000E+00
    0.52448E-08         0.87561E-11         0.00000E+00
    0.55464E-08         0.92209E-11         0.00000E+00
    0.58658E-08         0.97068E-11         0.00000E+00
    0.62040E-08         0.10214E-10         0.00000E+00
    0.65622E-08         0.10744E-10         0.00000E+00
    0.69416E-08         0.11296E-10         0.00000E+00
    0.73435E-08         0.11870E-10         0.00000E+00
    0.77694E-08         0.12467E-10         0.00000E+00
    0.82207E-08         0.13085E-10         0.00000E+00
    0.86989E-08         0.13726E-10         0.00000E+00
    0.92059E-08         0.14387E-10         0.00000E+00
    0.97434E-08         0.15068E-10         0.00000E+00
    0.10313E-07         0.15767E-10         0.00000E+00
    0.10918E-07         0.16482E-10         0.00000E+00
    0.11559E-07         0.17210E-10         0.00000E+00
    0.12240E-07         0.17947E-10         0.00000E+00
    0.12963E-07         0.18688E-10         0.00000E+00
    0.13730E-07         0.19427E-10         0.00000E+00
    0.14545E-07         0.20157E-10         0.00000E+00
    0.15411E-07         0.20869E-10         0.00000E+00
    0.16332E-07         0.21550E-10         0.00000E+00
    0.17311E-07         0.22187E-10         0.00000E+00
    0.18353E-07         0.22764E-10         0.00000E+00
    0.19462E-07         0.23258E-10         0.00000E+00
    0.20643E-07         0.23646E-10         0.00000E+00
    0.21902E-07         0.23898E-10         0.00000E+00
    0.23244E-07         0.23979E-10         0.00000E+00
    0.24676E-07         0.23848E-10         0.00000E+00
    0.26205E-07         0.23458E-10         0.00000E+00
    0.27837E-07         0.22754E-10         0.00000E+00
    0.29583E-07         0.21675E-10         0.00000E+00
    0.31450E-07         0.20151E-10         0.00000E+00
    0.33447E-07         0.18108E-10         0.00000E+00
    0.35586E-07         0.15468E-10         0.00000E+00
    0.37877E-07         0.12150E-10         0.00000E+00
    0.40331E-07         0.80809E-11         0.00000E+00
    0.42962E-07         0.31972E-11         0.00000E+00
    0.45781E-07        -0.25395E-11         0.00000E+00
    0.48801E-07        -0.91282E-11         0.00000E+00
    0.52035E-07        -0.16507E-10         0.00000E+00
    0.55495E-07        -0.24528E-10         0.00000E+00
    0.59193E-07        -0.32920E-10         0.00000E+00
    0.63138E-07        -0.41251E-10         0.00000E+00
    0.67336E-07        -0.48880E-10         0.00000E+00
    0.71792E-07        -0.54877E-10         0.00000E+00
    0.76506E-07        -0.57948E-10         0.00000E+00
    0.81471E-07        -0.55744E-10         0.00000E+00
    0.86673E-07        -0.45333E-10         0.00000E+00
    0.89331E-07         0.00000E+00         0.00000E+00
    0.62929E-09         0.00000E+00         0.00000E+00
    0.62775E-09         0.96348E-12         0.00000E+00
    0.62531E-09         0.13923E-11         0.00000E+00
    0.62429E-09         0.16291E-11         0.00000E+00
    0.62503E-09         0.17552E-11         0.00000E+00
    0.62776E-09         0.18138E-11         0.00000E+00
    0.63264E-09         0.18319E-11         0.00000E+00
    0.63978E-09         0.18275E-11         0.00000E+00
    0.64927E-09         0.18132E-11         0.00000E+00
    0.66117E-09         0.17976E-11         0.00000E+00
    0.67553E-09         0.17867E-11         0.00000E+00
    0.69239E-09         0.17839E-11         0.00000E+00
    0.71179E-09         0.17918E-11         0.00000E+00
    0.73377E-09         0.18113E-11         0.00000E+00
    0.75836E-09         0.18432E-11         0.00000E+00
    0.78561E-09         0.18875E-11         0.00000E+00
    0.81558E-09         0.19440E-11         0.00000E+00
    0.84833E-09         0.20124E-11         0.00000E+00
    0.88394E-09         0.20923E-11         0.00000E+00
    0.92250E-09         0.21836E-11         0.00000E+00
    0.96409E-09         0.22857E-11         0.00000E+00
    0.10088E-08         0.23985E-11         0.00000E+00
    0.10568E-08         0.25218E-11         0.00000E+00
    0.11083E-08         0.26555E-11         0.00000E+00
    0.11632E-08         0.27997E-11         0.00000E+00
    0.12219E-08         0.29543E-11         0.00000E+00
    0.12844E-08         0.31196E-11         0.00000E+00
    0.13510E-08         0.32957E-11         0.00000E+00
    0.14219E-08         0.34829E-11         0.00000E+00
    0.14972E-08         0.36816E-11         0.00000E+00
    0.15772E-08         0.38922E-11         0.00000E+00
    0.16622E-08         0.41150E-11         0.00000E+00
    0.17524E-08         0.43507E-11         0.00000E+00
    0.18481E-08         0.45998E-11         0.00000E+00
    0.19495E-08         0.48627E-11         0.00000E+00
    0.20571E-08         0.51403E-11         0.00000E+00
    0.21711E-08         0.54331E-11         0.00000E+00
    0.22919E-08         0.57419E-11         0.00000E+00
    0.24199E-08         0.60674E-11         0.00000E+00
    0.25554E-08         0.64104E-11         0.00000E+00
    0.26990E-08         0.67717E-11         0.00000E+00
    0.28510E-08         0.71522E-11         0.00000E+00
    0.30120E-08         0.75527E-11         0.00000E+00
    0.31824E-08         0.79742E-11         0.00000E+00
    0.33629E-08         0.84176E-11         0.00000E+00
    0.35540E-08         0.88838E-11         0.00000E+00
    0.37562E-08         0.93738E-11         0.00000E+00
    0.39703E-08         0.98886E-11         0.00000E+00
    0.41970E-08         0.10429E-10         0.00000E+00
    0.44370E-08         0.10997E-10         0.00000E+00
    0.46911E-08         0.11592E-10         0.00000E+00
    0.49601E-08         0.12215E-10         0.00000E+00
    0.52449E-08         0.12869E-10         0.00000E+00
    0.55465E-08         0.13553E-10         0.00000E+00
    0.58659E-08         0.14268E-10         0.00000E+00
    0.62041E-08         0.15015E-10         0.00000E+00
    0.65623E-08         0.15794E-10         0.00000E+00
    0.69417E-08         0.16607E-10         0.00000E+00
    0.73437E-08         0.17453E-10         0.00000E+00
    0.77696E-08         0.18332E-10         0.00000E+00
    0.82208E-08         0.19244E-10         0.00000E+00
    0.86991E-08         0.20188E-10         0.00000E+00
    0.92061E-08         0.21164E-10         0.00000E+00
    0.97436E-08         0.22169E-10         0.00000E+00
    0.10314E-07         0.23201E-10         0.00000E+00
    0.10918E-07         0.24257E-10         0.00000E+00
    0.11559E-07         0.25333E-10         0.00000E+00
    0.12240E-07         0.26423E-10         0.00000E+00
    0.12963E-07         0.27520E-10         0.00000E+00
    0.13730E-07         0.28616E-10         0.00000E+00
    0.14545E-07         0.29699E-10         0.00000E+00
    0.15411E-07         0.30756E-10         0.00000E+00
    0.16332E-07         0.31771E-10         0.00000E+00
    0.17311E-07         0.32721E-10         0.00000E+00
    0.18353E-07         0.33583E-10         0.00000E+00
    0.19462E-07         0.34326E-10         0.00000E+00
    0.20643E-07         0.34913E-10         0.00000E+00
    0.21902E-07         0.35301E-10         0.00000E+00
    0.23244E-07         0.35438E-10         0.00000E+00
    0.24676E-07         0.35263E-10         0.00000E+00
    0.26204E-07         0.34706E-10         0.00000E+00
    0.27837E-07         0.33685E-10         0.00000E+00
    0.29583E-07         0.32108E-10         0.00000E+00
    0.31449E-07         0.29872E-10         0.00000E+00
    0.33447E-07         0.26866E-10         0.00000E+00
    0.35585E-07         0.22972E-10         0.00000E+00
    0.37876E-07         0.18070E-10         0.00000E+00
    0.40330E-07         0.12049E-10         0.00000E+00
    0.42960E-07         0.48148E-11         0.00000E+00
    0.45779E-07        -0.36903E-11         0.00000E+00
    0.48799E-07        -0.13464E-10         0.00000E+00
    0.52033E-07        -0.24411E-10         0.00000E+00
    0.55493E-07        -0.36305E-10         0.00000E+00
    0.59191E-07        -0.48730E-10         0.00000E+00
    0.63136E-07        -0.61025E-10         0.00000E+00
    0.67334E-07        -0.72200E-10         0.00000E+00
    0.71791E-07        -0.80838E-10         0.00000E+00
    0.76506E-07        -0.84852E-10         0.00000E+00
    0.81473E-07        -0.80985E-10         0.00000E+00
    0.86680E-07        -0.63006E-10         0.00000E+00
    0.89342E-07         0.00000E+00         0.00000E+00
    0.62950E-09         0.00000E+00         0.00000E+00
    0.62791E-09         0.12081E-11         0.00000E+00
    0.62538E-09         0.17913E-11         0.00000E+00
    0.62433E-09         0.21108E-11         0.00000E+00
    0.62506E-09         0.22823E-11         0.00000E+00
    0.62777E-09         0.23626E-11         0.00000E+00
    0.63264E-09         0.23880E-11         0.00000E+00
    0.63978E-09         0.23828E-11         0.00000E+00
    0.64926E-09         0.23641E-11         0.00000E+00
    0.66117E-09         0.23434E-11         0.00000E+00
    0.67553E-09         0.23285E-11         0.00000E+00
    0.69239E-09         0.23244E-11         0.00000E+00
    0.71180E-09         0.23340E-11         0.00000E+00
    0.73377E-09         0.23592E-11         0.00000E+00
    0.75836E-09         0.24004E-11         0.00000E+00
    0.78562E-09         0.24580E-11         0.00000E+00
    0.81559E-09         0.25315E-11         0.00000E+00
    0.84835E-09         0.26207E-11         0.00000E+00
    0.88396E-09         0.27251E-11         0.00000E+00
    0.92252E-09         0.28441E-11         0.00000E+00
    0.96412E-09         0.29774E-11         0.00000E+00
    0.10089E-08         0.31247E-11         0.00000E+00
    0.10569E-08         0.32856E-11         0.00000E+00
    0.11083E-08         0.34602E-11         0.00000E+00
    0.11632E-08         0.36483E-11         0.00000E+00
    0.12219E-08         0.38501E-11         0.00000E+00
    0.12844E-08         0.40658E-11         0.00000E+00
    0.13510E-08         0.42956E-11         0.00000E+00
    0.14219E-08         0.45399E-11         0.00000E+00
    0.14972E-08         0.47991E-11         0.00000E+00
    0.15773E-08         0.50738E-11         0.00000E+00
    0.16622E-08         0.53646E-11         0.00000E+00
    0.17524E-08         0.56720E-11         0.00000E+00
    0.18481E-08         0.59969E-11         0.00000E+00
    0.19496E-08         0.63400E-11         0.00000E+00
    0.20571E-08         0.67021E-11         0.00000E+00
    0.21711E-08         0.70840E-11         0.00000E+00
    0.22919E-08         0.74869E-11         0.00000E+00
    0.24199E-08         0.79115E-11         0.00000E+00
    0.25555E-08         0.83590E-11         0.00000E+00
    0.26991E-08         0.88303E-11         0.00000E+00
    0.28511E-08         0.93267E-11         0.00000E+00
    0.30121E-08         0.98493E-11         0.00000E+00
    0.31825E-08         0.10399E-10         0.00000E+00
    0.33630E-08         0.10978E-10         0.00000E+00
    0.35541E-08         0.11586E-10         0.00000E+00
    0.37563E-08         0.12226E-10         0.00000E+00
    0.39705E-08         0.12898E-10         0.00000E+00
    0.41972E-08         0.13603E-10         0.00000E+00
    0.44372E-08         0.14344E-10         0.00000E+00
    0.46913E-08         0.15121E-10         0.00000E+00
    0.49603E-08         0.15935E-10         0.00000E+00
    0.52451E-08         0.16789E-10         0.00000E+00
    0.55467E-08         0.17682E-10         0.00000E+00
    0.58661E-08         0.18616E-10         0.00000E+00
    0.62043E-08         0.19593E-10         0.00000E+00
    0.65625E-08         0.20612E-10         0.00000E+00
    0.69419E-08         0.21674E-10         0.00000E+00
    0.73439E-08         0.22780E-10         0.00000E+00
    0.77698E-08         0.23930E-10         0.00000E+00
    0.82210E-08         0.25124E-10         0.00000E+00
    0.86993E-08         0.26360E-10         0.00000E+00
    0.92063E-08         0.27638E-10         0.00000E+00
    0.97438E-08         0.28955E-10         0.00000E+00
    0.10314E-07         0.30308E-10         0.00000E+00
    0.10918E-07         0.31693E-10         0.00000E+00
    0.11560E-07         0.33105E-10         0.00000E+00
    0.12240E-07         0.34537E-10         0.00000E+00
    0.12963E-07         0.35980E-10         0.00000E+00
    0.13730E-07         0.37423E-10         0.00000E+00
    0.14545E-07         0.38850E-10         0.00000E+00
    0.15411E-07         0.40245E-10         0.00000E+00
    0.16332E-07         0.41586E-10         0.00000E+00
    0.17311E-07         0.42846E-10         0.00000E+00
    0.18353E-07         0.43992E-10         0.00000E+00
    0.19462E-07         0.44983E-10         0.00000E+00
    0.20643E-07         0.45774E-10         0.00000E+00
    0.21902E-07         0.46304E-10         0.00000E+00
    0.23244E-07         0.46508E-10         0.00000E+00
    0.24676E-07         0.46305E-10         0.00000E+00
    0.26204E-07         0.45600E-10         0.00000E+00
    0.27837E-07         0.44287E-10         0.00000E+00
    0.29582E-07         0.42244E-10         0.00000E+00
    0.31449E-07         0.39333E-10         0.00000E+00
    0.33446E-07         0.35408E-10         0.00000E+00
    0.35584E-07         0.30310E-10         0.00000E+00
    0.37875E-07         0.23882E-10         0.00000E+00
    0.40329E-07         0.15973E-10         0.00000E+00
    0.42959E-07         0.64588E-11         0.00000E+00
    0.45777E-07        -0.47367E-11         0.00000E+00
    0.48797E-07        -0.17610E-10         0.00000E+00
    0.52031E-07        -0.32031E-10         0.00000E+00
    0.55491E-07        -0.47691E-10         0.00000E+00
    0.59188E-07        -0.64027E-10         0.00000E+00
    0.63133E-07        -0.80137E-10         0.00000E+00
    0.67332E-07        -0.94669E-10         0.00000E+00
    0.71790E-07        -0.10568E-09         0.00000E+00
    0.76506E-07        -0.11031E-09         0.00000E+00
    0.81476E-07        -0.10423E-09         0.00000E+00
    0.86690E-07        -0.78080E-10         0.00000E+00
    0.89356E-07         0.00000E+00         0.00000E+00
    0.62977E-09         0.00000E+00         0.00000E+00
    0.62811E-09         0.14247E-11         0.00000E+00
    0.62549E-09         0.21584E-11         0.00000E+00
    0.62439E-09         0.25621E-11         0.00000E+00
    0.62509E-09         0.27799E-11         0.00000E+00
    0.62778E-09         0.28826E-11         0.00000E+00
    0.63264E-09         0.29157E-11         0.00000E+00
    0.63977E-09         0.29101E-11         0.00000E+00
    0.64926E-09         0.28871E-11         0.00000E+00
    0.66116E-09         0.28612E-11         0.00000E+00
    0.67553E-09         0.28423E-11         0.00000E+00
    0.69239E-09         0.28365E-11         0.00000E+00
    0.71180E-09         0.28478E-11         0.00000E+00
    0.73378E-09         0.28780E-11         0.00000E+00
    0.75838E-09         0.29280E-11         0.00000E+00
    0.78563E-09         0.29981E-11         0.00000E+00
    0.81561E-09         0.30878E-11         0.00000E+00
    0.84837E-09         0.31968E-11         0.00000E+00
    0.88399E-09         0.33243E-11         0.00000E+00
    0.92255E-09         0.34699E-11         0.00000E+00
    0.96415E-09         0.36329E-11         0.00000E+00
    0.10089E-08         0.38129E-11         0.00000E+00
    0.10569E-08         0.40097E-11         0.00000E+00
    0.11083E-08         0.42232E-11         0.00000E+00
    0.11633E-08         0.44532E-11         0.00000E+00
    0.12220E-08         0.46999E-11         0.00000E+00
    0.12845E-08         0.49635E-11         0.00000E+00
    0.13511E-08         0.52444E-11         0.00000E+00
    0.14220E-08         0.55430E-11         0.00000E+00
    0.14973E-08         0.58598E-11         0.00000E+00
    0.15773E-08         0.61955E-11         0.00000E+00
    0.16623E-08         0.65508E-11         0.00000E+00
    0.17525E-08         0.69265E-11         0.00000E+00
    0.18482E-08         0.73235E-11         0.00000E+00
    0.19497E-08         0.77427E-11         0.00000E+00
    0.20572E-08         0.81851E-11         0.00000E+00
    0.21712E-08         0.86519E-11         0.00000E+00
    0.22920E-08         0.91441E-11         0.00000E+00
    0.24200E-08         0.96630E-11         0.00000E+00
    0.25556E-08         0.10210E-10         0.00000E+00
    0.26992E-08         0.10786E-10         0.00000E+00
    0.28512E-08         0.11393E-10         0.00000E+00
    0.30122E-08         0.12031E-10         0.00000E+00
    0.31827E-08         0.12703E-10         0.00000E+00
    0.33631E-08         0.13411E-10         0.00000E+00
    0.35542E-08         0.14154E-10         0.00000E+00
    0.37565E-08         0.14936E-10         0.00000E+00
    0.39706E-08         0.15758E-10         0.00000E+00
    0.41973E-08         0.16621E-10         0.00000E+00
    0.44373E-08         0.17526E-10         0.00000E+00
    0.46914E-08         0.18477E-10         0.00000E+00
    0.49605E-08         0.19473E-10         0.00000E+00
    0.52453E-08         0.20517E-10         0.00000E+00
    0.55469E-08         0.21610E-10         0.00000E+00
    0.58663E-08         0.22754E-10         0.00000E+00
    0.62045E-08         0.23949E-10         0.00000E+00
    0.65627E-08         0.25196E-10         0.00000E+00
    0.69422E-08         0.26498E-10         0.00000E+00
    0.73441E-08         0.27853E-10         0.00000E+00
    0.77700E-08         0.29262E-10         0.00000E+00
    0.82213E-08         0.30725E-10         0.00000E+00
    0.86996E-08         0.32241E-10         0.00000E+00
    0.92066E-08         0.33809E-10         0.00000E+00
    0.97441E-08         0.35425E-10         0.00000E+00
    0.10314E-07         0.37087E-10         0.00000E+00
    0.10919E-07         0.38790E-10         0.00000E+00
    0.11560E-07         0.40527E-10         0.00000E+00
    0.12241E-07         0.42289E-10         0.00000E+00
    0.12963E-07         0.44067E-10         0.00000E+00
    0.13731E-07         0.45846E-10         0.00000E+00
    0.14546E-07         0.47609E-10         0.00000E+00
    0.15412E-07         0.49334E-10         0.00000E+00
    0.16332E-07         0.50996E-10         0.00000E+00
    0.17311E-07         0.52560E-10         0.00000E+00
    0.18353E-07         0.53987E-10         0.00000E+00
    0.19462E-07         0.55228E-10         0.00000E+00
    0.20643E-07         0.56224E-10         0.00000E+00
    0.21902E-07         0.56905E-10         0.00000E+00
    0.23244E-07         0.57186E-10         0.00000E+00
    0.24676E-07         0.56969E-10         0.00000E+00
    0.26204E-07         0.56137E-10         0.00000E+00
    0.27837E-07         0.54558E-10         0.00000E+00
    0.29582E-07         0.52080E-10         0.00000E+00
    0.31448E-07         0.48533E-10         0.00000E+00
    0.33445E-07         0.43733E-10         0.00000E+00
    0.35583E-07         0.37484E-10         0.00000E+00
    0.37873E-07         0.29588E-10         0.00000E+00
    0.40327E-07         0.19858E-10         0.00000E+00
    0.42956E-07         0.81391E-11         0.00000E+00
    0.45774E-07        -0.56645E-11         0.00000E+00
    0.48794E-07        -0.21546E-10         0.00000E+00
    0.52027E-07        -0.39342E-10         0.00000E+00
    0.55487E-07        -0.58658E-10         0.00000E+00
    0.59185E-07        -0.78778E-10         0.00000E+00
    0.63129E-07        -0.98553E-10         0.00000E+00
    0.67329E-07        -0.11626E-09         0.00000E+00
    0.71788E-07        -0.12941E-09         0.00000E+00
    0.76506E-07        -0.13436E-09         0.00000E+00
    0.81480E-07        -0.12558E-09         0.00000E+00
    0.86701E-07        -0.91157E-10         0.00000E+00
    0.89373E-07         0.00000E+00         0.00000E+00
    0.63007E-09         0.00000E+00         0.00000E+00
    0.62834E-09         0.16183E-11         0.00000E+00
    0.62561E-09         0.24958E-11         0.00000E+00
    0.62446E-09         0.29841E-11         0.00000E+00
    0.62512E-09         0.32485E-11         0.00000E+00
    0.62780E-09         0.33741E-11         0.00000E+00
    0.63264E-09         0.34154E-11         0.00000E+00
    0.63977E-09         0.34096E-11         0.00000E+00
    0.64925E-09         0.33823E-11         0.00000E+00
    0.66116E-09         0.33513E-11         0.00000E+00
    0.67552E-09         0.33282E-11         0.00000E+00
    0.69240E-09         0.33206E-11         0.00000E+00
    0.71180E-09         0.33330E-11         0.00000E+00
    0.73379E-09         0.33678E-11         0.00000E+00
    0.75839E-09         0.34261E-11         0.00000E+00
    0.78565E-09         0.35079E-11         0.00000E+00
    0.81563E-09         0.36130E-11         0.00000E+00
    0.84840E-09         0.37407E-11         0.00000E+00
    0.88402E-09         0.38903E-11         0.00000E+00
    0.92258E-09         0.40610E-11         0.00000E+00
    0.96418E-09         0.42522E-11         0.00000E+00
    0.10089E-08         0.44634E-11         0.00000E+00
    0.10570E-08         0.46943E-11         0.00000E+00
    0.11084E-08         0.49447E-11         0.00000E+00
    0.11633E-08         0.52145E-11         0.00000E+00
    0.12220E-08         0.55038E-11         0.00000E+00
    0.12846E-08         0.58130E-11         0.00000E+00
    0.13512E-08         0.61424E-11         0.00000E+00
    0.14220E-08         0.64925E-11         0.00000E+00
    0.14974E-08         0.68639E-11         0.00000E+00
    0.15774E-08         0.72575E-11         0.00000E+00
    0.16624E-08         0.76740E-11         0.00000E+00
    0.17526E-08         0.81145E-11         0.00000E+00
    0.18483E-08         0.85798E-11         0.00000E+00
    0.19498E-08         0.90713E-11         0.00000E+00
    0.20573E-08         0.95899E-11         0.00000E+00
    0.21713E-08         0.10137E-10         0.00000E+00
    0.22922E-08         0.10714E-10         0.00000E+00
    0.24201E-08         0.11322E-10         0.00000E+00
    0.25557E-08         0.11963E-10         0.00000E+00
    0.26993E-08         0.12639E-10         0.00000E+00
    0.28513E-08         0.13350E-10         0.00000E+00
    0.30123E-08         0.14099E-10         0.00000E+00
    0.31828E-08         0.14887E-10         0.00000E+00
    0.33633E-08         0.15717E-10         0.00000E+00
    0.35544E-08         0.16589E-10         0.00000E+00
    0.37567E-08         0.17506E-10         0.00000E+00
    0.39708E-08         0.18469E-10         0.00000E+00
    0.41975E-08         0.19482E-10         0.00000E+00
    0.44375E-08         0.20544E-10         0.00000E+00
    0.46916E-08         0.21659E-10         0.00000E+00
    0.49607E-08         0.22829E-10         0.00000E+00
    0.52455E-08         0.24054E-10         0.00000E+00
    0.55471E-08         0.25337E-10         0.00000E+00
    0.58665E-08         0.26680E-10         0.00000E+00
    0.62048E-08         0.28083E-10         0.00000E+00
    0.65630E-08         0.29549E-10         0.00000E+00
    0.69425E-08         0.31078E-10         0.00000E+00
    0.73444E-08         0.32671E-10         0.00000E+00
    0.77703E-08         0.34328E-10         0.00000E+00
    0.82216E-08         0.36049E-10         0.00000E+00
    0.86999E-08         0.37833E-10         0.00000E+00
    0.92069E-08         0.39678E-10         0.00000E+00
    0.97444E-08         0.41582E-10         0.00000E+00
    0.10314E-07         0.43540E-10         0.00000E+00
    0.10919E-07         0.45548E-10         0.00000E+00
    0.11560E-07         0.47598E-10         0.00000E+00
    0.12241E-07         0.49679E-10         0.00000E+00
    0.12964E-07         0.51781E-10         0.00000E+00
    0.13731E-07         0.53886E-10         0.00000E+00
    0.14546E-07         0.55974E-10         0.00000E+00
    0.15412E-07         0.58022E-10         0.00000E+00
    0.16333E-07         0.59997E-10         0.00000E+00
    0.17312E-07         0.61861E-10         0.00000E+00
    0.18353E-07         0.63567E-10         0.00000E+00
    0.19462E-07         0.65057E-10         0.00000E+00
    0.20643E-07         0.66262E-10         0.00000E+00
    0.21902E-07         0.67099E-10         0.00000E+00
    0.23244E-07         0.67468E-10         0.00000E+00
    0.24675E-07         0.67252E-10         0.00000E+00
    0.26204E-07         0.66314E-10         0.00000E+00
    0.27836E-07         0.64494E-10         0.00000E+00
    0.29581E-07         0.61613E-10         0.00000E+00
    0.31447E-07         0.57468E-10         0.00000E+00
    0.33444E-07         0.51840E-10         0.00000E+00
    0.35581E-07         0.44493E-10         0.00000E+00
    0.37871E-07         0.35191E-10         0.00000E+00
    0.40324E-07         0.23711E-10         0.00000E+00
    0.42954E-07         0.98649E-11         0.00000E+00
    0.45771E-07        -0.64602E-11         0.00000E+00
    0.48790E-07        -0.25255E-10         0.00000E+00
    0.52023E-07        -0.46321E-10         0.00000E+00
    0.55483E-07        -0.69178E-10         0.00000E+00
    0.59180E-07        -0.92953E-10         0.00000E+00
    0.63125E-07        -0.11624E-09         0.00000E+00
    0.67326E-07        -0.13694E-09         0.00000E+00
    0.71786E-07        -0.15201E-09         0.00000E+00
    0.76507E-07        -0.15701E-09         0.00000E+00
    0.81484E-07        -0.14517E-09         0.00000E+00
    0.86715E-07        -0.10267E-09         0.00000E+00
    0.89393E-07         0.00000E+00         0.00000E+00
    0.63042E-09         0.00000E+00         0.00000E+00
    0.62861E-09         0.17923E-11         0.00000E+00
    0.62576E-09         0.28059E-11         0.00000E+00
    0.62454E-09         0.33777E-11         0.00000E+00
    0.62516E-09         0.36887E-11         0.00000E+00
    0.62782E-09         0.38374E-11         0.00000E+00
    0.63265E-09         0.38870E-11         0.00000E+00
    0.63977E-09         0.38811E-11         0.00000E+00
    0.64925E-09         0.38497E-11         0.00000E+00
    0.66115E-09         0.38135E-11         0.00000E+00
    0.67552E-09         0.37862E-11         0.00000E+00
    0.69240E-09         0.37766E-11         0.00000E+00
    0.71181E-09         0.37899E-11         0.00000E+00
    0.73380E-09         0.38289E-11         0.00000E+00
    0.75840E-09         0.38948E-11         0.00000E+00
    0.78567E-09         0.39877E-11         0.00000E+00
    0.81566E-09         0.41073E-11         0.00000E+00
    0.84843E-09         0.42527E-11         0.00000E+00
    0.88405E-09         0.44231E-11         0.00000E+00
    0.92262E-09         0.46176E-11         0.00000E+00
    0.96423E-09         0.48356E-11         0.00000E+00
    0.10090E-08         0.50764E-11         0.00000E+00
    0.10570E-08         0.53396E-11         0.00000E+00
    0.11084E-08         0.56249E-11         0.00000E+00
    0.11634E-08         0.59324E-11         0.00000E+00
    0.12221E-08         0.62622E-11         0.00000E+00
    0.12846E-08         0.66144E-11         0.00000E+00
    0.13512E-08         0.69897E-11         0.00000E+00
    0.14221E-08         0.73885E-11         0.00000E+00
    0.14974E-08         0.78117E-11         0.00000E+00
    0.15775E-08         0.82600E-11         0.00000E+00
    0.16625E-08         0.87345E-11         0.00000E+00
    0.17527E-08         0.92362E-11         0.00000E+00
    0.18484E-08         0.97662E-11         0.00000E+00
    0.19499E-08         0.10326E-10         0.00000E+00
    0.20574E-08         0.10917E-10         0.00000E+00
    0.21715E-08         0.11540E-10         0.00000E+00
    0.22923E-08         0.12197E-10         0.00000E+00
    0.24203E-08         0.12890E-10         0.00000E+00
    0.25559E-08         0.13620E-10         0.00000E+00
    0.26994E-08         0.14390E-10         0.00000E+00
    0.28515E-08         0.15200E-10         0.00000E+00
    0.30125E-08         0.16053E-10         0.00000E+00
    0.31830E-08         0.16951E-10         0.00000E+00
    0.33635E-08         0.17896E-10         0.00000E+00
    0.35546E-08         0.18890E-10         0.00000E+00
    0.37569E-08         0.19935E-10         0.00000E+00
    0.39710E-08         0.21033E-10         0.00000E+00
    0.41977E-08         0.22187E-10         0.00000E+00
    0.44378E-08         0.23398E-10         0.00000E+00
    0.46919E-08         0.24669E-10         0.00000E+00
    0.49609E-08         0.26003E-10         0.00000E+00
    0.52458E-08         0.27400E-10         0.00000E+00
    0.55474E-08         0.28864E-10         0.00000E+00
    0.58668E-08         0.30396E-10         0.00000E+00
    0.62051E-08         0.31997E-10         0.00000E+00
    0.65633E-08         0.33670E-10         0.00000E+00
    0.69428E-08         0.35416E-10         0.00000E+00
    0.73448E-08         0.37235E-10         0.00000E+00
    0.77707E-08         0.39128E-10         0.00000E+00
    0.82220E-08         0.41095E-10         0.00000E+00
    0.87003E-08         0.43134E-10         0.00000E+00
    0.92073E-08         0.45245E-10         0.00000E+00
    0.97449E-08         0.47424E-10         0.00000E+00
    0.10315E-07         0.49667E-10         0.00000E+00
    0.10919E-07         0.51967E-10         0.00000E+00
    0.11561E-07         0.54317E-10         0.00000E+00
    0.12242E-07         0.56706E-10         0.00000E+00
    0.12964E-07         0.59120E-10         0.00000E+00
    0.13731E-07         0.61540E-10         0.00000E+00
    0.14546E-07         0.63945E-10         0.00000E+00
    0.15412E-07         0.66306E-10         0.00000E+00
    0.16333E-07         0.68588E-10         0.00000E+00
    0.17312E-07         0.70746E-10         0.00000E+00
    0.18354E-07         0.72728E-10         0.00000E+00
    0.19463E-07         0.74467E-10         0.00000E+00
    0.20644E-07         0.75884E-10         0.00000E+00
    0.21902E-07         0.76883E-10         0.00000E+00
    0.23244E-07         0.77350E-10         0.00000E+00
    0.24675E-07         0.77150E-10         0.00000E+00
    0.26203E-07         0.76125E-10         0.00000E+00
    0.27836E-07         0.74091E-10         0.00000E+00
    0.29580E-07         0.70839E-10         0.00000E+00
    0.31446E-07         0.66137E-10         0.00000E+00
    0.33442E-07         0.59726E-10         0.00000E+00
    0.35580E-07         0.51337E-10         0.00000E+00
    0.37869E-07         0.40694E-10         0.00000E+00
    0.40322E-07         0.27536E-10         0.00000E+00
    0.42950E-07         0.11645E-10         0.00000E+00
    0.45767E-07        -0.71112E-11         0.00000E+00
    0.48786E-07        -0.28720E-10         0.00000E+00
    0.52018E-07        -0.52947E-10         0.00000E+00
    0.55478E-07        -0.79225E-10         0.00000E+00
    0.59175E-07        -0.10652E-09         0.00000E+00
    0.63121E-07        -0.13319E-09         0.00000E+00
    0.67322E-07        -0.15671E-09         0.00000E+00
    0.71784E-07        -0.17349E-09         0.00000E+00
    0.76508E-07        -0.17831E-09         0.00000E+00
    0.81490E-07        -0.16317E-09         0.00000E+00
    0.86730E-07        -0.11293E-09         0.00000E+00
    0.89414E-07         0.00000E+00         0.00000E+00
    0.63079E-09         0.00000E+00         0.00000E+00
    0.62891E-09         0.19495E-11         0.00000E+00
    0.62593E-09         0.30908E-11         0.00000E+00
    0.62464E-09         0.37441E-11         0.00000E+00
    0.62521E-09         0.41013E-11         0.00000E+00
    0.62784E-09         0.42729E-11         0.00000E+00
    0.63265E-09         0.43309E-11         0.00000E+00
    0.63976E-09         0.43249E-11         0.00000E+00
    0.64924E-09         0.42894E-11         0.00000E+00
    0.66114E-09         0.42481E-11         0.00000E+00
    0.67552E-09         0.42165E-11         0.00000E+00
    0.69240E-09         0.42046E-11         0.00000E+00
    0.71181E-09         0.42185E-11         0.00000E+00
    0.73381E-09         0.42613E-11         0.00000E+00
    0.75842E-09         0.43342E-11         0.00000E+00
    0.78569E-09         0.44376E-11         0.00000E+00
    0.81569E-09         0.45707E-11         0.00000E+00
    0.84846E-09         0.47328E-11         0.00000E+00
    0.88409E-09         0.49229E-11         0.00000E+00
    0.92266E-09         0.51401E-11         0.00000E+00
    0.96428E-09         0.53833E-11         0.00000E+00
    0.10090E-08         0.56520E-11         0.00000E+00
    0.10571E-08         0.59457E-11         0.00000E+00
    0.11085E-08         0.62642E-11         0.00000E+00
    0.11635E-08         0.66072E-11         0.00000E+00
    0.12221E-08         0.69751E-11         0.00000E+00
    0.12847E-08         0.73681E-11         0.00000E+00
    0.13513E-08         0.77867E-11         0.00000E+00
    0.14222E-08         0.82315E-11         0.00000E+00
    0.14975E-08         0.87034E-11         0.00000E+00
    0.15776E-08         0.92034E-11         0.00000E+00
    0.16626E-08         0.97325E-11         0.00000E+00
    0.17528E-08         0.10292E-10         0.00000E+00
    0.18485E-08         0.10883E-10         0.00000E+00
    0.19500E-08         0.11507E-10         0.00000E+00
    0.20576E-08         0.12166E-10         0.00000E+00
    0.21716E-08         0.12861E-10         0.00000E+00
    0.22924E-08         0.13594E-10         0.00000E+00
    0.24204E-08         0.14366E-10         0.00000E+00
    0.25560E-08         0.15181E-10         0.00000E+00
    0.26996E-08         0.16039E-10         0.00000E+00
    0.28517E-08         0.16942E-10         0.00000E+00
    0.30127E-08         0.17894E-10         0.00000E+00
    0.31832E-08         0.18895E-10         0.00000E+00
    0.33637E-08         0.19949E-10         0.00000E+00
    0.35548E-08         0.21058E-10         0.00000E+00
    0.37571E-08         0.22224E-10         0.00000E+00
    0.39713E-08         0.23449E-10         0.00000E+00
    0.41980E-08         0.24737E-10         0.00000E+00
    0.44380E-08         0.26089E-10         0.00000E+00
    0.46922E-08         0.27507E-10         0.00000E+00
    0.49612E-08         0.28996E-10         0.00000E+00
    0.52461E-08         0.30556E-10         0.00000E+00
    0.55477E-08         0.32191E-10         0.00000E+00
    0.58672E-08         0.33901E-10         0.00000E+00
    0.62054E-08         0.35691E-10         0.00000E+00
    0.65637E-08         0.37560E-10         0.00000E+00
    0.69432E-08         0.39511E-10         0.00000E+00
    0.73452E-08         0.41545E-10         0.00000E+00
    0.77711E-08         0.43663E-10         0.00000E+00
    0.82224E-08         0.45863E-10         0.00000E+00
    0.87008E-08         0.48147E-10         0.00000E+00
    0.92078E-08         0.50510E-10         0.00000E+00
    0.97453E-08         0.52952E-10         0.00000E+00
    0.10315E-07         0.55466E-10         0.00000E+00
    0.10920E-07         0.58047E-10         0.00000E+00
    0.11561E-07         0.60685E-10         0.00000E+00
    0.12242E-07         0.63369E-10         0.00000E+00
    0.12965E-07         0.66084E-10         0.00000E+00
    0.13732E-07         0.68809E-10         0.00000E+00
    0.14547E-07         0.71521E-10         0.00000E+00
    0.15413E-07         0.74186E-10         0.00000E+00
    0.16334E-07         0.76767E-10         0.00000E+00
    0.17313E-07         0.79214E-10         0.00000E+00
    0.18354E-07         0.81468E-10         0.00000E+00
    0.19463E-07         0.83455E-10         0.00000E+00
    0.20644E-07         0.85085E-10         0.00000E+00
    0.21902E-07         0.86252E-10         0.00000E+00
    0.23244E-07         0.86827E-10         0.00000E+00
    0.24675E-07         0.86658E-10         0.00000E+00
    0.26203E-07         0.85566E-10         0.00000E+00
    0.27835E-07         0.83343E-10         0.00000E+00
    0.29579E-07         0.79754E-10         0.00000E+00
    0.31445E-07         0.74533E-10         0.00000E+00
    0.33441E-07         0.67390E-10         0.00000E+00
    0.35578E-07         0.58016E-10         0.00000E+00
    0.37866E-07         0.46097E-10         0.00000E+00
    0.40319E-07         0.31336E-10         0.00000E+00
    0.42947E-07         0.13486E-10         0.00000E+00
    0.45763E-07        -0.76061E-11         0.00000E+00
    0.48781E-07        -0.31925E-10         0.00000E+00
    0.52013E-07        -0.59198E-10         0.00000E+00
    0.55472E-07        -0.88776E-10         0.00000E+00
    0.59169E-07        -0.11947E-09         0.00000E+00
    0.63115E-07        -0.14935E-09         0.00000E+00
    0.67318E-07        -0.17554E-09         0.00000E+00
    0.71782E-07        -0.19386E-09         0.00000E+00
    0.76509E-07        -0.19830E-09         0.00000E+00
    0.81498E-07        -0.17975E-09         0.00000E+00
    0.86747E-07        -0.12219E-09         0.00000E+00
    0.89438E-07         0.00000E+00         0.00000E+00
    0.63120E-09         0.00000E+00         0.00000E+00
    0.62923E-09         0.20923E-11         0.00000E+00
    0.62612E-09         0.33525E-11         0.00000E+00
    0.62474E-09         0.40844E-11         0.00000E+00
    0.62527E-09         0.44867E-11         0.00000E+00
    0.62786E-09         0.46808E-11         0.00000E+00
    0.63266E-09         0.47471E-11         0.00000E+00
    0.63976E-09         0.47411E-11         0.00000E+00
    0.64923E-09         0.47015E-11         0.00000E+00
    0.66114E-09         0.46550E-11         0.00000E+00
    0.67551E-09         0.46190E-11         0.00000E+00
    0.69240E-09         0.46048E-11         0.00000E+00
    0.71182E-09         0.46190E-11         0.00000E+00
    0.73382E-09         0.46651E-11         0.00000E+00
    0.75844E-09         0.47446E-11         0.00000E+00
    0.78572E-09         0.48576E-11         0.00000E+00
    0.81572E-09         0.50036E-11         0.00000E+00
    0.84850E-09         0.51814E-11         0.00000E+00
    0.88413E-09         0.53901E-11         0.00000E+00
    0.92271E-09         0.56284E-11         0.00000E+00
    0.96433E-09         0.58955E-11         0.00000E+00
    0.10091E-08         0.61906E-11         0.00000E+00
    0.10571E-08         0.65130E-11         0.00000E+00
    0.11086E-08         0.68626E-11         0.00000E+00
    0.11635E-08         0.72392E-11         0.00000E+00
    0.12222E-08         0.76429E-11         0.00000E+00
    0.12848E-08         0.80742E-11         0.00000E+00
    0.13514E-08         0.85335E-11         0.00000E+00
    0.14223E-08         0.90216E-11         0.00000E+00
    0.14976E-08         0.95394E-11         0.00000E+00
    0.15777E-08         0.10088E-10         0.00000E+00
    0.16627E-08         0.10668E-10         0.00000E+00
    0.17529E-08         0.11282E-10         0.00000E+00
    0.18486E-08         0.11930E-10         0.00000E+00
    0.19501E-08         0.12615E-10         0.00000E+00
    0.20577E-08         0.13338E-10         0.00000E+00
    0.21717E-08         0.14100E-10         0.00000E+00
    0.22926E-08         0.14904E-10         0.00000E+00
    0.24206E-08         0.15751E-10         0.00000E+00
    0.25562E-08         0.16645E-10         0.00000E+00
    0.26998E-08         0.17586E-10         0.00000E+00
    0.28519E-08         0.18577E-10         0.00000E+00
    0.30129E-08         0.19622E-10         0.00000E+00
    0.31834E-08         0.20721E-10         0.00000E+00
    0.33639E-08         0.21877E-10         0.00000E+00
    0.35550E-08         0.23094E-10         0.00000E+00
    0.37573E-08         0.24373E-10         0.00000E+00
    0.39715E-08         0.25718E-10         0.00000E+00
    0.41983E-08         0.27132E-10         0.00000E+00
    0.44383E-08         0.28616E-10         0.00000E+00
    0.46925E-08         0.30174E-10         0.00000E+00
    0.49615E-08         0.31809E-10         0.00000E+00
    0.52464E-08         0.33523E-10         0.00000E+00
    0.55481E-08         0.35318E-10         0.00000E+00
    0.58675E-08         0.37198E-10         0.00000E+00
    0.62058E-08         0.39165E-10         0.00000E+00
    0.65641E-08         0.41220E-10         0.00000E+00
    0.69436E-08         0.43366E-10         0.00000E+00
    0.73456E-08         0.45603E-10         0.00000E+00
    0.77716E-08         0.47933E-10         0.00000E+00
    0.82229E-08         0.50355E-10         0.00000E+00
    0.87012E-08         0.52870E-10         0.00000E+00
    0.92083E-08         0.55474E-10         0.00000E+00
    0.97458E-08         0.58165E-10         0.00000E+00
    0.10316E-07         0.60938E-10         0.00000E+00
    0.10921E-07         0.63787E-10         0.00000E+00
    0.11562E-07         0.66701E-10         0.00000E+00
    0.12243E-07         0.69668E-10         0.00000E+00
    0.12965E-07         0.72672E-10         0.00000E+00
    0.13733E-07         0.75691E-10         0.00000E+00
    0.14547E-07         0.78699E-10         0.00000E+00
    0.15414E-07         0.81660E-10         0.00000E+00
    0.16334E-07         0.84532E-10         0.00000E+00
    0.17313E-07         0.87262E-10         0.00000E+00
    0.18355E-07         0.89784E-10         0.00000E+00
    0.19463E-07         0.92017E-10         0.00000E+00
    0.20644E-07         0.93862E-10         0.00000E+00
    0.21902E-07         0.95203E-10         0.00000E+00
    0.23244E-07         0.95895E-10         0.00000E+00
    0.24675E-07         0.95770E-10         0.00000E+00
    0.26203E-07         0.94631E-10         0.00000E+00
    0.27835E-07         0.92246E-10         0.00000E+00
    0.29578E-07         0.88352E-10         0.00000E+00
    0.31443E-07         0.82655E-10         0.00000E+00
    0.33439E-07         0.74828E-10         0.00000E+00
    0.35575E-07         0.64527E-10         0.00000E+00
    0.37863E-07         0.51401E-10         0.00000E+00
    0.40315E-07         0.35116E-10         0.00000E+00
    0.42942E-07         0.15394E-10         0.00000E+00
    0.45758E-07        -0.79343E-11         0.00000E+00
    0.48775E-07        -0.34854E-10         0.00000E+00
    0.52007E-07        -0.65057E-10         0.00000E+00
    0.55466E-07        -0.97808E-10         0.00000E+00
    0.59163E-07        -0.13176E-09         0.00000E+00
    0.63109E-07        -0.16473E-09         0.00000E+00
    0.67313E-07        -0.19344E-09         0.00000E+00
    0.71779E-07        -0.21313E-09         0.00000E+00
    0.76510E-07        -0.21705E-09         0.00000E+00
    0.81506E-07        -0.19505E-09         0.00000E+00
    0.86766E-07        -0.13062E-09         0.00000E+00
    0.89463E-07         0.37253E-20         0.00000E+00
    0.63163E-09         0.00000E+00         0.00000E+00
    0.62958E-09         0.22222E-11         0.00000E+00
    0.62633E-09         0.35927E-11         0.00000E+00
    0.62486E-09         0.43996E-11         0.00000E+00
    0.62533E-09         0.48456E-11         0.00000E+00
    0.62789E-09         0.50617E-11         0.00000E+00
    0.63267E-09         0.51359E-11         0.00000E+00
    0.63975E-09         0.51297E-11         0.00000E+00
    0.64922E-09         0.50861E-11         0.00000E+00
    0.66113E-09         0.50343E-11         0.00000E+00
    0.67551E-09         0.49939E-11         0.00000E+00
    0.69240E-09         0.49772E-11         0.00000E+00
    0.71183E-09         0.49915E-11         0.00000E+00
    0.73383E-09         0.50406E-11         0.00000E+00
    0.75846E-09         0.51261E-11         0.00000E+00
    0.78575E-09         0.52481E-11         0.00000E+00
    0.81575E-09         0.54060E-11         0.00000E+00
    0.84854E-09         0.55986E-11         0.00000E+00
    0.88418E-09         0.58247E-11         0.00000E+00
    0.92276E-09         0.60830E-11         0.00000E+00
    0.96439E-09         0.63725E-11         0.00000E+00
    0.10092E-08         0.66922E-11         0.00000E+00
    0.10572E-08         0.70417E-11         0.00000E+00
    0.11086E-08         0.74205E-11         0.00000E+00
    0.11636E-08         0.78285E-11         0.00000E+00
    0.12223E-08         0.82659E-11         0.00000E+00
    0.12849E-08         0.87330E-11         0.00000E+00
    0.13515E-08         0.92305E-11         0.00000E+00
    0.14224E-08         0.97592E-11         0.00000E+00
    0.14977E-08         0.10320E-10         0.00000E+00
    0.15778E-08         0.10914E-10         0.00000E+00
    0.16628E-08         0.11542E-10         0.00000E+00
    0.17530E-08         0.12207E-10         0.00000E+00
    0.18488E-08         0.12909E-10         0.00000E+00
    0.19503E-08         0.13650E-10         0.00000E+00
    0.20579E-08         0.14432E-10         0.00000E+00
    0.21719E-08         0.15258E-10         0.00000E+00
    0.22928E-08         0.16128E-10         0.00000E+00
    0.24208E-08         0.17046E-10         0.00000E+00
    0.25564E-08         0.18013E-10         0.00000E+00
    0.27000E-08         0.19033E-10         0.00000E+00
    0.28521E-08         0.20106E-10         0.00000E+00
    0.30131E-08         0.21237E-10         0.00000E+00
    0.31836E-08         0.22427E-10         0.00000E+00
    0.33642E-08         0.23680E-10         0.00000E+00
    0.35553E-08         0.24998E-10         0.00000E+00
    0.37576E-08         0.26384E-10         0.00000E+00
    0.39718E-08         0.27841E-10         0.00000E+00
    0.41986E-08         0.29373E-10         0.00000E+00
    0.44386E-08         0.30981E-10         0.00000E+00
    0.46928E-08         0.32670E-10         0.00000E+00
    0.49619E-08         0.34442E-10         0.00000E+00
    0.52468E-08         0.36300E-10         0.00000E+00
    0.55485E-08         0.38247E-10         0.00000E+00
    0.58679E-08         0.40286E-10         0.00000E+00
    0.62062E-08         0.42420E-10         0.00000E+00
    0.65645E-08         0.44650E-10         0.00000E+00
    0.69441E-08         0.46979E-10         0.00000E+00
    0.73461E-08         0.49408E-10         0.00000E+00
    0.77721E-08         0.51939E-10         0.00000E+00
    0.82234E-08         0.54571E-10         0.00000E+00
    0.87018E-08         0.57304E-10         0.00000E+00
    0.92088E-08         0.60136E-10         0.00000E+00
    0.97464E-08         0.63065E-10         0.00000E+00
    0.10316E-07         0.66084E-10         0.00000E+00
    0.10921E-07         0.69187E-10         0.00000E+00
    0.11563E-07         0.72365E-10         0.00000E+00
    0.12243E-07         0.75602E-10         0.00000E+00
    0.12966E-07         0.78883E-10         0.00000E+00
    0.13733E-07         0.82185E-10         0.00000E+00
    0.14548E-07         0.85477E-10         0.00000E+00
    0.15414E-07         0.88725E-10         0.00000E+00
    0.16335E-07         0.91880E-10         0.00000E+00
    0.17314E-07         0.94886E-10         0.00000E+00
    0.18355E-07         0.97672E-10         0.00000E+00
    0.19464E-07         0.10015E-09         0.00000E+00
    0.20645E-07         0.10221E-09         0.00000E+00
    0.21903E-07         0.10373E-09         0.00000E+00
    0.23244E-07         0.10455E-09         0.00000E+00
    0.24675E-07         0.10448E-09         0.00000E+00
    0.26202E-07         0.10331E-09         0.00000E+00
    0.27834E-07         0.10079E-09         0.00000E+00
    0.29577E-07         0.96628E-10         0.00000E+00
    0.31442E-07         0.90495E-10         0.00000E+00
    0.33437E-07         0.82035E-10         0.00000E+00
    0.35573E-07         0.70867E-10         0.00000E+00
    0.37860E-07         0.56604E-10         0.00000E+00
    0.40311E-07         0.38876E-10         0.00000E+00
    0.42938E-07         0.17376E-10         0.00000E+00
    0.45753E-07        -0.80866E-11         0.00000E+00
    0.48769E-07        -0.37494E-10         0.00000E+00
    0.52000E-07        -0.70505E-10         0.00000E+00
    0.55459E-07        -0.10630E-09         0.00000E+00
    0.59156E-07        -0.14337E-09         0.00000E+00
    0.63103E-07        -0.17929E-09         0.00000E+00
    0.67308E-07        -0.21038E-09         0.00000E+00
    0.71777E-07        -0.23133E-09         0.00000E+00
    0.76512E-07        -0.23462E-09         0.00000E+00
    0.81515E-07        -0.20923E-09         0.00000E+00
    0.86786E-07        -0.13836E-09         0.00000E+00
    0.89490E-07         0.14366E-20         0.00000E+00
    0.63209E-09         0.00000E+00         0.00000E+00
    0.62995E-09         0.23406E-11         0.00000E+00
    0.62655E-09         0.38131E-11         0.00000E+00
    0.62499E-09         0.46908E-11         0.00000E+00
    0.62540E-09         0.51787E-11         0.00000E+00
    0.62792E-09         0.54157E-11         0.00000E+00
    0.63267E-09         0.54975E-11         0.00000E+00
    0.63975E-09         0.54910E-11         0.00000E+00
    0.64921E-09         0.54432E-11         0.00000E+00
    0.66112E-09         0.53862E-11         0.00000E+00
    0.67550E-09         0.53413E-11         0.00000E+00
    0.69240E-09         0.53220E-11         0.00000E+00
    0.71183E-09         0.53361E-11         0.00000E+00
    0.73385E-09         0.53878E-11         0.00000E+00
    0.75848E-09         0.54788E-11         0.00000E+00
    0.78577E-09         0.56092E-11         0.00000E+00
    0.81579E-09         0.57783E-11         0.00000E+00
    0.84858E-09         0.59847E-11         0.00000E+00
    0.88423E-09         0.62270E-11         0.00000E+00
    0.92282E-09         0.65040E-11         0.00000E+00
    0.96445E-09         0.68144E-11         0.00000E+00
    0.10092E-08         0.71573E-11         0.00000E+00
    0.10573E-08         0.75320E-11         0.00000E+00
    0.11087E-08         0.79380E-11         0.00000E+00
    0.11637E-08         0.83754E-11         0.00000E+00
    0.12224E-08         0.88442E-11         0.00000E+00
    0.12850E-08         0.93449E-11         0.00000E+00
    0.13516E-08         0.98780E-11         0.00000E+00
    0.14225E-08         0.10444E-10         0.00000E+00
    0.14979E-08         0.11045E-10         0.00000E+00
    0.15779E-08         0.11681E-10         0.00000E+00
    0.16630E-08         0.12355E-10         0.00000E+00
    0.17532E-08         0.13067E-10         0.00000E+00
    0.18489E-08         0.13819E-10         0.00000E+00
    0.19504E-08         0.14613E-10         0.00000E+00
    0.20580E-08         0.15451E-10         0.00000E+00
    0.21721E-08         0.16335E-10         0.00000E+00
    0.22929E-08         0.17267E-10         0.00000E+00
    0.24210E-08         0.18250E-10         0.00000E+00
    0.25566E-08         0.19287E-10         0.00000E+00
    0.27002E-08         0.20379E-10         0.00000E+00
    0.28523E-08         0.21529E-10         0.00000E+00
    0.30134E-08         0.22740E-10         0.00000E+00
    0.31839E-08         0.24016E-10         0.00000E+00
    0.33644E-08         0.25358E-10         0.00000E+00
    0.35556E-08         0.26771E-10         0.00000E+00
    0.37579E-08         0.28256E-10         0.00000E+00
    0.39721E-08         0.29818E-10         0.00000E+00
    0.41989E-08         0.31460E-10         0.00000E+00
    0.44390E-08         0.33185E-10         0.00000E+00
    0.46932E-08         0.34995E-10         0.00000E+00
    0.49623E-08         0.36896E-10         0.00000E+00
    0.52472E-08         0.38889E-10         0.00000E+00
    0.55489E-08         0.40978E-10         0.00000E+00
    0.58684E-08         0.43166E-10         0.00000E+00
    0.62067E-08         0.45456E-10         0.00000E+00
    0.65650E-08         0.47850E-10         0.00000E+00
    0.69446E-08         0.50351E-10         0.00000E+00
    0.73466E-08         0.52961E-10         0.00000E+00
    0.77726E-08         0.55680E-10         0.00000E+00
    0.82240E-08         0.58510E-10         0.00000E+00
    0.87024E-08         0.61450E-10         0.00000E+00
    0.92094E-08         0.64497E-10         0.00000E+00
    0.97470E-08         0.67650E-10         0.00000E+00
    0.10317E-07         0.70902E-10         0.00000E+00
    0.10922E-07         0.74248E-10         0.00000E+00
    0.11563E-07         0.77675E-10         0.00000E+00
    0.12244E-07         0.81171E-10         0.00000E+00
    0.12967E-07         0.84717E-10         0.00000E+00
    0.13734E-07         0.88289E-10         0.00000E+00
    0.14549E-07         0.91856E-10         0.00000E+00
    0.15415E-07         0.95379E-10         0.00000E+00
    0.16335E-07         0.98809E-10         0.00000E+00
    0.17314E-07         0.10208E-09         0.00000E+00
    0.18356E-07         0.10513E-09         0.00000E+00
    0.19464E-07         0.10785E-09         0.00000E+00
    0.20645E-07         0.11013E-09         0.00000E+00
    0.21903E-07         0.11183E-09         0.00000E+00
    0.23244E-07         0.11278E-09         0.00000E+00
    0.24675E-07         0.11279E-09         0.00000E+00
    0.26202E-07         0.11161E-09         0.00000E+00
    0.27833E-07         0.10898E-09         0.00000E+00
    0.29576E-07         0.10458E-09         0.00000E+00
    0.31440E-07         0.98048E-10         0.00000E+00
    0.33435E-07         0.89006E-10         0.00000E+00
    0.35570E-07         0.77033E-10         0.00000E+00
    0.37857E-07         0.61705E-10         0.00000E+00
    0.40307E-07         0.42619E-10         0.00000E+00
    0.42933E-07         0.19435E-10         0.00000E+00
    0.45747E-07        -0.80549E-11         0.00000E+00
    0.48763E-07        -0.39833E-10         0.00000E+00
    0.51993E-07        -0.75527E-10         0.00000E+00
    0.55451E-07        -0.11423E-09         0.00000E+00
    0.59148E-07        -0.15430E-09         0.00000E+00
    0.63096E-07        -0.19303E-09         0.00000E+00
    0.67303E-07        -0.22637E-09         0.00000E+00
    0.71775E-07        -0.24847E-09         0.00000E+00
    0.76515E-07        -0.25107E-09         0.00000E+00
    0.81525E-07        -0.22238E-09         0.00000E+00
    0.86808E-07        -0.14552E-09         0.00000E+00
    0.89518E-07        -0.33001E-20         0.00000E+00
    0.63256E-09         0.00000E+00         0.00000E+00
    0.63034E-09         0.24488E-11         0.00000E+00
    0.62680E-09         0.40150E-11         0.00000E+00
    0.62514E-09         0.49590E-11         0.00000E+00
    0.62548E-09         0.54865E-11         0.00000E+00
    0.62795E-09         0.57434E-11         0.00000E+00
    0.63268E-09         0.58321E-11         0.00000E+00
    0.63974E-09         0.58250E-11         0.00000E+00
    0.64920E-09         0.57729E-11         0.00000E+00
    0.66111E-09         0.57107E-11         0.00000E+00
    0.67549E-09         0.56613E-11         0.00000E+00
    0.69239E-09         0.56392E-11         0.00000E+00
    0.71184E-09         0.56529E-11         0.00000E+00
    0.73386E-09         0.57069E-11         0.00000E+00
    0.75850E-09         0.58030E-11         0.00000E+00
    0.78581E-09         0.59411E-11         0.00000E+00
    0.81583E-09         0.61205E-11         0.00000E+00
    0.84863E-09         0.63397E-11         0.00000E+00
    0.88428E-09         0.65973E-11         0.00000E+00
    0.92288E-09         0.68916E-11         0.00000E+00
    0.96452E-09         0.72215E-11         0.00000E+00
    0.10093E-08         0.75859E-11         0.00000E+00
    0.10574E-08         0.79841E-11         0.00000E+00
    0.11088E-08         0.84155E-11         0.00000E+00
    0.11638E-08         0.88802E-11         0.00000E+00
    0.12225E-08         0.93782E-11         0.00000E+00
    0.12851E-08         0.99099E-11         0.00000E+00
    0.13517E-08         0.10476E-10         0.00000E+00
    0.14226E-08         0.11078E-10         0.00000E+00
    0.14980E-08         0.11716E-10         0.00000E+00
    0.15781E-08         0.12391E-10         0.00000E+00
    0.16631E-08         0.13106E-10         0.00000E+00
    0.17533E-08         0.13862E-10         0.00000E+00
    0.18491E-08         0.14660E-10         0.00000E+00
    0.19506E-08         0.15503E-10         0.00000E+00
    0.20582E-08         0.16393E-10         0.00000E+00
    0.21723E-08         0.17331E-10         0.00000E+00
    0.22931E-08         0.18321E-10         0.00000E+00
    0.24212E-08         0.19365E-10         0.00000E+00
    0.25568E-08         0.20465E-10         0.00000E+00
    0.27004E-08         0.21625E-10         0.00000E+00
    0.28526E-08         0.22846E-10         0.00000E+00
    0.30136E-08         0.24132E-10         0.00000E+00
    0.31842E-08         0.25487E-10         0.00000E+00
    0.33647E-08         0.26912E-10         0.00000E+00
    0.35559E-08         0.28413E-10         0.00000E+00
    0.37582E-08         0.29991E-10         0.00000E+00
    0.39724E-08         0.31650E-10         0.00000E+00
    0.41992E-08         0.33394E-10         0.00000E+00
    0.44394E-08         0.35227E-10         0.00000E+00
    0.46935E-08         0.37151E-10         0.00000E+00
    0.49627E-08         0.39171E-10         0.00000E+00
    0.52476E-08         0.41290E-10         0.00000E+00
    0.55493E-08         0.43511E-10         0.00000E+00
    0.58688E-08         0.45838E-10         0.00000E+00
    0.62072E-08         0.48274E-10         0.00000E+00
    0.65655E-08         0.50822E-10         0.00000E+00
    0.69451E-08         0.53484E-10         0.00000E+00
    0.73472E-08         0.56262E-10         0.00000E+00
    0.77732E-08         0.59159E-10         0.00000E+00
    0.82246E-08         0.62174E-10         0.00000E+00
    0.87030E-08         0.65307E-10         0.00000E+00
    0.92101E-08         0.68557E-10         0.00000E+00
    0.97477E-08         0.71921E-10         0.00000E+00
    0.10318E-07         0.75394E-10         0.00000E+00
    0.10922E-07         0.78967E-10         0.00000E+00
    0.11564E-07         0.82632E-10         0.00000E+00
    0.12245E-07         0.86373E-10         0.00000E+00
    0.12967E-07         0.90171E-10         0.00000E+00
    0.13735E-07         0.94001E-10         0.00000E+00
    0.14550E-07         0.97831E-10         0.00000E+00
    0.15416E-07         0.10162E-09         0.00000E+00
    0.16336E-07         0.10532E-09         0.00000E+00
    0.17315E-07         0.10885E-09         0.00000E+00
    0.18356E-07         0.11215E-09         0.00000E+00
    0.19465E-07         0.11511E-09         0.00000E+00
    0.20645E-07         0.11760E-09         0.00000E+00
    0.21903E-07         0.11949E-09         0.00000E+00
    0.23244E-07         0.12058E-09         0.00000E+00
    0.24675E-07         0.12068E-09         0.00000E+00
    0.26202E-07         0.11951E-09         0.00000E+00
    0.27832E-07         0.11679E-09         0.00000E+00
    0.29575E-07         0.11219E-09         0.00000E+00
    0.31439E-07         0.10531E-09         0.00000E+00
    0.33433E-07         0.95735E-10         0.00000E+00
    0.35567E-07         0.83020E-10         0.00000E+00
    0.37854E-07         0.66702E-10         0.00000E+00
    0.40303E-07         0.46343E-10         0.00000E+00
    0.42928E-07         0.21574E-10         0.00000E+00
    0.45741E-07        -0.78326E-11         0.00000E+00
    0.48756E-07        -0.41861E-10         0.00000E+00
    0.51986E-07        -0.80107E-10         0.00000E+00
    0.55443E-07        -0.12159E-09         0.00000E+00
    0.59140E-07        -0.16451E-09         0.00000E+00
    0.63089E-07        -0.20593E-09         0.00000E+00
    0.67297E-07        -0.24141E-09         0.00000E+00
    0.71772E-07        -0.26456E-09         0.00000E+00
    0.76518E-07        -0.26646E-09         0.00000E+00
    0.81536E-07        -0.23463E-09         0.00000E+00
    0.86831E-07        -0.15219E-09         0.00000E+00
    0.89548E-07         0.00000E+00         0.00000E+00
    0.63306E-09         0.18626E-20         0.00000E+00
    0.63075E-09         0.25475E-11         0.00000E+00
    0.62706E-09         0.41996E-11         0.00000E+00
    0.62529E-09         0.52050E-11         0.00000E+00
    0.62556E-09         0.57696E-11         0.00000E+00
    0.62799E-09         0.60450E-11         0.00000E+00
    0.63269E-09         0.61399E-11         0.00000E+00
    0.63974E-09         0.61319E-11         0.00000E+00
    0.64919E-09         0.60755E-11         0.00000E+00
    0.66110E-09         0.60079E-11         0.00000E+00
    0.67549E-09         0.59540E-11         0.00000E+00
    0.69239E-09         0.59290E-11         0.00000E+00
    0.71185E-09         0.59422E-11         0.00000E+00
    0.73388E-09         0.59982E-11         0.00000E+00
    0.75853E-09         0.60988E-11         0.00000E+00
    0.78584E-09         0.62441E-11         0.00000E+00
    0.81587E-09         0.64330E-11         0.00000E+00
    0.84868E-09         0.66641E-11         0.00000E+00
    0.88434E-09         0.69357E-11         0.00000E+00
    0.92295E-09         0.72461E-11         0.00000E+00
    0.96459E-09         0.75941E-11         0.00000E+00
    0.10094E-08         0.79784E-11         0.00000E+00
    0.10574E-08         0.83983E-11         0.00000E+00
    0.11089E-08         0.88532E-11         0.00000E+00
    0.11639E-08         0.93431E-11         0.00000E+00
    0.12226E-08         0.98681E-11         0.00000E+00
    0.12852E-08         0.10429E-10         0.00000E+00
    0.13518E-08         0.11025E-10         0.00000E+00
    0.14227E-08         0.11659E-10         0.00000E+00
    0.14981E-08         0.12331E-10         0.00000E+00
    0.15782E-08         0.13043E-10         0.00000E+00
    0.16633E-08         0.13796E-10         0.00000E+00
    0.17535E-08         0.14592E-10         0.00000E+00
    0.18492E-08         0.15434E-10         0.00000E+00
    0.19508E-08         0.16322E-10         0.00000E+00
    0.20584E-08         0.17259E-10         0.00000E+00
    0.21725E-08         0.18248E-10         0.00000E+00
    0.22933E-08         0.19291E-10         0.00000E+00
    0.24214E-08         0.20390E-10         0.00000E+00
    0.25570E-08         0.21549E-10         0.00000E+00
    0.27007E-08         0.22771E-10         0.00000E+00
    0.28528E-08         0.24058E-10         0.00000E+00
    0.30139E-08         0.25413E-10         0.00000E+00
    0.31844E-08         0.26841E-10         0.00000E+00
    0.33650E-08         0.28343E-10         0.00000E+00
    0.35562E-08         0.29924E-10         0.00000E+00
    0.37586E-08         0.31588E-10         0.00000E+00
    0.39728E-08         0.33337E-10         0.00000E+00
    0.41996E-08         0.35176E-10         0.00000E+00
    0.44397E-08         0.37108E-10         0.00000E+00
    0.46940E-08         0.39138E-10         0.00000E+00
    0.49631E-08         0.41268E-10         0.00000E+00
    0.52481E-08         0.43504E-10         0.00000E+00
    0.55498E-08         0.45848E-10         0.00000E+00
    0.58693E-08         0.48304E-10         0.00000E+00
    0.62077E-08         0.50875E-10         0.00000E+00
    0.65661E-08         0.53565E-10         0.00000E+00
    0.69456E-08         0.56377E-10         0.00000E+00
    0.73478E-08         0.59313E-10         0.00000E+00
    0.77738E-08         0.62374E-10         0.00000E+00
    0.82252E-08         0.65562E-10         0.00000E+00
    0.87036E-08         0.68876E-10         0.00000E+00
    0.92108E-08         0.72316E-10         0.00000E+00
    0.97484E-08         0.75878E-10         0.00000E+00
    0.10319E-07         0.79557E-10         0.00000E+00
    0.10923E-07         0.83346E-10         0.00000E+00
    0.11565E-07         0.87235E-10         0.00000E+00
    0.12245E-07         0.91207E-10         0.00000E+00
    0.12968E-07         0.95245E-10         0.00000E+00
    0.13735E-07         0.99321E-10         0.00000E+00
    0.14550E-07         0.10340E-09         0.00000E+00
    0.15416E-07         0.10745E-09         0.00000E+00
    0.16337E-07         0.11140E-09         0.00000E+00
    0.17316E-07         0.11519E-09         0.00000E+00
    0.18357E-07         0.11873E-09         0.00000E+00
    0.19465E-07         0.12192E-09         0.00000E+00
    0.20646E-07         0.12464E-09         0.00000E+00
    0.21904E-07         0.12671E-09         0.00000E+00
    0.23244E-07         0.12796E-09         0.00000E+00
    0.24675E-07         0.12814E-09         0.00000E+00
    0.26201E-07         0.12701E-09         0.00000E+00
    0.27832E-07         0.12423E-09         0.00000E+00
    0.29574E-07         0.11945E-09         0.00000E+00
    0.31437E-07         0.11227E-09         0.00000E+00
    0.33431E-07         0.10222E-09         0.00000E+00
    0.35564E-07         0.88822E-10         0.00000E+00
    0.37850E-07         0.71590E-10         0.00000E+00
    0.40298E-07         0.50048E-10         0.00000E+00
    0.42922E-07         0.23795E-10         0.00000E+00
    0.45735E-07        -0.74144E-11         0.00000E+00
    0.48748E-07        -0.43567E-10         0.00000E+00
    0.51977E-07        -0.84233E-10         0.00000E+00
    0.55434E-07        -0.12836E-09         0.00000E+00
    0.59132E-07        -0.17400E-09         0.00000E+00
    0.63081E-07        -0.21797E-09         0.00000E+00
    0.67291E-07        -0.25549E-09         0.00000E+00
    0.71770E-07        -0.27964E-09         0.00000E+00
    0.76521E-07        -0.28084E-09         0.00000E+00
    0.81548E-07        -0.24605E-09         0.00000E+00
    0.86855E-07        -0.15844E-09         0.00000E+00
    0.89579E-07         0.00000E+00         0.00000E+00
    0.63358E-09         0.00000E+00         0.00000E+00
    0.63118E-09         0.26375E-11         0.00000E+00
    0.62733E-09         0.43679E-11         0.00000E+00
    0.62545E-09         0.54299E-11         0.00000E+00
    0.62564E-09         0.60287E-11         0.00000E+00
    0.62803E-09         0.63209E-11         0.00000E+00
    0.63270E-09         0.64211E-11         0.00000E+00
    0.63973E-09         0.64118E-11         0.00000E+00
    0.64918E-09         0.63509E-11         0.00000E+00
    0.66108E-09         0.62780E-11         0.00000E+00
    0.67548E-09         0.62195E-11         0.00000E+00
    0.69239E-09         0.61917E-11         0.00000E+00
    0.71185E-09         0.62041E-11         0.00000E+00
    0.73389E-09         0.62617E-11         0.00000E+00
    0.75855E-09         0.63664E-11         0.00000E+00
    0.78587E-09         0.65182E-11         0.00000E+00
    0.81591E-09         0.67159E-11         0.00000E+00
    0.84873E-09         0.69579E-11         0.00000E+00
    0.88440E-09         0.72425E-11         0.00000E+00
    0.92301E-09         0.75678E-11         0.00000E+00
    0.96467E-09         0.79324E-11         0.00000E+00
    0.10095E-08         0.83350E-11         0.00000E+00
    0.10575E-08         0.87749E-11         0.00000E+00
    0.11090E-08         0.92514E-11         0.00000E+00
    0.11640E-08         0.97645E-11         0.00000E+00
    0.12227E-08         0.10314E-10         0.00000E+00
    0.12853E-08         0.10901E-10         0.00000E+00
    0.13520E-08         0.11526E-10         0.00000E+00
    0.14229E-08         0.12189E-10         0.00000E+00
    0.14983E-08         0.12893E-10         0.00000E+00
    0.15784E-08         0.13638E-10         0.00000E+00
    0.16634E-08         0.14426E-10         0.00000E+00
    0.17537E-08         0.15259E-10         0.00000E+00
    0.18494E-08         0.16139E-10         0.00000E+00
    0.19510E-08         0.17069E-10         0.00000E+00
    0.20586E-08         0.18050E-10         0.00000E+00
    0.21727E-08         0.19084E-10         0.00000E+00
    0.22936E-08         0.20176E-10         0.00000E+00
    0.24216E-08         0.21327E-10         0.00000E+00
    0.25573E-08         0.22540E-10         0.00000E+00
    0.27009E-08         0.23818E-10         0.00000E+00
    0.28531E-08         0.25165E-10         0.00000E+00
    0.30142E-08         0.26584E-10         0.00000E+00
    0.31847E-08         0.28078E-10         0.00000E+00
    0.33653E-08         0.29651E-10         0.00000E+00
    0.35565E-08         0.31306E-10         0.00000E+00
    0.37589E-08         0.33048E-10         0.00000E+00
    0.39732E-08         0.34880E-10         0.00000E+00
    0.42000E-08         0.36806E-10         0.00000E+00
    0.44401E-08         0.38830E-10         0.00000E+00
    0.46944E-08         0.40956E-10         0.00000E+00
    0.49635E-08         0.43188E-10         0.00000E+00
    0.52485E-08         0.45531E-10         0.00000E+00
    0.55503E-08         0.47988E-10         0.00000E+00
    0.58698E-08         0.50562E-10         0.00000E+00
    0.62082E-08         0.53259E-10         0.00000E+00
    0.65666E-08         0.56081E-10         0.00000E+00
    0.69462E-08         0.59031E-10         0.00000E+00
    0.73484E-08         0.62112E-10         0.00000E+00
    0.77744E-08         0.65326E-10         0.00000E+00
    0.82259E-08         0.68674E-10         0.00000E+00
    0.87043E-08         0.72157E-10         0.00000E+00
    0.92115E-08         0.75773E-10         0.00000E+00
    0.97491E-08         0.79520E-10         0.00000E+00
    0.10319E-07         0.83393E-10         0.00000E+00
    0.10924E-07         0.87384E-10         0.00000E+00
    0.11566E-07         0.91482E-10         0.00000E+00
    0.12246E-07         0.95673E-10         0.00000E+00
    0.12969E-07         0.99937E-10         0.00000E+00
    0.13736E-07         0.10425E-09         0.00000E+00
    0.14551E-07         0.10857E-09         0.00000E+00
    0.15417E-07         0.11285E-09         0.00000E+00
    0.16338E-07         0.11705E-09         0.00000E+00
    0.17316E-07         0.12108E-09         0.00000E+00
    0.18358E-07         0.12487E-09         0.00000E+00
    0.19466E-07         0.12829E-09         0.00000E+00
    0.20646E-07         0.13122E-09         0.00000E+00
    0.21904E-07         0.13349E-09         0.00000E+00
    0.23245E-07         0.13489E-09         0.00000E+00
    0.24675E-07         0.13518E-09         0.00000E+00
    0.26201E-07         0.13409E-09         0.00000E+00
    0.27831E-07         0.13128E-09         0.00000E+00
    0.29573E-07         0.12637E-09         0.00000E+00
    0.31435E-07         0.11891E-09         0.00000E+00
    0.33428E-07         0.10844E-09         0.00000E+00
    0.35561E-07         0.94434E-10         0.00000E+00
    0.37846E-07         0.76365E-10         0.00000E+00
    0.40293E-07         0.53730E-10         0.00000E+00
    0.42916E-07         0.26098E-10         0.00000E+00
    0.45728E-07        -0.67964E-11         0.00000E+00
    0.48741E-07        -0.44945E-10         0.00000E+00
    0.51969E-07        -0.87893E-10         0.00000E+00
    0.55425E-07        -0.13452E-09         0.00000E+00
    0.59122E-07        -0.18274E-09         0.00000E+00
    0.63072E-07        -0.22916E-09         0.00000E+00
    0.67285E-07        -0.26861E-09         0.00000E+00
    0.71767E-07        -0.29372E-09         0.00000E+00
    0.76524E-07        -0.29428E-09         0.00000E+00
    0.81560E-07        -0.25673E-09         0.00000E+00
    0.86880E-07        -0.16432E-09         0.00000E+00
    0.89612E-07         0.00000E+00         0.00000E+00
    0.63412E-09        -0.18626E-20         0.00000E+00
    0.63162E-09         0.27195E-11         0.00000E+00
    0.62761E-09         0.45209E-11         0.00000E+00
    0.62562E-09         0.56343E-11         0.00000E+00
    0.62574E-09         0.62641E-11         0.00000E+00
    0.62807E-09         0.65714E-11         0.00000E+00
    0.63271E-09         0.66760E-11         0.00000E+00
    0.63972E-09         0.66649E-11         0.00000E+00
    0.64916E-09         0.65993E-11         0.00000E+00
    0.66107E-09         0.65211E-11         0.00000E+00
    0.67547E-09         0.64580E-11         0.00000E+00
    0.69239E-09         0.64272E-11         0.00000E+00
    0.71186E-09         0.64387E-11         0.00000E+00
    0.73391E-09         0.64977E-11         0.00000E+00
    0.75858E-09         0.66061E-11         0.00000E+00
    0.78591E-09         0.67638E-11         0.00000E+00
    0.81595E-09         0.69695E-11         0.00000E+00
    0.84878E-09         0.72215E-11         0.00000E+00
    0.88446E-09         0.75179E-11         0.00000E+00
    0.92308E-09         0.78568E-11         0.00000E+00
    0.96474E-09         0.82366E-11         0.00000E+00
    0.10095E-08         0.86560E-11         0.00000E+00
    0.10576E-08         0.91141E-11         0.00000E+00
    0.11091E-08         0.96103E-11         0.00000E+00
    0.11641E-08         0.10144E-10         0.00000E+00
    0.12228E-08         0.10717E-10         0.00000E+00
    0.12854E-08         0.11328E-10         0.00000E+00
    0.13521E-08         0.11978E-10         0.00000E+00
    0.14230E-08         0.12668E-10         0.00000E+00
    0.14984E-08         0.13400E-10         0.00000E+00
    0.15785E-08         0.14175E-10         0.00000E+00
    0.16636E-08         0.14995E-10         0.00000E+00
    0.17538E-08         0.15862E-10         0.00000E+00
    0.18496E-08         0.16778E-10         0.00000E+00
    0.19511E-08         0.17745E-10         0.00000E+00
    0.20588E-08         0.18765E-10         0.00000E+00
    0.21729E-08         0.19842E-10         0.00000E+00
    0.22938E-08         0.20977E-10         0.00000E+00
    0.24219E-08         0.22174E-10         0.00000E+00
    0.25575E-08         0.23436E-10         0.00000E+00
    0.27012E-08         0.24767E-10         0.00000E+00
    0.28534E-08         0.26168E-10         0.00000E+00
    0.30145E-08         0.27644E-10         0.00000E+00
    0.31851E-08         0.29199E-10         0.00000E+00
    0.33657E-08         0.30836E-10         0.00000E+00
    0.35569E-08         0.32559E-10         0.00000E+00
    0.37593E-08         0.34372E-10         0.00000E+00
    0.39736E-08         0.36279E-10         0.00000E+00
    0.42004E-08         0.38284E-10         0.00000E+00
    0.44406E-08         0.40392E-10         0.00000E+00
    0.46948E-08         0.42606E-10         0.00000E+00
    0.49640E-08         0.44931E-10         0.00000E+00
    0.52490E-08         0.47372E-10         0.00000E+00
    0.55508E-08         0.49932E-10         0.00000E+00
    0.58704E-08         0.52615E-10         0.00000E+00
    0.62088E-08         0.55426E-10         0.00000E+00
    0.65672E-08         0.58369E-10         0.00000E+00
    0.69468E-08         0.61446E-10         0.00000E+00
    0.73490E-08         0.64661E-10         0.00000E+00
    0.77751E-08         0.68016E-10         0.00000E+00
    0.82266E-08         0.71512E-10         0.00000E+00
    0.87051E-08         0.75150E-10         0.00000E+00
    0.92122E-08         0.78930E-10         0.00000E+00
    0.97499E-08         0.82848E-10         0.00000E+00
    0.10320E-07         0.86900E-10         0.00000E+00
    0.10925E-07         0.91079E-10         0.00000E+00
    0.11566E-07         0.95374E-10         0.00000E+00
    0.12247E-07         0.99770E-10         0.00000E+00
    0.12970E-07         0.10425E-09         0.00000E+00
    0.13737E-07         0.10877E-09         0.00000E+00
    0.14552E-07         0.11332E-09         0.00000E+00
    0.15418E-07         0.11784E-09         0.00000E+00
    0.16338E-07         0.12227E-09         0.00000E+00
    0.17317E-07         0.12654E-09         0.00000E+00
    0.18358E-07         0.13056E-09         0.00000E+00
    0.19467E-07         0.13421E-09         0.00000E+00
    0.20647E-07         0.13735E-09         0.00000E+00
    0.21904E-07         0.13981E-09         0.00000E+00
    0.23245E-07         0.14137E-09         0.00000E+00
    0.24674E-07         0.14179E-09         0.00000E+00
    0.26200E-07         0.14076E-09         0.00000E+00
    0.27830E-07         0.13794E-09         0.00000E+00
    0.29572E-07         0.13292E-09         0.00000E+00
    0.31434E-07         0.12524E-09         0.00000E+00
    0.33426E-07         0.11440E-09         0.00000E+00
    0.35558E-07         0.99846E-10         0.00000E+00
    0.37842E-07         0.81020E-10         0.00000E+00
    0.40288E-07         0.57385E-10         0.00000E+00
    0.42910E-07         0.28483E-10         0.00000E+00
    0.45720E-07        -0.59765E-11         0.00000E+00
    0.48732E-07        -0.45988E-10         0.00000E+00
    0.51959E-07        -0.91078E-10         0.00000E+00
    0.55415E-07        -0.14006E-09         0.00000E+00
    0.59113E-07        -0.19073E-09         0.00000E+00
    0.63064E-07        -0.23947E-09         0.00000E+00
    0.67278E-07        -0.28079E-09         0.00000E+00
    0.71764E-07        -0.30682E-09         0.00000E+00
    0.76528E-07        -0.30681E-09         0.00000E+00
    0.81574E-07        -0.26673E-09         0.00000E+00
    0.86906E-07        -0.16988E-09         0.00000E+00
    0.89645E-07         0.00000E+00         0.00000E+00
    0.63467E-09         0.00000E+00         0.00000E+00
    0.63208E-09         0.27940E-11         0.00000E+00
    0.62791E-09         0.46594E-11         0.00000E+00
    0.62580E-09         0.58189E-11         0.00000E+00
    0.62583E-09         0.64765E-11         0.00000E+00
    0.62811E-09         0.67969E-11         0.00000E+00
    0.63272E-09         0.69048E-11         0.00000E+00
    0.63971E-09         0.68913E-11         0.00000E+00
    0.64915E-09         0.68208E-11         0.00000E+00
    0.66105E-09         0.67373E-11         0.00000E+00
    0.67546E-09         0.66696E-11         0.00000E+00
    0.69239E-09         0.66358E-11         0.00000E+00
    0.71187E-09         0.66463E-11         0.00000E+00
    0.73393E-09         0.67064E-11         0.00000E+00
    0.75861E-09         0.68181E-11         0.00000E+00
    0.78594E-09         0.69810E-11         0.00000E+00
    0.81600E-09         0.71940E-11         0.00000E+00
    0.84884E-09         0.74551E-11         0.00000E+00
    0.88453E-09         0.77622E-11         0.00000E+00
    0.92316E-09         0.81135E-11         0.00000E+00
    0.96482E-09         0.85070E-11         0.00000E+00
    0.10096E-08         0.89416E-11         0.00000E+00
    0.10577E-08         0.94162E-11         0.00000E+00
    0.11092E-08         0.99302E-11         0.00000E+00
    0.11642E-08         0.10483E-10         0.00000E+00
    0.12230E-08         0.11076E-10         0.00000E+00
    0.12856E-08         0.11708E-10         0.00000E+00
    0.13522E-08         0.12381E-10         0.00000E+00
    0.14232E-08         0.13096E-10         0.00000E+00
    0.14986E-08         0.13854E-10         0.00000E+00
    0.15787E-08         0.14656E-10         0.00000E+00
    0.16637E-08         0.15505E-10         0.00000E+00
    0.17540E-08         0.16402E-10         0.00000E+00
    0.18498E-08         0.17350E-10         0.00000E+00
    0.19514E-08         0.18350E-10         0.00000E+00
    0.20590E-08         0.19406E-10         0.00000E+00
    0.21731E-08         0.20520E-10         0.00000E+00
    0.22940E-08         0.21695E-10         0.00000E+00
    0.24221E-08         0.22934E-10         0.00000E+00
    0.25578E-08         0.24240E-10         0.00000E+00
    0.27015E-08         0.25617E-10         0.00000E+00
    0.28537E-08         0.27067E-10         0.00000E+00
    0.30148E-08         0.28595E-10         0.00000E+00
    0.31854E-08         0.30205E-10         0.00000E+00
    0.33660E-08         0.31900E-10         0.00000E+00
    0.35572E-08         0.33683E-10         0.00000E+00
    0.37596E-08         0.35561E-10         0.00000E+00
    0.39740E-08         0.37535E-10         0.00000E+00
    0.42008E-08         0.39612E-10         0.00000E+00
    0.44410E-08         0.41795E-10         0.00000E+00
    0.46953E-08         0.44089E-10         0.00000E+00
    0.49645E-08         0.46498E-10         0.00000E+00
    0.52495E-08         0.49027E-10         0.00000E+00
    0.55513E-08         0.51681E-10         0.00000E+00
    0.58709E-08         0.54463E-10         0.00000E+00
    0.62094E-08         0.57378E-10         0.00000E+00
    0.65678E-08         0.60430E-10         0.00000E+00
    0.69475E-08         0.63623E-10         0.00000E+00
    0.73497E-08         0.66960E-10         0.00000E+00
    0.77758E-08         0.70443E-10         0.00000E+00
    0.82273E-08         0.74075E-10         0.00000E+00
    0.87058E-08         0.77856E-10         0.00000E+00
    0.92130E-08         0.81785E-10         0.00000E+00
    0.97507E-08         0.85861E-10         0.00000E+00
    0.10321E-07         0.90079E-10         0.00000E+00
    0.10926E-07         0.94432E-10         0.00000E+00
    0.11567E-07         0.98909E-10         0.00000E+00
    0.12248E-07         0.10350E-09         0.00000E+00
    0.12971E-07         0.10817E-09         0.00000E+00
    0.13738E-07         0.11290E-09         0.00000E+00
    0.14553E-07         0.11766E-09         0.00000E+00
    0.15419E-07         0.12240E-09         0.00000E+00
    0.16339E-07         0.12706E-09         0.00000E+00
    0.17318E-07         0.13155E-09         0.00000E+00
    0.18359E-07         0.13580E-09         0.00000E+00
    0.19467E-07         0.13967E-09         0.00000E+00
    0.20647E-07         0.14302E-09         0.00000E+00
    0.21905E-07         0.14567E-09         0.00000E+00
    0.23245E-07         0.14740E-09         0.00000E+00
    0.24674E-07         0.14795E-09         0.00000E+00
    0.26200E-07         0.14700E-09         0.00000E+00
    0.27829E-07         0.14419E-09         0.00000E+00
    0.29570E-07         0.13910E-09         0.00000E+00
    0.31432E-07         0.13124E-09         0.00000E+00
    0.33423E-07         0.12009E-09         0.00000E+00
    0.35555E-07         0.10505E-09         0.00000E+00
    0.37837E-07         0.85548E-10         0.00000E+00
    0.40283E-07         0.61009E-10         0.00000E+00
    0.42904E-07         0.30945E-10         0.00000E+00
    0.45713E-07        -0.49539E-11         0.00000E+00
    0.48724E-07        -0.46692E-10         0.00000E+00
    0.51950E-07        -0.93779E-10         0.00000E+00
    0.55405E-07        -0.14497E-09         0.00000E+00
    0.59102E-07        -0.19795E-09         0.00000E+00
    0.63054E-07        -0.24890E-09         0.00000E+00
    0.67271E-07        -0.29200E-09         0.00000E+00
    0.71762E-07        -0.31896E-09         0.00000E+00
    0.76532E-07        -0.31848E-09         0.00000E+00
    0.81588E-07        -0.27610E-09         0.00000E+00
    0.86933E-07        -0.17515E-09         0.00000E+00
    0.89679E-07         0.00000E+00         0.00000E+00
    0.63524E-09         0.00000E+00         0.00000E+00
    0.63255E-09         0.28614E-11         0.00000E+00
    0.62822E-09         0.47840E-11         0.00000E+00
    0.62598E-09         0.59845E-11         0.00000E+00
    0.62593E-09         0.66663E-11         0.00000E+00
    0.62815E-09         0.69976E-11         0.00000E+00
    0.63273E-09         0.71076E-11         0.00000E+00
    0.63970E-09         0.70913E-11         0.00000E+00
    0.64913E-09         0.70157E-11         0.00000E+00
    0.66104E-09         0.69268E-11         0.00000E+00
    0.67545E-09         0.68545E-11         0.00000E+00
    0.69239E-09         0.68177E-11         0.00000E+00
    0.71187E-09         0.68271E-11         0.00000E+00
    0.73395E-09         0.68881E-11         0.00000E+00
    0.75863E-09         0.70025E-11         0.00000E+00
    0.78598E-09         0.71702E-11         0.00000E+00
    0.81605E-09         0.73897E-11         0.00000E+00
    0.84889E-09         0.76589E-11         0.00000E+00
    0.88459E-09         0.79758E-11         0.00000E+00
    0.92323E-09         0.83380E-11         0.00000E+00
    0.96491E-09         0.87440E-11         0.00000E+00
    0.10097E-08         0.91922E-11         0.00000E+00
    0.10578E-08         0.96815E-11         0.00000E+00
    0.11093E-08         0.10211E-10         0.00000E+00
    0.11643E-08         0.10782E-10         0.00000E+00
    0.12231E-08         0.11392E-10         0.00000E+00
    0.12857E-08         0.12044E-10         0.00000E+00
    0.13524E-08         0.12737E-10         0.00000E+00
    0.14233E-08         0.13474E-10         0.00000E+00
    0.14987E-08         0.14254E-10         0.00000E+00
    0.15789E-08         0.15081E-10         0.00000E+00
    0.16639E-08         0.15955E-10         0.00000E+00
    0.17542E-08         0.16879E-10         0.00000E+00
    0.18500E-08         0.17855E-10         0.00000E+00
    0.19516E-08         0.18885E-10         0.00000E+00
    0.20592E-08         0.19972E-10         0.00000E+00
    0.21734E-08         0.21120E-10         0.00000E+00
    0.22943E-08         0.22330E-10         0.00000E+00
    0.24224E-08         0.23606E-10         0.00000E+00
    0.25581E-08         0.24951E-10         0.00000E+00
    0.27018E-08         0.26369E-10         0.00000E+00
    0.28540E-08         0.27863E-10         0.00000E+00
    0.30151E-08         0.29438E-10         0.00000E+00
    0.31857E-08         0.31096E-10         0.00000E+00
    0.33663E-08         0.32842E-10         0.00000E+00
    0.35576E-08         0.34680E-10         0.00000E+00
    0.37600E-08         0.36614E-10         0.00000E+00
    0.39744E-08         0.38649E-10         0.00000E+00
    0.42013E-08         0.40790E-10         0.00000E+00
    0.44415E-08         0.43040E-10         0.00000E+00
    0.46958E-08         0.45405E-10         0.00000E+00
    0.49650E-08         0.47890E-10         0.00000E+00
    0.52501E-08         0.50498E-10         0.00000E+00
    0.55519E-08         0.53235E-10         0.00000E+00
    0.58715E-08         0.56106E-10         0.00000E+00
    0.62100E-08         0.59115E-10         0.00000E+00
    0.65685E-08         0.62266E-10         0.00000E+00
    0.69482E-08         0.65563E-10         0.00000E+00
    0.73504E-08         0.69010E-10         0.00000E+00
    0.77765E-08         0.72609E-10         0.00000E+00
    0.82281E-08         0.76363E-10         0.00000E+00
    0.87066E-08         0.80274E-10         0.00000E+00
    0.92138E-08         0.84340E-10         0.00000E+00
    0.97516E-08         0.88560E-10         0.00000E+00
    0.10322E-07         0.92930E-10         0.00000E+00
    0.10927E-07         0.97442E-10         0.00000E+00
    0.11568E-07         0.10209E-09         0.00000E+00
    0.12249E-07         0.10685E-09         0.00000E+00
    0.12972E-07         0.11171E-09         0.00000E+00
    0.13739E-07         0.11663E-09         0.00000E+00
    0.14554E-07         0.12159E-09         0.00000E+00
    0.15420E-07         0.12654E-09         0.00000E+00
    0.16340E-07         0.13140E-09         0.00000E+00
    0.17319E-07         0.13612E-09         0.00000E+00
    0.18360E-07         0.14058E-09         0.00000E+00
    0.19468E-07         0.14466E-09         0.00000E+00
    0.20648E-07         0.14821E-09         0.00000E+00
    0.21905E-07         0.15106E-09         0.00000E+00
    0.23245E-07         0.15296E-09         0.00000E+00
    0.24674E-07         0.15365E-09         0.00000E+00
    0.26200E-07         0.15280E-09         0.00000E+00
    0.27829E-07         0.15003E-09         0.00000E+00
    0.29569E-07         0.14490E-09         0.00000E+00
    0.31430E-07         0.13691E-09         0.00000E+00
    0.33420E-07         0.12549E-09         0.00000E+00
    0.35551E-07         0.11004E-09         0.00000E+00
    0.37833E-07         0.89940E-10         0.00000E+00
    0.40277E-07         0.64594E-10         0.00000E+00
    0.42897E-07         0.33482E-10         0.00000E+00
    0.45705E-07        -0.37299E-11         0.00000E+00
    0.48715E-07        -0.47055E-10         0.00000E+00
    0.51940E-07        -0.95990E-10         0.00000E+00
    0.55394E-07        -0.14924E-09         0.00000E+00
    0.59092E-07        -0.20439E-09         0.00000E+00
    0.63045E-07        -0.25743E-09         0.00000E+00
    0.67264E-07        -0.30226E-09         0.00000E+00
    0.71759E-07        -0.33016E-09         0.00000E+00
    0.76537E-07        -0.32932E-09         0.00000E+00
    0.81602E-07        -0.28489E-09         0.00000E+00
    0.86961E-07        -0.18017E-09         0.00000E+00
    0.89715E-07        -0.37253E-20         0.00000E+00
    0.63582E-09         0.00000E+00         0.00000E+00
    0.63304E-09         0.29221E-11         0.00000E+00
    0.62854E-09         0.48952E-11         0.00000E+00
    0.62617E-09         0.61313E-11         0.00000E+00
    0.62603E-09         0.68337E-11         0.00000E+00
    0.62820E-09         0.71738E-11         0.00000E+00
    0.63274E-09         0.72847E-11         0.00000E+00
    0.63970E-09         0.72648E-11         0.00000E+00
    0.64912E-09         0.71840E-11         0.00000E+00
    0.66102E-09         0.70896E-11         0.00000E+00
    0.67544E-09         0.70129E-11         0.00000E+00
    0.69238E-09         0.69731E-11         0.00000E+00
    0.71188E-09         0.69813E-11         0.00000E+00
    0.73396E-09         0.70428E-11         0.00000E+00
    0.75866E-09         0.71597E-11         0.00000E+00
    0.78602E-09         0.73316E-11         0.00000E+00
    0.81610E-09         0.75568E-11         0.00000E+00
    0.84895E-09         0.78333E-11         0.00000E+00
    0.88466E-09         0.81587E-11         0.00000E+00
    0.92331E-09         0.85308E-11         0.00000E+00
    0.96500E-09         0.89477E-11         0.00000E+00
    0.10098E-08         0.94079E-11         0.00000E+00
    0.10579E-08         0.99103E-11         0.00000E+00
    0.11094E-08         0.10454E-10         0.00000E+00
    0.11645E-08         0.11039E-10         0.00000E+00
    0.12232E-08         0.11666E-10         0.00000E+00
    0.12858E-08         0.12335E-10         0.00000E+00
    0.13525E-08         0.13046E-10         0.00000E+00
    0.14235E-08         0.13801E-10         0.00000E+00
    0.14989E-08         0.14602E-10         0.00000E+00
    0.15790E-08         0.15449E-10         0.00000E+00
    0.16641E-08         0.16346E-10         0.00000E+00
    0.17544E-08         0.17293E-10         0.00000E+00
    0.18502E-08         0.18294E-10         0.00000E+00
    0.19518E-08         0.19350E-10         0.00000E+00
    0.20595E-08         0.20465E-10         0.00000E+00
    0.21736E-08         0.21641E-10         0.00000E+00
    0.22945E-08         0.22882E-10         0.00000E+00
    0.24226E-08         0.24191E-10         0.00000E+00
    0.25584E-08         0.25570E-10         0.00000E+00
    0.27021E-08         0.27024E-10         0.00000E+00
    0.28543E-08         0.28557E-10         0.00000E+00
    0.30154E-08         0.30171E-10         0.00000E+00
    0.31861E-08         0.31872E-10         0.00000E+00
    0.33667E-08         0.33663E-10         0.00000E+00
    0.35580E-08         0.35548E-10         0.00000E+00
    0.37604E-08         0.37533E-10         0.00000E+00
    0.39748E-08         0.39621E-10         0.00000E+00
    0.42017E-08         0.41818E-10         0.00000E+00
    0.44419E-08         0.44128E-10         0.00000E+00
    0.46963E-08         0.46555E-10         0.00000E+00
    0.49655E-08         0.49106E-10         0.00000E+00
    0.52506E-08         0.51784E-10         0.00000E+00
    0.55525E-08         0.54596E-10         0.00000E+00
    0.58721E-08         0.57545E-10         0.00000E+00
    0.62106E-08         0.60636E-10         0.00000E+00
    0.65691E-08         0.63875E-10         0.00000E+00
    0.69488E-08         0.67265E-10         0.00000E+00
    0.73511E-08         0.70810E-10         0.00000E+00
    0.77773E-08         0.74513E-10         0.00000E+00
    0.82288E-08         0.78378E-10         0.00000E+00
    0.87074E-08         0.82404E-10         0.00000E+00
    0.92147E-08         0.86593E-10         0.00000E+00
    0.97525E-08         0.90943E-10         0.00000E+00
    0.10323E-07         0.95451E-10         0.00000E+00
    0.10928E-07         0.10011E-09         0.00000E+00
    0.11569E-07         0.10491E-09         0.00000E+00
    0.12250E-07         0.10983E-09         0.00000E+00
    0.12973E-07         0.11486E-09         0.00000E+00
    0.13740E-07         0.11996E-09         0.00000E+00
    0.14555E-07         0.12511E-09         0.00000E+00
    0.15421E-07         0.13024E-09         0.00000E+00
    0.16341E-07         0.13531E-09         0.00000E+00
    0.17320E-07         0.14023E-09         0.00000E+00
    0.18361E-07         0.14489E-09         0.00000E+00
    0.19469E-07         0.14918E-09         0.00000E+00
    0.20649E-07         0.15294E-09         0.00000E+00
    0.21906E-07         0.15597E-09         0.00000E+00
    0.23245E-07         0.15805E-09         0.00000E+00
    0.24674E-07         0.15889E-09         0.00000E+00
    0.26199E-07         0.15815E-09         0.00000E+00
    0.27828E-07         0.15545E-09         0.00000E+00
    0.29568E-07         0.15031E-09         0.00000E+00
    0.31428E-07         0.14222E-09         0.00000E+00
    0.33418E-07         0.13059E-09         0.00000E+00
    0.35547E-07         0.11479E-09         0.00000E+00
    0.37828E-07         0.94186E-10         0.00000E+00
    0.40272E-07         0.68132E-10         0.00000E+00
    0.42890E-07         0.36086E-10         0.00000E+00
    0.45697E-07        -0.23073E-11         0.00000E+00
    0.48705E-07        -0.47075E-10         0.00000E+00
    0.51929E-07        -0.97706E-10         0.00000E+00
    0.55383E-07        -0.15287E-09         0.00000E+00
    0.59081E-07        -0.21005E-09         0.00000E+00
    0.63035E-07        -0.26507E-09         0.00000E+00
    0.67257E-07        -0.31157E-09         0.00000E+00
    0.71756E-07        -0.34042E-09         0.00000E+00
    0.76541E-07        -0.33935E-09         0.00000E+00
    0.81618E-07        -0.29313E-09         0.00000E+00
    0.86990E-07        -0.18496E-09         0.00000E+00
    0.89752E-07         0.22813E-20         0.00000E+00
    0.63641E-09         0.00000E+00         0.00000E+00
    0.63353E-09         0.29765E-11         0.00000E+00
    0.62886E-09         0.49937E-11         0.00000E+00
    0.62637E-09         0.62601E-11         0.00000E+00
    0.62614E-09         0.69793E-11         0.00000E+00
    0.62824E-09         0.73257E-11         0.00000E+00
    0.63274E-09         0.74362E-11         0.00000E+00
    0.63968E-09         0.74122E-11         0.00000E+00
    0.64910E-09         0.73259E-11         0.00000E+00
    0.66100E-09         0.72261E-11         0.00000E+00
    0.67543E-09         0.71450E-11         0.00000E+00
    0.69238E-09         0.71022E-11         0.00000E+00
    0.71189E-09         0.71090E-11         0.00000E+00
    0.73398E-09         0.71710E-11         0.00000E+00
    0.75869E-09         0.72899E-11         0.00000E+00
    0.78606E-09         0.74654E-11         0.00000E+00
    0.81615E-09         0.76957E-11         0.00000E+00
    0.84901E-09         0.79785E-11         0.00000E+00
    0.88473E-09         0.83114E-11         0.00000E+00
    0.92339E-09         0.86921E-11         0.00000E+00
    0.96508E-09         0.91185E-11         0.00000E+00
    0.10099E-08         0.95892E-11         0.00000E+00
    0.10580E-08         0.10103E-10         0.00000E+00
    0.11095E-08         0.10659E-10         0.00000E+00
    0.11646E-08         0.11257E-10         0.00000E+00
    0.12233E-08         0.11897E-10         0.00000E+00
    0.12860E-08         0.12581E-10         0.00000E+00
    0.13527E-08         0.13307E-10         0.00000E+00
    0.14236E-08         0.14079E-10         0.00000E+00
    0.14991E-08         0.14896E-10         0.00000E+00
    0.15792E-08         0.15762E-10         0.00000E+00
    0.16643E-08         0.16677E-10         0.00000E+00
    0.17546E-08         0.17645E-10         0.00000E+00
    0.18504E-08         0.18667E-10         0.00000E+00
    0.19520E-08         0.19746E-10         0.00000E+00
    0.20597E-08         0.20884E-10         0.00000E+00
    0.21738E-08         0.22086E-10         0.00000E+00
    0.22948E-08         0.23353E-10         0.00000E+00
    0.24229E-08         0.24689E-10         0.00000E+00
    0.25586E-08         0.26098E-10         0.00000E+00
    0.27024E-08         0.27583E-10         0.00000E+00
    0.28546E-08         0.29148E-10         0.00000E+00
    0.30158E-08         0.30797E-10         0.00000E+00
    0.31864E-08         0.32534E-10         0.00000E+00
    0.33671E-08         0.34364E-10         0.00000E+00
    0.35584E-08         0.36290E-10         0.00000E+00
    0.37609E-08         0.38318E-10         0.00000E+00
    0.39752E-08         0.40452E-10         0.00000E+00
    0.42022E-08         0.42697E-10         0.00000E+00
    0.44424E-08         0.45058E-10         0.00000E+00
    0.46968E-08         0.47540E-10         0.00000E+00
    0.49660E-08         0.50148E-10         0.00000E+00
    0.52512E-08         0.52887E-10         0.00000E+00
    0.55530E-08         0.55763E-10         0.00000E+00
    0.58727E-08         0.58780E-10         0.00000E+00
    0.62112E-08         0.61944E-10         0.00000E+00
    0.65698E-08         0.65259E-10         0.00000E+00
    0.69495E-08         0.68731E-10         0.00000E+00
    0.73518E-08         0.72362E-10         0.00000E+00
    0.77780E-08         0.76157E-10         0.00000E+00
    0.82296E-08         0.80118E-10         0.00000E+00
    0.87082E-08         0.84247E-10         0.00000E+00
    0.92155E-08         0.88546E-10         0.00000E+00
    0.97534E-08         0.93012E-10         0.00000E+00
    0.10324E-07         0.97642E-10         0.00000E+00
    0.10928E-07         0.10243E-09         0.00000E+00
    0.11570E-07         0.10737E-09         0.00000E+00
    0.12251E-07         0.11244E-09         0.00000E+00
    0.12974E-07         0.11762E-09         0.00000E+00
    0.13741E-07         0.12289E-09         0.00000E+00
    0.14556E-07         0.12820E-09         0.00000E+00
    0.15422E-07         0.13352E-09         0.00000E+00
    0.16342E-07         0.13877E-09         0.00000E+00
    0.17321E-07         0.14388E-09         0.00000E+00
    0.18362E-07         0.14874E-09         0.00000E+00
    0.19470E-07         0.15323E-09         0.00000E+00
    0.20649E-07         0.15718E-09         0.00000E+00
    0.21906E-07         0.16040E-09         0.00000E+00
    0.23246E-07         0.16266E-09         0.00000E+00
    0.24674E-07         0.16366E-09         0.00000E+00
    0.26199E-07         0.16305E-09         0.00000E+00
    0.27827E-07         0.16042E-09         0.00000E+00
    0.29566E-07         0.15531E-09         0.00000E+00
    0.31426E-07         0.14716E-09         0.00000E+00
    0.33415E-07         0.13538E-09         0.00000E+00
    0.35544E-07         0.11931E-09         0.00000E+00
    0.37823E-07         0.98274E-10         0.00000E+00
    0.40266E-07         0.71612E-10         0.00000E+00
    0.42883E-07         0.38751E-10         0.00000E+00
    0.45688E-07        -0.69092E-12         0.00000E+00
    0.48695E-07        -0.46754E-10         0.00000E+00
    0.51919E-07        -0.98925E-10         0.00000E+00
    0.55372E-07        -0.15584E-09         0.00000E+00
    0.59069E-07        -0.21491E-09         0.00000E+00
    0.63024E-07        -0.27180E-09         0.00000E+00
    0.67249E-07        -0.31991E-09         0.00000E+00
    0.71754E-07        -0.34975E-09         0.00000E+00
    0.76546E-07        -0.34861E-09         0.00000E+00
    0.81633E-07        -0.30085E-09         0.00000E+00
    0.87020E-07        -0.18954E-09         0.00000E+00
    0.89789E-07         0.14451E-20         0.00000E+00
    0.63701E-09         0.00000E+00         0.00000E+00
    0.63404E-09         0.30247E-11         0.00000E+00
    0.62919E-09         0.50796E-11         0.00000E+00
    0.62657E-09         0.63711E-11         0.00000E+00
    0.62625E-09         0.71033E-11         0.00000E+00
    0.62829E-09         0.74536E-11         0.00000E+00
    0.63275E-09         0.75622E-11         0.00000E+00
    0.63967E-09         0.75335E-11         0.00000E+00
    0.64908E-09         0.74415E-11         0.00000E+00
    0.66099E-09         0.73363E-11         0.00000E+00
    0.67541E-09         0.72508E-11         0.00000E+00
    0.69238E-09         0.72051E-11         0.00000E+00
    0.71190E-09         0.72106E-11         0.00000E+00
    0.73400E-09         0.72728E-11         0.00000E+00
    0.75872E-09         0.73934E-11         0.00000E+00
    0.78610E-09         0.75720E-11         0.00000E+00
    0.81620E-09         0.78066E-11         0.00000E+00
    0.84908E-09         0.80948E-11         0.00000E+00
    0.88481E-09         0.84341E-11         0.00000E+00
    0.92347E-09         0.88221E-11         0.00000E+00
    0.96518E-09         0.92567E-11         0.00000E+00
    0.10100E-08         0.97362E-11         0.00000E+00
    0.10581E-08         0.10260E-10         0.00000E+00
    0.11097E-08         0.10826E-10         0.00000E+00
    0.11647E-08         0.11435E-10         0.00000E+00
    0.12235E-08         0.12087E-10         0.00000E+00
    0.12861E-08         0.12782E-10         0.00000E+00
    0.13528E-08         0.13522E-10         0.00000E+00
    0.14238E-08         0.14307E-10         0.00000E+00
    0.14992E-08         0.15139E-10         0.00000E+00
    0.15794E-08         0.16019E-10         0.00000E+00
    0.16645E-08         0.16951E-10         0.00000E+00
    0.17548E-08         0.17935E-10         0.00000E+00
    0.18506E-08         0.18975E-10         0.00000E+00
    0.19522E-08         0.20072E-10         0.00000E+00
    0.20599E-08         0.21230E-10         0.00000E+00
    0.21741E-08         0.22452E-10         0.00000E+00
    0.22950E-08         0.23741E-10         0.00000E+00
    0.24232E-08         0.25101E-10         0.00000E+00
    0.25589E-08         0.26534E-10         0.00000E+00
    0.27027E-08         0.28045E-10         0.00000E+00
    0.28549E-08         0.29637E-10         0.00000E+00
    0.30161E-08         0.31315E-10         0.00000E+00
    0.31868E-08         0.33083E-10         0.00000E+00
    0.33675E-08         0.34945E-10         0.00000E+00
    0.35588E-08         0.36906E-10         0.00000E+00
    0.37613E-08         0.38970E-10         0.00000E+00
    0.39757E-08         0.41142E-10         0.00000E+00
    0.42026E-08         0.43428E-10         0.00000E+00
    0.44429E-08         0.45832E-10         0.00000E+00
    0.46973E-08         0.48360E-10         0.00000E+00
    0.49666E-08         0.51016E-10         0.00000E+00
    0.52517E-08         0.53807E-10         0.00000E+00
    0.55536E-08         0.56737E-10         0.00000E+00
    0.58733E-08         0.59813E-10         0.00000E+00
    0.62119E-08         0.63038E-10         0.00000E+00
    0.65705E-08         0.66419E-10         0.00000E+00
    0.69503E-08         0.69960E-10         0.00000E+00
    0.73526E-08         0.73665E-10         0.00000E+00
    0.77788E-08         0.77539E-10         0.00000E+00
    0.82305E-08         0.81584E-10         0.00000E+00
    0.87091E-08         0.85803E-10         0.00000E+00
    0.92164E-08         0.90197E-10         0.00000E+00
    0.97543E-08         0.94765E-10         0.00000E+00
    0.10325E-07         0.99503E-10         0.00000E+00
    0.10929E-07         0.10441E-09         0.00000E+00
    0.11571E-07         0.10947E-09         0.00000E+00
    0.12252E-07         0.11467E-09         0.00000E+00
    0.12975E-07         0.11999E-09         0.00000E+00
    0.13742E-07         0.12540E-09         0.00000E+00
    0.14557E-07         0.13087E-09         0.00000E+00
    0.15423E-07         0.13635E-09         0.00000E+00
    0.16343E-07         0.14178E-09         0.00000E+00
    0.17322E-07         0.14706E-09         0.00000E+00
    0.18363E-07         0.15211E-09         0.00000E+00
    0.19471E-07         0.15679E-09         0.00000E+00
    0.20650E-07         0.16093E-09         0.00000E+00
    0.21907E-07         0.16434E-09         0.00000E+00
    0.23246E-07         0.16678E-09         0.00000E+00
    0.24674E-07         0.16794E-09         0.00000E+00
    0.26199E-07         0.16747E-09         0.00000E+00
    0.27826E-07         0.16494E-09         0.00000E+00
    0.29565E-07         0.15988E-09         0.00000E+00
    0.31424E-07         0.15173E-09         0.00000E+00
    0.33412E-07         0.13985E-09         0.00000E+00
    0.35540E-07         0.12357E-09         0.00000E+00
    0.37819E-07         0.10219E-09         0.00000E+00
    0.40260E-07         0.75023E-10         0.00000E+00
    0.42876E-07         0.41466E-10         0.00000E+00
    0.45680E-07         0.11125E-11         0.00000E+00
    0.48685E-07        -0.46095E-10         0.00000E+00
    0.51908E-07        -0.99645E-10         0.00000E+00
    0.55360E-07        -0.15815E-09         0.00000E+00
    0.59058E-07        -0.21896E-09         0.00000E+00
    0.63014E-07        -0.27762E-09         0.00000E+00
    0.67241E-07        -0.32729E-09         0.00000E+00
    0.71751E-07        -0.35816E-09         0.00000E+00
    0.76551E-07        -0.35710E-09         0.00000E+00
    0.81649E-07        -0.30807E-09         0.00000E+00
    0.87051E-07        -0.19391E-09         0.00000E+00
    0.89827E-07         0.00000E+00         0.00000E+00
    0.63762E-09         0.00000E+00         0.00000E+00
    0.63455E-09         0.30669E-11         0.00000E+00
    0.62953E-09         0.51535E-11         0.00000E+00
    0.62678E-09         0.64646E-11         0.00000E+00
    0.62636E-09         0.72059E-11         0.00000E+00
    0.62834E-09         0.75576E-11         0.00000E+00
    0.63276E-09         0.76630E-11         0.00000E+00
    0.63966E-09         0.76289E-11         0.00000E+00
    0.64906E-09         0.75310E-11         0.00000E+00
    0.66097E-09         0.74205E-11         0.00000E+00
    0.67540E-09         0.73308E-11         0.00000E+00
    0.69237E-09         0.72822E-11         0.00000E+00
    0.71190E-09         0.72863E-11         0.00000E+00
    0.73402E-09         0.73485E-11         0.00000E+00
    0.75875E-09         0.74705E-11         0.00000E+00
    0.78615E-09         0.76515E-11         0.00000E+00
    0.81625E-09         0.78897E-11         0.00000E+00
    0.84914E-09         0.81825E-11         0.00000E+00
    0.88488E-09         0.85272E-11         0.00000E+00
    0.92356E-09         0.89212E-11         0.00000E+00
    0.96527E-09         0.93625E-11         0.00000E+00
    0.10101E-08         0.98494E-11         0.00000E+00
    0.10582E-08         0.10381E-10         0.00000E+00
    0.11098E-08         0.10955E-10         0.00000E+00
    0.11648E-08         0.11573E-10         0.00000E+00
    0.12236E-08         0.12234E-10         0.00000E+00
    0.12863E-08         0.12940E-10         0.00000E+00
    0.13530E-08         0.13690E-10         0.00000E+00
    0.14240E-08         0.14486E-10         0.00000E+00
    0.14994E-08         0.15329E-10         0.00000E+00
    0.15796E-08         0.16222E-10         0.00000E+00
    0.16647E-08         0.17166E-10         0.00000E+00
    0.17550E-08         0.18164E-10         0.00000E+00
    0.18508E-08         0.19217E-10         0.00000E+00
    0.19524E-08         0.20330E-10         0.00000E+00
    0.20602E-08         0.21504E-10         0.00000E+00
    0.21743E-08         0.22742E-10         0.00000E+00
    0.22953E-08         0.24049E-10         0.00000E+00
    0.24235E-08         0.25427E-10         0.00000E+00
    0.25592E-08         0.26880E-10         0.00000E+00
    0.27030E-08         0.28411E-10         0.00000E+00
    0.28552E-08         0.30026E-10         0.00000E+00
    0.30165E-08         0.31727E-10         0.00000E+00
    0.31871E-08         0.33519E-10         0.00000E+00
    0.33678E-08         0.35407E-10         0.00000E+00
    0.35592E-08         0.37395E-10         0.00000E+00
    0.37617E-08         0.39489E-10         0.00000E+00
    0.39761E-08         0.41692E-10         0.00000E+00
    0.42031E-08         0.44011E-10         0.00000E+00
    0.44434E-08         0.46450E-10         0.00000E+00
    0.46978E-08         0.49015E-10         0.00000E+00
    0.49671E-08         0.51712E-10         0.00000E+00
    0.52523E-08         0.54545E-10         0.00000E+00
    0.55542E-08         0.57520E-10         0.00000E+00
    0.58740E-08         0.60643E-10         0.00000E+00
    0.62126E-08         0.63920E-10         0.00000E+00
    0.65712E-08         0.67355E-10         0.00000E+00
    0.69510E-08         0.70954E-10         0.00000E+00
    0.73533E-08         0.74721E-10         0.00000E+00
    0.77796E-08         0.78661E-10         0.00000E+00
    0.82313E-08         0.82777E-10         0.00000E+00
    0.87100E-08         0.87072E-10         0.00000E+00
    0.92173E-08         0.91547E-10         0.00000E+00
    0.97552E-08         0.96202E-10         0.00000E+00
    0.10326E-07         0.10103E-09         0.00000E+00
    0.10930E-07         0.10604E-09         0.00000E+00
    0.11572E-07         0.11120E-09         0.00000E+00
    0.12253E-07         0.11652E-09         0.00000E+00
    0.12976E-07         0.12196E-09         0.00000E+00
    0.13743E-07         0.12751E-09         0.00000E+00
    0.14558E-07         0.13312E-09         0.00000E+00
    0.15424E-07         0.13875E-09         0.00000E+00
    0.16344E-07         0.14433E-09         0.00000E+00
    0.17323E-07         0.14978E-09         0.00000E+00
    0.18364E-07         0.15500E-09         0.00000E+00
    0.19471E-07         0.15986E-09         0.00000E+00
    0.20651E-07         0.16419E-09         0.00000E+00
    0.21907E-07         0.16778E-09         0.00000E+00
    0.23246E-07         0.17039E-09         0.00000E+00
    0.24675E-07         0.17172E-09         0.00000E+00
    0.26198E-07         0.17140E-09         0.00000E+00
    0.27825E-07         0.16901E-09         0.00000E+00
    0.29564E-07         0.16403E-09         0.00000E+00
    0.31422E-07         0.15590E-09         0.00000E+00
    0.33409E-07         0.14398E-09         0.00000E+00
    0.35536E-07         0.12756E-09         0.00000E+00
    0.37814E-07         0.10592E-09         0.00000E+00
    0.40254E-07         0.78351E-10         0.00000E+00
    0.42868E-07         0.44219E-10         0.00000E+00
    0.45671E-07         0.30941E-11         0.00000E+00
    0.48675E-07        -0.45102E-10         0.00000E+00
    0.51896E-07        -0.99867E-10         0.00000E+00
    0.55348E-07        -0.15980E-09         0.00000E+00
    0.59046E-07        -0.22220E-09         0.00000E+00
    0.63003E-07        -0.28250E-09         0.00000E+00
    0.67233E-07        -0.33369E-09         0.00000E+00
    0.71748E-07        -0.36564E-09         0.00000E+00
    0.76556E-07        -0.36484E-09         0.00000E+00
    0.81666E-07        -0.31481E-09         0.00000E+00
    0.87082E-07        -0.19810E-09         0.00000E+00
    0.89867E-07         0.00000E+00         0.00000E+00
    0.63823E-09         0.00000E+00         0.00000E+00
    0.63507E-09         0.31034E-11         0.00000E+00
    0.62987E-09         0.52154E-11         0.00000E+00
    0.62698E-09         0.65409E-11         0.00000E+00
    0.62647E-09         0.72873E-11         0.00000E+00
    0.62838E-09         0.76379E-11         0.00000E+00
    0.63277E-09         0.77387E-11         0.00000E+00
    0.63965E-09         0.76986E-11         0.00000E+00
    0.64904E-09         0.75946E-11         0.00000E+00
    0.66095E-09         0.74788E-11         0.00000E+00
    0.67539E-09         0.73850E-11         0.00000E+00
    0.69237E-09         0.73337E-11         0.00000E+00
    0.71191E-09         0.73364E-11         0.00000E+00
    0.73404E-09         0.73984E-11         0.00000E+00
    0.75878E-09         0.75214E-11         0.00000E+00
    0.78619E-09         0.77044E-11         0.00000E+00
    0.81631E-09         0.79455E-11         0.00000E+00
    0.84920E-09         0.82419E-11         0.00000E+00
    0.88495E-09         0.85908E-11         0.00000E+00
    0.92364E-09         0.89897E-11         0.00000E+00
    0.96536E-09         0.94363E-11         0.00000E+00
    0.10102E-08         0.99289E-11         0.00000E+00
    0.10584E-08         0.10466E-10         0.00000E+00
    0.11099E-08         0.11047E-10         0.00000E+00
    0.11650E-08         0.11672E-10         0.00000E+00
    0.12237E-08         0.12341E-10         0.00000E+00
    0.12864E-08         0.13054E-10         0.00000E+00
    0.13531E-08         0.13811E-10         0.00000E+00
    0.14241E-08         0.14616E-10         0.00000E+00
    0.14996E-08         0.15468E-10         0.00000E+00
    0.15798E-08         0.16370E-10         0.00000E+00
    0.16649E-08         0.17323E-10         0.00000E+00
    0.17552E-08         0.18331E-10         0.00000E+00
    0.18510E-08         0.19395E-10         0.00000E+00
    0.19527E-08         0.20519E-10         0.00000E+00
    0.20604E-08         0.21705E-10         0.00000E+00
    0.21746E-08         0.22956E-10         0.00000E+00
    0.22956E-08         0.24276E-10         0.00000E+00
    0.24238E-08         0.25668E-10         0.00000E+00
    0.25595E-08         0.27135E-10         0.00000E+00
    0.27033E-08         0.28682E-10         0.00000E+00
    0.28556E-08         0.30313E-10         0.00000E+00
    0.30168E-08         0.32032E-10         0.00000E+00
    0.31875E-08         0.33843E-10         0.00000E+00
    0.33682E-08         0.35751E-10         0.00000E+00
    0.35596E-08         0.37760E-10         0.00000E+00
    0.37621E-08         0.39876E-10         0.00000E+00
    0.39766E-08         0.42103E-10         0.00000E+00
    0.42036E-08         0.44447E-10         0.00000E+00
    0.44439E-08         0.46914E-10         0.00000E+00
    0.46983E-08         0.49507E-10         0.00000E+00
    0.49677E-08         0.52234E-10         0.00000E+00
    0.52529E-08         0.55100E-10         0.00000E+00
    0.55549E-08         0.58111E-10         0.00000E+00
    0.58746E-08         0.61272E-10         0.00000E+00
    0.62132E-08         0.64588E-10         0.00000E+00
    0.65719E-08         0.68067E-10         0.00000E+00
    0.69517E-08         0.71712E-10         0.00000E+00
    0.73541E-08         0.75529E-10         0.00000E+00
    0.77804E-08         0.79523E-10         0.00000E+00
    0.82321E-08         0.83697E-10         0.00000E+00
    0.87109E-08         0.88054E-10         0.00000E+00
    0.92183E-08         0.92597E-10         0.00000E+00
    0.97562E-08         0.97324E-10         0.00000E+00
    0.10327E-07         0.10223E-09         0.00000E+00
    0.10932E-07         0.10732E-09         0.00000E+00
    0.11573E-07         0.11258E-09         0.00000E+00
    0.12254E-07         0.11799E-09         0.00000E+00
    0.12977E-07         0.12354E-09         0.00000E+00
    0.13744E-07         0.12921E-09         0.00000E+00
    0.14559E-07         0.13494E-09         0.00000E+00
    0.15425E-07         0.14070E-09         0.00000E+00
    0.16345E-07         0.14643E-09         0.00000E+00
    0.17324E-07         0.15203E-09         0.00000E+00
    0.18365E-07         0.15741E-09         0.00000E+00
    0.19472E-07         0.16244E-09         0.00000E+00
    0.20652E-07         0.16694E-09         0.00000E+00
    0.21908E-07         0.17071E-09         0.00000E+00
    0.23247E-07         0.17350E-09         0.00000E+00
    0.24675E-07         0.17500E-09         0.00000E+00
    0.26198E-07         0.17484E-09         0.00000E+00
    0.27825E-07         0.17259E-09         0.00000E+00
    0.29562E-07         0.16772E-09         0.00000E+00
    0.31420E-07         0.15966E-09         0.00000E+00
    0.33406E-07         0.14775E-09         0.00000E+00
    0.35532E-07         0.13126E-09         0.00000E+00
    0.37809E-07         0.10945E-09         0.00000E+00
    0.40247E-07         0.81582E-10         0.00000E+00
    0.42861E-07         0.46998E-10         0.00000E+00
    0.45662E-07         0.52429E-11         0.00000E+00
    0.48665E-07        -0.43784E-10         0.00000E+00
    0.51885E-07        -0.99595E-10         0.00000E+00
    0.55336E-07        -0.16079E-09         0.00000E+00
    0.59033E-07        -0.22462E-09         0.00000E+00
    0.62991E-07        -0.28645E-09         0.00000E+00
    0.67224E-07        -0.33910E-09         0.00000E+00
    0.71744E-07        -0.37219E-09         0.00000E+00
    0.76561E-07        -0.37182E-09         0.00000E+00
    0.81683E-07        -0.32107E-09         0.00000E+00
    0.87113E-07        -0.20210E-09         0.00000E+00
    0.89907E-07         0.00000E+00         0.00000E+00
    0.63886E-09         0.00000E+00         0.00000E+00
    0.63559E-09         0.31342E-11         0.00000E+00
    0.63022E-09         0.52656E-11         0.00000E+00
    0.62719E-09         0.66001E-11         0.00000E+00
    0.62658E-09         0.73477E-11         0.00000E+00
    0.62843E-09         0.76945E-11         0.00000E+00
    0.63277E-09         0.77893E-11         0.00000E+00
    0.63963E-09         0.77426E-11         0.00000E+00
    0.64901E-09         0.76324E-11         0.00000E+00
    0.66092E-09         0.75115E-11         0.00000E+00
    0.67537E-09         0.74138E-11         0.00000E+00
    0.69236E-09         0.73598E-11         0.00000E+00
    0.71192E-09         0.73611E-11         0.00000E+00
    0.73405E-09         0.74228E-11         0.00000E+00
    0.75881E-09         0.75464E-11         0.00000E+00
    0.78623E-09         0.77310E-11         0.00000E+00
    0.81636E-09         0.79742E-11         0.00000E+00
    0.84927E-09         0.82733E-11         0.00000E+00
    0.88503E-09         0.86255E-11         0.00000E+00
    0.92372E-09         0.90279E-11         0.00000E+00
    0.96546E-09         0.94785E-11         0.00000E+00
    0.10103E-08         0.99752E-11         0.00000E+00
    0.10585E-08         0.10517E-10         0.00000E+00
    0.11100E-08         0.11103E-10         0.00000E+00
    0.11651E-08         0.11732E-10         0.00000E+00
    0.12239E-08         0.12406E-10         0.00000E+00
    0.12866E-08         0.13124E-10         0.00000E+00
    0.13533E-08         0.13887E-10         0.00000E+00
    0.14243E-08         0.14697E-10         0.00000E+00
    0.14998E-08         0.15555E-10         0.00000E+00
    0.15799E-08         0.16463E-10         0.00000E+00
    0.16651E-08         0.17424E-10         0.00000E+00
    0.17554E-08         0.18438E-10         0.00000E+00
    0.18513E-08         0.19509E-10         0.00000E+00
    0.19529E-08         0.20641E-10         0.00000E+00
    0.20607E-08         0.21834E-10         0.00000E+00
    0.21749E-08         0.23094E-10         0.00000E+00
    0.22959E-08         0.24422E-10         0.00000E+00
    0.24240E-08         0.25823E-10         0.00000E+00
    0.25598E-08         0.27301E-10         0.00000E+00
    0.27036E-08         0.28859E-10         0.00000E+00
    0.28559E-08         0.30501E-10         0.00000E+00
    0.30172E-08         0.32232E-10         0.00000E+00
    0.31879E-08         0.34055E-10         0.00000E+00
    0.33686E-08         0.35977E-10         0.00000E+00
    0.35600E-08         0.38000E-10         0.00000E+00
    0.37626E-08         0.40132E-10         0.00000E+00
    0.39770E-08         0.42376E-10         0.00000E+00
    0.42041E-08         0.44737E-10         0.00000E+00
    0.44444E-08         0.47223E-10         0.00000E+00
    0.46989E-08         0.49837E-10         0.00000E+00
    0.49683E-08         0.52586E-10         0.00000E+00
    0.52535E-08         0.55475E-10         0.00000E+00
    0.55555E-08         0.58511E-10         0.00000E+00
    0.58753E-08         0.61699E-10         0.00000E+00
    0.62139E-08         0.65045E-10         0.00000E+00
    0.65726E-08         0.68556E-10         0.00000E+00
    0.69525E-08         0.72236E-10         0.00000E+00
    0.73549E-08         0.76091E-10         0.00000E+00
    0.77812E-08         0.80125E-10         0.00000E+00
    0.82330E-08         0.84344E-10         0.00000E+00
    0.87117E-08         0.88749E-10         0.00000E+00
    0.92192E-08         0.93344E-10         0.00000E+00
    0.97571E-08         0.98129E-10         0.00000E+00
    0.10328E-07         0.10310E-09         0.00000E+00
    0.10933E-07         0.10826E-09         0.00000E+00
    0.11574E-07         0.11359E-09         0.00000E+00
    0.12255E-07         0.11909E-09         0.00000E+00
    0.12978E-07         0.12473E-09         0.00000E+00
    0.13745E-07         0.13049E-09         0.00000E+00
    0.14560E-07         0.13633E-09         0.00000E+00
    0.15426E-07         0.14221E-09         0.00000E+00
    0.16347E-07         0.14806E-09         0.00000E+00
    0.17325E-07         0.15380E-09         0.00000E+00
    0.18366E-07         0.15933E-09         0.00000E+00
    0.19473E-07         0.16451E-09         0.00000E+00
    0.20653E-07         0.16917E-09         0.00000E+00
    0.21909E-07         0.17312E-09         0.00000E+00
    0.23247E-07         0.17608E-09         0.00000E+00
    0.24675E-07         0.17776E-09         0.00000E+00
    0.26198E-07         0.17777E-09         0.00000E+00
    0.27824E-07         0.17568E-09         0.00000E+00
    0.29561E-07         0.17095E-09         0.00000E+00
    0.31418E-07         0.16300E-09         0.00000E+00
    0.33404E-07         0.15115E-09         0.00000E+00
    0.35529E-07         0.13466E-09         0.00000E+00
    0.37804E-07         0.11276E-09         0.00000E+00
    0.40241E-07         0.84697E-10         0.00000E+00
    0.42853E-07         0.49786E-10         0.00000E+00
    0.45653E-07         0.75458E-11         0.00000E+00
    0.48654E-07        -0.42151E-10         0.00000E+00
    0.51873E-07        -0.98833E-10         0.00000E+00
    0.55323E-07        -0.16111E-09         0.00000E+00
    0.59020E-07        -0.22622E-09         0.00000E+00
    0.62980E-07        -0.28946E-09         0.00000E+00
    0.67216E-07        -0.34352E-09         0.00000E+00
    0.71741E-07        -0.37780E-09         0.00000E+00
    0.76567E-07        -0.37803E-09         0.00000E+00
    0.81700E-07        -0.32684E-09         0.00000E+00
    0.87146E-07        -0.20593E-09         0.00000E+00
    0.89947E-07         0.00000E+00         0.00000E+00
    0.63949E-09         0.00000E+00         0.00000E+00
    0.63612E-09         0.31595E-11         0.00000E+00
    0.63057E-09         0.53042E-11         0.00000E+00
    0.62740E-09         0.66423E-11         0.00000E+00
    0.62669E-09         0.73871E-11         0.00000E+00
    0.62847E-09         0.77277E-11         0.00000E+00
    0.63278E-09         0.78150E-11         0.00000E+00
    0.63962E-09         0.77611E-11         0.00000E+00
    0.64899E-09         0.76447E-11         0.00000E+00
    0.66090E-09         0.75188E-11         0.00000E+00
    0.67535E-09         0.74174E-11         0.00000E+00
    0.69236E-09         0.73609E-11         0.00000E+00
    0.71192E-09         0.73608E-11         0.00000E+00
    0.73407E-09         0.74220E-11         0.00000E+00
    0.75884E-09         0.75460E-11         0.00000E+00
    0.78627E-09         0.77315E-11         0.00000E+00
    0.81642E-09         0.79762E-11         0.00000E+00
    0.84933E-09         0.82771E-11         0.00000E+00
    0.88510E-09         0.86314E-11         0.00000E+00
    0.92381E-09         0.90362E-11         0.00000E+00
    0.96555E-09         0.94892E-11         0.00000E+00
    0.10104E-08         0.99886E-11         0.00000E+00
    0.10586E-08         0.10533E-10         0.00000E+00
    0.11101E-08         0.11122E-10         0.00000E+00
    0.11652E-08         0.11754E-10         0.00000E+00
    0.12240E-08         0.12430E-10         0.00000E+00
    0.12867E-08         0.13151E-10         0.00000E+00
    0.13534E-08         0.13918E-10         0.00000E+00
    0.14244E-08         0.14731E-10         0.00000E+00
    0.14999E-08         0.15592E-10         0.00000E+00
    0.15801E-08         0.16503E-10         0.00000E+00
    0.16653E-08         0.17467E-10         0.00000E+00
    0.17556E-08         0.18485E-10         0.00000E+00
    0.18515E-08         0.19560E-10         0.00000E+00
    0.19531E-08         0.20695E-10         0.00000E+00
    0.20609E-08         0.21892E-10         0.00000E+00
    0.21751E-08         0.23156E-10         0.00000E+00
    0.22961E-08         0.24489E-10         0.00000E+00
    0.24243E-08         0.25895E-10         0.00000E+00
    0.25601E-08         0.27378E-10         0.00000E+00
    0.27040E-08         0.28941E-10         0.00000E+00
    0.28563E-08         0.30589E-10         0.00000E+00
    0.30175E-08         0.32326E-10         0.00000E+00
    0.31883E-08         0.34156E-10         0.00000E+00
    0.33690E-08         0.36085E-10         0.00000E+00
    0.35604E-08         0.38117E-10         0.00000E+00
    0.37630E-08         0.40257E-10         0.00000E+00
    0.39775E-08         0.42510E-10         0.00000E+00
    0.42045E-08         0.44882E-10         0.00000E+00
    0.44449E-08         0.47378E-10         0.00000E+00
    0.46994E-08         0.50004E-10         0.00000E+00
    0.49688E-08         0.52766E-10         0.00000E+00
    0.52541E-08         0.55669E-10         0.00000E+00
    0.55561E-08         0.58721E-10         0.00000E+00
    0.58759E-08         0.61926E-10         0.00000E+00
    0.62146E-08         0.65291E-10         0.00000E+00
    0.65733E-08         0.68822E-10         0.00000E+00
    0.69532E-08         0.72525E-10         0.00000E+00
    0.73557E-08         0.76406E-10         0.00000E+00
    0.77821E-08         0.80468E-10         0.00000E+00
    0.82339E-08         0.84718E-10         0.00000E+00
    0.87127E-08         0.89158E-10         0.00000E+00
    0.92201E-08         0.93791E-10         0.00000E+00
    0.97581E-08         0.98618E-10         0.00000E+00
    0.10329E-07         0.10364E-09         0.00000E+00
    0.10934E-07         0.10885E-09         0.00000E+00
    0.11575E-07         0.11424E-09         0.00000E+00
    0.12256E-07         0.11980E-09         0.00000E+00
    0.12979E-07         0.12552E-09         0.00000E+00
    0.13747E-07         0.13136E-09         0.00000E+00
    0.14562E-07         0.13729E-09         0.00000E+00
    0.15428E-07         0.14327E-09         0.00000E+00
    0.16348E-07         0.14923E-09         0.00000E+00
    0.17326E-07         0.15509E-09         0.00000E+00
    0.18367E-07         0.16074E-09         0.00000E+00
    0.19474E-07         0.16607E-09         0.00000E+00
    0.20653E-07         0.17089E-09         0.00000E+00
    0.21909E-07         0.17499E-09         0.00000E+00
    0.23248E-07         0.17813E-09         0.00000E+00
    0.24675E-07         0.17999E-09         0.00000E+00
    0.26198E-07         0.18018E-09         0.00000E+00
    0.27823E-07         0.17826E-09         0.00000E+00
    0.29560E-07         0.17370E-09         0.00000E+00
    0.31416E-07         0.16590E-09         0.00000E+00
    0.33401E-07         0.15415E-09         0.00000E+00
    0.35525E-07         0.13773E-09         0.00000E+00
    0.37799E-07         0.11583E-09         0.00000E+00
    0.40235E-07         0.87677E-10         0.00000E+00
    0.42845E-07         0.52566E-10         0.00000E+00
    0.45643E-07         0.99872E-11         0.00000E+00
    0.48644E-07        -0.40213E-10         0.00000E+00
    0.51861E-07        -0.97589E-10         0.00000E+00
    0.55310E-07        -0.16077E-09         0.00000E+00
    0.59007E-07        -0.22698E-09         0.00000E+00
    0.62968E-07        -0.29150E-09         0.00000E+00
    0.67207E-07        -0.34693E-09         0.00000E+00
    0.71738E-07        -0.38245E-09         0.00000E+00
    0.76572E-07        -0.38347E-09         0.00000E+00
    0.81717E-07        -0.33214E-09         0.00000E+00
    0.87179E-07        -0.20957E-09         0.00000E+00
    0.89989E-07         0.00000E+00         0.00000E+00
    0.64012E-09         0.00000E+00         0.00000E+00
    0.63665E-09         0.31791E-11         0.00000E+00
    0.63091E-09         0.53311E-11         0.00000E+00
    0.62761E-09         0.66675E-11         0.00000E+00
    0.62679E-09         0.74055E-11         0.00000E+00
    0.62851E-09         0.77373E-11         0.00000E+00
    0.63278E-09         0.78159E-11         0.00000E+00
    0.63960E-09         0.77543E-11         0.00000E+00
    0.64897E-09         0.76316E-11         0.00000E+00
    0.66088E-09         0.75009E-11         0.00000E+00
    0.67534E-09         0.73960E-11         0.00000E+00
    0.69235E-09         0.73372E-11         0.00000E+00
    0.71193E-09         0.73357E-11         0.00000E+00
    0.73409E-09         0.73964E-11         0.00000E+00
    0.75887E-09         0.75203E-11         0.00000E+00
    0.78632E-09         0.77063E-11         0.00000E+00
    0.81647E-09         0.79517E-11         0.00000E+00
    0.84940E-09         0.82536E-11         0.00000E+00
    0.88518E-09         0.86089E-11         0.00000E+00
    0.92390E-09         0.90148E-11         0.00000E+00
    0.96565E-09         0.94689E-11         0.00000E+00
    0.10105E-08         0.99693E-11         0.00000E+00
    0.10587E-08         0.10515E-10         0.00000E+00
    0.11103E-08         0.11104E-10         0.00000E+00
    0.11654E-08         0.11737E-10         0.00000E+00
    0.12242E-08         0.12414E-10         0.00000E+00
    0.12869E-08         0.13136E-10         0.00000E+00
    0.13536E-08         0.13903E-10         0.00000E+00
    0.14246E-08         0.14716E-10         0.00000E+00
    0.15001E-08         0.15578E-10         0.00000E+00
    0.15803E-08         0.16489E-10         0.00000E+00
    0.16655E-08         0.17453E-10         0.00000E+00
    0.17558E-08         0.18471E-10         0.00000E+00
    0.18517E-08         0.19547E-10         0.00000E+00
    0.19534E-08         0.20682E-10         0.00000E+00
    0.20611E-08         0.21880E-10         0.00000E+00
    0.21754E-08         0.23143E-10         0.00000E+00
    0.22964E-08         0.24477E-10         0.00000E+00
    0.24246E-08         0.25883E-10         0.00000E+00
    0.25604E-08         0.27366E-10         0.00000E+00
    0.27043E-08         0.28930E-10         0.00000E+00
    0.28566E-08         0.30578E-10         0.00000E+00
    0.30179E-08         0.32316E-10         0.00000E+00
    0.31886E-08         0.34147E-10         0.00000E+00
    0.33694E-08         0.36077E-10         0.00000E+00
    0.35608E-08         0.38110E-10         0.00000E+00
    0.37634E-08         0.40251E-10         0.00000E+00
    0.39779E-08         0.42506E-10         0.00000E+00
    0.42050E-08         0.44881E-10         0.00000E+00
    0.44454E-08         0.47380E-10         0.00000E+00
    0.46999E-08         0.50009E-10         0.00000E+00
    0.49694E-08         0.52775E-10         0.00000E+00
    0.52547E-08         0.55684E-10         0.00000E+00
    0.55567E-08         0.58741E-10         0.00000E+00
    0.58766E-08         0.61953E-10         0.00000E+00
    0.62153E-08         0.65327E-10         0.00000E+00
    0.65740E-08         0.68867E-10         0.00000E+00
    0.69540E-08         0.72581E-10         0.00000E+00
    0.73565E-08         0.76474E-10         0.00000E+00
    0.77829E-08         0.80552E-10         0.00000E+00
    0.82347E-08         0.84819E-10         0.00000E+00
    0.87136E-08         0.89279E-10         0.00000E+00
    0.92211E-08         0.93936E-10         0.00000E+00
    0.97591E-08         0.98791E-10         0.00000E+00
    0.10330E-07         0.10384E-09         0.00000E+00
    0.10935E-07         0.10909E-09         0.00000E+00
    0.11577E-07         0.11452E-09         0.00000E+00
    0.12258E-07         0.12013E-09         0.00000E+00
    0.12980E-07         0.12590E-09         0.00000E+00
    0.13748E-07         0.13180E-09         0.00000E+00
    0.14563E-07         0.13781E-09         0.00000E+00
    0.15429E-07         0.14387E-09         0.00000E+00
    0.16349E-07         0.14992E-09         0.00000E+00
    0.17327E-07         0.15588E-09         0.00000E+00
    0.18368E-07         0.16166E-09         0.00000E+00
    0.19475E-07         0.16711E-09         0.00000E+00
    0.20654E-07         0.17207E-09         0.00000E+00
    0.21910E-07         0.17633E-09         0.00000E+00
    0.23248E-07         0.17964E-09         0.00000E+00
    0.24675E-07         0.18167E-09         0.00000E+00
    0.26198E-07         0.18205E-09         0.00000E+00
    0.27823E-07         0.18032E-09         0.00000E+00
    0.29559E-07         0.17595E-09         0.00000E+00
    0.31414E-07         0.16833E-09         0.00000E+00
    0.33398E-07         0.15675E-09         0.00000E+00
    0.35521E-07         0.14045E-09         0.00000E+00
    0.37794E-07         0.11864E-09         0.00000E+00
    0.40228E-07         0.90502E-10         0.00000E+00
    0.42837E-07         0.55318E-10         0.00000E+00
    0.45634E-07         0.12549E-10         0.00000E+00
    0.48633E-07        -0.37986E-10         0.00000E+00
    0.51849E-07        -0.95874E-10         0.00000E+00
    0.55297E-07        -0.15976E-09         0.00000E+00
    0.58994E-07        -0.22691E-09         0.00000E+00
    0.62956E-07        -0.29258E-09         0.00000E+00
    0.67198E-07        -0.34930E-09         0.00000E+00
    0.71734E-07        -0.38612E-09         0.00000E+00
    0.76577E-07        -0.38812E-09         0.00000E+00
    0.81735E-07        -0.33693E-09         0.00000E+00
    0.87212E-07        -0.21302E-09         0.00000E+00
    0.90031E-07         0.00000E+00         0.00000E+00
    0.64076E-09         0.00000E+00         0.00000E+00
    0.63719E-09         0.31933E-11         0.00000E+00
    0.63126E-09         0.53464E-11         0.00000E+00
    0.62781E-09         0.66756E-11         0.00000E+00
    0.62690E-09         0.74028E-11         0.00000E+00
    0.62855E-09         0.77234E-11         0.00000E+00
    0.63278E-09         0.77920E-11         0.00000E+00
    0.63958E-09         0.77223E-11         0.00000E+00
    0.64894E-09         0.75933E-11         0.00000E+00
    0.66086E-09         0.74580E-11         0.00000E+00
    0.67532E-09         0.73499E-11         0.00000E+00
    0.69234E-09         0.72891E-11         0.00000E+00
    0.71193E-09         0.72863E-11         0.00000E+00
    0.73411E-09         0.73462E-11         0.00000E+00
    0.75890E-09         0.74699E-11         0.00000E+00
    0.78636E-09         0.76557E-11         0.00000E+00
    0.81653E-09         0.79012E-11         0.00000E+00
    0.84947E-09         0.82031E-11         0.00000E+00
    0.88526E-09         0.85584E-11         0.00000E+00
    0.92398E-09         0.89641E-11         0.00000E+00
    0.96574E-09         0.94179E-11         0.00000E+00
    0.10106E-08         0.99178E-11         0.00000E+00
    0.10588E-08         0.10462E-10         0.00000E+00
    0.11104E-08         0.11051E-10         0.00000E+00
    0.11655E-08         0.11683E-10         0.00000E+00
    0.12243E-08         0.12359E-10         0.00000E+00
    0.12870E-08         0.13078E-10         0.00000E+00
    0.13538E-08         0.13843E-10         0.00000E+00
    0.14248E-08         0.14654E-10         0.00000E+00
    0.15003E-08         0.15514E-10         0.00000E+00
    0.15805E-08         0.16423E-10         0.00000E+00
    0.16657E-08         0.17383E-10         0.00000E+00
    0.17560E-08         0.18399E-10         0.00000E+00
    0.18519E-08         0.19471E-10         0.00000E+00
    0.19536E-08         0.20602E-10         0.00000E+00
    0.20614E-08         0.21796E-10         0.00000E+00
    0.21756E-08         0.23056E-10         0.00000E+00
    0.22967E-08         0.24386E-10         0.00000E+00
    0.24249E-08         0.25788E-10         0.00000E+00
    0.25607E-08         0.27266E-10         0.00000E+00
    0.27046E-08         0.28825E-10         0.00000E+00
    0.28569E-08         0.30469E-10         0.00000E+00
    0.30182E-08         0.32202E-10         0.00000E+00
    0.31890E-08         0.34028E-10         0.00000E+00
    0.33698E-08         0.35953E-10         0.00000E+00
    0.35612E-08         0.37980E-10         0.00000E+00
    0.37639E-08         0.40117E-10         0.00000E+00
    0.39784E-08         0.42367E-10         0.00000E+00
    0.42055E-08         0.44736E-10         0.00000E+00
    0.44459E-08         0.47230E-10         0.00000E+00
    0.47005E-08         0.49854E-10         0.00000E+00
    0.49700E-08         0.52616E-10         0.00000E+00
    0.52553E-08         0.55520E-10         0.00000E+00
    0.55574E-08         0.58573E-10         0.00000E+00
    0.58772E-08         0.61782E-10         0.00000E+00
    0.62160E-08         0.65152E-10         0.00000E+00
    0.65748E-08         0.68691E-10         0.00000E+00
    0.69548E-08         0.72404E-10         0.00000E+00
    0.73573E-08         0.76298E-10         0.00000E+00
    0.77837E-08         0.80377E-10         0.00000E+00
    0.82356E-08         0.84648E-10         0.00000E+00
    0.87145E-08         0.89115E-10         0.00000E+00
    0.92220E-08         0.93780E-10         0.00000E+00
    0.97601E-08         0.98647E-10         0.00000E+00
    0.10331E-07         0.10371E-09         0.00000E+00
    0.10936E-07         0.10898E-09         0.00000E+00
    0.11578E-07         0.11444E-09         0.00000E+00
    0.12259E-07         0.12008E-09         0.00000E+00
    0.12982E-07         0.12588E-09         0.00000E+00
    0.13749E-07         0.13183E-09         0.00000E+00
    0.14564E-07         0.13789E-09         0.00000E+00
    0.15430E-07         0.14401E-09         0.00000E+00
    0.16350E-07         0.15014E-09         0.00000E+00
    0.17329E-07         0.15619E-09         0.00000E+00
    0.18369E-07         0.16206E-09         0.00000E+00
    0.19476E-07         0.16762E-09         0.00000E+00
    0.20655E-07         0.17271E-09         0.00000E+00
    0.21911E-07         0.17712E-09         0.00000E+00
    0.23249E-07         0.18058E-09         0.00000E+00
    0.24676E-07         0.18279E-09         0.00000E+00
    0.26198E-07         0.18336E-09         0.00000E+00
    0.27822E-07         0.18184E-09         0.00000E+00
    0.29557E-07         0.17768E-09         0.00000E+00
    0.31412E-07         0.17027E-09         0.00000E+00
    0.33395E-07         0.15890E-09         0.00000E+00
    0.35517E-07         0.14281E-09         0.00000E+00
    0.37789E-07         0.12116E-09         0.00000E+00
    0.40222E-07         0.93147E-10         0.00000E+00
    0.42829E-07         0.58018E-10         0.00000E+00
    0.45625E-07         0.15211E-10         0.00000E+00
    0.48622E-07        -0.35488E-10         0.00000E+00
    0.51836E-07        -0.93698E-10         0.00000E+00
    0.55284E-07        -0.15811E-09         0.00000E+00
    0.58981E-07        -0.22601E-09         0.00000E+00
    0.62944E-07        -0.29268E-09         0.00000E+00
    0.67188E-07        -0.35062E-09         0.00000E+00
    0.71730E-07        -0.38878E-09         0.00000E+00
    0.76581E-07        -0.39194E-09         0.00000E+00
    0.81752E-07        -0.34121E-09         0.00000E+00
    0.87246E-07        -0.21629E-09         0.00000E+00
    0.90074E-07         0.00000E+00         0.00000E+00
    0.64140E-09         0.00000E+00         0.00000E+00
    0.63772E-09         0.32018E-11         0.00000E+00
    0.63161E-09         0.53500E-11         0.00000E+00
    0.62802E-09         0.66666E-11         0.00000E+00
    0.62700E-09         0.73790E-11         0.00000E+00
    0.62859E-09         0.76859E-11         0.00000E+00
    0.63278E-09         0.77434E-11         0.00000E+00
    0.63956E-09         0.76652E-11         0.00000E+00
    0.64891E-09         0.75301E-11         0.00000E+00
    0.66083E-09         0.73905E-11         0.00000E+00
    0.67530E-09         0.72795E-11         0.00000E+00
    0.69234E-09         0.72168E-11         0.00000E+00
    0.71194E-09         0.72128E-11         0.00000E+00
    0.73413E-09         0.72719E-11         0.00000E+00
    0.75894E-09         0.73950E-11         0.00000E+00
    0.78640E-09         0.75802E-11         0.00000E+00
    0.81658E-09         0.78250E-11         0.00000E+00
    0.84953E-09         0.81261E-11         0.00000E+00
    0.88533E-09         0.84802E-11         0.00000E+00
    0.92407E-09         0.88846E-11         0.00000E+00
    0.96584E-09         0.93366E-11         0.00000E+00
    0.10107E-08         0.98343E-11         0.00000E+00
    0.10589E-08         0.10376E-10         0.00000E+00
    0.11105E-08         0.10962E-10         0.00000E+00
    0.11656E-08         0.11591E-10         0.00000E+00
    0.12244E-08         0.12263E-10         0.00000E+00
    0.12872E-08         0.12979E-10         0.00000E+00
    0.13539E-08         0.13739E-10         0.00000E+00
    0.14250E-08         0.14546E-10         0.00000E+00
    0.15005E-08         0.15400E-10         0.00000E+00
    0.15807E-08         0.16303E-10         0.00000E+00
    0.16659E-08         0.17258E-10         0.00000E+00
    0.17563E-08         0.18267E-10         0.00000E+00
    0.18522E-08         0.19332E-10         0.00000E+00
    0.19538E-08         0.20456E-10         0.00000E+00
    0.20616E-08         0.21643E-10         0.00000E+00
    0.21759E-08         0.22895E-10         0.00000E+00
    0.22970E-08         0.24216E-10         0.00000E+00
    0.24252E-08         0.25609E-10         0.00000E+00
    0.25610E-08         0.27079E-10         0.00000E+00
    0.27049E-08         0.28628E-10         0.00000E+00
    0.28573E-08         0.30262E-10         0.00000E+00
    0.30186E-08         0.31984E-10         0.00000E+00
    0.31894E-08         0.33800E-10         0.00000E+00
    0.33702E-08         0.35713E-10         0.00000E+00
    0.35617E-08         0.37729E-10         0.00000E+00
    0.37643E-08         0.39853E-10         0.00000E+00
    0.39789E-08         0.42091E-10         0.00000E+00
    0.42060E-08         0.44447E-10         0.00000E+00
    0.44465E-08         0.46928E-10         0.00000E+00
    0.47010E-08         0.49539E-10         0.00000E+00
    0.49705E-08         0.52287E-10         0.00000E+00
    0.52559E-08         0.55177E-10         0.00000E+00
    0.55580E-08         0.58217E-10         0.00000E+00
    0.58779E-08         0.61412E-10         0.00000E+00
    0.62167E-08         0.64769E-10         0.00000E+00
    0.65755E-08         0.68294E-10         0.00000E+00
    0.69555E-08         0.71994E-10         0.00000E+00
    0.73581E-08         0.75876E-10         0.00000E+00
    0.77846E-08         0.79944E-10         0.00000E+00
    0.82365E-08         0.84205E-10         0.00000E+00
    0.87154E-08         0.88663E-10         0.00000E+00
    0.92230E-08         0.93323E-10         0.00000E+00
    0.97611E-08         0.98185E-10         0.00000E+00
    0.10332E-07         0.10325E-09         0.00000E+00
    0.10937E-07         0.10852E-09         0.00000E+00
    0.11579E-07         0.11399E-09         0.00000E+00
    0.12260E-07         0.11964E-09         0.00000E+00
    0.12983E-07         0.12546E-09         0.00000E+00
    0.13750E-07         0.13144E-09         0.00000E+00
    0.14565E-07         0.13753E-09         0.00000E+00
    0.15431E-07         0.14369E-09         0.00000E+00
    0.16351E-07         0.14987E-09         0.00000E+00
    0.17330E-07         0.15599E-09         0.00000E+00
    0.18370E-07         0.16194E-09         0.00000E+00
    0.19478E-07         0.16760E-09         0.00000E+00
    0.20656E-07         0.17281E-09         0.00000E+00
    0.21912E-07         0.17734E-09         0.00000E+00
    0.23249E-07         0.18096E-09         0.00000E+00
    0.24676E-07         0.18335E-09         0.00000E+00
    0.26197E-07         0.18411E-09         0.00000E+00
    0.27822E-07         0.18280E-09         0.00000E+00
    0.29556E-07         0.17888E-09         0.00000E+00
    0.31410E-07         0.17171E-09         0.00000E+00
    0.33392E-07         0.16060E-09         0.00000E+00
    0.35513E-07         0.14477E-09         0.00000E+00
    0.37784E-07         0.12337E-09         0.00000E+00
    0.40216E-07         0.95588E-10         0.00000E+00
    0.42822E-07         0.60643E-10         0.00000E+00
    0.45615E-07         0.17950E-10         0.00000E+00
    0.48611E-07        -0.32737E-10         0.00000E+00
    0.51824E-07        -0.91078E-10         0.00000E+00
    0.55271E-07        -0.15581E-09         0.00000E+00
    0.58967E-07        -0.22427E-09         0.00000E+00
    0.62931E-07        -0.29178E-09         0.00000E+00
    0.67178E-07        -0.35087E-09         0.00000E+00
    0.71726E-07        -0.39039E-09         0.00000E+00
    0.76586E-07        -0.39490E-09         0.00000E+00
    0.81770E-07        -0.34494E-09         0.00000E+00
    0.87281E-07        -0.21934E-09         0.00000E+00
    0.90118E-07         0.00000E+00         0.00000E+00
    0.64204E-09         0.00000E+00         0.00000E+00
    0.63826E-09         0.32046E-11         0.00000E+00
    0.63196E-09         0.53415E-11         0.00000E+00
    0.62822E-09         0.66401E-11         0.00000E+00
    0.62710E-09         0.73339E-11         0.00000E+00
    0.62863E-09         0.76249E-11         0.00000E+00
    0.63278E-09         0.76702E-11         0.00000E+00
    0.63954E-09         0.75832E-11         0.00000E+00
    0.64888E-09         0.74422E-11         0.00000E+00
    0.66080E-09         0.72986E-11         0.00000E+00
    0.67529E-09         0.71851E-11         0.00000E+00
    0.69233E-09         0.71207E-11         0.00000E+00
    0.71194E-09         0.71156E-11         0.00000E+00
    0.73415E-09         0.71739E-11         0.00000E+00
    0.75897E-09         0.72959E-11         0.00000E+00
    0.78645E-09         0.74801E-11         0.00000E+00
    0.81663E-09         0.77235E-11         0.00000E+00
    0.84960E-09         0.80228E-11         0.00000E+00
    0.88541E-09         0.83747E-11         0.00000E+00
    0.92415E-09         0.87764E-11         0.00000E+00
    0.96593E-09         0.92252E-11         0.00000E+00
    0.10109E-08         0.97193E-11         0.00000E+00
    0.10590E-08         0.10257E-10         0.00000E+00
    0.11106E-08         0.10838E-10         0.00000E+00
    0.11657E-08         0.11462E-10         0.00000E+00
    0.12246E-08         0.12128E-10         0.00000E+00
    0.12873E-08         0.12837E-10         0.00000E+00
    0.13541E-08         0.13591E-10         0.00000E+00
    0.14251E-08         0.14390E-10         0.00000E+00
    0.15006E-08         0.15236E-10         0.00000E+00
    0.15809E-08         0.16131E-10         0.00000E+00
    0.16661E-08         0.17077E-10         0.00000E+00
    0.17565E-08         0.18076E-10         0.00000E+00
    0.18524E-08         0.19131E-10         0.00000E+00
    0.19541E-08         0.20245E-10         0.00000E+00
    0.20619E-08         0.21421E-10         0.00000E+00
    0.21761E-08         0.22661E-10         0.00000E+00
    0.22972E-08         0.23969E-10         0.00000E+00
    0.24255E-08         0.25349E-10         0.00000E+00
    0.25613E-08         0.26804E-10         0.00000E+00
    0.27052E-08         0.28339E-10         0.00000E+00
    0.28576E-08         0.29958E-10         0.00000E+00
    0.30189E-08         0.31664E-10         0.00000E+00
    0.31898E-08         0.33463E-10         0.00000E+00
    0.33706E-08         0.35359E-10         0.00000E+00
    0.35621E-08         0.37356E-10         0.00000E+00
    0.37648E-08         0.39462E-10         0.00000E+00
    0.39793E-08         0.41679E-10         0.00000E+00
    0.42065E-08         0.44015E-10         0.00000E+00
    0.44470E-08         0.46475E-10         0.00000E+00
    0.47016E-08         0.49064E-10         0.00000E+00
    0.49711E-08         0.51790E-10         0.00000E+00
    0.52565E-08         0.54657E-10         0.00000E+00
    0.55586E-08         0.57673E-10         0.00000E+00
    0.58786E-08         0.60844E-10         0.00000E+00
    0.62174E-08         0.64176E-10         0.00000E+00
    0.65762E-08         0.67677E-10         0.00000E+00
    0.69563E-08         0.71352E-10         0.00000E+00
    0.73589E-08         0.75209E-10         0.00000E+00
    0.77854E-08         0.79253E-10         0.00000E+00
    0.82374E-08         0.83491E-10         0.00000E+00
    0.87163E-08         0.87926E-10         0.00000E+00
    0.92239E-08         0.92564E-10         0.00000E+00
    0.97621E-08         0.97407E-10         0.00000E+00
    0.10333E-07         0.10246E-09         0.00000E+00
    0.10938E-07         0.10771E-09         0.00000E+00
    0.11580E-07         0.11317E-09         0.00000E+00
    0.12261E-07         0.11881E-09         0.00000E+00
    0.12984E-07         0.12464E-09         0.00000E+00
    0.13751E-07         0.13062E-09         0.00000E+00
    0.14567E-07         0.13672E-09         0.00000E+00
    0.15432E-07         0.14291E-09         0.00000E+00
    0.16353E-07         0.14912E-09         0.00000E+00
    0.17331E-07         0.15529E-09         0.00000E+00
    0.18372E-07         0.16130E-09         0.00000E+00
    0.19479E-07         0.16704E-09         0.00000E+00
    0.20657E-07         0.17234E-09         0.00000E+00
    0.21912E-07         0.17700E-09         0.00000E+00
    0.23250E-07         0.18076E-09         0.00000E+00
    0.24676E-07         0.18331E-09         0.00000E+00
    0.26197E-07         0.18427E-09         0.00000E+00
    0.27821E-07         0.18318E-09         0.00000E+00
    0.29555E-07         0.17951E-09         0.00000E+00
    0.31408E-07         0.17263E-09         0.00000E+00
    0.33390E-07         0.16182E-09         0.00000E+00
    0.35510E-07         0.14631E-09         0.00000E+00
    0.37779E-07         0.12525E-09         0.00000E+00
    0.40210E-07         0.97796E-10         0.00000E+00
    0.42814E-07         0.63164E-10         0.00000E+00
    0.45606E-07         0.20739E-10         0.00000E+00
    0.48600E-07        -0.29758E-10         0.00000E+00
    0.51812E-07        -0.88031E-10         0.00000E+00
    0.55257E-07        -0.15287E-09         0.00000E+00
    0.58954E-07        -0.22169E-09         0.00000E+00
    0.62918E-07        -0.28987E-09         0.00000E+00
    0.67168E-07        -0.35001E-09         0.00000E+00
    0.71721E-07        -0.39093E-09         0.00000E+00
    0.76591E-07        -0.39696E-09         0.00000E+00
    0.81787E-07        -0.34809E-09         0.00000E+00
    0.87315E-07        -0.22218E-09         0.00000E+00
    0.90162E-07         0.00000E+00         0.00000E+00
    0.64268E-09         0.00000E+00         0.00000E+00
    0.63879E-09         0.32016E-11         0.00000E+00
    0.63230E-09         0.53208E-11         0.00000E+00
    0.62842E-09         0.65959E-11         0.00000E+00
    0.62720E-09         0.72672E-11         0.00000E+00
    0.62866E-09         0.75401E-11         0.00000E+00
    0.63277E-09         0.75723E-11         0.00000E+00
    0.63951E-09         0.74764E-11         0.00000E+00
    0.64886E-09         0.73297E-11         0.00000E+00
    0.66078E-09         0.71827E-11         0.00000E+00
    0.67527E-09         0.70670E-11         0.00000E+00
    0.69232E-09         0.70013E-11         0.00000E+00
    0.71195E-09         0.69951E-11         0.00000E+00
    0.73416E-09         0.70524E-11         0.00000E+00
    0.75900E-09         0.71732E-11         0.00000E+00
    0.78649E-09         0.73558E-11         0.00000E+00
    0.81669E-09         0.75971E-11         0.00000E+00
    0.84966E-09         0.78937E-11         0.00000E+00
    0.88548E-09         0.82423E-11         0.00000E+00
    0.92424E-09         0.86400E-11         0.00000E+00
    0.96603E-09         0.90843E-11         0.00000E+00
    0.10110E-08         0.95731E-11         0.00000E+00
    0.10591E-08         0.10105E-10         0.00000E+00
    0.11107E-08         0.10679E-10         0.00000E+00
    0.11659E-08         0.11296E-10         0.00000E+00
    0.12247E-08         0.11954E-10         0.00000E+00
    0.12874E-08         0.12655E-10         0.00000E+00
    0.13542E-08         0.13399E-10         0.00000E+00
    0.14253E-08         0.14188E-10         0.00000E+00
    0.15008E-08         0.15024E-10         0.00000E+00
    0.15811E-08         0.15908E-10         0.00000E+00
    0.16663E-08         0.16841E-10         0.00000E+00
    0.17567E-08         0.17828E-10         0.00000E+00
    0.18526E-08         0.18869E-10         0.00000E+00
    0.19543E-08         0.19969E-10         0.00000E+00
    0.20621E-08         0.21129E-10         0.00000E+00
    0.21764E-08         0.22353E-10         0.00000E+00
    0.22975E-08         0.23644E-10         0.00000E+00
    0.24258E-08         0.25007E-10         0.00000E+00
    0.25616E-08         0.26444E-10         0.00000E+00
    0.27055E-08         0.27959E-10         0.00000E+00
    0.28579E-08         0.29557E-10         0.00000E+00
    0.30193E-08         0.31242E-10         0.00000E+00
    0.31901E-08         0.33018E-10         0.00000E+00
    0.33710E-08         0.34890E-10         0.00000E+00
    0.35625E-08         0.36863E-10         0.00000E+00
    0.37652E-08         0.38943E-10         0.00000E+00
    0.39798E-08         0.41134E-10         0.00000E+00
    0.42070E-08         0.43441E-10         0.00000E+00
    0.44475E-08         0.45872E-10         0.00000E+00
    0.47021E-08         0.48431E-10         0.00000E+00
    0.49716E-08         0.51125E-10         0.00000E+00
    0.52570E-08         0.53960E-10         0.00000E+00
    0.55592E-08         0.56942E-10         0.00000E+00
    0.58792E-08         0.60079E-10         0.00000E+00
    0.62181E-08         0.63376E-10         0.00000E+00
    0.65769E-08         0.66841E-10         0.00000E+00
    0.69570E-08         0.70479E-10         0.00000E+00
    0.73597E-08         0.74299E-10         0.00000E+00
    0.77862E-08         0.78305E-10         0.00000E+00
    0.82382E-08         0.82505E-10         0.00000E+00
    0.87172E-08         0.86903E-10         0.00000E+00
    0.92249E-08         0.91504E-10         0.00000E+00
    0.97631E-08         0.96311E-10         0.00000E+00
    0.10334E-07         0.10133E-09         0.00000E+00
    0.10939E-07         0.10655E-09         0.00000E+00
    0.11581E-07         0.11197E-09         0.00000E+00
    0.12262E-07         0.11760E-09         0.00000E+00
    0.12985E-07         0.12340E-09         0.00000E+00
    0.13753E-07         0.12937E-09         0.00000E+00
    0.14568E-07         0.13546E-09         0.00000E+00
    0.15434E-07         0.14165E-09         0.00000E+00
    0.16354E-07         0.14788E-09         0.00000E+00
    0.17332E-07         0.15407E-09         0.00000E+00
    0.18373E-07         0.16013E-09         0.00000E+00
    0.19480E-07         0.16593E-09         0.00000E+00
    0.20658E-07         0.17131E-09         0.00000E+00
    0.21913E-07         0.17607E-09         0.00000E+00
    0.23251E-07         0.17996E-09         0.00000E+00
    0.24677E-07         0.18267E-09         0.00000E+00
    0.26197E-07         0.18383E-09         0.00000E+00
    0.27821E-07         0.18297E-09         0.00000E+00
    0.29554E-07         0.17957E-09         0.00000E+00
    0.31407E-07         0.17299E-09         0.00000E+00
    0.33387E-07         0.16253E-09         0.00000E+00
    0.35506E-07         0.14740E-09         0.00000E+00
    0.37774E-07         0.12676E-09         0.00000E+00
    0.40203E-07         0.99742E-10         0.00000E+00
    0.42806E-07         0.65552E-10         0.00000E+00
    0.45597E-07         0.23551E-10         0.00000E+00
    0.48589E-07        -0.26575E-10         0.00000E+00
    0.51800E-07        -0.84578E-10         0.00000E+00
    0.55244E-07        -0.14931E-09         0.00000E+00
    0.58940E-07        -0.21827E-09         0.00000E+00
    0.62905E-07        -0.28695E-09         0.00000E+00
    0.67158E-07        -0.34802E-09         0.00000E+00
    0.71716E-07        -0.39034E-09         0.00000E+00
    0.76595E-07        -0.39807E-09         0.00000E+00
    0.81805E-07        -0.35062E-09         0.00000E+00
    0.87350E-07        -0.22477E-09         0.00000E+00
    0.90207E-07         0.00000E+00         0.00000E+00
    0.64332E-09         0.00000E+00         0.00000E+00
    0.63932E-09         0.31926E-11         0.00000E+00
    0.63264E-09         0.52876E-11         0.00000E+00
    0.62861E-09         0.65335E-11         0.00000E+00
    0.62729E-09         0.71786E-11         0.00000E+00
    0.62869E-09         0.74315E-11         0.00000E+00
    0.63276E-09         0.74498E-11         0.00000E+00
    0.63949E-09         0.73451E-11         0.00000E+00
    0.64883E-09         0.71930E-11         0.00000E+00
    0.66075E-09         0.70429E-11         0.00000E+00
    0.67525E-09         0.69256E-11         0.00000E+00
    0.69232E-09         0.68588E-11         0.00000E+00
    0.71195E-09         0.68518E-11         0.00000E+00
    0.73418E-09         0.69080E-11         0.00000E+00
    0.75903E-09         0.70273E-11         0.00000E+00
    0.78653E-09         0.72077E-11         0.00000E+00
    0.81674E-09         0.74461E-11         0.00000E+00
    0.84973E-09         0.77391E-11         0.00000E+00
    0.88556E-09         0.80833E-11         0.00000E+00
    0.92432E-09         0.84758E-11         0.00000E+00
    0.96612E-09         0.89140E-11         0.00000E+00
    0.10111E-08         0.93960E-11         0.00000E+00
    0.10593E-08         0.99204E-11         0.00000E+00
    0.11109E-08         0.10486E-10         0.00000E+00
    0.11660E-08         0.11093E-10         0.00000E+00
    0.12249E-08         0.11741E-10         0.00000E+00
    0.12876E-08         0.12431E-10         0.00000E+00
    0.13544E-08         0.13164E-10         0.00000E+00
    0.14254E-08         0.13941E-10         0.00000E+00
    0.15010E-08         0.14763E-10         0.00000E+00
    0.15812E-08         0.15632E-10         0.00000E+00
    0.16664E-08         0.16551E-10         0.00000E+00
    0.17569E-08         0.17521E-10         0.00000E+00
    0.18528E-08         0.18546E-10         0.00000E+00
    0.19545E-08         0.19627E-10         0.00000E+00
    0.20624E-08         0.20769E-10         0.00000E+00
    0.21767E-08         0.21973E-10         0.00000E+00
    0.22978E-08         0.23243E-10         0.00000E+00
    0.24260E-08         0.24583E-10         0.00000E+00
    0.25619E-08         0.25997E-10         0.00000E+00
    0.27059E-08         0.27488E-10         0.00000E+00
    0.28583E-08         0.29060E-10         0.00000E+00
    0.30196E-08         0.30718E-10         0.00000E+00
    0.31905E-08         0.32465E-10         0.00000E+00
    0.33714E-08         0.34308E-10         0.00000E+00
    0.35629E-08         0.36250E-10         0.00000E+00
    0.37656E-08         0.38297E-10         0.00000E+00
    0.39802E-08         0.40454E-10         0.00000E+00
    0.42074E-08         0.42726E-10         0.00000E+00
    0.44480E-08         0.45120E-10         0.00000E+00
    0.47026E-08         0.47640E-10         0.00000E+00
    0.49722E-08         0.50294E-10         0.00000E+00
    0.52576E-08         0.53087E-10         0.00000E+00
    0.55598E-08         0.56026E-10         0.00000E+00
    0.58798E-08         0.59118E-10         0.00000E+00
    0.62187E-08         0.62369E-10         0.00000E+00
    0.65776E-08         0.65785E-10         0.00000E+00
    0.69578E-08         0.69375E-10         0.00000E+00
    0.73604E-08         0.73145E-10         0.00000E+00
    0.77871E-08         0.77100E-10         0.00000E+00
    0.82391E-08         0.81248E-10         0.00000E+00
    0.87181E-08         0.85594E-10         0.00000E+00
    0.92258E-08         0.90142E-10         0.00000E+00
    0.97641E-08         0.94898E-10         0.00000E+00
    0.10335E-07         0.99862E-10         0.00000E+00
    0.10940E-07         0.10503E-09         0.00000E+00
    0.11582E-07         0.11041E-09         0.00000E+00
    0.12263E-07         0.11599E-09         0.00000E+00
    0.12986E-07         0.12175E-09         0.00000E+00
    0.13754E-07         0.12768E-09         0.00000E+00
    0.14569E-07         0.13375E-09         0.00000E+00
    0.15435E-07         0.13993E-09         0.00000E+00
    0.16355E-07         0.14615E-09         0.00000E+00
    0.17333E-07         0.15234E-09         0.00000E+00
    0.18374E-07         0.15842E-09         0.00000E+00
    0.19481E-07         0.16426E-09         0.00000E+00
    0.20659E-07         0.16970E-09         0.00000E+00
    0.21914E-07         0.17455E-09         0.00000E+00
    0.23251E-07         0.17856E-09         0.00000E+00
    0.24677E-07         0.18142E-09         0.00000E+00
    0.26197E-07         0.18276E-09         0.00000E+00
    0.27820E-07         0.18214E-09         0.00000E+00
    0.29553E-07         0.17902E-09         0.00000E+00
    0.31405E-07         0.17278E-09         0.00000E+00
    0.33385E-07         0.16271E-09         0.00000E+00
    0.35503E-07         0.14802E-09         0.00000E+00
    0.37769E-07         0.12787E-09         0.00000E+00
    0.40197E-07         0.10139E-09         0.00000E+00
    0.42799E-07         0.67774E-10         0.00000E+00
    0.45588E-07         0.26353E-10         0.00000E+00
    0.48578E-07        -0.23219E-10         0.00000E+00
    0.51787E-07        -0.80743E-10         0.00000E+00
    0.55231E-07        -0.14515E-09         0.00000E+00
    0.58926E-07        -0.21403E-09         0.00000E+00
    0.62892E-07        -0.28300E-09         0.00000E+00
    0.67148E-07        -0.34487E-09         0.00000E+00
    0.71711E-07        -0.38858E-09         0.00000E+00
    0.76598E-07        -0.39816E-09         0.00000E+00
    0.81822E-07        -0.35246E-09         0.00000E+00
    0.87385E-07        -0.22709E-09         0.00000E+00
    0.90252E-07         0.00000E+00         0.00000E+00
    0.64396E-09         0.00000E+00         0.00000E+00
    0.63985E-09         0.31773E-11         0.00000E+00
    0.63297E-09         0.52412E-11         0.00000E+00
    0.62879E-09         0.64525E-11         0.00000E+00
    0.62738E-09         0.70679E-11         0.00000E+00
    0.62871E-09         0.72989E-11         0.00000E+00
    0.63275E-09         0.73028E-11         0.00000E+00
    0.63946E-09         0.71893E-11         0.00000E+00
    0.64880E-09         0.70323E-11         0.00000E+00
    0.66073E-09         0.68798E-11         0.00000E+00
    0.67523E-09         0.67613E-11         0.00000E+00
    0.69231E-09         0.66938E-11         0.00000E+00
    0.71196E-09         0.66860E-11         0.00000E+00
    0.73420E-09         0.67410E-11         0.00000E+00
    0.75906E-09         0.68584E-11         0.00000E+00
    0.78657E-09         0.70362E-11         0.00000E+00
    0.81679E-09         0.72710E-11         0.00000E+00
    0.84979E-09         0.75595E-11         0.00000E+00
    0.88563E-09         0.78982E-11         0.00000E+00
    0.92440E-09         0.82842E-11         0.00000E+00
    0.96621E-09         0.87149E-11         0.00000E+00
    0.10112E-08         0.91885E-11         0.00000E+00
    0.10594E-08         0.97034E-11         0.00000E+00
    0.11110E-08         0.10259E-10         0.00000E+00
    0.11661E-08         0.10855E-10         0.00000E+00
    0.12250E-08         0.11491E-10         0.00000E+00
    0.12877E-08         0.12168E-10         0.00000E+00
    0.13545E-08         0.12886E-10         0.00000E+00
    0.14256E-08         0.13648E-10         0.00000E+00
    0.15011E-08         0.14454E-10         0.00000E+00
    0.15814E-08         0.15306E-10         0.00000E+00
    0.16666E-08         0.16207E-10         0.00000E+00
    0.17571E-08         0.17158E-10         0.00000E+00
    0.18530E-08         0.18162E-10         0.00000E+00
    0.19547E-08         0.19222E-10         0.00000E+00
    0.20626E-08         0.20340E-10         0.00000E+00
    0.21769E-08         0.21521E-10         0.00000E+00
    0.22980E-08         0.22766E-10         0.00000E+00
    0.24263E-08         0.24080E-10         0.00000E+00
    0.25622E-08         0.25465E-10         0.00000E+00
    0.27062E-08         0.26926E-10         0.00000E+00
    0.28586E-08         0.28468E-10         0.00000E+00
    0.30200E-08         0.30093E-10         0.00000E+00
    0.31908E-08         0.31807E-10         0.00000E+00
    0.33718E-08         0.33613E-10         0.00000E+00
    0.35633E-08         0.35518E-10         0.00000E+00
    0.37660E-08         0.37525E-10         0.00000E+00
    0.39807E-08         0.39641E-10         0.00000E+00
    0.42079E-08         0.41870E-10         0.00000E+00
    0.44484E-08         0.44219E-10         0.00000E+00
    0.47031E-08         0.46692E-10         0.00000E+00
    0.49727E-08         0.49297E-10         0.00000E+00
    0.52582E-08         0.52039E-10         0.00000E+00
    0.55604E-08         0.54925E-10         0.00000E+00
    0.58805E-08         0.57961E-10         0.00000E+00
    0.62194E-08         0.61155E-10         0.00000E+00
    0.65783E-08         0.64512E-10         0.00000E+00
    0.69585E-08         0.68041E-10         0.00000E+00
    0.73612E-08         0.71747E-10         0.00000E+00
    0.77879E-08         0.75638E-10         0.00000E+00
    0.82399E-08         0.79720E-10         0.00000E+00
    0.87190E-08         0.83999E-10         0.00000E+00
    0.92267E-08         0.88479E-10         0.00000E+00
    0.97650E-08         0.93166E-10         0.00000E+00
    0.10336E-07         0.98062E-10         0.00000E+00
    0.10941E-07         0.10317E-09         0.00000E+00
    0.11583E-07         0.10848E-09         0.00000E+00
    0.12264E-07         0.11399E-09         0.00000E+00
    0.12987E-07         0.11969E-09         0.00000E+00
    0.13755E-07         0.12557E-09         0.00000E+00
    0.14570E-07         0.13159E-09         0.00000E+00
    0.15436E-07         0.13772E-09         0.00000E+00
    0.16356E-07         0.14391E-09         0.00000E+00
    0.17335E-07         0.15009E-09         0.00000E+00
    0.18375E-07         0.15616E-09         0.00000E+00
    0.19482E-07         0.16202E-09         0.00000E+00
    0.20660E-07         0.16750E-09         0.00000E+00
    0.21915E-07         0.17242E-09         0.00000E+00
    0.23252E-07         0.17653E-09         0.00000E+00
    0.24677E-07         0.17953E-09         0.00000E+00
    0.26198E-07         0.18106E-09         0.00000E+00
    0.27820E-07         0.18068E-09         0.00000E+00
    0.29552E-07         0.17785E-09         0.00000E+00
    0.31403E-07         0.17197E-09         0.00000E+00
    0.33382E-07         0.16232E-09         0.00000E+00
    0.35499E-07         0.14813E-09         0.00000E+00
    0.37765E-07         0.12855E-09         0.00000E+00
    0.40191E-07         0.10272E-09         0.00000E+00
    0.42791E-07         0.69794E-10         0.00000E+00
    0.45579E-07         0.29110E-10         0.00000E+00
    0.48568E-07        -0.19721E-10         0.00000E+00
    0.51775E-07        -0.76555E-10         0.00000E+00
    0.55217E-07        -0.14040E-09         0.00000E+00
    0.58912E-07        -0.20896E-09         0.00000E+00
    0.62879E-07        -0.27801E-09         0.00000E+00
    0.67137E-07        -0.34053E-09         0.00000E+00
    0.71705E-07        -0.38558E-09         0.00000E+00
    0.76602E-07        -0.39717E-09         0.00000E+00
    0.81839E-07        -0.35357E-09         0.00000E+00
    0.87421E-07        -0.22911E-09         0.00000E+00
    0.90297E-07         0.00000E+00         0.00000E+00
    0.64459E-09         0.00000E+00         0.00000E+00
    0.64037E-09         0.31554E-11         0.00000E+00
    0.63329E-09         0.51812E-11         0.00000E+00
    0.62897E-09         0.63523E-11         0.00000E+00
    0.62746E-09         0.69345E-11         0.00000E+00
    0.62873E-09         0.71421E-11         0.00000E+00
    0.63274E-09         0.71312E-11         0.00000E+00
    0.63943E-09         0.70092E-11         0.00000E+00
    0.64876E-09         0.68479E-11         0.00000E+00
    0.66070E-09         0.66935E-11         0.00000E+00
    0.67521E-09         0.65744E-11         0.00000E+00
    0.69230E-09         0.65066E-11         0.00000E+00
    0.71196E-09         0.64982E-11         0.00000E+00
    0.73422E-09         0.65519E-11         0.00000E+00
    0.75909E-09         0.66672E-11         0.00000E+00
    0.78661E-09         0.68417E-11         0.00000E+00
    0.81685E-09         0.70722E-11         0.00000E+00
    0.84985E-09         0.73552E-11         0.00000E+00
    0.88570E-09         0.76873E-11         0.00000E+00
    0.92449E-09         0.80655E-11         0.00000E+00
    0.96630E-09         0.84873E-11         0.00000E+00
    0.10113E-08         0.89509E-11         0.00000E+00
    0.10595E-08         0.94547E-11         0.00000E+00
    0.11111E-08         0.99980E-11         0.00000E+00
    0.11663E-08         0.10580E-10         0.00000E+00
    0.12251E-08         0.11202E-10         0.00000E+00
    0.12879E-08         0.11863E-10         0.00000E+00
    0.13547E-08         0.12566E-10         0.00000E+00
    0.14258E-08         0.13309E-10         0.00000E+00
    0.15013E-08         0.14097E-10         0.00000E+00
    0.15816E-08         0.14929E-10         0.00000E+00
    0.16668E-08         0.15808E-10         0.00000E+00
    0.17573E-08         0.16737E-10         0.00000E+00
    0.18532E-08         0.17718E-10         0.00000E+00
    0.19550E-08         0.18753E-10         0.00000E+00
    0.20628E-08         0.19845E-10         0.00000E+00
    0.21771E-08         0.20997E-10         0.00000E+00
    0.22983E-08         0.22213E-10         0.00000E+00
    0.24266E-08         0.23496E-10         0.00000E+00
    0.25625E-08         0.24848E-10         0.00000E+00
    0.27065E-08         0.26276E-10         0.00000E+00
    0.28589E-08         0.27781E-10         0.00000E+00
    0.30203E-08         0.29368E-10         0.00000E+00
    0.31912E-08         0.31042E-10         0.00000E+00
    0.33721E-08         0.32807E-10         0.00000E+00
    0.35637E-08         0.34667E-10         0.00000E+00
    0.37664E-08         0.36629E-10         0.00000E+00
    0.39811E-08         0.38696E-10         0.00000E+00
    0.42083E-08         0.40874E-10         0.00000E+00
    0.44489E-08         0.43170E-10         0.00000E+00
    0.47036E-08         0.45588E-10         0.00000E+00
    0.49733E-08         0.48134E-10         0.00000E+00
    0.52587E-08         0.50816E-10         0.00000E+00
    0.55610E-08         0.53639E-10         0.00000E+00
    0.58811E-08         0.56609E-10         0.00000E+00
    0.62200E-08         0.59735E-10         0.00000E+00
    0.65790E-08         0.63022E-10         0.00000E+00
    0.69592E-08         0.66477E-10         0.00000E+00
    0.73620E-08         0.70108E-10         0.00000E+00
    0.77886E-08         0.73921E-10         0.00000E+00
    0.82407E-08         0.77922E-10         0.00000E+00
    0.87199E-08         0.82119E-10         0.00000E+00
    0.92277E-08         0.86515E-10         0.00000E+00
    0.97660E-08         0.91117E-10         0.00000E+00
    0.10337E-07         0.95927E-10         0.00000E+00
    0.10942E-07         0.10095E-09         0.00000E+00
    0.11584E-07         0.10617E-09         0.00000E+00
    0.12266E-07         0.11160E-09         0.00000E+00
    0.12989E-07         0.11722E-09         0.00000E+00
    0.13756E-07         0.12302E-09         0.00000E+00
    0.14571E-07         0.12897E-09         0.00000E+00
    0.15437E-07         0.13503E-09         0.00000E+00
    0.16358E-07         0.14117E-09         0.00000E+00
    0.17336E-07         0.14730E-09         0.00000E+00
    0.18376E-07         0.15335E-09         0.00000E+00
    0.19483E-07         0.15920E-09         0.00000E+00
    0.20661E-07         0.16470E-09         0.00000E+00
    0.21916E-07         0.16967E-09         0.00000E+00
    0.23253E-07         0.17386E-09         0.00000E+00
    0.24678E-07         0.17700E-09         0.00000E+00
    0.26198E-07         0.17870E-09         0.00000E+00
    0.27820E-07         0.17855E-09         0.00000E+00
    0.29552E-07         0.17603E-09         0.00000E+00
    0.31402E-07         0.17052E-09         0.00000E+00
    0.33380E-07         0.16134E-09         0.00000E+00
    0.35496E-07         0.14770E-09         0.00000E+00
    0.37760E-07         0.12877E-09         0.00000E+00
    0.40186E-07         0.10367E-09         0.00000E+00
    0.42784E-07         0.71575E-10         0.00000E+00
    0.45570E-07         0.31784E-10         0.00000E+00
    0.48557E-07        -0.16118E-10         0.00000E+00
    0.51763E-07        -0.72044E-10         0.00000E+00
    0.55204E-07        -0.13509E-09         0.00000E+00
    0.58899E-07        -0.20308E-09         0.00000E+00
    0.62866E-07        -0.27197E-09         0.00000E+00
    0.67126E-07        -0.33495E-09         0.00000E+00
    0.71700E-07        -0.38129E-09         0.00000E+00
    0.76605E-07        -0.39500E-09         0.00000E+00
    0.81856E-07        -0.35385E-09         0.00000E+00
    0.87456E-07        -0.23078E-09         0.00000E+00
    0.90343E-07         0.00000E+00         0.00000E+00
    0.64522E-09         0.00000E+00         0.00000E+00
    0.64089E-09         0.31266E-11         0.00000E+00
    0.63361E-09         0.51068E-11         0.00000E+00
    0.62915E-09         0.62321E-11         0.00000E+00
    0.62754E-09         0.67780E-11         0.00000E+00
    0.62875E-09         0.69610E-11         0.00000E+00
    0.63273E-09         0.69350E-11         0.00000E+00
    0.63940E-09         0.68051E-11         0.00000E+00
    0.64873E-09         0.66402E-11         0.00000E+00
    0.66067E-09         0.64846E-11         0.00000E+00
    0.67520E-09         0.63654E-11         0.00000E+00
    0.69229E-09         0.62977E-11         0.00000E+00
    0.71197E-09         0.62888E-11         0.00000E+00
    0.73423E-09         0.63412E-11         0.00000E+00
    0.75911E-09         0.64540E-11         0.00000E+00
    0.78665E-09         0.66247E-11         0.00000E+00
    0.81690E-09         0.68502E-11         0.00000E+00
    0.84991E-09         0.71267E-11         0.00000E+00
    0.88577E-09         0.74510E-11         0.00000E+00
    0.92456E-09         0.78202E-11         0.00000E+00
    0.96639E-09         0.82316E-11         0.00000E+00
    0.10113E-08         0.86835E-11         0.00000E+00
    0.10596E-08         0.91745E-11         0.00000E+00
    0.11112E-08         0.97037E-11         0.00000E+00
    0.11664E-08         0.10271E-10         0.00000E+00
    0.12252E-08         0.10876E-10         0.00000E+00
    0.12880E-08         0.11520E-10         0.00000E+00
    0.13548E-08         0.12203E-10         0.00000E+00
    0.14259E-08         0.12926E-10         0.00000E+00
    0.15015E-08         0.13692E-10         0.00000E+00
    0.15818E-08         0.14502E-10         0.00000E+00
    0.16670E-08         0.15357E-10         0.00000E+00
    0.17574E-08         0.16260E-10         0.00000E+00
    0.18534E-08         0.17214E-10         0.00000E+00
    0.19552E-08         0.18220E-10         0.00000E+00
    0.20630E-08         0.19282E-10         0.00000E+00
    0.21774E-08         0.20403E-10         0.00000E+00
    0.22985E-08         0.21585E-10         0.00000E+00
    0.24268E-08         0.22832E-10         0.00000E+00
    0.25628E-08         0.24148E-10         0.00000E+00
    0.27067E-08         0.25536E-10         0.00000E+00
    0.28592E-08         0.27000E-10         0.00000E+00
    0.30206E-08         0.28543E-10         0.00000E+00
    0.31915E-08         0.30172E-10         0.00000E+00
    0.33725E-08         0.31888E-10         0.00000E+00
    0.35640E-08         0.33699E-10         0.00000E+00
    0.37668E-08         0.35607E-10         0.00000E+00
    0.39815E-08         0.37619E-10         0.00000E+00
    0.42088E-08         0.39739E-10         0.00000E+00
    0.44494E-08         0.41973E-10         0.00000E+00
    0.47041E-08         0.44328E-10         0.00000E+00
    0.49738E-08         0.46807E-10         0.00000E+00
    0.52593E-08         0.49419E-10         0.00000E+00
    0.55616E-08         0.52169E-10         0.00000E+00
    0.58817E-08         0.55064E-10         0.00000E+00
    0.62207E-08         0.58110E-10         0.00000E+00
    0.65797E-08         0.61315E-10         0.00000E+00
    0.69599E-08         0.64684E-10         0.00000E+00
    0.73627E-08         0.68226E-10         0.00000E+00
    0.77894E-08         0.71947E-10         0.00000E+00
    0.82416E-08         0.75854E-10         0.00000E+00
    0.87207E-08         0.79953E-10         0.00000E+00
    0.92285E-08         0.84250E-10         0.00000E+00
    0.97669E-08         0.88750E-10         0.00000E+00
    0.10338E-07         0.93456E-10         0.00000E+00
    0.10943E-07         0.98369E-10         0.00000E+00
    0.11585E-07         0.10349E-09         0.00000E+00
    0.12267E-07         0.10881E-09         0.00000E+00
    0.12990E-07         0.11433E-09         0.00000E+00
    0.13757E-07         0.12003E-09         0.00000E+00
    0.14573E-07         0.12588E-09         0.00000E+00
    0.15439E-07         0.13186E-09         0.00000E+00
    0.16359E-07         0.13791E-09         0.00000E+00
    0.17337E-07         0.14398E-09         0.00000E+00
    0.18377E-07         0.14998E-09         0.00000E+00
    0.19484E-07         0.15580E-09         0.00000E+00
    0.20662E-07         0.16130E-09         0.00000E+00
    0.21917E-07         0.16629E-09         0.00000E+00
    0.23254E-07         0.17055E-09         0.00000E+00
    0.24678E-07         0.17379E-09         0.00000E+00
    0.26198E-07         0.17567E-09         0.00000E+00
    0.27819E-07         0.17575E-09         0.00000E+00
    0.29551E-07         0.17354E-09         0.00000E+00
    0.31400E-07         0.16842E-09         0.00000E+00
    0.33378E-07         0.15973E-09         0.00000E+00
    0.35493E-07         0.14670E-09         0.00000E+00
    0.37756E-07         0.12848E-09         0.00000E+00
    0.40180E-07         0.10422E-09         0.00000E+00
    0.42777E-07         0.73074E-10         0.00000E+00
    0.45561E-07         0.34333E-10         0.00000E+00
    0.48547E-07        -0.12450E-10         0.00000E+00
    0.51751E-07        -0.67246E-10         0.00000E+00
    0.55191E-07        -0.12924E-09         0.00000E+00
    0.58885E-07        -0.19640E-09         0.00000E+00
    0.62853E-07        -0.26488E-09         0.00000E+00
    0.67115E-07        -0.32810E-09         0.00000E+00
    0.71693E-07        -0.37564E-09         0.00000E+00
    0.76607E-07        -0.39158E-09         0.00000E+00
    0.81872E-07        -0.35323E-09         0.00000E+00
    0.87491E-07        -0.23207E-09         0.00000E+00
    0.90390E-07         0.00000E+00         0.00000E+00
    0.64584E-09         0.00000E+00         0.00000E+00
    0.64139E-09         0.30903E-11         0.00000E+00
    0.63391E-09         0.50173E-11         0.00000E+00
    0.62931E-09         0.60912E-11         0.00000E+00
    0.62761E-09         0.65979E-11         0.00000E+00
    0.62876E-09         0.67551E-11         0.00000E+00
    0.63271E-09         0.67144E-11         0.00000E+00
    0.63937E-09         0.65770E-11         0.00000E+00
    0.64870E-09         0.64094E-11         0.00000E+00
    0.66064E-09         0.62535E-11         0.00000E+00
    0.67518E-09         0.61348E-11         0.00000E+00
    0.69229E-09         0.60675E-11         0.00000E+00
    0.71197E-09         0.60584E-11         0.00000E+00
    0.73425E-09         0.61093E-11         0.00000E+00
    0.75914E-09         0.62193E-11         0.00000E+00
    0.78669E-09         0.63858E-11         0.00000E+00
    0.81695E-09         0.66053E-11         0.00000E+00
    0.84997E-09         0.68745E-11         0.00000E+00
    0.88584E-09         0.71899E-11         0.00000E+00
    0.92464E-09         0.75486E-11         0.00000E+00
    0.96647E-09         0.79482E-11         0.00000E+00
    0.10114E-08         0.83869E-11         0.00000E+00
    0.10597E-08         0.88632E-11         0.00000E+00
    0.11113E-08         0.93765E-11         0.00000E+00
    0.11665E-08         0.99263E-11         0.00000E+00
    0.12254E-08         0.10513E-10         0.00000E+00
    0.12881E-08         0.11137E-10         0.00000E+00
    0.13550E-08         0.11798E-10         0.00000E+00
    0.14261E-08         0.12499E-10         0.00000E+00
    0.15016E-08         0.13241E-10         0.00000E+00
    0.15819E-08         0.14025E-10         0.00000E+00
    0.16672E-08         0.14853E-10         0.00000E+00
    0.17576E-08         0.15727E-10         0.00000E+00
    0.18536E-08         0.16650E-10         0.00000E+00
    0.19554E-08         0.17625E-10         0.00000E+00
    0.20633E-08         0.18653E-10         0.00000E+00
    0.21776E-08         0.19738E-10         0.00000E+00
    0.22988E-08         0.20882E-10         0.00000E+00
    0.24271E-08         0.22090E-10         0.00000E+00
    0.25630E-08         0.23364E-10         0.00000E+00
    0.27070E-08         0.24707E-10         0.00000E+00
    0.28595E-08         0.26125E-10         0.00000E+00
    0.30209E-08         0.27620E-10         0.00000E+00
    0.31919E-08         0.29197E-10         0.00000E+00
    0.33728E-08         0.30860E-10         0.00000E+00
    0.35644E-08         0.32613E-10         0.00000E+00
    0.37672E-08         0.34462E-10         0.00000E+00
    0.39819E-08         0.36411E-10         0.00000E+00
    0.42092E-08         0.38466E-10         0.00000E+00
    0.44498E-08         0.40631E-10         0.00000E+00
    0.47046E-08         0.42913E-10         0.00000E+00
    0.49743E-08         0.45317E-10         0.00000E+00
    0.52598E-08         0.47850E-10         0.00000E+00
    0.55621E-08         0.50517E-10         0.00000E+00
    0.58823E-08         0.53325E-10         0.00000E+00
    0.62213E-08         0.56281E-10         0.00000E+00
    0.65803E-08         0.59392E-10         0.00000E+00
    0.69606E-08         0.62663E-10         0.00000E+00
    0.73634E-08         0.66104E-10         0.00000E+00
    0.77902E-08         0.69719E-10         0.00000E+00
    0.82423E-08         0.73517E-10         0.00000E+00
    0.87215E-08         0.77503E-10         0.00000E+00
    0.92294E-08         0.81684E-10         0.00000E+00
    0.97678E-08         0.86064E-10         0.00000E+00
    0.10339E-07         0.90648E-10         0.00000E+00
    0.10944E-07         0.95438E-10         0.00000E+00
    0.11586E-07         0.10043E-09         0.00000E+00
    0.12268E-07         0.10563E-09         0.00000E+00
    0.12991E-07         0.11102E-09         0.00000E+00
    0.13759E-07         0.11660E-09         0.00000E+00
    0.14574E-07         0.12233E-09         0.00000E+00
    0.15440E-07         0.12820E-09         0.00000E+00
    0.16360E-07         0.13415E-09         0.00000E+00
    0.17338E-07         0.14012E-09         0.00000E+00
    0.18379E-07         0.14604E-09         0.00000E+00
    0.19485E-07         0.15181E-09         0.00000E+00
    0.20663E-07         0.15727E-09         0.00000E+00
    0.21918E-07         0.16227E-09         0.00000E+00
    0.23254E-07         0.16657E-09         0.00000E+00
    0.24679E-07         0.16991E-09         0.00000E+00
    0.26198E-07         0.17194E-09         0.00000E+00
    0.27819E-07         0.17225E-09         0.00000E+00
    0.29550E-07         0.17034E-09         0.00000E+00
    0.31399E-07         0.16564E-09         0.00000E+00
    0.33376E-07         0.15747E-09         0.00000E+00
    0.35490E-07         0.14508E-09         0.00000E+00
    0.37752E-07         0.12765E-09         0.00000E+00
    0.40174E-07         0.10432E-09         0.00000E+00
    0.42770E-07         0.74247E-10         0.00000E+00
    0.45553E-07         0.36713E-10         0.00000E+00
    0.48537E-07        -0.87604E-11         0.00000E+00
    0.51740E-07        -0.62200E-10         0.00000E+00
    0.55178E-07        -0.12289E-09         0.00000E+00
    0.58871E-07        -0.18894E-09         0.00000E+00
    0.62840E-07        -0.25672E-09         0.00000E+00
    0.67104E-07        -0.31996E-09         0.00000E+00
    0.71687E-07        -0.36854E-09         0.00000E+00
    0.76609E-07        -0.38678E-09         0.00000E+00
    0.81888E-07        -0.35159E-09         0.00000E+00
    0.87527E-07        -0.23290E-09         0.00000E+00
    0.90436E-07         0.00000E+00         0.00000E+00
    0.64646E-09         0.00000E+00         0.00000E+00
    0.64189E-09         0.30461E-11         0.00000E+00
    0.63421E-09         0.49117E-11         0.00000E+00
    0.62946E-09         0.59287E-11         0.00000E+00
    0.62767E-09         0.63935E-11         0.00000E+00
    0.62877E-09         0.65245E-11         0.00000E+00
    0.63269E-09         0.64693E-11         0.00000E+00
    0.63934E-09         0.63254E-11         0.00000E+00
    0.64867E-09         0.61559E-11         0.00000E+00
    0.66062E-09         0.60005E-11         0.00000E+00
    0.67516E-09         0.58831E-11         0.00000E+00
    0.69228E-09         0.58167E-11         0.00000E+00
    0.71198E-09         0.58074E-11         0.00000E+00
    0.73427E-09         0.58568E-11         0.00000E+00
    0.75917E-09         0.59636E-11         0.00000E+00
    0.78673E-09         0.61252E-11         0.00000E+00
    0.81700E-09         0.63381E-11         0.00000E+00
    0.85003E-09         0.65989E-11         0.00000E+00
    0.88591E-09         0.69042E-11         0.00000E+00
    0.92472E-09         0.72512E-11         0.00000E+00
    0.96655E-09         0.76375E-11         0.00000E+00
    0.10115E-08         0.80613E-11         0.00000E+00
    0.10598E-08         0.85213E-11         0.00000E+00
    0.11114E-08         0.90167E-11         0.00000E+00
    0.11666E-08         0.95472E-11         0.00000E+00
    0.12255E-08         0.10113E-10         0.00000E+00
    0.12883E-08         0.10714E-10         0.00000E+00
    0.13551E-08         0.11352E-10         0.00000E+00
    0.14262E-08         0.12028E-10         0.00000E+00
    0.15018E-08         0.12743E-10         0.00000E+00
    0.15821E-08         0.13498E-10         0.00000E+00
    0.16673E-08         0.14296E-10         0.00000E+00
    0.17578E-08         0.15139E-10         0.00000E+00
    0.18538E-08         0.16028E-10         0.00000E+00
    0.19556E-08         0.16967E-10         0.00000E+00
    0.20635E-08         0.17958E-10         0.00000E+00
    0.21778E-08         0.19003E-10         0.00000E+00
    0.22990E-08         0.20106E-10         0.00000E+00
    0.24273E-08         0.21269E-10         0.00000E+00
    0.25633E-08         0.22497E-10         0.00000E+00
    0.27073E-08         0.23791E-10         0.00000E+00
    0.28598E-08         0.25157E-10         0.00000E+00
    0.30212E-08         0.26598E-10         0.00000E+00
    0.31922E-08         0.28118E-10         0.00000E+00
    0.33732E-08         0.29721E-10         0.00000E+00
    0.35648E-08         0.31411E-10         0.00000E+00
    0.37676E-08         0.33194E-10         0.00000E+00
    0.39823E-08         0.35073E-10         0.00000E+00
    0.42096E-08         0.37055E-10         0.00000E+00
    0.44503E-08         0.39143E-10         0.00000E+00
    0.47050E-08         0.41344E-10         0.00000E+00
    0.49748E-08         0.43664E-10         0.00000E+00
    0.52603E-08         0.46108E-10         0.00000E+00
    0.55627E-08         0.48683E-10         0.00000E+00
    0.58828E-08         0.51394E-10         0.00000E+00
    0.62219E-08         0.54249E-10         0.00000E+00
    0.65809E-08         0.57253E-10         0.00000E+00
    0.69613E-08         0.60415E-10         0.00000E+00
    0.73641E-08         0.63740E-10         0.00000E+00
    0.77909E-08         0.67237E-10         0.00000E+00
    0.82431E-08         0.70910E-10         0.00000E+00
    0.87223E-08         0.74768E-10         0.00000E+00
    0.92303E-08         0.78817E-10         0.00000E+00
    0.97687E-08         0.83061E-10         0.00000E+00
    0.10340E-07         0.87505E-10         0.00000E+00
    0.10945E-07         0.92152E-10         0.00000E+00
    0.11587E-07         0.97002E-10         0.00000E+00
    0.12269E-07         0.10205E-09         0.00000E+00
    0.12992E-07         0.10730E-09         0.00000E+00
    0.13760E-07         0.11272E-09         0.00000E+00
    0.14575E-07         0.11831E-09         0.00000E+00
    0.15441E-07         0.12404E-09         0.00000E+00
    0.16361E-07         0.12986E-09         0.00000E+00
    0.17339E-07         0.13571E-09         0.00000E+00
    0.18380E-07         0.14153E-09         0.00000E+00
    0.19487E-07         0.14721E-09         0.00000E+00
    0.20664E-07         0.15262E-09         0.00000E+00
    0.21919E-07         0.15759E-09         0.00000E+00
    0.23255E-07         0.16191E-09         0.00000E+00
    0.24679E-07         0.16532E-09         0.00000E+00
    0.26198E-07         0.16749E-09         0.00000E+00
    0.27819E-07         0.16802E-09         0.00000E+00
    0.29549E-07         0.16642E-09         0.00000E+00
    0.31398E-07         0.16214E-09         0.00000E+00
    0.33374E-07         0.15452E-09         0.00000E+00
    0.35487E-07         0.14282E-09         0.00000E+00
    0.37748E-07         0.12624E-09         0.00000E+00
    0.40169E-07         0.10392E-09         0.00000E+00
    0.42763E-07         0.75047E-10         0.00000E+00
    0.45544E-07         0.38875E-10         0.00000E+00
    0.48527E-07        -0.50969E-11         0.00000E+00
    0.51729E-07        -0.56950E-10         0.00000E+00
    0.55166E-07        -0.11606E-09         0.00000E+00
    0.58858E-07        -0.18072E-09         0.00000E+00
    0.62827E-07        -0.24750E-09         0.00000E+00
    0.67093E-07        -0.31047E-09         0.00000E+00
    0.71680E-07        -0.35993E-09         0.00000E+00
    0.76611E-07        -0.38049E-09         0.00000E+00
    0.81903E-07        -0.34882E-09         0.00000E+00
    0.87562E-07        -0.23321E-09         0.00000E+00
    0.90483E-07         0.00000E+00         0.00000E+00
    0.64706E-09         0.00000E+00         0.00000E+00
    0.64237E-09         0.29930E-11         0.00000E+00
    0.63449E-09         0.47887E-11         0.00000E+00
    0.62960E-09         0.57435E-11         0.00000E+00
    0.62773E-09         0.61643E-11         0.00000E+00
    0.62878E-09         0.62687E-11         0.00000E+00
    0.63267E-09         0.61998E-11         0.00000E+00
    0.63931E-09         0.60504E-11         0.00000E+00
    0.64863E-09         0.58801E-11         0.00000E+00
    0.66059E-09         0.57262E-11         0.00000E+00
    0.67514E-09         0.56107E-11         0.00000E+00
    0.69227E-09         0.55456E-11         0.00000E+00
    0.71198E-09         0.55364E-11         0.00000E+00
    0.73428E-09         0.55842E-11         0.00000E+00
    0.75920E-09         0.56875E-11         0.00000E+00
    0.78677E-09         0.58436E-11         0.00000E+00
    0.81704E-09         0.60490E-11         0.00000E+00
    0.85008E-09         0.63004E-11         0.00000E+00
    0.88597E-09         0.65944E-11         0.00000E+00
    0.92479E-09         0.69284E-11         0.00000E+00
    0.96663E-09         0.72999E-11         0.00000E+00
    0.10116E-08         0.77072E-11         0.00000E+00
    0.10599E-08         0.81491E-11         0.00000E+00
    0.11115E-08         0.86248E-11         0.00000E+00
    0.11667E-08         0.91340E-11         0.00000E+00
    0.12256E-08         0.96769E-11         0.00000E+00
    0.12884E-08         0.10254E-10         0.00000E+00
    0.13552E-08         0.10866E-10         0.00000E+00
    0.14263E-08         0.11514E-10         0.00000E+00
    0.15019E-08         0.12199E-10         0.00000E+00
    0.15822E-08         0.12923E-10         0.00000E+00
    0.16675E-08         0.13688E-10         0.00000E+00
    0.17580E-08         0.14495E-10         0.00000E+00
    0.18540E-08         0.15348E-10         0.00000E+00
    0.19558E-08         0.16248E-10         0.00000E+00
    0.20637E-08         0.17197E-10         0.00000E+00
    0.21780E-08         0.18199E-10         0.00000E+00
    0.22992E-08         0.19256E-10         0.00000E+00
    0.24276E-08         0.20371E-10         0.00000E+00
    0.25636E-08         0.21547E-10         0.00000E+00
    0.27076E-08         0.22788E-10         0.00000E+00
    0.28601E-08         0.24098E-10         0.00000E+00
    0.30215E-08         0.25479E-10         0.00000E+00
    0.31925E-08         0.26936E-10         0.00000E+00
    0.33735E-08         0.28473E-10         0.00000E+00
    0.35651E-08         0.30094E-10         0.00000E+00
    0.37680E-08         0.31803E-10         0.00000E+00
    0.39827E-08         0.33606E-10         0.00000E+00
    0.42100E-08         0.35507E-10         0.00000E+00
    0.44507E-08         0.37511E-10         0.00000E+00
    0.47055E-08         0.39623E-10         0.00000E+00
    0.49752E-08         0.41849E-10         0.00000E+00
    0.52608E-08         0.44195E-10         0.00000E+00
    0.55632E-08         0.46667E-10         0.00000E+00
    0.58834E-08         0.49271E-10         0.00000E+00
    0.62225E-08         0.52013E-10         0.00000E+00
    0.65816E-08         0.54901E-10         0.00000E+00
    0.69619E-08         0.57940E-10         0.00000E+00
    0.73648E-08         0.61137E-10         0.00000E+00
    0.77916E-08         0.64500E-10         0.00000E+00
    0.82439E-08         0.68035E-10         0.00000E+00
    0.87231E-08         0.71750E-10         0.00000E+00
    0.92311E-08         0.75649E-10         0.00000E+00
    0.97696E-08         0.79739E-10         0.00000E+00
    0.10341E-07         0.84024E-10         0.00000E+00
    0.10946E-07         0.88508E-10         0.00000E+00
    0.11588E-07         0.93192E-10         0.00000E+00
    0.12270E-07         0.98074E-10         0.00000E+00
    0.12993E-07         0.10315E-09         0.00000E+00
    0.13761E-07         0.10840E-09         0.00000E+00
    0.14576E-07         0.11383E-09         0.00000E+00
    0.15442E-07         0.11938E-09         0.00000E+00
    0.16362E-07         0.12504E-09         0.00000E+00
    0.17341E-07         0.13075E-09         0.00000E+00
    0.18381E-07         0.13643E-09         0.00000E+00
    0.19488E-07         0.14200E-09         0.00000E+00
    0.20666E-07         0.14732E-09         0.00000E+00
    0.21920E-07         0.15224E-09         0.00000E+00
    0.23256E-07         0.15656E-09         0.00000E+00
    0.24680E-07         0.16002E-09         0.00000E+00
    0.26199E-07         0.16231E-09         0.00000E+00
    0.27819E-07         0.16303E-09         0.00000E+00
    0.29549E-07         0.16174E-09         0.00000E+00
    0.31397E-07         0.15789E-09         0.00000E+00
    0.33372E-07         0.15083E-09         0.00000E+00
    0.35484E-07         0.13986E-09         0.00000E+00
    0.37744E-07         0.12419E-09         0.00000E+00
    0.40164E-07         0.10299E-09         0.00000E+00
    0.42757E-07         0.75423E-10         0.00000E+00
    0.45537E-07         0.40766E-10         0.00000E+00
    0.48518E-07        -0.15115E-11         0.00000E+00
    0.51718E-07        -0.51545E-10         0.00000E+00
    0.55154E-07        -0.10881E-09         0.00000E+00
    0.58845E-07        -0.17175E-09         0.00000E+00
    0.62814E-07        -0.23721E-09         0.00000E+00
    0.67082E-07        -0.29962E-09         0.00000E+00
    0.71673E-07        -0.34973E-09         0.00000E+00
    0.76612E-07        -0.37258E-09         0.00000E+00
    0.81917E-07        -0.34475E-09         0.00000E+00
    0.87596E-07        -0.23290E-09         0.00000E+00
    0.90530E-07         0.00000E+00         0.00000E+00
    0.64765E-09         0.00000E+00         0.00000E+00
    0.64285E-09         0.29303E-11         0.00000E+00
    0.63476E-09         0.46471E-11         0.00000E+00
    0.62974E-09         0.55344E-11         0.00000E+00
    0.62778E-09         0.59096E-11         0.00000E+00
    0.62878E-09         0.59876E-11         0.00000E+00
    0.63265E-09         0.59059E-11         0.00000E+00
    0.63928E-09         0.57523E-11         0.00000E+00
    0.64860E-09         0.55825E-11         0.00000E+00
    0.66056E-09         0.54310E-11         0.00000E+00
    0.67512E-09         0.53182E-11         0.00000E+00
    0.69226E-09         0.52550E-11         0.00000E+00
    0.71198E-09         0.52460E-11         0.00000E+00
    0.73430E-09         0.52920E-11         0.00000E+00
    0.75922E-09         0.53914E-11         0.00000E+00
    0.78680E-09         0.55414E-11         0.00000E+00
    0.81709E-09         0.57385E-11         0.00000E+00
    0.85014E-09         0.59795E-11         0.00000E+00
    0.88603E-09         0.62611E-11         0.00000E+00
    0.92486E-09         0.65806E-11         0.00000E+00
    0.96671E-09         0.69358E-11         0.00000E+00
    0.10117E-08         0.73250E-11         0.00000E+00
    0.10600E-08         0.77471E-11         0.00000E+00
    0.11116E-08         0.82011E-11         0.00000E+00
    0.11668E-08         0.86870E-11         0.00000E+00
    0.12257E-08         0.92048E-11         0.00000E+00
    0.12885E-08         0.97550E-11         0.00000E+00
    0.13553E-08         0.10338E-10         0.00000E+00
    0.14265E-08         0.10956E-10         0.00000E+00
    0.15021E-08         0.11609E-10         0.00000E+00
    0.15824E-08         0.12299E-10         0.00000E+00
    0.16676E-08         0.13028E-10         0.00000E+00
    0.17581E-08         0.13798E-10         0.00000E+00
    0.18541E-08         0.14610E-10         0.00000E+00
    0.19559E-08         0.15467E-10         0.00000E+00
    0.20639E-08         0.16371E-10         0.00000E+00
    0.21782E-08         0.17326E-10         0.00000E+00
    0.22994E-08         0.18333E-10         0.00000E+00
    0.24278E-08         0.19395E-10         0.00000E+00
    0.25638E-08         0.20516E-10         0.00000E+00
    0.27078E-08         0.21699E-10         0.00000E+00
    0.28603E-08         0.22947E-10         0.00000E+00
    0.30218E-08         0.24263E-10         0.00000E+00
    0.31928E-08         0.25652E-10         0.00000E+00
    0.33738E-08         0.27117E-10         0.00000E+00
    0.35654E-08         0.28662E-10         0.00000E+00
    0.37683E-08         0.30292E-10         0.00000E+00
    0.39831E-08         0.32010E-10         0.00000E+00
    0.42104E-08         0.33823E-10         0.00000E+00
    0.44511E-08         0.35734E-10         0.00000E+00
    0.47059E-08         0.37749E-10         0.00000E+00
    0.49757E-08         0.39873E-10         0.00000E+00
    0.52613E-08         0.42112E-10         0.00000E+00
    0.55637E-08         0.44472E-10         0.00000E+00
    0.58839E-08         0.46958E-10         0.00000E+00
    0.62230E-08         0.49576E-10         0.00000E+00
    0.65821E-08         0.52334E-10         0.00000E+00
    0.69625E-08         0.55238E-10         0.00000E+00
    0.73654E-08         0.58295E-10         0.00000E+00
    0.77923E-08         0.61510E-10         0.00000E+00
    0.82446E-08         0.64892E-10         0.00000E+00
    0.87239E-08         0.68447E-10         0.00000E+00
    0.92319E-08         0.72180E-10         0.00000E+00
    0.97704E-08         0.76099E-10         0.00000E+00
    0.10341E-07         0.80207E-10         0.00000E+00
    0.10947E-07         0.84509E-10         0.00000E+00
    0.11589E-07         0.89005E-10         0.00000E+00
    0.12271E-07         0.93696E-10         0.00000E+00
    0.12994E-07         0.98576E-10         0.00000E+00
    0.13762E-07         0.10364E-09         0.00000E+00
    0.14577E-07         0.10886E-09         0.00000E+00
    0.15443E-07         0.11423E-09         0.00000E+00
    0.16364E-07         0.11970E-09         0.00000E+00
    0.17342E-07         0.12523E-09         0.00000E+00
    0.18382E-07         0.13075E-09         0.00000E+00
    0.19489E-07         0.13617E-09         0.00000E+00
    0.20667E-07         0.14138E-09         0.00000E+00
    0.21921E-07         0.14622E-09         0.00000E+00
    0.23257E-07         0.15050E-09         0.00000E+00
    0.24681E-07         0.15398E-09         0.00000E+00
    0.26199E-07         0.15636E-09         0.00000E+00
    0.27819E-07         0.15728E-09         0.00000E+00
    0.29548E-07         0.15628E-09         0.00000E+00
    0.31396E-07         0.15286E-09         0.00000E+00
    0.33370E-07         0.14639E-09         0.00000E+00
    0.35481E-07         0.13618E-09         0.00000E+00
    0.37741E-07         0.12147E-09         0.00000E+00
    0.40159E-07         0.10146E-09         0.00000E+00
    0.42751E-07         0.75321E-10         0.00000E+00
    0.45529E-07         0.42330E-10         0.00000E+00
    0.48509E-07         0.19390E-11         0.00000E+00
    0.51707E-07        -0.46038E-10         0.00000E+00
    0.55142E-07        -0.10118E-09         0.00000E+00
    0.58833E-07        -0.16209E-09         0.00000E+00
    0.62801E-07        -0.22588E-09         0.00000E+00
    0.67070E-07        -0.28736E-09         0.00000E+00
    0.71666E-07        -0.33783E-09         0.00000E+00
    0.76612E-07        -0.36291E-09         0.00000E+00
    0.81931E-07        -0.33924E-09         0.00000E+00
    0.87631E-07        -0.23188E-09         0.00000E+00
    0.90576E-07         0.00000E+00         0.00000E+00
    0.64823E-09         0.00000E+00         0.00000E+00
    0.64330E-09         0.28570E-11         0.00000E+00
    0.63501E-09         0.44852E-11         0.00000E+00
    0.62986E-09         0.53003E-11         0.00000E+00
    0.62782E-09         0.56286E-11         0.00000E+00
    0.62878E-09         0.56809E-11         0.00000E+00
    0.63262E-09         0.55879E-11         0.00000E+00
    0.63925E-09         0.54315E-11         0.00000E+00
    0.64857E-09         0.52635E-11         0.00000E+00
    0.66054E-09         0.51155E-11         0.00000E+00
    0.67510E-09         0.50062E-11         0.00000E+00
    0.69226E-09         0.49452E-11         0.00000E+00
    0.71199E-09         0.49366E-11         0.00000E+00
    0.73431E-09         0.49808E-11         0.00000E+00
    0.75925E-09         0.50759E-11         0.00000E+00
    0.78684E-09         0.52191E-11         0.00000E+00
    0.81713E-09         0.54071E-11         0.00000E+00
    0.85019E-09         0.56366E-11         0.00000E+00
    0.88609E-09         0.59046E-11         0.00000E+00
    0.92492E-09         0.62083E-11         0.00000E+00
    0.96678E-09         0.65457E-11         0.00000E+00
    0.10118E-08         0.69152E-11         0.00000E+00
    0.10600E-08         0.73155E-11         0.00000E+00
    0.11117E-08         0.77461E-11         0.00000E+00
    0.11669E-08         0.82067E-11         0.00000E+00
    0.12258E-08         0.86973E-11         0.00000E+00
    0.12886E-08         0.92185E-11         0.00000E+00
    0.13555E-08         0.97710E-11         0.00000E+00
    0.14266E-08         0.10356E-10         0.00000E+00
    0.15022E-08         0.10974E-10         0.00000E+00
    0.15825E-08         0.11627E-10         0.00000E+00
    0.16678E-08         0.12317E-10         0.00000E+00
    0.17583E-08         0.13046E-10         0.00000E+00
    0.18543E-08         0.13814E-10         0.00000E+00
    0.19561E-08         0.14625E-10         0.00000E+00
    0.20640E-08         0.15481E-10         0.00000E+00
    0.21784E-08         0.16385E-10         0.00000E+00
    0.22996E-08         0.17338E-10         0.00000E+00
    0.24280E-08         0.18343E-10         0.00000E+00
    0.25640E-08         0.19404E-10         0.00000E+00
    0.27080E-08         0.20524E-10         0.00000E+00
    0.28606E-08         0.21705E-10         0.00000E+00
    0.30221E-08         0.22951E-10         0.00000E+00
    0.31931E-08         0.24266E-10         0.00000E+00
    0.33741E-08         0.25653E-10         0.00000E+00
    0.35657E-08         0.27116E-10         0.00000E+00
    0.37686E-08         0.28659E-10         0.00000E+00
    0.39834E-08         0.30287E-10         0.00000E+00
    0.42108E-08         0.32004E-10         0.00000E+00
    0.44515E-08         0.33815E-10         0.00000E+00
    0.47063E-08         0.35724E-10         0.00000E+00
    0.49761E-08         0.37737E-10         0.00000E+00
    0.52617E-08         0.39860E-10         0.00000E+00
    0.55642E-08         0.42097E-10         0.00000E+00
    0.58844E-08         0.44454E-10         0.00000E+00
    0.62235E-08         0.46938E-10         0.00000E+00
    0.65827E-08         0.49555E-10         0.00000E+00
    0.69631E-08         0.52312E-10         0.00000E+00
    0.73660E-08         0.55213E-10         0.00000E+00
    0.77929E-08         0.58268E-10         0.00000E+00
    0.82452E-08         0.61481E-10         0.00000E+00
    0.87246E-08         0.64861E-10         0.00000E+00
    0.92326E-08         0.68412E-10         0.00000E+00
    0.97712E-08         0.72141E-10         0.00000E+00
    0.10342E-07         0.76053E-10         0.00000E+00
    0.10948E-07         0.80151E-10         0.00000E+00
    0.11590E-07         0.84439E-10         0.00000E+00
    0.12272E-07         0.88916E-10         0.00000E+00
    0.12995E-07         0.93578E-10         0.00000E+00
    0.13763E-07         0.98417E-10         0.00000E+00
    0.14578E-07         0.10342E-09         0.00000E+00
    0.15444E-07         0.10857E-09         0.00000E+00
    0.16365E-07         0.11382E-09         0.00000E+00
    0.17343E-07         0.11914E-09         0.00000E+00
    0.18383E-07         0.12447E-09         0.00000E+00
    0.19490E-07         0.12971E-09         0.00000E+00
    0.20668E-07         0.13477E-09         0.00000E+00
    0.21922E-07         0.13949E-09         0.00000E+00
    0.23257E-07         0.14371E-09         0.00000E+00
    0.24681E-07         0.14719E-09         0.00000E+00
    0.26199E-07         0.14964E-09         0.00000E+00
    0.27819E-07         0.15072E-09         0.00000E+00
    0.29548E-07         0.15001E-09         0.00000E+00
    0.31395E-07         0.14701E-09         0.00000E+00
    0.33368E-07         0.14114E-09         0.00000E+00
    0.35479E-07         0.13172E-09         0.00000E+00
    0.37737E-07         0.11803E-09         0.00000E+00
    0.40155E-07         0.99284E-10         0.00000E+00
    0.42745E-07         0.74684E-10         0.00000E+00
    0.45522E-07         0.43507E-10         0.00000E+00
    0.48500E-07         0.51936E-11         0.00000E+00
    0.51697E-07        -0.40489E-10         0.00000E+00
    0.55130E-07        -0.93212E-10         0.00000E+00
    0.58820E-07        -0.15175E-09         0.00000E+00
    0.62789E-07        -0.21349E-09         0.00000E+00
    0.67059E-07        -0.27368E-09         0.00000E+00
    0.71658E-07        -0.32417E-09         0.00000E+00
    0.76611E-07        -0.35132E-09         0.00000E+00
    0.81943E-07        -0.33207E-09         0.00000E+00
    0.87664E-07        -0.23002E-09         0.00000E+00
    0.90622E-07         0.00000E+00         0.00000E+00
    0.64880E-09         0.00000E+00         0.00000E+00
    0.64374E-09         0.27716E-11         0.00000E+00
    0.63524E-09         0.43012E-11         0.00000E+00
    0.62997E-09         0.50396E-11         0.00000E+00
    0.62785E-09         0.53206E-11         0.00000E+00
    0.62877E-09         0.53485E-11         0.00000E+00
    0.63260E-09         0.52458E-11         0.00000E+00
    0.63921E-09         0.50883E-11         0.00000E+00
    0.64854E-09         0.49235E-11         0.00000E+00
    0.66051E-09         0.47803E-11         0.00000E+00
    0.67509E-09         0.46753E-11         0.00000E+00
    0.69225E-09         0.46171E-11         0.00000E+00
    0.71199E-09         0.46090E-11         0.00000E+00
    0.73432E-09         0.46511E-11         0.00000E+00
    0.75927E-09         0.47416E-11         0.00000E+00
    0.78687E-09         0.48774E-11         0.00000E+00
    0.81717E-09         0.50554E-11         0.00000E+00
    0.85024E-09         0.52723E-11         0.00000E+00
    0.88615E-09         0.55253E-11         0.00000E+00
    0.92499E-09         0.58119E-11         0.00000E+00
    0.96685E-09         0.61300E-11         0.00000E+00
    0.10119E-08         0.64780E-11         0.00000E+00
    0.10601E-08         0.68550E-11         0.00000E+00
    0.11118E-08         0.72602E-11         0.00000E+00
    0.11670E-08         0.76934E-11         0.00000E+00
    0.12259E-08         0.81548E-11         0.00000E+00
    0.12887E-08         0.86447E-11         0.00000E+00
    0.13556E-08         0.91639E-11         0.00000E+00
    0.14267E-08         0.97134E-11         0.00000E+00
    0.15023E-08         0.10294E-10         0.00000E+00
    0.15826E-08         0.10908E-10         0.00000E+00
    0.16679E-08         0.11556E-10         0.00000E+00
    0.17584E-08         0.12240E-10         0.00000E+00
    0.18545E-08         0.12962E-10         0.00000E+00
    0.19563E-08         0.13724E-10         0.00000E+00
    0.20642E-08         0.14528E-10         0.00000E+00
    0.21786E-08         0.15376E-10         0.00000E+00
    0.22998E-08         0.16271E-10         0.00000E+00
    0.24282E-08         0.17215E-10         0.00000E+00
    0.25642E-08         0.18212E-10         0.00000E+00
    0.27083E-08         0.19263E-10         0.00000E+00
    0.28608E-08         0.20373E-10         0.00000E+00
    0.30223E-08         0.21543E-10         0.00000E+00
    0.31933E-08         0.22778E-10         0.00000E+00
    0.33744E-08         0.24082E-10         0.00000E+00
    0.35660E-08         0.25456E-10         0.00000E+00
    0.37689E-08         0.26907E-10         0.00000E+00
    0.39837E-08         0.28437E-10         0.00000E+00
    0.42111E-08         0.30051E-10         0.00000E+00
    0.44518E-08         0.31753E-10         0.00000E+00
    0.47067E-08         0.33549E-10         0.00000E+00
    0.49765E-08         0.35442E-10         0.00000E+00
    0.52622E-08         0.37438E-10         0.00000E+00
    0.55646E-08         0.39543E-10         0.00000E+00
    0.58849E-08         0.41762E-10         0.00000E+00
    0.62240E-08         0.44100E-10         0.00000E+00
    0.65832E-08         0.46564E-10         0.00000E+00
    0.69636E-08         0.49160E-10         0.00000E+00
    0.73666E-08         0.51895E-10         0.00000E+00
    0.77935E-08         0.54774E-10         0.00000E+00
    0.82459E-08         0.57804E-10         0.00000E+00
    0.87252E-08         0.60992E-10         0.00000E+00
    0.92333E-08         0.64343E-10         0.00000E+00
    0.97719E-08         0.67865E-10         0.00000E+00
    0.10343E-07         0.71561E-10         0.00000E+00
    0.10949E-07         0.75437E-10         0.00000E+00
    0.11591E-07         0.79494E-10         0.00000E+00
    0.12273E-07         0.83733E-10         0.00000E+00
    0.12996E-07         0.88152E-10         0.00000E+00
    0.13764E-07         0.92745E-10         0.00000E+00
    0.14579E-07         0.97498E-10         0.00000E+00
    0.15445E-07         0.10239E-09         0.00000E+00
    0.16366E-07         0.10740E-09         0.00000E+00
    0.17344E-07         0.11248E-09         0.00000E+00
    0.18384E-07         0.11758E-09         0.00000E+00
    0.19491E-07         0.12261E-09         0.00000E+00
    0.20668E-07         0.12748E-09         0.00000E+00
    0.21922E-07         0.13206E-09         0.00000E+00
    0.23258E-07         0.13618E-09         0.00000E+00
    0.24682E-07         0.13962E-09         0.00000E+00
    0.26200E-07         0.14211E-09         0.00000E+00
    0.27819E-07         0.14334E-09         0.00000E+00
    0.29548E-07         0.14290E-09         0.00000E+00
    0.31394E-07         0.14032E-09         0.00000E+00
    0.33367E-07         0.13504E-09         0.00000E+00
    0.35477E-07         0.12645E-09         0.00000E+00
    0.37734E-07         0.11382E-09         0.00000E+00
    0.40151E-07         0.96408E-10         0.00000E+00
    0.42740E-07         0.73452E-10         0.00000E+00
    0.45515E-07         0.44233E-10         0.00000E+00
    0.48492E-07         0.81863E-11         0.00000E+00
    0.51687E-07        -0.34961E-10         0.00000E+00
    0.55119E-07        -0.84972E-10         0.00000E+00
    0.58808E-07        -0.14079E-09         0.00000E+00
    0.62777E-07        -0.20009E-09         0.00000E+00
    0.67048E-07        -0.25854E-09         0.00000E+00
    0.71650E-07        -0.30866E-09         0.00000E+00
    0.76610E-07        -0.33763E-09         0.00000E+00
    0.81955E-07        -0.32303E-09         0.00000E+00
    0.87697E-07        -0.22714E-09         0.00000E+00
    0.90668E-07         0.37253E-20         0.00000E+00
    0.64934E-09         0.00000E+00         0.00000E+00
    0.64416E-09         0.26725E-11         0.00000E+00
    0.63546E-09         0.40929E-11         0.00000E+00
    0.63006E-09         0.47508E-11         0.00000E+00
    0.62788E-09         0.49850E-11         0.00000E+00
    0.62876E-09         0.49902E-11         0.00000E+00
    0.63257E-09         0.48798E-11         0.00000E+00
    0.63918E-09         0.47232E-11         0.00000E+00
    0.64851E-09         0.45633E-11         0.00000E+00
    0.66049E-09         0.44260E-11         0.00000E+00
    0.67507E-09         0.43261E-11         0.00000E+00
    0.69224E-09         0.42712E-11         0.00000E+00
    0.71199E-09         0.42638E-11         0.00000E+00
    0.73434E-09         0.43037E-11         0.00000E+00
    0.75929E-09         0.43889E-11         0.00000E+00
    0.78690E-09         0.45166E-11         0.00000E+00
    0.81721E-09         0.46837E-11         0.00000E+00
    0.85028E-09         0.48871E-11         0.00000E+00
    0.88620E-09         0.51239E-11         0.00000E+00
    0.92504E-09         0.53919E-11         0.00000E+00
    0.96692E-09         0.56891E-11         0.00000E+00
    0.10119E-08         0.60141E-11         0.00000E+00
    0.10602E-08         0.63658E-11         0.00000E+00
    0.11119E-08         0.67437E-11         0.00000E+00
    0.11671E-08         0.71476E-11         0.00000E+00
    0.12260E-08         0.75775E-11         0.00000E+00
    0.12888E-08         0.80340E-11         0.00000E+00
    0.13557E-08         0.85176E-11         0.00000E+00
    0.14268E-08         0.90293E-11         0.00000E+00
    0.15024E-08         0.95701E-11         0.00000E+00
    0.15828E-08         0.10141E-10         0.00000E+00
    0.16681E-08         0.10745E-10         0.00000E+00
    0.17586E-08         0.11381E-10         0.00000E+00
    0.18546E-08         0.12053E-10         0.00000E+00
    0.19564E-08         0.12762E-10         0.00000E+00
    0.20644E-08         0.13511E-10         0.00000E+00
    0.21788E-08         0.14300E-10         0.00000E+00
    0.23000E-08         0.15133E-10         0.00000E+00
    0.24284E-08         0.16012E-10         0.00000E+00
    0.25644E-08         0.16940E-10         0.00000E+00
    0.27085E-08         0.17918E-10         0.00000E+00
    0.28610E-08         0.18951E-10         0.00000E+00
    0.30225E-08         0.20041E-10         0.00000E+00
    0.31936E-08         0.21191E-10         0.00000E+00
    0.33746E-08         0.22404E-10         0.00000E+00
    0.35663E-08         0.23685E-10         0.00000E+00
    0.37692E-08         0.25036E-10         0.00000E+00
    0.39840E-08         0.26461E-10         0.00000E+00
    0.42114E-08         0.27965E-10         0.00000E+00
    0.44522E-08         0.29551E-10         0.00000E+00
    0.47071E-08         0.31224E-10         0.00000E+00
    0.49769E-08         0.32988E-10         0.00000E+00
    0.52626E-08         0.34850E-10         0.00000E+00
    0.55650E-08         0.36812E-10         0.00000E+00
    0.58853E-08         0.38881E-10         0.00000E+00
    0.62245E-08         0.41063E-10         0.00000E+00
    0.65837E-08         0.43362E-10         0.00000E+00
    0.69642E-08         0.45786E-10         0.00000E+00
    0.73672E-08         0.48339E-10         0.00000E+00
    0.77941E-08         0.51028E-10         0.00000E+00
    0.82465E-08         0.53860E-10         0.00000E+00
    0.87259E-08         0.56840E-10         0.00000E+00
    0.92340E-08         0.59975E-10         0.00000E+00
    0.97726E-08         0.63271E-10         0.00000E+00
    0.10344E-07         0.66732E-10         0.00000E+00
    0.10949E-07         0.70364E-10         0.00000E+00
    0.11592E-07         0.74168E-10         0.00000E+00
    0.12273E-07         0.78147E-10         0.00000E+00
    0.12997E-07         0.82299E-10         0.00000E+00
    0.13765E-07         0.86617E-10         0.00000E+00
    0.14580E-07         0.91093E-10         0.00000E+00
    0.15446E-07         0.95708E-10         0.00000E+00
    0.16367E-07         0.10044E-09         0.00000E+00
    0.17345E-07         0.10524E-09         0.00000E+00
    0.18385E-07         0.11008E-09         0.00000E+00
    0.19492E-07         0.11487E-09         0.00000E+00
    0.20669E-07         0.11952E-09         0.00000E+00
    0.21923E-07         0.12391E-09         0.00000E+00
    0.23259E-07         0.12789E-09         0.00000E+00
    0.24682E-07         0.13126E-09         0.00000E+00
    0.26200E-07         0.13376E-09         0.00000E+00
    0.27819E-07         0.13511E-09         0.00000E+00
    0.29547E-07         0.13491E-09         0.00000E+00
    0.31393E-07         0.13274E-09         0.00000E+00
    0.33366E-07         0.12807E-09         0.00000E+00
    0.35475E-07         0.12030E-09         0.00000E+00
    0.37731E-07         0.10878E-09         0.00000E+00
    0.40147E-07         0.92773E-10         0.00000E+00
    0.42735E-07         0.71559E-10         0.00000E+00
    0.45509E-07         0.44439E-10         0.00000E+00
    0.48484E-07         0.10846E-10         0.00000E+00
    0.51678E-07        -0.29524E-10         0.00000E+00
    0.55109E-07        -0.76523E-10         0.00000E+00
    0.58797E-07        -0.12926E-09         0.00000E+00
    0.62765E-07        -0.18569E-09         0.00000E+00
    0.67037E-07        -0.24194E-09         0.00000E+00
    0.71642E-07        -0.29120E-09         0.00000E+00
    0.76608E-07        -0.32166E-09         0.00000E+00
    0.81965E-07        -0.31184E-09         0.00000E+00
    0.87729E-07        -0.22306E-09         0.00000E+00
    0.90713E-07         0.33340E-20         0.00000E+00
    0.64986E-09         0.00000E+00         0.00000E+00
    0.64456E-09         0.25577E-11         0.00000E+00
    0.63566E-09         0.38578E-11         0.00000E+00
    0.63014E-09         0.44325E-11         0.00000E+00
    0.62790E-09         0.46211E-11         0.00000E+00
    0.62875E-09         0.46058E-11         0.00000E+00
    0.63254E-09         0.44901E-11         0.00000E+00
    0.63915E-09         0.43365E-11         0.00000E+00
    0.64848E-09         0.41832E-11         0.00000E+00
    0.66046E-09         0.40532E-11         0.00000E+00
    0.67506E-09         0.39594E-11         0.00000E+00
    0.69224E-09         0.39081E-11         0.00000E+00
    0.71200E-09         0.39015E-11         0.00000E+00
    0.73435E-09         0.39390E-11         0.00000E+00
    0.75931E-09         0.40186E-11         0.00000E+00
    0.78693E-09         0.41375E-11         0.00000E+00
    0.81724E-09         0.42927E-11         0.00000E+00
    0.85033E-09         0.44813E-11         0.00000E+00
    0.88625E-09         0.47007E-11         0.00000E+00
    0.92510E-09         0.49487E-11         0.00000E+00
    0.96698E-09         0.52234E-11         0.00000E+00
    0.10120E-08         0.55237E-11         0.00000E+00
    0.10603E-08         0.58484E-11         0.00000E+00
    0.11119E-08         0.61971E-11         0.00000E+00
    0.11672E-08         0.65696E-11         0.00000E+00
    0.12261E-08         0.69661E-11         0.00000E+00
    0.12889E-08         0.73868E-11         0.00000E+00
    0.13558E-08         0.78324E-11         0.00000E+00
    0.14269E-08         0.83038E-11         0.00000E+00
    0.15025E-08         0.88020E-11         0.00000E+00
    0.15829E-08         0.93282E-11         0.00000E+00
    0.16682E-08         0.98838E-11         0.00000E+00
    0.17587E-08         0.10470E-10         0.00000E+00
    0.18547E-08         0.11089E-10         0.00000E+00
    0.19566E-08         0.11742E-10         0.00000E+00
    0.20645E-08         0.12431E-10         0.00000E+00
    0.21789E-08         0.13158E-10         0.00000E+00
    0.23001E-08         0.13925E-10         0.00000E+00
    0.24286E-08         0.14734E-10         0.00000E+00
    0.25646E-08         0.15588E-10         0.00000E+00
    0.27087E-08         0.16490E-10         0.00000E+00
    0.28612E-08         0.17441E-10         0.00000E+00
    0.30228E-08         0.18445E-10         0.00000E+00
    0.31938E-08         0.19504E-10         0.00000E+00
    0.33749E-08         0.20622E-10         0.00000E+00
    0.35666E-08         0.21802E-10         0.00000E+00
    0.37695E-08         0.23046E-10         0.00000E+00
    0.39843E-08         0.24360E-10         0.00000E+00
    0.42117E-08         0.25746E-10         0.00000E+00
    0.44525E-08         0.27208E-10         0.00000E+00
    0.47074E-08         0.28750E-10         0.00000E+00
    0.49772E-08         0.30378E-10         0.00000E+00
    0.52629E-08         0.32094E-10         0.00000E+00
    0.55654E-08         0.33905E-10         0.00000E+00
    0.58857E-08         0.35814E-10         0.00000E+00
    0.62249E-08         0.37827E-10         0.00000E+00
    0.65842E-08         0.39950E-10         0.00000E+00
    0.69646E-08         0.42188E-10         0.00000E+00
    0.73677E-08         0.44547E-10         0.00000E+00
    0.77946E-08         0.47032E-10         0.00000E+00
    0.82470E-08         0.49650E-10         0.00000E+00
    0.87265E-08         0.52406E-10         0.00000E+00
    0.92346E-08         0.55308E-10         0.00000E+00
    0.97733E-08         0.58359E-10         0.00000E+00
    0.10344E-07         0.61566E-10         0.00000E+00
    0.10950E-07         0.64932E-10         0.00000E+00
    0.11593E-07         0.68462E-10         0.00000E+00
    0.12274E-07         0.72157E-10         0.00000E+00
    0.12998E-07         0.76015E-10         0.00000E+00
    0.13766E-07         0.80033E-10         0.00000E+00
    0.14581E-07         0.84201E-10         0.00000E+00
    0.15447E-07         0.88506E-10         0.00000E+00
    0.16368E-07         0.92925E-10         0.00000E+00
    0.17346E-07         0.97424E-10         0.00000E+00
    0.18386E-07         0.10196E-09         0.00000E+00
    0.19493E-07         0.10646E-09         0.00000E+00
    0.20670E-07         0.11086E-09         0.00000E+00
    0.21924E-07         0.11502E-09         0.00000E+00
    0.23260E-07         0.11883E-09         0.00000E+00
    0.24683E-07         0.12208E-09         0.00000E+00
    0.26200E-07         0.12457E-09         0.00000E+00
    0.27819E-07         0.12599E-09         0.00000E+00
    0.29547E-07         0.12602E-09         0.00000E+00
    0.31393E-07         0.12424E-09         0.00000E+00
    0.33364E-07         0.12016E-09         0.00000E+00
    0.35473E-07         0.11324E-09         0.00000E+00
    0.37729E-07         0.10285E-09         0.00000E+00
    0.40143E-07         0.88315E-10         0.00000E+00
    0.42730E-07         0.68938E-10         0.00000E+00
    0.45503E-07         0.44051E-10         0.00000E+00
    0.48477E-07         0.13097E-10         0.00000E+00
    0.51670E-07        -0.24256E-10         0.00000E+00
    0.55100E-07        -0.67937E-10         0.00000E+00
    0.58787E-07        -0.11722E-09         0.00000E+00
    0.62754E-07        -0.17033E-09         0.00000E+00
    0.67027E-07        -0.22386E-09         0.00000E+00
    0.71634E-07        -0.27174E-09         0.00000E+00
    0.76606E-07        -0.30322E-09         0.00000E+00
    0.81975E-07        -0.29819E-09         0.00000E+00
    0.87759E-07        -0.21751E-09         0.00000E+00
    0.90757E-07        -0.37253E-20         0.00000E+00
    0.65036E-09         0.00000E+00         0.00000E+00
    0.64494E-09         0.24246E-11         0.00000E+00
    0.63584E-09         0.35930E-11         0.00000E+00
    0.63021E-09         0.40829E-11         0.00000E+00
    0.62791E-09         0.42281E-11         0.00000E+00
    0.62874E-09         0.41954E-11         0.00000E+00
    0.63252E-09         0.40772E-11         0.00000E+00
    0.63912E-09         0.39289E-11         0.00000E+00
    0.64845E-09         0.37840E-11         0.00000E+00
    0.66044E-09         0.36626E-11         0.00000E+00
    0.67504E-09         0.35758E-11         0.00000E+00
    0.69223E-09         0.35287E-11         0.00000E+00
    0.71200E-09         0.35230E-11         0.00000E+00
    0.73436E-09         0.35578E-11         0.00000E+00
    0.75933E-09         0.36313E-11         0.00000E+00
    0.78695E-09         0.37406E-11         0.00000E+00
    0.81728E-09         0.38829E-11         0.00000E+00
    0.85037E-09         0.40556E-11         0.00000E+00
    0.88629E-09         0.42563E-11         0.00000E+00
    0.92515E-09         0.44828E-11         0.00000E+00
    0.96703E-09         0.47335E-11         0.00000E+00
    0.10121E-08         0.50073E-11         0.00000E+00
    0.10603E-08         0.53032E-11         0.00000E+00
    0.11120E-08         0.56208E-11         0.00000E+00
    0.11672E-08         0.59600E-11         0.00000E+00
    0.12262E-08         0.63208E-11         0.00000E+00
    0.12890E-08         0.67035E-11         0.00000E+00
    0.13559E-08         0.71089E-11         0.00000E+00
    0.14270E-08         0.75376E-11         0.00000E+00
    0.15026E-08         0.79905E-11         0.00000E+00
    0.15830E-08         0.84689E-11         0.00000E+00
    0.16683E-08         0.89738E-11         0.00000E+00
    0.17588E-08         0.95068E-11         0.00000E+00
    0.18549E-08         0.10069E-10         0.00000E+00
    0.19567E-08         0.10663E-10         0.00000E+00
    0.20646E-08         0.11289E-10         0.00000E+00
    0.21791E-08         0.11949E-10         0.00000E+00
    0.23003E-08         0.12647E-10         0.00000E+00
    0.24287E-08         0.13382E-10         0.00000E+00
    0.25648E-08         0.14159E-10         0.00000E+00
    0.27088E-08         0.14978E-10         0.00000E+00
    0.28614E-08         0.15843E-10         0.00000E+00
    0.30230E-08         0.16755E-10         0.00000E+00
    0.31940E-08         0.17719E-10         0.00000E+00
    0.33751E-08         0.18735E-10         0.00000E+00
    0.35668E-08         0.19808E-10         0.00000E+00
    0.37697E-08         0.20940E-10         0.00000E+00
    0.39846E-08         0.22134E-10         0.00000E+00
    0.42120E-08         0.23395E-10         0.00000E+00
    0.44528E-08         0.24725E-10         0.00000E+00
    0.47077E-08         0.26129E-10         0.00000E+00
    0.49775E-08         0.27610E-10         0.00000E+00
    0.52633E-08         0.29173E-10         0.00000E+00
    0.55658E-08         0.30821E-10         0.00000E+00
    0.58861E-08         0.32560E-10         0.00000E+00
    0.62253E-08         0.34394E-10         0.00000E+00
    0.65846E-08         0.36329E-10         0.00000E+00
    0.69651E-08         0.38369E-10         0.00000E+00
    0.73681E-08         0.40519E-10         0.00000E+00
    0.77951E-08         0.42786E-10         0.00000E+00
    0.82476E-08         0.45175E-10         0.00000E+00
    0.87270E-08         0.47692E-10         0.00000E+00
    0.92352E-08         0.50341E-10         0.00000E+00
    0.97739E-08         0.53130E-10         0.00000E+00
    0.10345E-07         0.56062E-10         0.00000E+00
    0.10951E-07         0.59143E-10         0.00000E+00
    0.11593E-07         0.62375E-10         0.00000E+00
    0.12275E-07         0.65760E-10         0.00000E+00
    0.12998E-07         0.69299E-10         0.00000E+00
    0.13766E-07         0.72988E-10         0.00000E+00
    0.14582E-07         0.76821E-10         0.00000E+00
    0.15448E-07         0.80784E-10         0.00000E+00
    0.16368E-07         0.84857E-10         0.00000E+00
    0.17347E-07         0.89014E-10         0.00000E+00
    0.18387E-07         0.93211E-10         0.00000E+00
    0.19494E-07         0.97394E-10         0.00000E+00
    0.20671E-07         0.10149E-09         0.00000E+00
    0.21925E-07         0.10539E-09         0.00000E+00
    0.23260E-07         0.10898E-09         0.00000E+00
    0.24683E-07         0.11208E-09         0.00000E+00
    0.26201E-07         0.11450E-09         0.00000E+00
    0.27819E-07         0.11597E-09         0.00000E+00
    0.29547E-07         0.11619E-09         0.00000E+00
    0.31392E-07         0.11477E-09         0.00000E+00
    0.33363E-07         0.11129E-09         0.00000E+00
    0.35471E-07         0.10522E-09         0.00000E+00
    0.37726E-07         0.95988E-10         0.00000E+00
    0.40140E-07         0.82971E-10         0.00000E+00
    0.42726E-07         0.65517E-10         0.00000E+00
    0.45498E-07         0.42994E-10         0.00000E+00
    0.48471E-07         0.14858E-10         0.00000E+00
    0.51662E-07        -0.19238E-10         0.00000E+00
    0.55091E-07        -0.59292E-10         0.00000E+00
    0.58777E-07        -0.10473E-09         0.00000E+00
    0.62744E-07        -0.15405E-09         0.00000E+00
    0.67017E-07        -0.20431E-09         0.00000E+00
    0.71626E-07        -0.25019E-09         0.00000E+00
    0.76603E-07        -0.28212E-09         0.00000E+00
    0.81982E-07        -0.28174E-09         0.00000E+00
    0.87789E-07        -0.21020E-09         0.00000E+00
    0.90800E-07        -0.33365E-20         0.00000E+00
    0.65083E-09         0.00000E+00         0.00000E+00
    0.64528E-09         0.22699E-11         0.00000E+00
    0.63599E-09         0.32954E-11         0.00000E+00
    0.63027E-09         0.37005E-11         0.00000E+00
    0.62792E-09         0.38056E-11         0.00000E+00
    0.62872E-09         0.37589E-11         0.00000E+00
    0.63249E-09         0.36413E-11         0.00000E+00
    0.63909E-09         0.35008E-11         0.00000E+00
    0.64843E-09         0.33664E-11         0.00000E+00
    0.66042E-09         0.32550E-11         0.00000E+00
    0.67503E-09         0.31760E-11         0.00000E+00
    0.69223E-09         0.31336E-11         0.00000E+00
    0.71200E-09         0.31288E-11         0.00000E+00
    0.73437E-09         0.31608E-11         0.00000E+00
    0.75935E-09         0.32275E-11         0.00000E+00
    0.78698E-09         0.33264E-11         0.00000E+00
    0.81731E-09         0.34549E-11         0.00000E+00
    0.85040E-09         0.36105E-11         0.00000E+00
    0.88633E-09         0.37910E-11         0.00000E+00
    0.92519E-09         0.39946E-11         0.00000E+00
    0.96708E-09         0.42197E-11         0.00000E+00
    0.10121E-08         0.44654E-11         0.00000E+00
    0.10604E-08         0.47307E-11         0.00000E+00
    0.11121E-08         0.50153E-11         0.00000E+00
    0.11673E-08         0.53191E-11         0.00000E+00
    0.12262E-08         0.56421E-11         0.00000E+00
    0.12891E-08         0.59847E-11         0.00000E+00
    0.13559E-08         0.63473E-11         0.00000E+00
    0.14271E-08         0.67309E-11         0.00000E+00
    0.15027E-08         0.71360E-11         0.00000E+00
    0.15831E-08         0.75638E-11         0.00000E+00
    0.16684E-08         0.80154E-11         0.00000E+00
    0.17589E-08         0.84919E-11         0.00000E+00
    0.18550E-08         0.89948E-11         0.00000E+00
    0.19568E-08         0.95254E-11         0.00000E+00
    0.20648E-08         0.10085E-10         0.00000E+00
    0.21792E-08         0.10676E-10         0.00000E+00
    0.23004E-08         0.11299E-10         0.00000E+00
    0.24289E-08         0.11957E-10         0.00000E+00
    0.25649E-08         0.12651E-10         0.00000E+00
    0.27090E-08         0.13384E-10         0.00000E+00
    0.28616E-08         0.14157E-10         0.00000E+00
    0.30231E-08         0.14974E-10         0.00000E+00
    0.31942E-08         0.15835E-10         0.00000E+00
    0.33753E-08         0.16744E-10         0.00000E+00
    0.35670E-08         0.17704E-10         0.00000E+00
    0.37700E-08         0.18717E-10         0.00000E+00
    0.39848E-08         0.19786E-10         0.00000E+00
    0.42123E-08         0.20914E-10         0.00000E+00
    0.44530E-08         0.22105E-10         0.00000E+00
    0.47080E-08         0.23361E-10         0.00000E+00
    0.49778E-08         0.24687E-10         0.00000E+00
    0.52636E-08         0.26087E-10         0.00000E+00
    0.55661E-08         0.27563E-10         0.00000E+00
    0.58864E-08         0.29122E-10         0.00000E+00
    0.62257E-08         0.30765E-10         0.00000E+00
    0.65849E-08         0.32499E-10         0.00000E+00
    0.69655E-08         0.34328E-10         0.00000E+00
    0.73685E-08         0.36258E-10         0.00000E+00
    0.77956E-08         0.38292E-10         0.00000E+00
    0.82480E-08         0.40436E-10         0.00000E+00
    0.87275E-08         0.42696E-10         0.00000E+00
    0.92357E-08         0.45077E-10         0.00000E+00
    0.97744E-08         0.47584E-10         0.00000E+00
    0.10346E-07         0.50221E-10         0.00000E+00
    0.10951E-07         0.52994E-10         0.00000E+00
    0.11594E-07         0.55905E-10         0.00000E+00
    0.12276E-07         0.58957E-10         0.00000E+00
    0.12999E-07         0.62150E-10         0.00000E+00
    0.13767E-07         0.65483E-10         0.00000E+00
    0.14583E-07         0.68948E-10         0.00000E+00
    0.15449E-07         0.72537E-10         0.00000E+00
    0.16369E-07         0.76231E-10         0.00000E+00
    0.17347E-07         0.80008E-10         0.00000E+00
    0.18388E-07         0.83830E-10         0.00000E+00
    0.19494E-07         0.87650E-10         0.00000E+00
    0.20672E-07         0.91400E-10         0.00000E+00
    0.21926E-07         0.94994E-10         0.00000E+00
    0.23261E-07         0.98317E-10         0.00000E+00
    0.24684E-07         0.10123E-09         0.00000E+00
    0.26201E-07         0.10353E-09         0.00000E+00
    0.27820E-07         0.10501E-09         0.00000E+00
    0.29547E-07         0.10539E-09         0.00000E+00
    0.31392E-07         0.10431E-09         0.00000E+00
    0.33363E-07         0.10140E-09         0.00000E+00
    0.35470E-07         0.96176E-10         0.00000E+00
    0.37724E-07         0.88125E-10         0.00000E+00
    0.40137E-07         0.76674E-10         0.00000E+00
    0.42722E-07         0.61223E-10         0.00000E+00
    0.45493E-07         0.41184E-10         0.00000E+00
    0.48465E-07         0.16041E-10         0.00000E+00
    0.51655E-07        -0.14560E-10         0.00000E+00
    0.55082E-07        -0.50675E-10         0.00000E+00
    0.58768E-07        -0.91865E-10         0.00000E+00
    0.62734E-07        -0.13690E-09         0.00000E+00
    0.67008E-07        -0.18331E-09         0.00000E+00
    0.71618E-07        -0.22650E-09         0.00000E+00
    0.76600E-07        -0.25817E-09         0.00000E+00
    0.81989E-07        -0.26208E-09         0.00000E+00
    0.87816E-07        -0.20070E-09         0.00000E+00
    0.90841E-07         0.00000E+00         0.00000E+00
    0.65127E-09         0.00000E+00         0.00000E+00
    0.64559E-09         0.20894E-11         0.00000E+00
    0.63612E-09         0.29611E-11         0.00000E+00
    0.63032E-09         0.32835E-11         0.00000E+00
    0.62793E-09         0.33530E-11         0.00000E+00
    0.62870E-09         0.32964E-11         0.00000E+00
    0.63247E-09         0.31828E-11         0.00000E+00
    0.63907E-09         0.30530E-11         0.00000E+00
    0.64840E-09         0.29311E-11         0.00000E+00
    0.66040E-09         0.28312E-11         0.00000E+00
    0.67502E-09         0.27609E-11         0.00000E+00
    0.69222E-09         0.27236E-11         0.00000E+00
    0.71201E-09         0.27198E-11         0.00000E+00
    0.73438E-09         0.27485E-11         0.00000E+00
    0.75936E-09         0.28079E-11         0.00000E+00
    0.78700E-09         0.28956E-11         0.00000E+00
    0.81733E-09         0.30092E-11         0.00000E+00
    0.85043E-09         0.31465E-11         0.00000E+00
    0.88637E-09         0.33055E-11         0.00000E+00
    0.92523E-09         0.34847E-11         0.00000E+00
    0.96712E-09         0.36826E-11         0.00000E+00
    0.10122E-08         0.38984E-11         0.00000E+00
    0.10604E-08         0.41313E-11         0.00000E+00
    0.11121E-08         0.43809E-11         0.00000E+00
    0.11674E-08         0.46473E-11         0.00000E+00
    0.12263E-08         0.49304E-11         0.00000E+00
    0.12891E-08         0.52306E-11         0.00000E+00
    0.13560E-08         0.55483E-11         0.00000E+00
    0.14272E-08         0.58842E-11         0.00000E+00
    0.15028E-08         0.62390E-11         0.00000E+00
    0.15832E-08         0.66135E-11         0.00000E+00
    0.16685E-08         0.70089E-11         0.00000E+00
    0.17590E-08         0.74260E-11         0.00000E+00
    0.18551E-08         0.78662E-11         0.00000E+00
    0.19569E-08         0.83306E-11         0.00000E+00
    0.20649E-08         0.88207E-11         0.00000E+00
    0.21793E-08         0.93378E-11         0.00000E+00
    0.23006E-08         0.98835E-11         0.00000E+00
    0.24290E-08         0.10459E-10         0.00000E+00
    0.25651E-08         0.11067E-10         0.00000E+00
    0.27091E-08         0.11708E-10         0.00000E+00
    0.28617E-08         0.12385E-10         0.00000E+00
    0.30233E-08         0.13100E-10         0.00000E+00
    0.31944E-08         0.13854E-10         0.00000E+00
    0.33755E-08         0.14651E-10         0.00000E+00
    0.35672E-08         0.15491E-10         0.00000E+00
    0.37701E-08         0.16378E-10         0.00000E+00
    0.39850E-08         0.17315E-10         0.00000E+00
    0.42125E-08         0.18303E-10         0.00000E+00
    0.44533E-08         0.19347E-10         0.00000E+00
    0.47082E-08         0.20448E-10         0.00000E+00
    0.49781E-08         0.21610E-10         0.00000E+00
    0.52638E-08         0.22837E-10         0.00000E+00
    0.55664E-08         0.24132E-10         0.00000E+00
    0.58867E-08         0.25499E-10         0.00000E+00
    0.62260E-08         0.26941E-10         0.00000E+00
    0.65853E-08         0.28463E-10         0.00000E+00
    0.69658E-08         0.30068E-10         0.00000E+00
    0.73689E-08         0.31762E-10         0.00000E+00
    0.77960E-08         0.33549E-10         0.00000E+00
    0.82484E-08         0.35434E-10         0.00000E+00
    0.87279E-08         0.37421E-10         0.00000E+00
    0.92361E-08         0.39515E-10         0.00000E+00
    0.97749E-08         0.41721E-10         0.00000E+00
    0.10346E-07         0.44043E-10         0.00000E+00
    0.10952E-07         0.46486E-10         0.00000E+00
    0.11594E-07         0.49053E-10         0.00000E+00
    0.12276E-07         0.51747E-10         0.00000E+00
    0.13000E-07         0.54567E-10         0.00000E+00
    0.13768E-07         0.57514E-10         0.00000E+00
    0.14583E-07         0.60581E-10         0.00000E+00
    0.15449E-07         0.63762E-10         0.00000E+00
    0.16370E-07         0.67042E-10         0.00000E+00
    0.17348E-07         0.70401E-10         0.00000E+00
    0.18388E-07         0.73808E-10         0.00000E+00
    0.19495E-07         0.77222E-10         0.00000E+00
    0.20673E-07         0.80585E-10         0.00000E+00
    0.21926E-07         0.83823E-10         0.00000E+00
    0.23262E-07         0.86837E-10         0.00000E+00
    0.24685E-07         0.89500E-10         0.00000E+00
    0.26202E-07         0.91652E-10         0.00000E+00
    0.27820E-07         0.93094E-10         0.00000E+00
    0.29547E-07         0.93580E-10         0.00000E+00
    0.31391E-07         0.92814E-10         0.00000E+00
    0.33362E-07         0.90444E-10         0.00000E+00
    0.35469E-07         0.86061E-10         0.00000E+00
    0.37722E-07         0.79200E-10         0.00000E+00
    0.40135E-07         0.69351E-10         0.00000E+00
    0.42719E-07         0.55975E-10         0.00000E+00
    0.45489E-07         0.38536E-10         0.00000E+00
    0.48460E-07         0.16554E-10         0.00000E+00
    0.51649E-07        -0.10318E-10         0.00000E+00
    0.55075E-07        -0.42181E-10         0.00000E+00
    0.58760E-07        -0.78722E-10         0.00000E+00
    0.62725E-07        -0.11896E-09         0.00000E+00
    0.66999E-07        -0.16087E-09         0.00000E+00
    0.71611E-07        -0.20062E-09         0.00000E+00
    0.76596E-07        -0.23119E-09         0.00000E+00
    0.81994E-07        -0.23876E-09         0.00000E+00
    0.87841E-07        -0.18849E-09         0.00000E+00
    0.90880E-07         0.00000E+00         0.00000E+00
    0.65167E-09         0.00000E+00         0.00000E+00
    0.64587E-09         0.18774E-11         0.00000E+00
    0.63623E-09         0.25862E-11         0.00000E+00
    0.63035E-09         0.28306E-11         0.00000E+00
    0.62792E-09         0.28699E-11         0.00000E+00
    0.62869E-09         0.28080E-11         0.00000E+00
    0.63244E-09         0.27024E-11         0.00000E+00
    0.63904E-09         0.25862E-11         0.00000E+00
    0.64838E-09         0.24789E-11         0.00000E+00
    0.66039E-09         0.23920E-11         0.00000E+00
    0.67501E-09         0.23313E-11         0.00000E+00
    0.69222E-09         0.22994E-11         0.00000E+00
    0.71201E-09         0.22966E-11         0.00000E+00
    0.73439E-09         0.23218E-11         0.00000E+00
    0.75938E-09         0.23732E-11         0.00000E+00
    0.78702E-09         0.24487E-11         0.00000E+00
    0.81736E-09         0.25464E-11         0.00000E+00
    0.85046E-09         0.26641E-11         0.00000E+00
    0.88640E-09         0.28003E-11         0.00000E+00
    0.92527E-09         0.29535E-11         0.00000E+00
    0.96716E-09         0.31225E-11         0.00000E+00
    0.10122E-08         0.33067E-11         0.00000E+00
    0.10605E-08         0.35053E-11         0.00000E+00
    0.11122E-08         0.37182E-11         0.00000E+00
    0.11674E-08         0.39451E-11         0.00000E+00
    0.12264E-08         0.41862E-11         0.00000E+00
    0.12892E-08         0.44418E-11         0.00000E+00
    0.13561E-08         0.47122E-11         0.00000E+00
    0.14272E-08         0.49980E-11         0.00000E+00
    0.15029E-08         0.52999E-11         0.00000E+00
    0.15832E-08         0.56185E-11         0.00000E+00
    0.16685E-08         0.59548E-11         0.00000E+00
    0.17591E-08         0.63096E-11         0.00000E+00
    0.18551E-08         0.66840E-11         0.00000E+00
    0.19570E-08         0.70790E-11         0.00000E+00
    0.20650E-08         0.74957E-11         0.00000E+00
    0.21794E-08         0.79355E-11         0.00000E+00
    0.23007E-08         0.83996E-11         0.00000E+00
    0.24291E-08         0.88894E-11         0.00000E+00
    0.25652E-08         0.94063E-11         0.00000E+00
    0.27093E-08         0.99519E-11         0.00000E+00
    0.28619E-08         0.10528E-10         0.00000E+00
    0.30234E-08         0.11136E-10         0.00000E+00
    0.31945E-08         0.11777E-10         0.00000E+00
    0.33756E-08         0.12455E-10         0.00000E+00
    0.35673E-08         0.13170E-10         0.00000E+00
    0.37703E-08         0.13925E-10         0.00000E+00
    0.39852E-08         0.14722E-10         0.00000E+00
    0.42127E-08         0.15564E-10         0.00000E+00
    0.44535E-08         0.16452E-10         0.00000E+00
    0.47084E-08         0.17390E-10         0.00000E+00
    0.49783E-08         0.18380E-10         0.00000E+00
    0.52641E-08         0.19425E-10         0.00000E+00
    0.55666E-08         0.20528E-10         0.00000E+00
    0.58870E-08         0.21693E-10         0.00000E+00
    0.62263E-08         0.22922E-10         0.00000E+00
    0.65856E-08         0.24220E-10         0.00000E+00
    0.69661E-08         0.25589E-10         0.00000E+00
    0.73692E-08         0.27034E-10         0.00000E+00
    0.77963E-08         0.28559E-10         0.00000E+00
    0.82488E-08         0.30168E-10         0.00000E+00
    0.87283E-08         0.31866E-10         0.00000E+00
    0.92365E-08         0.33655E-10         0.00000E+00
    0.97753E-08         0.35542E-10         0.00000E+00
    0.10347E-07         0.37529E-10         0.00000E+00
    0.10952E-07         0.39620E-10         0.00000E+00
    0.11595E-07         0.41819E-10         0.00000E+00
    0.12277E-07         0.44128E-10         0.00000E+00
    0.13000E-07         0.46549E-10         0.00000E+00
    0.13768E-07         0.49080E-10         0.00000E+00
    0.14584E-07         0.51718E-10         0.00000E+00
    0.15450E-07         0.54457E-10         0.00000E+00
    0.16371E-07         0.57286E-10         0.00000E+00
    0.17349E-07         0.60188E-10         0.00000E+00
    0.18389E-07         0.63138E-10         0.00000E+00
    0.19496E-07         0.66101E-10         0.00000E+00
    0.20673E-07         0.69031E-10         0.00000E+00
    0.21927E-07         0.71864E-10         0.00000E+00
    0.23262E-07         0.74517E-10         0.00000E+00
    0.24685E-07         0.76884E-10         0.00000E+00
    0.26202E-07         0.78828E-10         0.00000E+00
    0.27820E-07         0.80181E-10         0.00000E+00
    0.29547E-07         0.80734E-10         0.00000E+00
    0.31391E-07         0.80234E-10         0.00000E+00
    0.33361E-07         0.78379E-10         0.00000E+00
    0.35468E-07         0.74818E-10         0.00000E+00
    0.37721E-07         0.69150E-10         0.00000E+00
    0.40133E-07         0.60931E-10         0.00000E+00
    0.42716E-07         0.49691E-10         0.00000E+00
    0.45485E-07         0.34958E-10         0.00000E+00
    0.48455E-07         0.16298E-10         0.00000E+00
    0.51643E-07        -0.66157E-11         0.00000E+00
    0.55069E-07        -0.33914E-10         0.00000E+00
    0.58752E-07        -0.65392E-10         0.00000E+00
    0.62718E-07        -0.10030E-09         0.00000E+00
    0.66992E-07        -0.13704E-09         0.00000E+00
    0.71604E-07        -0.17254E-09         0.00000E+00
    0.76592E-07        -0.20103E-09         0.00000E+00
    0.81997E-07        -0.21131E-09         0.00000E+00
    0.87864E-07        -0.17289E-09         0.00000E+00
    0.90917E-07         0.00000E+00         0.00000E+00
    0.65202E-09         0.00000E+00         0.00000E+00
    0.64611E-09         0.16266E-11         0.00000E+00
    0.63631E-09         0.21667E-11         0.00000E+00
    0.63037E-09         0.23406E-11         0.00000E+00
    0.62792E-09         0.23560E-11         0.00000E+00
    0.62867E-09         0.22942E-11         0.00000E+00
    0.63242E-09         0.22007E-11         0.00000E+00
    0.63902E-09         0.21011E-11         0.00000E+00
    0.64836E-09         0.20107E-11         0.00000E+00
    0.66037E-09         0.19382E-11         0.00000E+00
    0.67500E-09         0.18881E-11         0.00000E+00
    0.69222E-09         0.18621E-11         0.00000E+00
    0.71201E-09         0.18602E-11         0.00000E+00
    0.73439E-09         0.18813E-11         0.00000E+00
    0.75939E-09         0.19240E-11         0.00000E+00
    0.78703E-09         0.19865E-11         0.00000E+00
    0.81738E-09         0.20670E-11         0.00000E+00
    0.85048E-09         0.21639E-11         0.00000E+00
    0.88643E-09         0.22758E-11         0.00000E+00
    0.92530E-09         0.24015E-11         0.00000E+00
    0.96720E-09         0.25400E-11         0.00000E+00
    0.10122E-08         0.26908E-11         0.00000E+00
    0.10605E-08         0.28534E-11         0.00000E+00
    0.11122E-08         0.30274E-11         0.00000E+00
    0.11675E-08         0.32129E-11         0.00000E+00
    0.12264E-08         0.34099E-11         0.00000E+00
    0.12892E-08         0.36187E-11         0.00000E+00
    0.13561E-08         0.38395E-11         0.00000E+00
    0.14273E-08         0.40728E-11         0.00000E+00
    0.15029E-08         0.43192E-11         0.00000E+00
    0.15833E-08         0.45793E-11         0.00000E+00
    0.16686E-08         0.48537E-11         0.00000E+00
    0.17592E-08         0.51432E-11         0.00000E+00
    0.18552E-08         0.54486E-11         0.00000E+00
    0.19571E-08         0.57709E-11         0.00000E+00
    0.20651E-08         0.61110E-11         0.00000E+00
    0.21795E-08         0.64698E-11         0.00000E+00
    0.23007E-08         0.68485E-11         0.00000E+00
    0.24292E-08         0.72481E-11         0.00000E+00
    0.25653E-08         0.76699E-11         0.00000E+00
    0.27094E-08         0.81151E-11         0.00000E+00
    0.28620E-08         0.85851E-11         0.00000E+00
    0.30235E-08         0.90812E-11         0.00000E+00
    0.31946E-08         0.96050E-11         0.00000E+00
    0.33757E-08         0.10158E-10         0.00000E+00
    0.35675E-08         0.10742E-10         0.00000E+00
    0.37705E-08         0.11358E-10         0.00000E+00
    0.39853E-08         0.12009E-10         0.00000E+00
    0.42128E-08         0.12696E-10         0.00000E+00
    0.44536E-08         0.13422E-10         0.00000E+00
    0.47086E-08         0.14188E-10         0.00000E+00
    0.49785E-08         0.14997E-10         0.00000E+00
    0.52643E-08         0.15851E-10         0.00000E+00
    0.55668E-08         0.16753E-10         0.00000E+00
    0.58872E-08         0.17705E-10         0.00000E+00
    0.62265E-08         0.18710E-10         0.00000E+00
    0.65858E-08         0.19771E-10         0.00000E+00
    0.69664E-08         0.20892E-10         0.00000E+00
    0.73695E-08         0.22075E-10         0.00000E+00
    0.77966E-08         0.23324E-10         0.00000E+00
    0.82491E-08         0.24642E-10         0.00000E+00
    0.87286E-08         0.26032E-10         0.00000E+00
    0.92369E-08         0.27499E-10         0.00000E+00
    0.97757E-08         0.29047E-10         0.00000E+00
    0.10347E-07         0.30677E-10         0.00000E+00
    0.10953E-07         0.32395E-10         0.00000E+00
    0.11595E-07         0.34202E-10         0.00000E+00
    0.12277E-07         0.36101E-10         0.00000E+00
    0.13001E-07         0.38094E-10         0.00000E+00
    0.13769E-07         0.40179E-10         0.00000E+00
    0.14584E-07         0.42355E-10         0.00000E+00
    0.15451E-07         0.44618E-10         0.00000E+00
    0.16371E-07         0.46958E-10         0.00000E+00
    0.17349E-07         0.49363E-10         0.00000E+00
    0.18390E-07         0.51812E-10         0.00000E+00
    0.19496E-07         0.54280E-10         0.00000E+00
    0.20674E-07         0.56727E-10         0.00000E+00
    0.21927E-07         0.59103E-10         0.00000E+00
    0.23263E-07         0.61342E-10         0.00000E+00
    0.24685E-07         0.63357E-10         0.00000E+00
    0.26202E-07         0.65038E-10         0.00000E+00
    0.27820E-07         0.66248E-10         0.00000E+00
    0.29547E-07         0.66815E-10         0.00000E+00
    0.31391E-07         0.66533E-10         0.00000E+00
    0.33361E-07         0.65155E-10         0.00000E+00
    0.35467E-07         0.62390E-10         0.00000E+00
    0.37719E-07         0.57907E-10         0.00000E+00
    0.40131E-07         0.51337E-10         0.00000E+00
    0.42714E-07         0.42287E-10         0.00000E+00
    0.45482E-07         0.30355E-10         0.00000E+00
    0.48451E-07         0.15170E-10         0.00000E+00
    0.51639E-07        -0.35628E-11         0.00000E+00
    0.55063E-07        -0.25987E-10         0.00000E+00
    0.58746E-07        -0.51986E-10         0.00000E+00
    0.62711E-07        -0.81022E-10         0.00000E+00
    0.66985E-07        -0.11188E-09         0.00000E+00
    0.71598E-07        -0.14224E-09         0.00000E+00
    0.76588E-07        -0.16757E-09         0.00000E+00
    0.82000E-07        -0.17922E-09         0.00000E+00
    0.87883E-07        -0.15295E-09         0.00000E+00
    0.90950E-07         0.00000E+00         0.00000E+00
    0.65232E-09         0.00000E+00         0.00000E+00
    0.64631E-09         0.13269E-11         0.00000E+00
    0.63637E-09         0.16985E-11         0.00000E+00
    0.63039E-09         0.18125E-11         0.00000E+00
    0.62792E-09         0.18111E-11         0.00000E+00
    0.62866E-09         0.17553E-11         0.00000E+00
    0.63240E-09         0.16782E-11         0.00000E+00
    0.63900E-09         0.15986E-11         0.00000E+00
    0.64835E-09         0.15274E-11         0.00000E+00
    0.66036E-09         0.14709E-11         0.00000E+00
    0.67499E-09         0.14321E-11         0.00000E+00
    0.69221E-09         0.14123E-11         0.00000E+00
    0.71201E-09         0.14112E-11         0.00000E+00
    0.73440E-09         0.14279E-11         0.00000E+00
    0.75940E-09         0.14612E-11         0.00000E+00
    0.78705E-09         0.15096E-11         0.00000E+00
    0.81739E-09         0.15718E-11         0.00000E+00
    0.85050E-09         0.16465E-11         0.00000E+00
    0.88645E-09         0.17326E-11         0.00000E+00
    0.92532E-09         0.18292E-11         0.00000E+00
    0.96722E-09         0.19356E-11         0.00000E+00
    0.10123E-08         0.20512E-11         0.00000E+00
    0.10606E-08         0.21758E-11         0.00000E+00
    0.11123E-08         0.23092E-11         0.00000E+00
    0.11675E-08         0.24512E-11         0.00000E+00
    0.12264E-08         0.26020E-11         0.00000E+00
    0.12893E-08         0.27617E-11         0.00000E+00
    0.13562E-08         0.29306E-11         0.00000E+00
    0.14273E-08         0.31090E-11         0.00000E+00
    0.15030E-08         0.32974E-11         0.00000E+00
    0.15833E-08         0.34962E-11         0.00000E+00
    0.16687E-08         0.37060E-11         0.00000E+00
    0.17592E-08         0.39273E-11         0.00000E+00
    0.18553E-08         0.41608E-11         0.00000E+00
    0.19571E-08         0.44071E-11         0.00000E+00
    0.20651E-08         0.46670E-11         0.00000E+00
    0.21796E-08         0.49412E-11         0.00000E+00
    0.23008E-08         0.52307E-11         0.00000E+00
    0.24293E-08         0.55361E-11         0.00000E+00
    0.25653E-08         0.58585E-11         0.00000E+00
    0.27095E-08         0.61988E-11         0.00000E+00
    0.28621E-08         0.65581E-11         0.00000E+00
    0.30236E-08         0.69374E-11         0.00000E+00
    0.31947E-08         0.73379E-11         0.00000E+00
    0.33758E-08         0.77607E-11         0.00000E+00
    0.35676E-08         0.82072E-11         0.00000E+00
    0.37706E-08         0.86786E-11         0.00000E+00
    0.39855E-08         0.91764E-11         0.00000E+00
    0.42129E-08         0.97021E-11         0.00000E+00
    0.44538E-08         0.10257E-10         0.00000E+00
    0.47087E-08         0.10843E-10         0.00000E+00
    0.49786E-08         0.11463E-10         0.00000E+00
    0.52644E-08         0.12116E-10         0.00000E+00
    0.55670E-08         0.12807E-10         0.00000E+00
    0.58874E-08         0.13536E-10         0.00000E+00
    0.62267E-08         0.14306E-10         0.00000E+00
    0.65860E-08         0.15119E-10         0.00000E+00
    0.69666E-08         0.15978E-10         0.00000E+00
    0.73697E-08         0.16885E-10         0.00000E+00
    0.77968E-08         0.17843E-10         0.00000E+00
    0.82493E-08         0.18854E-10         0.00000E+00
    0.87289E-08         0.19921E-10         0.00000E+00
    0.92371E-08         0.21048E-10         0.00000E+00
    0.97759E-08         0.22237E-10         0.00000E+00
    0.10347E-07         0.23490E-10         0.00000E+00
    0.10953E-07         0.24811E-10         0.00000E+00
    0.11596E-07         0.26202E-10         0.00000E+00
    0.12277E-07         0.27665E-10         0.00000E+00
    0.13001E-07         0.29201E-10         0.00000E+00
    0.13769E-07         0.30810E-10         0.00000E+00
    0.14585E-07         0.32491E-10         0.00000E+00
    0.15451E-07         0.34241E-10         0.00000E+00
    0.16371E-07         0.36054E-10         0.00000E+00
    0.17350E-07         0.37920E-10         0.00000E+00
    0.18390E-07         0.39825E-10         0.00000E+00
    0.19497E-07         0.41748E-10         0.00000E+00
    0.20674E-07         0.43662E-10         0.00000E+00
    0.21928E-07         0.45528E-10         0.00000E+00
    0.23263E-07         0.47296E-10         0.00000E+00
    0.24686E-07         0.48900E-10         0.00000E+00
    0.26202E-07         0.50258E-10         0.00000E+00
    0.27820E-07         0.51263E-10         0.00000E+00
    0.29547E-07         0.51787E-10         0.00000E+00
    0.31391E-07         0.51669E-10         0.00000E+00
    0.33360E-07         0.50721E-10         0.00000E+00
    0.35466E-07         0.48718E-10         0.00000E+00
    0.37719E-07         0.45403E-10         0.00000E+00
    0.40129E-07         0.40491E-10         0.00000E+00
    0.42712E-07         0.33670E-10         0.00000E+00
    0.45480E-07         0.24626E-10         0.00000E+00
    0.48448E-07         0.13059E-10         0.00000E+00
    0.51635E-07        -0.12779E-11         0.00000E+00
    0.55059E-07        -0.18521E-10         0.00000E+00
    0.58741E-07        -0.38621E-10         0.00000E+00
    0.62706E-07        -0.61222E-10         0.00000E+00
    0.66979E-07        -0.85475E-10         0.00000E+00
    0.71593E-07        -0.10973E-09         0.00000E+00
    0.76585E-07        -0.13072E-09         0.00000E+00
    0.82000E-07        -0.14204E-09         0.00000E+00
    0.87899E-07        -0.12741E-09         0.00000E+00
    0.90978E-07        -0.37253E-20         0.00000E+00
    0.65255E-09         0.00000E+00         0.00000E+00
    0.64645E-09         0.96426E-12         0.00000E+00
    0.63641E-09         0.11790E-11         0.00000E+00
    0.63039E-09         0.12454E-11         0.00000E+00
    0.62791E-09         0.12353E-11         0.00000E+00
    0.62864E-09         0.11919E-11         0.00000E+00
    0.63239E-09         0.11360E-11         0.00000E+00
    0.63899E-09         0.10797E-11         0.00000E+00
    0.64834E-09         0.10300E-11         0.00000E+00
    0.66035E-09         0.99097E-12         0.00000E+00
    0.67499E-09         0.96445E-12         0.00000E+00
    0.69221E-09         0.95104E-12         0.00000E+00
    0.71201E-09         0.95053E-12         0.00000E+00
    0.73440E-09         0.96224E-12         0.00000E+00
    0.75941E-09         0.98525E-12         0.00000E+00
    0.78706E-09         0.10186E-11         0.00000E+00
    0.81740E-09         0.10612E-11         0.00000E+00
    0.85052E-09         0.11123E-11         0.00000E+00
    0.88646E-09         0.11712E-11         0.00000E+00
    0.92534E-09         0.12371E-11         0.00000E+00
    0.96724E-09         0.13096E-11         0.00000E+00
    0.10123E-08         0.13883E-11         0.00000E+00
    0.10606E-08         0.14731E-11         0.00000E+00
    0.11123E-08         0.15638E-11         0.00000E+00
    0.11675E-08         0.16603E-11         0.00000E+00
    0.12265E-08         0.17628E-11         0.00000E+00
    0.12893E-08         0.18713E-11         0.00000E+00
    0.13562E-08         0.19860E-11         0.00000E+00
    0.14274E-08         0.21071E-11         0.00000E+00
    0.15030E-08         0.22350E-11         0.00000E+00
    0.15834E-08         0.23699E-11         0.00000E+00
    0.16687E-08         0.25123E-11         0.00000E+00
    0.17592E-08         0.26625E-11         0.00000E+00
    0.18553E-08         0.28209E-11         0.00000E+00
    0.19572E-08         0.29880E-11         0.00000E+00
    0.20652E-08         0.31644E-11         0.00000E+00
    0.21796E-08         0.33505E-11         0.00000E+00
    0.23009E-08         0.35469E-11         0.00000E+00
    0.24293E-08         0.37541E-11         0.00000E+00
    0.25654E-08         0.39729E-11         0.00000E+00
    0.27095E-08         0.42039E-11         0.00000E+00
    0.28621E-08         0.44477E-11         0.00000E+00
    0.30237E-08         0.47051E-11         0.00000E+00
    0.31948E-08         0.49770E-11         0.00000E+00
    0.33759E-08         0.52640E-11         0.00000E+00
    0.35677E-08         0.55671E-11         0.00000E+00
    0.37707E-08         0.58872E-11         0.00000E+00
    0.39855E-08         0.62252E-11         0.00000E+00
    0.42130E-08         0.65822E-11         0.00000E+00
    0.44539E-08         0.69593E-11         0.00000E+00
    0.47088E-08         0.73575E-11         0.00000E+00
    0.49788E-08         0.77782E-11         0.00000E+00
    0.52645E-08         0.82225E-11         0.00000E+00
    0.55671E-08         0.86918E-11         0.00000E+00
    0.58875E-08         0.91875E-11         0.00000E+00
    0.62268E-08         0.97111E-11         0.00000E+00
    0.65862E-08         0.10264E-10         0.00000E+00
    0.69667E-08         0.10849E-10         0.00000E+00
    0.73699E-08         0.11466E-10         0.00000E+00
    0.77970E-08         0.12118E-10         0.00000E+00
    0.82495E-08         0.12806E-10         0.00000E+00
    0.87291E-08         0.13533E-10         0.00000E+00
    0.92373E-08         0.14301E-10         0.00000E+00
    0.97761E-08         0.15112E-10         0.00000E+00
    0.10347E-07         0.15967E-10         0.00000E+00
    0.10953E-07         0.16869E-10         0.00000E+00
    0.11596E-07         0.17819E-10         0.00000E+00
    0.12278E-07         0.18819E-10         0.00000E+00
    0.13001E-07         0.19870E-10         0.00000E+00
    0.13769E-07         0.20972E-10         0.00000E+00
    0.14585E-07         0.22124E-10         0.00000E+00
    0.15451E-07         0.23325E-10         0.00000E+00
    0.16372E-07         0.24571E-10         0.00000E+00
    0.17350E-07         0.25856E-10         0.00000E+00
    0.18390E-07         0.27170E-10         0.00000E+00
    0.19497E-07         0.28499E-10         0.00000E+00
    0.20675E-07         0.29826E-10         0.00000E+00
    0.21928E-07         0.31125E-10         0.00000E+00
    0.23263E-07         0.32362E-10         0.00000E+00
    0.24686E-07         0.33493E-10         0.00000E+00
    0.26203E-07         0.34462E-10         0.00000E+00
    0.27820E-07         0.35198E-10         0.00000E+00
    0.29547E-07         0.35613E-10         0.00000E+00
    0.31391E-07         0.35599E-10         0.00000E+00
    0.33360E-07         0.35026E-10         0.00000E+00
    0.35466E-07         0.33742E-10         0.00000E+00
    0.37718E-07         0.31568E-10         0.00000E+00
    0.40128E-07         0.28309E-10         0.00000E+00
    0.42710E-07         0.23749E-10         0.00000E+00
    0.45478E-07         0.17666E-10         0.00000E+00
    0.48446E-07         0.98476E-11         0.00000E+00
    0.51632E-07         0.11318E-12         0.00000E+00
    0.55056E-07        -0.11649E-10         0.00000E+00
    0.58738E-07        -0.25430E-10         0.00000E+00
    0.62702E-07        -0.41025E-10         0.00000E+00
    0.66975E-07        -0.57915E-10         0.00000E+00
    0.71589E-07        -0.75042E-10         0.00000E+00
    0.76582E-07        -0.90430E-10         0.00000E+00
    0.82000E-07        -0.99484E-10         0.00000E+00
    0.87912E-07        -0.94499E-10         0.00000E+00
    0.91001E-07         0.38311E-21         0.00000E+00
    0.65271E-09        -0.18626E-20         0.00000E+00
    0.64654E-09         0.51910E-12         0.00000E+00
    0.63643E-09         0.60818E-12         0.00000E+00
    0.63040E-09         0.63823E-12         0.00000E+00
    0.62790E-09         0.62894E-12         0.00000E+00
    0.62864E-09         0.60473E-12         0.00000E+00
    0.63238E-09         0.57482E-12         0.00000E+00
    0.63898E-09         0.54534E-12         0.00000E+00
    0.64833E-09         0.51961E-12         0.00000E+00
    0.66035E-09         0.49954E-12         0.00000E+00
    0.67499E-09         0.48600E-12         0.00000E+00
    0.69221E-09         0.47923E-12         0.00000E+00
    0.71202E-09         0.47909E-12         0.00000E+00
    0.73441E-09         0.48519E-12         0.00000E+00
    0.75941E-09         0.49705E-12         0.00000E+00
    0.78706E-09         0.51414E-12         0.00000E+00
    0.81741E-09         0.53597E-12         0.00000E+00
    0.85052E-09         0.56207E-12         0.00000E+00
    0.88647E-09         0.59207E-12         0.00000E+00
    0.92535E-09         0.62564E-12         0.00000E+00
    0.96725E-09         0.66255E-12         0.00000E+00
    0.10123E-08         0.70261E-12         0.00000E+00
    0.10606E-08         0.74571E-12         0.00000E+00
    0.11123E-08         0.79178E-12         0.00000E+00
    0.11675E-08         0.84081E-12         0.00000E+00
    0.12265E-08         0.89282E-12         0.00000E+00
    0.12893E-08         0.94788E-12         0.00000E+00
    0.13562E-08         0.10061E-11         0.00000E+00
    0.14274E-08         0.10676E-11         0.00000E+00
    0.15030E-08         0.11324E-11         0.00000E+00
    0.15834E-08         0.12009E-11         0.00000E+00
    0.16687E-08         0.12731E-11         0.00000E+00
    0.17593E-08         0.13492E-11         0.00000E+00
    0.18553E-08         0.14296E-11         0.00000E+00
    0.19572E-08         0.15144E-11         0.00000E+00
    0.20652E-08         0.16038E-11         0.00000E+00
    0.21796E-08         0.16982E-11         0.00000E+00
    0.23009E-08         0.17978E-11         0.00000E+00
    0.24294E-08         0.19029E-11         0.00000E+00
    0.25654E-08         0.20138E-11         0.00000E+00
    0.27095E-08         0.21310E-11         0.00000E+00
    0.28622E-08         0.22547E-11         0.00000E+00
    0.30237E-08         0.23852E-11         0.00000E+00
    0.31948E-08         0.25231E-11         0.00000E+00
    0.33760E-08         0.26687E-11         0.00000E+00
    0.35677E-08         0.28225E-11         0.00000E+00
    0.37707E-08         0.29849E-11         0.00000E+00
    0.39856E-08         0.31565E-11         0.00000E+00
    0.42131E-08         0.33376E-11         0.00000E+00
    0.44539E-08         0.35290E-11         0.00000E+00
    0.47089E-08         0.37312E-11         0.00000E+00
    0.49788E-08         0.39447E-11         0.00000E+00
    0.52646E-08         0.41703E-11         0.00000E+00
    0.55672E-08         0.44086E-11         0.00000E+00
    0.58876E-08         0.46604E-11         0.00000E+00
    0.62269E-08         0.49264E-11         0.00000E+00
    0.65862E-08         0.52075E-11         0.00000E+00
    0.69668E-08         0.55044E-11         0.00000E+00
    0.73700E-08         0.58182E-11         0.00000E+00
    0.77971E-08         0.61497E-11         0.00000E+00
    0.82496E-08         0.64999E-11         0.00000E+00
    0.87292E-08         0.68699E-11         0.00000E+00
    0.92375E-08         0.72607E-11         0.00000E+00
    0.97763E-08         0.76734E-11         0.00000E+00
    0.10348E-07         0.81090E-11         0.00000E+00
    0.10953E-07         0.85686E-11         0.00000E+00
    0.11596E-07         0.90531E-11         0.00000E+00
    0.12278E-07         0.95633E-11         0.00000E+00
    0.13001E-07         0.10100E-10         0.00000E+00
    0.13770E-07         0.10663E-10         0.00000E+00
    0.14585E-07         0.11252E-10         0.00000E+00
    0.15451E-07         0.11867E-10         0.00000E+00
    0.16372E-07         0.12505E-10         0.00000E+00
    0.17350E-07         0.13164E-10         0.00000E+00
    0.18391E-07         0.13839E-10         0.00000E+00
    0.19497E-07         0.14524E-10         0.00000E+00
    0.20675E-07         0.15209E-10         0.00000E+00
    0.21928E-07         0.15881E-10         0.00000E+00
    0.23263E-07         0.16524E-10         0.00000E+00
    0.24686E-07         0.17115E-10         0.00000E+00
    0.26203E-07         0.17627E-10         0.00000E+00
    0.27821E-07         0.18023E-10         0.00000E+00
    0.29547E-07         0.18259E-10         0.00000E+00
    0.31390E-07         0.18279E-10         0.00000E+00
    0.33360E-07         0.18019E-10         0.00000E+00
    0.35465E-07         0.17399E-10         0.00000E+00
    0.37717E-07         0.16329E-10         0.00000E+00
    0.40128E-07         0.14708E-10         0.00000E+00
    0.42710E-07         0.12425E-10         0.00000E+00
    0.45477E-07         0.93644E-11         0.00000E+00
    0.48445E-07         0.54139E-11         0.00000E+00
    0.51631E-07         0.47661E-12         0.00000E+00
    0.55054E-07        -0.55116E-11         0.00000E+00
    0.58735E-07        -0.12558E-10         0.00000E+00
    0.62699E-07        -0.20571E-10         0.00000E+00
    0.66972E-07        -0.29318E-10         0.00000E+00
    0.71587E-07        -0.38268E-10         0.00000E+00
    0.76580E-07        -0.46592E-10         0.00000E+00
    0.82000E-07        -0.51625E-10         0.00000E+00
    0.87919E-07        -0.51718E-10         0.00000E+00
    0.91016E-07        -0.38268E-21         0.00000E+00
    0.65276E-09        -0.37253E-20         0.00000E+00
    0.64657E-09         0.27301E-12         0.00000E+00
    0.63644E-09         0.31013E-12         0.00000E+00
    0.63040E-09         0.32438E-12         0.00000E+00
    0.62790E-09         0.31818E-12         0.00000E+00
    0.62863E-09         0.30526E-12         0.00000E+00
    0.63238E-09         0.28964E-12         0.00000E+00
    0.63898E-09         0.27446E-12         0.00000E+00
    0.64833E-09         0.26129E-12         0.00000E+00
    0.66035E-09         0.25107E-12         0.00000E+00
    0.67498E-09         0.24421E-12         0.00000E+00
    0.69221E-09         0.24081E-12         0.00000E+00
    0.71202E-09         0.24078E-12         0.00000E+00
    0.73441E-09         0.24392E-12         0.00000E+00
    0.75941E-09         0.24997E-12         0.00000E+00
    0.78706E-09         0.25866E-12         0.00000E+00
    0.81741E-09         0.26974E-12         0.00000E+00
    0.85053E-09         0.28298E-12         0.00000E+00
    0.88648E-09         0.29817E-12         0.00000E+00
    0.92535E-09         0.31517E-12         0.00000E+00
    0.96726E-09         0.33384E-12         0.00000E+00
    0.10123E-08         0.35410E-12         0.00000E+00
    0.10606E-08         0.37588E-12         0.00000E+00
    0.11123E-08         0.39916E-12         0.00000E+00
    0.11675E-08         0.42393E-12         0.00000E+00
    0.12265E-08         0.45020E-12         0.00000E+00
    0.12893E-08         0.47801E-12         0.00000E+00
    0.13562E-08         0.50739E-12         0.00000E+00
    0.14274E-08         0.53842E-12         0.00000E+00
    0.15030E-08         0.57117E-12         0.00000E+00
    0.15834E-08         0.60572E-12         0.00000E+00
    0.16687E-08         0.64216E-12         0.00000E+00
    0.17593E-08         0.68060E-12         0.00000E+00
    0.18553E-08         0.72115E-12         0.00000E+00
    0.19572E-08         0.76393E-12         0.00000E+00
    0.20652E-08         0.80907E-12         0.00000E+00
    0.21796E-08         0.85670E-12         0.00000E+00
    0.23009E-08         0.90696E-12         0.00000E+00
    0.24294E-08         0.96001E-12         0.00000E+00
    0.25654E-08         0.10160E-11         0.00000E+00
    0.27096E-08         0.10751E-11         0.00000E+00
    0.28622E-08         0.11376E-11         0.00000E+00
    0.30238E-08         0.12035E-11         0.00000E+00
    0.31948E-08         0.12731E-11         0.00000E+00
    0.33760E-08         0.13466E-11         0.00000E+00
    0.35677E-08         0.14242E-11         0.00000E+00
    0.37707E-08         0.15062E-11         0.00000E+00
    0.39856E-08         0.15928E-11         0.00000E+00
    0.42131E-08         0.16843E-11         0.00000E+00
    0.44539E-08         0.17809E-11         0.00000E+00
    0.47089E-08         0.18830E-11         0.00000E+00
    0.49788E-08         0.19908E-11         0.00000E+00
    0.52646E-08         0.21048E-11         0.00000E+00
    0.55672E-08         0.22252E-11         0.00000E+00
    0.58876E-08         0.23524E-11         0.00000E+00
    0.62269E-08         0.24868E-11         0.00000E+00
    0.65863E-08         0.26288E-11         0.00000E+00
    0.69669E-08         0.27789E-11         0.00000E+00
    0.73700E-08         0.29375E-11         0.00000E+00
    0.77971E-08         0.31051E-11         0.00000E+00
    0.82497E-08         0.32822E-11         0.00000E+00
    0.87292E-08         0.34693E-11         0.00000E+00
    0.92375E-08         0.36670E-11         0.00000E+00
    0.97763E-08         0.38758E-11         0.00000E+00
    0.10348E-07         0.40963E-11         0.00000E+00
    0.10953E-07         0.43290E-11         0.00000E+00
    0.11596E-07         0.45744E-11         0.00000E+00
    0.12278E-07         0.48329E-11         0.00000E+00
    0.13001E-07         0.51049E-11         0.00000E+00
    0.13770E-07         0.53904E-11         0.00000E+00
    0.14585E-07         0.56894E-11         0.00000E+00
    0.15452E-07         0.60015E-11         0.00000E+00
    0.16372E-07         0.63259E-11         0.00000E+00
    0.17350E-07         0.66611E-11         0.00000E+00
    0.18391E-07         0.70048E-11         0.00000E+00
    0.19497E-07         0.73537E-11         0.00000E+00
    0.20675E-07         0.77033E-11         0.00000E+00
    0.21928E-07         0.80471E-11         0.00000E+00
    0.23264E-07         0.83769E-11         0.00000E+00
    0.24686E-07         0.86814E-11         0.00000E+00
    0.26203E-07         0.89465E-11         0.00000E+00
    0.27821E-07         0.91540E-11         0.00000E+00
    0.29547E-07         0.92816E-11         0.00000E+00
    0.31390E-07         0.93014E-11         0.00000E+00
    0.33360E-07         0.91801E-11         0.00000E+00
    0.35465E-07         0.88781E-11         0.00000E+00
    0.37717E-07         0.83495E-11         0.00000E+00
    0.40128E-07         0.75424E-11         0.00000E+00
    0.42709E-07         0.64004E-11         0.00000E+00
    0.45476E-07         0.48641E-11         0.00000E+00
    0.48444E-07         0.28757E-11         0.00000E+00
    0.51630E-07         0.38421E-12         0.00000E+00
    0.55053E-07        -0.26452E-11         0.00000E+00
    0.58735E-07        -0.62202E-11         0.00000E+00
    0.62698E-07        -0.10298E-10         0.00000E+00
    0.66972E-07        -0.14774E-10         0.00000E+00
    0.71586E-07        -0.19375E-10         0.00000E+00
    0.76579E-07        -0.23766E-10         0.00000E+00
    0.81999E-07        -0.26412E-10         0.00000E+00
    0.87922E-07        -0.27493E-10         0.00000E+00
    0.91021E-07        -0.29603E-20         0.00000E+00
CELL_DATA       5000
TENSORS stressef double 
    0.22464E+04         0.55387E+04         0.00000E+00
    0.55387E+04        -0.47581E+08         0.00000E+00
    0.00000E+00         0.00000E+00        -0.15856E-08
 
    0.15436E+04         0.14925E+05         0.00000E+00
    0.14925E+05        -0.47584E+08         0.00000E+00
    0.00000E+00         0.00000E+00        -0.14271E-08
 
    0.13281E+04         0.22070E+05         0.00000E+00
    0.22070E+05        -0.47587E+08         0.00000E+00
    0.00000E+00         0.00000E+00         0.95139E-09
 
    0.11895E+04         0.28326E+05         0.00000E+00
    0.28326E+05        -0.47592E+08         0.00000E+00
    0.00000E+00         0.00000E+00        -0.47569E-09
 
    0.11097E+04         0.34044E+05         0.00000E+00
    0.34044E+05        -0.47597E+08         0.00000E+00
    0.00000E+00         0.00000E+00         0.17442E-08
 
    0.10613E+04         0.39448E+05         0.00000E+00
    0.39448E+05        -0.47603E+08         0.00000E+00
    0.00000E+00         0.00000E+00        -0.20613E-08
 
    0.10339E+04         0.44667E+05         0.00000E+00
    0.44667E+05        -0.47609E+08         0.00000E+00
    0.00000E+00         0.00000E+00        -0.34884E-08
 
    0.10200E+04         0.49787E+05         0.00000E+00
    0.49787E+05        -0.47615E+08         0.00000E+00
    0.00000E+00         0.00000E+00        -0.20613E-08
 
    0.10156E+04         0.54866E+05         0.00000E+00
    0.54866E+05        -0.47622E+08         0.00000E+00
    0.00000E+00         0.00000E+00         0.20613E-08
 
    0.10181E+04         0.59943E+05         0.00000E+00
    0.59943E+05        -0.47628E+08         0.00000E+00
    0.00000E+00         0.00000E+00        -0.31713E-09
 
    0.10262E+04         0.65048E+05         0.00000E+00
    0.65048E+05        -0.47635E+08         0.00000E+00
    0.00000E+00         0.00000E+00        -0.15856E-08
 
    0.10392E+04         0.70206E+05         0.00000E+00
    0.70206E+05        -0.47642E+08         0.00000E+00
    0.00000E+00         0.00000E+00         0.79282E-09
 
    0.10567E+04         0.75442E+05         0.00000E+00
    0.75442E+05        -0.47649E+08         0.00000E+00
    0.00000E+00         0.00000E+00         0.63426E-09
 
    0.10788E+04         0.80776E+05         0.00000E+00
    0.80776E+05        -0.47657E+08         0.00000E+00
    0.00000E+00         0.00000E+00        -0.15856E-08
 
    0.11055E+04         0.86232E+05         0.00000E+00
    0.86232E+05        -0.47664E+08         0.00000E+00
    0.00000E+00         0.00000E+00         0.19028E-08
 
    0.11370E+04         0.91833E+05         0.00000E+00
    0.91833E+05        -0.47671E+08         0.00000E+00
    0.00000E+00         0.00000E+00        -0.31713E-09
 
    0.11735E+04         0.97602E+05         0.00000E+00
    0.97602E+05        -0.47679E+08         0.00000E+00
    0.00000E+00         0.00000E+00        -0.19028E-08
 
    0.12150E+04         0.10356E+06         0.00000E+00
    0.10356E+06        -0.47687E+08         0.00000E+00
    0.00000E+00         0.00000E+00         0.25370E-08
 
    0.12616E+04         0.10975E+06         0.00000E+00
    0.10975E+06        -0.47694E+08         0.00000E+00
    0.00000E+00         0.00000E+00         0.31710E-09
 
    0.13136E+04         0.11617E+06         0.00000E+00
    0.11617E+06        -0.47703E+08         0.00000E+00
    0.00000E+00         0.00000E+00        -0.11100E-08
 
    0.13711E+04         0.12287E+06         0.00000E+00
    0.12287E+06        -0.47711E+08         0.00000E+00
    0.00000E+00         0.00000E+00        -0.63420E-09
 
    0.14341E+04         0.12987E+06         0.00000E+00
    0.12987E+06        -0.47719E+08         0.00000E+00
    0.00000E+00         0.00000E+00        -0.79280E-09
 
    0.15027E+04         0.13720E+06         0.00000E+00
    0.13720E+06        -0.47728E+08         0.00000E+00
    0.00000E+00         0.00000E+00         0.15854E-09
 
    0.15770E+04         0.14488E+06         0.00000E+00
    0.14488E+06        -0.47738E+08         0.00000E+00
    0.00000E+00         0.00000E+00         0.63426E-09
 
    0.16572E+04         0.15294E+06         0.00000E+00
    0.15294E+06        -0.47747E+08         0.00000E+00
    0.00000E+00         0.00000E+00        -0.31719E-09
 
    0.17435E+04         0.16142E+06         0.00000E+00
    0.16142E+06        -0.47757E+08         0.00000E+00
    0.00000E+00         0.00000E+00         0.15857E-08
 
    0.18358E+04         0.17035E+06         0.00000E+00
    0.17035E+06        -0.47768E+08         0.00000E+00
    0.00000E+00         0.00000E+00        -0.20614E-08
 
    0.19344E+04         0.17975E+06         0.00000E+00
    0.17975E+06        -0.47779E+08         0.00000E+00
    0.00000E+00         0.00000E+00         0.95139E-09
 
    0.20394E+04         0.18966E+06         0.00000E+00
    0.18966E+06        -0.47790E+08         0.00000E+00
    0.00000E+00         0.00000E+00        -0.15856E-08
 
    0.21511E+04         0.20010E+06         0.00000E+00
    0.20010E+06        -0.47802E+08         0.00000E+00
    0.00000E+00         0.00000E+00         0.79285E-09
 
    0.22697E+04         0.21112E+06         0.00000E+00
    0.21112E+06        -0.47815E+08         0.00000E+00
    0.00000E+00         0.00000E+00         0.47567E-09
 
    0.23953E+04         0.22275E+06         0.00000E+00
    0.22275E+06        -0.47828E+08         0.00000E+00
    0.00000E+00         0.00000E+00         0.11100E-08
 
    0.25283E+04         0.23502E+06         0.00000E+00
    0.23502E+06        -0.47842E+08         0.00000E+00
    0.00000E+00         0.00000E+00        -0.20613E-08
 
    0.26688E+04         0.24798E+06         0.00000E+00
    0.24798E+06        -0.47857E+08         0.00000E+00
    0.00000E+00         0.00000E+00        -0.11099E-08
 
    0.28173E+04         0.26165E+06         0.00000E+00
    0.26165E+06        -0.47873E+08         0.00000E+00
    0.00000E+00         0.00000E+00         0.95133E-09
 
    0.29739E+04         0.27608E+06         0.00000E+00
    0.27608E+06        -0.47889E+08         0.00000E+00
    0.00000E+00         0.00000E+00         0.15859E-09
 
    0.31390E+04         0.29132E+06         0.00000E+00
    0.29132E+06        -0.47907E+08         0.00000E+00
    0.00000E+00         0.00000E+00         0.11099E-08
 
    0.33129E+04         0.30740E+06         0.00000E+00
    0.30740E+06        -0.47925E+08         0.00000E+00
    0.00000E+00         0.00000E+00         0.12685E-08
 
    0.34959E+04         0.32437E+06         0.00000E+00
    0.32437E+06        -0.47944E+08         0.00000E+00
    0.00000E+00         0.00000E+00        -0.15859E-09
 
    0.36885E+04         0.34227E+06         0.00000E+00
    0.34227E+06        -0.47965E+08         0.00000E+00
    0.00000E+00         0.00000E+00         0.15859E-09
 
    0.38909E+04         0.36116E+06         0.00000E+00
    0.36116E+06        -0.47987E+08         0.00000E+00
    0.00000E+00         0.00000E+00        -0.95133E-09
 
    0.41035E+04         0.38108E+06         0.00000E+00
    0.38108E+06        -0.48010E+08         0.00000E+00
    0.00000E+00         0.00000E+00         0.19027E-08
 
    0.43267E+04         0.40209E+06         0.00000E+00
    0.40209E+06        -0.48034E+08         0.00000E+00
    0.00000E+00         0.00000E+00         0.00000E+00
 
    0.45609E+04         0.42423E+06         0.00000E+00
    0.42423E+06        -0.48060E+08         0.00000E+00
    0.00000E+00         0.00000E+00         0.15857E-08
 
    0.48062E+04         0.44757E+06         0.00000E+00
    0.44757E+06        -0.48087E+08         0.00000E+00
    0.00000E+00         0.00000E+00        -0.15859E-09
 
    0.50632E+04         0.47216E+06         0.00000E+00
    0.47216E+06        -0.48116E+08         0.00000E+00
    0.00000E+00         0.00000E+00        -0.12686E-08
 
    0.53321E+04         0.49806E+06         0.00000E+00
    0.49806E+06        -0.48147E+08         0.00000E+00
    0.00000E+00         0.00000E+00         0.31719E-09
 
    0.56131E+04         0.52533E+06         0.00000E+00
    0.52533E+06        -0.48179E+08         0.00000E+00
    0.00000E+00         0.00000E+00        -0.63437E-09
 
    0.59066E+04         0.55402E+06         0.00000E+00
    0.55402E+06        -0.48214E+08         0.00000E+00
    0.00000E+00         0.00000E+00        -0.20614E-08
 
    0.62126E+04         0.58421E+06         0.00000E+00
    0.58421E+06        -0.48250E+08         0.00000E+00
    0.00000E+00         0.00000E+00        -0.19027E-08
 
    0.65314E+04         0.61596E+06         0.00000E+00
    0.61596E+06        -0.48289E+08         0.00000E+00
    0.00000E+00         0.00000E+00         0.19029E-08
 
    0.68630E+04         0.64932E+06         0.00000E+00
    0.64932E+06        -0.48330E+08         0.00000E+00
    0.00000E+00         0.00000E+00         0.15848E-09
 
    0.72074E+04         0.68436E+06         0.00000E+00
    0.68436E+06        -0.48374E+08         0.00000E+00
    0.00000E+00         0.00000E+00         0.95133E-09
 
    0.75643E+04         0.72115E+06         0.00000E+00
    0.72115E+06        -0.48420E+08         0.00000E+00
    0.00000E+00         0.00000E+00         0.22737E-12
 
    0.79336E+04         0.75975E+06         0.00000E+00
    0.75975E+06        -0.48470E+08         0.00000E+00
    0.00000E+00         0.00000E+00         0.95110E-09
 
    0.83148E+04         0.80020E+06         0.00000E+00
    0.80020E+06        -0.48522E+08         0.00000E+00
    0.00000E+00         0.00000E+00        -0.26957E-08
 
    0.87072E+04         0.84258E+06         0.00000E+00
    0.84258E+06        -0.48578E+08         0.00000E+00
    0.00000E+00         0.00000E+00        -0.26955E-08
 
    0.91101E+04         0.88694E+06         0.00000E+00
    0.88694E+06        -0.48638E+08         0.00000E+00
    0.00000E+00         0.00000E+00        -0.30127E-08
 
    0.95223E+04         0.93332E+06         0.00000E+00
    0.93332E+06        -0.48701E+08         0.00000E+00
    0.00000E+00         0.00000E+00        -0.31696E-09
 
    0.99424E+04         0.98177E+06         0.00000E+00
    0.98177E+06        -0.48769E+08         0.00000E+00
    0.00000E+00         0.00000E+00         0.17440E-08
 
    0.10369E+05         0.10323E+07         0.00000E+00
    0.10323E+07        -0.48841E+08         0.00000E+00
    0.00000E+00         0.00000E+00        -0.15871E-09
 
    0.10799E+05         0.10850E+07         0.00000E+00
    0.10850E+07        -0.48918E+08         0.00000E+00
    0.00000E+00         0.00000E+00         0.00000E+00
 
    0.11231E+05         0.11398E+07         0.00000E+00
    0.11398E+07        -0.49000E+08         0.00000E+00
    0.00000E+00         0.00000E+00        -0.31650E-09
 
    0.11661E+05         0.11967E+07         0.00000E+00
    0.11967E+07        -0.49088E+08         0.00000E+00
    0.00000E+00         0.00000E+00         0.00000E+00
 
    0.12086E+05         0.12558E+07         0.00000E+00
    0.12558E+07        -0.49181E+08         0.00000E+00
    0.00000E+00         0.00000E+00        -0.11105E-08
 
    0.12502E+05         0.13169E+07         0.00000E+00
    0.13169E+07        -0.49282E+08         0.00000E+00
    0.00000E+00         0.00000E+00        -0.11100E-08
 
    0.12902E+05         0.13800E+07         0.00000E+00
    0.13800E+07        -0.49390E+08         0.00000E+00
    0.00000E+00         0.00000E+00         0.20614E-08
 
    0.13283E+05         0.14451E+07         0.00000E+00
    0.14451E+07        -0.49505E+08         0.00000E+00
    0.00000E+00         0.00000E+00         0.47567E-09
 
    0.13636E+05         0.15119E+07         0.00000E+00
    0.15119E+07        -0.49629E+08         0.00000E+00
    0.00000E+00         0.00000E+00        -0.15825E-09
 
    0.13954E+05         0.15804E+07         0.00000E+00
    0.15804E+07        -0.49763E+08         0.00000E+00
    0.00000E+00         0.00000E+00         0.79262E-09
 
    0.14229E+05         0.16504E+07         0.00000E+00
    0.16504E+07        -0.49906E+08         0.00000E+00
    0.00000E+00         0.00000E+00        -0.63483E-09
 
    0.14451E+05         0.17215E+07         0.00000E+00
    0.17215E+07        -0.50060E+08         0.00000E+00
    0.00000E+00         0.00000E+00        -0.95133E-09
 
    0.14610E+05         0.17935E+07         0.00000E+00
    0.17935E+07        -0.50227E+08         0.00000E+00
    0.00000E+00         0.00000E+00        -0.12687E-08
 
    0.14694E+05         0.18661E+07         0.00000E+00
    0.18661E+07        -0.50406E+08         0.00000E+00
    0.00000E+00         0.00000E+00         0.63392E-09
 
    0.14690E+05         0.19388E+07         0.00000E+00
    0.19388E+07        -0.50600E+08         0.00000E+00
    0.00000E+00         0.00000E+00         0.79308E-09
 
    0.14585E+05         0.20112E+07         0.00000E+00
    0.20112E+07        -0.50810E+08         0.00000E+00
    0.00000E+00         0.00000E+00         0.23783E-08
 
    0.14366E+05         0.20827E+07         0.00000E+00
    0.20827E+07        -0.51037E+08         0.00000E+00
    0.00000E+00         0.00000E+00         0.15916E-09
 
    0.14019E+05         0.21526E+07         0.00000E+00
    0.21526E+07        -0.51282E+08         0.00000E+00
    0.00000E+00         0.00000E+00         0.22192E-08
 
    0.13529E+05         0.22204E+07         0.00000E+00
    0.22204E+07        -0.51548E+08         0.00000E+00
    0.00000E+00         0.00000E+00        -0.95042E-09
 
    0.12882E+05         0.22853E+07         0.00000E+00
    0.22853E+07        -0.51836E+08         0.00000E+00
    0.00000E+00         0.00000E+00        -0.63392E-09
 
    0.12068E+05         0.23465E+07         0.00000E+00
    0.23465E+07        -0.52148E+08         0.00000E+00
    0.00000E+00         0.00000E+00        -0.47658E-09
 
    0.11076E+05         0.24030E+07         0.00000E+00
    0.24030E+07        -0.52486E+08         0.00000E+00
    0.00000E+00         0.00000E+00        -0.26957E-08
 
    0.98967E+04         0.24540E+07         0.00000E+00
    0.24540E+07        -0.52851E+08         0.00000E+00
    0.00000E+00         0.00000E+00         0.47658E-09
 
    0.85265E+04         0.24985E+07         0.00000E+00
    0.24985E+07        -0.53246E+08         0.00000E+00
    0.00000E+00         0.00000E+00         0.20609E-08
 
    0.69636E+04         0.25356E+07         0.00000E+00
    0.25356E+07        -0.53672E+08         0.00000E+00
    0.00000E+00         0.00000E+00         0.00000E+00
 
    0.52096E+04         0.25644E+07         0.00000E+00
    0.25644E+07        -0.54131E+08         0.00000E+00
    0.00000E+00         0.00000E+00         0.00000E+00
 
    0.32684E+04         0.25839E+07         0.00000E+00
    0.25839E+07        -0.54623E+08         0.00000E+00
    0.00000E+00         0.00000E+00         0.19027E-08
 
    0.11429E+04         0.25933E+07         0.00000E+00
    0.25933E+07        -0.55149E+08         0.00000E+00
    0.00000E+00         0.00000E+00         0.00000E+00
 
   -0.11702E+04         0.25916E+07         0.00000E+00
    0.25916E+07        -0.55707E+08         0.00000E+00
    0.00000E+00         0.00000E+00        -0.95315E-09
 
   -0.36905E+04         0.25780E+07         0.00000E+00
    0.25780E+07        -0.56297E+08         0.00000E+00
    0.00000E+00         0.00000E+00        -0.79308E-09
 
   -0.64699E+04         0.25513E+07         0.00000E+00
    0.25513E+07        -0.56914E+08         0.00000E+00
    0.00000E+00         0.00000E+00        -0.31832E-09
 
   -0.96192E+04         0.25101E+07         0.00000E+00
    0.25101E+07        -0.57552E+08         0.00000E+00
    0.00000E+00         0.00000E+00         0.41218E-08
 
   -0.13348E+05         0.24522E+07         0.00000E+00
    0.24522E+07        -0.58206E+08         0.00000E+00
    0.00000E+00         0.00000E+00        -0.20627E-08
 
   -0.18026E+05         0.23739E+07         0.00000E+00
    0.23739E+07        -0.58863E+08         0.00000E+00
    0.00000E+00         0.00000E+00         0.00000E+00
 
   -0.24270E+05         0.22689E+07         0.00000E+00
    0.22689E+07        -0.59513E+08         0.00000E+00
    0.00000E+00         0.00000E+00        -0.14279E-08
 
   -0.33133E+05         0.21270E+07         0.00000E+00
    0.21270E+07        -0.60138E+08         0.00000E+00
    0.00000E+00         0.00000E+00         0.00000E+00
 
   -0.46172E+05         0.19311E+07         0.00000E+00
    0.19311E+07        -0.60725E+08         0.00000E+00
    0.00000E+00         0.00000E+00         0.31650E-09
 
   -0.67357E+05         0.16509E+07         0.00000E+00
    0.16509E+07        -0.61251E+08         0.00000E+00
    0.00000E+00         0.00000E+00         0.25375E-08
 
   -0.99331E+05         0.12373E+07         0.00000E+00
    0.12373E+07        -0.61710E+08         0.00000E+00
    0.00000E+00         0.00000E+00         0.63301E-09
 
   -0.20207E+06         0.49484E+06         0.00000E+00
    0.49484E+06        -0.62027E+08         0.00000E+00
    0.00000E+00         0.00000E+00        -0.28522E-08
 
    0.65470E+04         0.49258E+04         0.00000E+00
    0.49258E+04        -0.47583E+08         0.00000E+00
    0.00000E+00         0.00000E+00        -0.15856E-08
 
    0.46663E+04         0.13744E+05         0.00000E+00
    0.13744E+05        -0.47585E+08         0.00000E+00
    0.00000E+00         0.00000E+00        -0.31713E-08
 
    0.39875E+04         0.20900E+05         0.00000E+00
    0.20900E+05        -0.47589E+08         0.00000E+00
    0.00000E+00         0.00000E+00         0.31713E-09
 
    0.35795E+04         0.27115E+05         0.00000E+00
    0.27115E+05        -0.47593E+08         0.00000E+00
    0.00000E+00         0.00000E+00        -0.41227E-08
 
    0.33362E+04         0.32817E+05         0.00000E+00
    0.32817E+05        -0.47598E+08         0.00000E+00
    0.00000E+00         0.00000E+00         0.31713E-08
 
    0.31893E+04         0.38202E+05         0.00000E+00
    0.38202E+05        -0.47604E+08         0.00000E+00
    0.00000E+00         0.00000E+00         0.19028E-08
 
    0.31043E+04         0.43403E+05         0.00000E+00
    0.43403E+05        -0.47610E+08         0.00000E+00
    0.00000E+00         0.00000E+00        -0.95139E-09
 
    0.30605E+04         0.48502E+05         0.00000E+00
    0.48502E+05        -0.47616E+08         0.00000E+00
    0.00000E+00         0.00000E+00        -0.28542E-08
 
    0.30452E+04         0.53556E+05         0.00000E+00
    0.53556E+05        -0.47623E+08         0.00000E+00
    0.00000E+00         0.00000E+00        -0.95139E-09
 
    0.30510E+04         0.58605E+05         0.00000E+00
    0.58605E+05        -0.47629E+08         0.00000E+00
    0.00000E+00         0.00000E+00        -0.31713E-08
 
    0.30737E+04         0.63676E+05         0.00000E+00
    0.63676E+05        -0.47636E+08         0.00000E+00
    0.00000E+00         0.00000E+00        -0.31713E-08
 
    0.31112E+04         0.68797E+05         0.00000E+00
    0.68797E+05        -0.47643E+08         0.00000E+00
    0.00000E+00         0.00000E+00        -0.34884E-08
 
    0.31628E+04         0.73989E+05         0.00000E+00
    0.73989E+05        -0.47650E+08         0.00000E+00
    0.00000E+00         0.00000E+00        -0.22199E-08
 
    0.32282E+04         0.79275E+05         0.00000E+00
    0.79275E+05        -0.47658E+08         0.00000E+00
    0.00000E+00         0.00000E+00         0.00000E+00
 
    0.33076E+04         0.84678E+05         0.00000E+00
    0.84678E+05        -0.47665E+08         0.00000E+00
    0.00000E+00         0.00000E+00         0.38055E-08
 
    0.34014E+04         0.90219E+05         0.00000E+00
    0.90219E+05        -0.47672E+08         0.00000E+00
    0.00000E+00         0.00000E+00        -0.31713E-09
 
    0.35100E+04         0.95924E+05         0.00000E+00
    0.95924E+05        -0.47680E+08         0.00000E+00
    0.00000E+00         0.00000E+00         0.31713E-09
 
    0.36338E+04         0.10182E+06         0.00000E+00
    0.10182E+06        -0.47688E+08         0.00000E+00
    0.00000E+00         0.00000E+00         0.25370E-08
 
    0.37733E+04         0.10792E+06         0.00000E+00
    0.10792E+06        -0.47696E+08         0.00000E+00
    0.00000E+00         0.00000E+00        -0.15856E-08
 
    0.39287E+04         0.11427E+06         0.00000E+00
    0.11427E+06        -0.47704E+08         0.00000E+00
    0.00000E+00         0.00000E+00        -0.22199E-08
 
    0.41004E+04         0.12088E+06         0.00000E+00
    0.12088E+06        -0.47712E+08         0.00000E+00
    0.00000E+00         0.00000E+00        -0.12685E-08
 
    0.42887E+04         0.12778E+06         0.00000E+00
    0.12778E+06        -0.47721E+08         0.00000E+00
    0.00000E+00         0.00000E+00        -0.12685E-08
 
    0.44939E+04         0.13500E+06         0.00000E+00
    0.13500E+06        -0.47730E+08         0.00000E+00
    0.00000E+00         0.00000E+00         0.95139E-09
 
    0.47162E+04         0.14258E+06         0.00000E+00
    0.14258E+06        -0.47739E+08         0.00000E+00
    0.00000E+00         0.00000E+00         0.00000E+00
 
    0.49561E+04         0.15053E+06         0.00000E+00
    0.15053E+06        -0.47749E+08         0.00000E+00
    0.00000E+00         0.00000E+00        -0.31713E-09
 
    0.52139E+04         0.15888E+06         0.00000E+00
    0.15888E+06        -0.47759E+08         0.00000E+00
    0.00000E+00         0.00000E+00        -0.31713E-09
 
    0.54901E+04         0.16768E+06         0.00000E+00
    0.16768E+06        -0.47770E+08         0.00000E+00
    0.00000E+00         0.00000E+00         0.00000E+00
 
    0.57850E+04         0.17694E+06         0.00000E+00
    0.17694E+06        -0.47781E+08         0.00000E+00
    0.00000E+00         0.00000E+00         0.15856E-08
 
    0.60992E+04         0.18670E+06         0.00000E+00
    0.18670E+06        -0.47792E+08         0.00000E+00
    0.00000E+00         0.00000E+00        -0.22199E-08
 
    0.64333E+04         0.19698E+06         0.00000E+00
    0.19698E+06        -0.47804E+08         0.00000E+00
    0.00000E+00         0.00000E+00        -0.15856E-08
 
    0.67878E+04         0.20784E+06         0.00000E+00
    0.20784E+06        -0.47817E+08         0.00000E+00
    0.00000E+00         0.00000E+00         0.50741E-08
 
    0.71636E+04         0.21929E+06         0.00000E+00
    0.21929E+06        -0.47831E+08         0.00000E+00
    0.00000E+00         0.00000E+00         0.95139E-09
 
    0.75612E+04         0.23137E+06         0.00000E+00
    0.23137E+06        -0.47845E+08         0.00000E+00
    0.00000E+00         0.00000E+00        -0.12685E-08
 
    0.79816E+04         0.24412E+06         0.00000E+00
    0.24412E+06        -0.47860E+08         0.00000E+00
    0.00000E+00         0.00000E+00         0.12685E-08
 
    0.84255E+04         0.25759E+06         0.00000E+00
    0.25759E+06        -0.47876E+08         0.00000E+00
    0.00000E+00         0.00000E+00         0.31719E-09
 
    0.88938E+04         0.27179E+06         0.00000E+00
    0.27179E+06        -0.47892E+08         0.00000E+00
    0.00000E+00         0.00000E+00         0.12685E-08
 
    0.93876E+04         0.28679E+06         0.00000E+00
    0.28679E+06        -0.47910E+08         0.00000E+00
    0.00000E+00         0.00000E+00         0.63426E-09
 
    0.99077E+04         0.30262E+06         0.00000E+00
    0.30262E+06        -0.47928E+08         0.00000E+00
    0.00000E+00         0.00000E+00         0.15856E-08
 
    0.10455E+05         0.31932E+06         0.00000E+00
    0.31932E+06        -0.47948E+08         0.00000E+00
    0.00000E+00         0.00000E+00         0.31719E-09
 
    0.11031E+05         0.33694E+06         0.00000E+00
    0.33694E+06        -0.47969E+08         0.00000E+00
    0.00000E+00         0.00000E+00         0.31719E-09
 
    0.11636E+05         0.35553E+06         0.00000E+00
    0.35553E+06        -0.47991E+08         0.00000E+00
    0.00000E+00         0.00000E+00        -0.11369E-12
 
    0.12272E+05         0.37513E+06         0.00000E+00
    0.37513E+06        -0.48014E+08         0.00000E+00
    0.00000E+00         0.00000E+00         0.00000E+00
 
    0.12940E+05         0.39580E+06         0.00000E+00
    0.39580E+06        -0.48038E+08         0.00000E+00
    0.00000E+00         0.00000E+00        -0.22198E-08
 
    0.13640E+05         0.41759E+06         0.00000E+00
    0.41759E+06        -0.48064E+08         0.00000E+00
    0.00000E+00         0.00000E+00         0.95133E-09
 
    0.14374E+05         0.44056E+06         0.00000E+00
    0.44056E+06        -0.48092E+08         0.00000E+00
    0.00000E+00         0.00000E+00        -0.31719E-09
 
    0.15142E+05         0.46475E+06         0.00000E+00
    0.46475E+06        -0.48121E+08         0.00000E+00
    0.00000E+00         0.00000E+00        -0.19028E-08
 
    0.15947E+05         0.49023E+06         0.00000E+00
    0.49023E+06        -0.48152E+08         0.00000E+00
    0.00000E+00         0.00000E+00         0.19027E-08
 
    0.16787E+05         0.51705E+06         0.00000E+00
    0.51705E+06        -0.48185E+08         0.00000E+00
    0.00000E+00         0.00000E+00        -0.63415E-09
 
    0.17665E+05         0.54528E+06         0.00000E+00
    0.54528E+06        -0.48219E+08         0.00000E+00
    0.00000E+00         0.00000E+00         0.31719E-09
 
    0.18580E+05         0.57497E+06         0.00000E+00
    0.57497E+06        -0.48256E+08         0.00000E+00
    0.00000E+00         0.00000E+00        -0.63437E-09
 
    0.19534E+05         0.60618E+06         0.00000E+00
    0.60618E+06        -0.48295E+08         0.00000E+00
    0.00000E+00         0.00000E+00        -0.47569E-08
 
    0.20526E+05         0.63899E+06         0.00000E+00
    0.63899E+06        -0.48337E+08         0.00000E+00
    0.00000E+00         0.00000E+00        -0.63460E-09
 
    0.21555E+05         0.67344E+06         0.00000E+00
    0.67344E+06        -0.48381E+08         0.00000E+00
    0.00000E+00         0.00000E+00         0.12685E-08
 
    0.22623E+05         0.70960E+06         0.00000E+00
    0.70960E+06        -0.48428E+08         0.00000E+00
    0.00000E+00         0.00000E+00         0.00000E+00
 
    0.23728E+05         0.74753E+06         0.00000E+00
    0.74753E+06        -0.48477E+08         0.00000E+00
    0.00000E+00         0.00000E+00         0.31719E-09
 
    0.24868E+05         0.78729E+06         0.00000E+00
    0.78729E+06        -0.48530E+08         0.00000E+00
    0.00000E+00         0.00000E+00        -0.12687E-08
 
    0.26041E+05         0.82893E+06         0.00000E+00
    0.82893E+06        -0.48587E+08         0.00000E+00
    0.00000E+00         0.00000E+00         0.00000E+00
 
    0.27246E+05         0.87250E+06         0.00000E+00
    0.87250E+06        -0.48647E+08         0.00000E+00
    0.00000E+00         0.00000E+00         0.00000E+00
 
    0.28479E+05         0.91805E+06         0.00000E+00
    0.91805E+06        -0.48710E+08         0.00000E+00
    0.00000E+00         0.00000E+00         0.28542E-08
 
    0.29736E+05         0.96562E+06         0.00000E+00
    0.96562E+06        -0.48778E+08         0.00000E+00
    0.00000E+00         0.00000E+00        -0.12683E-08
 
    0.31011E+05         0.10152E+07         0.00000E+00
    0.10152E+07        -0.48851E+08         0.00000E+00
    0.00000E+00         0.00000E+00        -0.63392E-09
 
    0.32299E+05         0.10669E+07         0.00000E+00
    0.10669E+07        -0.48928E+08         0.00000E+00
    0.00000E+00         0.00000E+00         0.63392E-09
 
    0.33591E+05         0.11207E+07         0.00000E+00
    0.11207E+07        -0.49011E+08         0.00000E+00
    0.00000E+00         0.00000E+00         0.63392E-09
 
    0.34878E+05         0.11765E+07         0.00000E+00
    0.11765E+07        -0.49099E+08         0.00000E+00
    0.00000E+00         0.00000E+00        -0.63392E-09
 
    0.36150E+05         0.12344E+07         0.00000E+00
    0.12344E+07        -0.49193E+08         0.00000E+00
    0.00000E+00         0.00000E+00        -0.19027E-08
 
    0.37393E+05         0.12943E+07         0.00000E+00
    0.12943E+07        -0.49294E+08         0.00000E+00
    0.00000E+00         0.00000E+00         0.34888E-08
 
    0.38592E+05         0.13561E+07         0.00000E+00
    0.13561E+07        -0.49402E+08         0.00000E+00
    0.00000E+00         0.00000E+00        -0.45475E-12
 
    0.39731E+05         0.14198E+07         0.00000E+00
    0.14198E+07        -0.49518E+08         0.00000E+00
    0.00000E+00         0.00000E+00        -0.95133E-09
 
    0.40788E+05         0.14851E+07         0.00000E+00
    0.14851E+07        -0.49643E+08         0.00000E+00
    0.00000E+00         0.00000E+00         0.15852E-08
 
    0.41741E+05         0.15521E+07         0.00000E+00
    0.15521E+07        -0.49776E+08         0.00000E+00
    0.00000E+00         0.00000E+00         0.63437E-09
 
    0.42565E+05         0.16203E+07         0.00000E+00
    0.16203E+07        -0.49920E+08         0.00000E+00
    0.00000E+00         0.00000E+00         0.00000E+00
 
    0.43231E+05         0.16897E+07         0.00000E+00
    0.16897E+07        -0.50075E+08         0.00000E+00
    0.00000E+00         0.00000E+00        -0.22192E-08
 
    0.43707E+05         0.17599E+07         0.00000E+00
    0.17599E+07        -0.50241E+08         0.00000E+00
    0.00000E+00         0.00000E+00         0.00000E+00
 
    0.43958E+05         0.18304E+07         0.00000E+00
    0.18304E+07        -0.50421E+08         0.00000E+00
    0.00000E+00         0.00000E+00         0.38053E-08
 
    0.43947E+05         0.19010E+07         0.00000E+00
    0.19010E+07        -0.50615E+08         0.00000E+00
    0.00000E+00         0.00000E+00         0.31741E-09
 
    0.43634E+05         0.19712E+07         0.00000E+00
    0.19712E+07        -0.50824E+08         0.00000E+00
    0.00000E+00         0.00000E+00         0.31705E-08
 
    0.42979E+05         0.20403E+07         0.00000E+00
    0.20403E+07        -0.51051E+08         0.00000E+00
    0.00000E+00         0.00000E+00        -0.31741E-09
 
    0.41937E+05         0.21077E+07         0.00000E+00
    0.21077E+07        -0.51296E+08         0.00000E+00
    0.00000E+00         0.00000E+00         0.25366E-08
 
    0.40467E+05         0.21728E+07         0.00000E+00
    0.21728E+07        -0.51561E+08         0.00000E+00
    0.00000E+00         0.00000E+00         0.34879E-08
 
    0.38528E+05         0.22348E+07         0.00000E+00
    0.22348E+07        -0.51848E+08         0.00000E+00
    0.00000E+00         0.00000E+00         0.00000E+00
 
    0.36082E+05         0.22928E+07         0.00000E+00
    0.22928E+07        -0.52159E+08         0.00000E+00
    0.00000E+00         0.00000E+00        -0.22210E-08
 
    0.33098E+05         0.23460E+07         0.00000E+00
    0.23460E+07        -0.52496E+08         0.00000E+00
    0.00000E+00         0.00000E+00        -0.19027E-08
 
    0.29549E+05         0.23935E+07         0.00000E+00
    0.23935E+07        -0.52860E+08         0.00000E+00
    0.00000E+00         0.00000E+00         0.25357E-08
 
    0.25419E+05         0.24343E+07         0.00000E+00
    0.24343E+07        -0.53254E+08         0.00000E+00
    0.00000E+00         0.00000E+00         0.76107E-08
 
    0.20701E+05         0.24673E+07         0.00000E+00
    0.24673E+07        -0.53679E+08         0.00000E+00
    0.00000E+00         0.00000E+00        -0.63483E-09
 
    0.15396E+05         0.24918E+07         0.00000E+00
    0.24918E+07        -0.54136E+08         0.00000E+00
    0.00000E+00         0.00000E+00         0.50750E-08
 
    0.95115E+04         0.25066E+07         0.00000E+00
    0.25066E+07        -0.54626E+08         0.00000E+00
    0.00000E+00         0.00000E+00         0.15862E-08
 
    0.30516E+04         0.25109E+07         0.00000E+00
    0.25109E+07        -0.55149E+08         0.00000E+00
    0.00000E+00         0.00000E+00         0.63483E-09
 
   -0.39993E+04         0.25039E+07         0.00000E+00
    0.25039E+07        -0.55705E+08         0.00000E+00
    0.00000E+00         0.00000E+00        -0.15843E-08
 
   -0.11705E+05         0.24845E+07         0.00000E+00
    0.24845E+07        -0.56292E+08         0.00000E+00
    0.00000E+00         0.00000E+00        -0.15862E-08
 
   -0.20228E+05         0.24517E+07         0.00000E+00
    0.24517E+07        -0.56906E+08         0.00000E+00
    0.00000E+00         0.00000E+00         0.28540E-08
 
   -0.29904E+05         0.24040E+07         0.00000E+00
    0.24040E+07        -0.57542E+08         0.00000E+00
    0.00000E+00         0.00000E+00         0.12697E-08
 
   -0.41363E+05         0.23392E+07         0.00000E+00
    0.23392E+07        -0.58192E+08         0.00000E+00
    0.00000E+00         0.00000E+00        -0.12697E-08
 
   -0.55706E+05         0.22537E+07         0.00000E+00
    0.22537E+07        -0.58845E+08         0.00000E+00
    0.00000E+00         0.00000E+00         0.19027E-08
 
   -0.74789E+05         0.21413E+07         0.00000E+00
    0.21413E+07        -0.59488E+08         0.00000E+00
    0.00000E+00         0.00000E+00        -0.63301E-09
 
   -0.10164E+06         0.19921E+07         0.00000E+00
    0.19921E+07        -0.60105E+08         0.00000E+00
    0.00000E+00         0.00000E+00         0.31723E-08
 
   -0.14130E+06         0.17888E+07         0.00000E+00
    0.17888E+07        -0.60677E+08         0.00000E+00
    0.00000E+00         0.00000E+00         0.00000E+00
 
   -0.20371E+06         0.15048E+07         0.00000E+00
    0.15048E+07        -0.61185E+08         0.00000E+00
    0.00000E+00         0.00000E+00         0.19036E-08
 
   -0.30439E+06         0.10798E+07         0.00000E+00
    0.10798E+07        -0.61601E+08         0.00000E+00
    0.00000E+00         0.00000E+00         0.50750E-08
 
   -0.57939E+06         0.41033E+06         0.00000E+00
    0.41033E+06        -0.61853E+08         0.00000E+00
    0.00000E+00         0.00000E+00        -0.38053E-08
 
    0.10510E+05         0.44620E+04         0.00000E+00
    0.44620E+04        -0.47585E+08         0.00000E+00
    0.00000E+00         0.00000E+00         0.12685E-08
 
    0.78208E+04         0.12736E+05         0.00000E+00
    0.12736E+05        -0.47587E+08         0.00000E+00
    0.00000E+00         0.00000E+00        -0.12685E-08
 
    0.66559E+04         0.19784E+05         0.00000E+00
    0.19784E+05        -0.47590E+08         0.00000E+00
    0.00000E+00         0.00000E+00         0.25370E-08
 
    0.59862E+04         0.25949E+05         0.00000E+00
    0.25949E+05        -0.47594E+08         0.00000E+00
    0.00000E+00         0.00000E+00         0.12685E-08
 
    0.55758E+04         0.31613E+05         0.00000E+00
    0.31613E+05        -0.47599E+08         0.00000E+00
    0.00000E+00         0.00000E+00         0.25370E-08
 
    0.53264E+04         0.36971E+05         0.00000E+00
    0.36971E+05        -0.47605E+08         0.00000E+00
    0.00000E+00         0.00000E+00        -0.19028E-08
 
    0.51793E+04         0.42147E+05         0.00000E+00
    0.42147E+05        -0.47611E+08         0.00000E+00
    0.00000E+00         0.00000E+00        -0.19028E-08
 
    0.51012E+04         0.47221E+05         0.00000E+00
    0.47221E+05        -0.47617E+08         0.00000E+00
    0.00000E+00         0.00000E+00         0.25370E-08
 
    0.50710E+04         0.52248E+05         0.00000E+00
    0.52248E+05        -0.47624E+08         0.00000E+00
    0.00000E+00         0.00000E+00         0.25370E-08
 
    0.50765E+04         0.57265E+05         0.00000E+00
    0.57265E+05        -0.47630E+08         0.00000E+00
    0.00000E+00         0.00000E+00        -0.12685E-08
 
    0.51108E+04         0.62301E+05         0.00000E+00
    0.62301E+05        -0.47637E+08         0.00000E+00
    0.00000E+00         0.00000E+00         0.25370E-08
 
    0.51705E+04         0.67382E+05         0.00000E+00
    0.67382E+05        -0.47644E+08         0.00000E+00
    0.00000E+00         0.00000E+00         0.19028E-08
 
    0.52539E+04         0.72529E+05         0.00000E+00
    0.72529E+05        -0.47651E+08         0.00000E+00
    0.00000E+00         0.00000E+00         0.31713E-08
 
    0.53607E+04         0.77765E+05         0.00000E+00
    0.77765E+05        -0.47659E+08         0.00000E+00
    0.00000E+00         0.00000E+00         0.00000E+00
 
    0.54911E+04         0.83112E+05         0.00000E+00
    0.83112E+05        -0.47666E+08         0.00000E+00
    0.00000E+00         0.00000E+00         0.00000E+00
 
    0.56458E+04         0.88592E+05         0.00000E+00
    0.88592E+05        -0.47674E+08         0.00000E+00
    0.00000E+00         0.00000E+00         0.12685E-08
 
    0.58253E+04         0.94230E+05         0.00000E+00
    0.94230E+05        -0.47681E+08         0.00000E+00
    0.00000E+00         0.00000E+00         0.25370E-08
 
    0.60303E+04         0.10005E+06         0.00000E+00
    0.10005E+06        -0.47689E+08         0.00000E+00
    0.00000E+00         0.00000E+00        -0.25370E-08
 
    0.62614E+04         0.10608E+06         0.00000E+00
    0.10608E+06        -0.47697E+08         0.00000E+00
    0.00000E+00         0.00000E+00         0.12685E-08
 
    0.65190E+04         0.11234E+06         0.00000E+00
    0.11234E+06        -0.47705E+08         0.00000E+00
    0.00000E+00         0.00000E+00         0.31713E-08
 
    0.68037E+04         0.11886E+06         0.00000E+00
    0.11886E+06        -0.47714E+08         0.00000E+00
    0.00000E+00         0.00000E+00        -0.25370E-08
 
    0.71161E+04         0.12566E+06         0.00000E+00
    0.12566E+06        -0.47722E+08         0.00000E+00
    0.00000E+00         0.00000E+00         0.12685E-08
 
    0.74565E+04         0.13278E+06         0.00000E+00
    0.13278E+06        -0.47731E+08         0.00000E+00
    0.00000E+00         0.00000E+00         0.19028E-08
 
    0.78254E+04         0.14025E+06         0.00000E+00
    0.14025E+06        -0.47741E+08         0.00000E+00
    0.00000E+00         0.00000E+00         0.38056E-08
 
    0.82235E+04         0.14808E+06         0.00000E+00
    0.14808E+06        -0.47750E+08         0.00000E+00
    0.00000E+00         0.00000E+00         0.63426E-09
 
    0.86513E+04         0.15631E+06         0.00000E+00
    0.15631E+06        -0.47761E+08         0.00000E+00
    0.00000E+00         0.00000E+00        -0.31713E-08
 
    0.91095E+04         0.16497E+06         0.00000E+00
    0.16497E+06        -0.47771E+08         0.00000E+00
    0.00000E+00         0.00000E+00        -0.12685E-08
 
    0.95989E+04         0.17408E+06         0.00000E+00
    0.17408E+06        -0.47782E+08         0.00000E+00
    0.00000E+00         0.00000E+00        -0.63426E-09
 
    0.10120E+05         0.18369E+06         0.00000E+00
    0.18369E+06        -0.47794E+08         0.00000E+00
    0.00000E+00         0.00000E+00         0.63426E-09
 
    0.10675E+05         0.19382E+06         0.00000E+00
    0.19382E+06        -0.47806E+08         0.00000E+00
    0.00000E+00         0.00000E+00         0.12685E-08
 
    0.11263E+05         0.20450E+06         0.00000E+00
    0.20450E+06        -0.47819E+08         0.00000E+00
    0.00000E+00         0.00000E+00         0.00000E+00
 
    0.11886E+05         0.21577E+06         0.00000E+00
    0.21577E+06        -0.47833E+08         0.00000E+00
    0.00000E+00         0.00000E+00         0.63426E-09
 
    0.12546E+05         0.22766E+06         0.00000E+00
    0.22766E+06        -0.47847E+08         0.00000E+00
    0.00000E+00         0.00000E+00        -0.63426E-08
 
    0.13244E+05         0.24021E+06         0.00000E+00
    0.24021E+06        -0.47862E+08         0.00000E+00
    0.00000E+00         0.00000E+00        -0.10782E-07
 
    0.13980E+05         0.25346E+06         0.00000E+00
    0.25346E+06        -0.47878E+08         0.00000E+00
    0.00000E+00         0.00000E+00         0.12685E-08
 
    0.14758E+05         0.26744E+06         0.00000E+00
    0.26744E+06        -0.47895E+08         0.00000E+00
    0.00000E+00         0.00000E+00         0.12685E-08
 
    0.15577E+05         0.28220E+06         0.00000E+00
    0.28220E+06        -0.47913E+08         0.00000E+00
    0.00000E+00         0.00000E+00        -0.38056E-08
 
    0.16440E+05         0.29777E+06         0.00000E+00
    0.29777E+06        -0.47932E+08         0.00000E+00
    0.00000E+00         0.00000E+00        -0.31713E-08
 
    0.17349E+05         0.31420E+06         0.00000E+00
    0.31420E+06        -0.47951E+08         0.00000E+00
    0.00000E+00         0.00000E+00         0.63426E-09
 
    0.18304E+05         0.33153E+06         0.00000E+00
    0.33153E+06        -0.47972E+08         0.00000E+00
    0.00000E+00         0.00000E+00        -0.38056E-08
 
    0.19309E+05         0.34982E+06         0.00000E+00
    0.34982E+06        -0.47994E+08         0.00000E+00
    0.00000E+00         0.00000E+00        -0.12685E-08
 
    0.20364E+05         0.36910E+06         0.00000E+00
    0.36910E+06        -0.48018E+08         0.00000E+00
    0.00000E+00         0.00000E+00        -0.19028E-08
 
    0.21472E+05         0.38943E+06         0.00000E+00
    0.38943E+06        -0.48043E+08         0.00000E+00
    0.00000E+00         0.00000E+00        -0.12685E-08
 
    0.22634E+05         0.41086E+06         0.00000E+00
    0.41086E+06        -0.48069E+08         0.00000E+00
    0.00000E+00         0.00000E+00         0.25370E-08
 
    0.23851E+05         0.43345E+06         0.00000E+00
    0.43345E+06        -0.48097E+08         0.00000E+00
    0.00000E+00         0.00000E+00        -0.19028E-08
 
    0.25127E+05         0.45723E+06         0.00000E+00
    0.45723E+06        -0.48126E+08         0.00000E+00
    0.00000E+00         0.00000E+00         0.38056E-08
 
    0.26461E+05         0.48229E+06         0.00000E+00
    0.48229E+06        -0.48157E+08         0.00000E+00
    0.00000E+00         0.00000E+00         0.38056E-08
 
    0.27856E+05         0.50866E+06         0.00000E+00
    0.50866E+06        -0.48190E+08         0.00000E+00
    0.00000E+00         0.00000E+00        -0.44397E-08
 
    0.29313E+05         0.53641E+06         0.00000E+00
    0.53641E+06        -0.48225E+08         0.00000E+00
    0.00000E+00         0.00000E+00         0.22737E-12
 
    0.30832E+05         0.56560E+06         0.00000E+00
    0.56560E+06        -0.48262E+08         0.00000E+00
    0.00000E+00         0.00000E+00        -0.63415E-09
 
    0.32414E+05         0.59628E+06         0.00000E+00
    0.59628E+06        -0.48302E+08         0.00000E+00
    0.00000E+00         0.00000E+00         0.19029E-08
 
    0.34060E+05         0.62852E+06         0.00000E+00
    0.62852E+06        -0.48343E+08         0.00000E+00
    0.00000E+00         0.00000E+00         0.63415E-09
 
    0.35769E+05         0.66238E+06         0.00000E+00
    0.66238E+06        -0.48388E+08         0.00000E+00
    0.00000E+00         0.00000E+00         0.12687E-08
 
    0.37541E+05         0.69791E+06         0.00000E+00
    0.69791E+06        -0.48435E+08         0.00000E+00
    0.00000E+00         0.00000E+00         0.25370E-08
 
    0.39374E+05         0.73517E+06         0.00000E+00
    0.73517E+06        -0.48485E+08         0.00000E+00
    0.00000E+00         0.00000E+00         0.25370E-08
 
    0.41266E+05         0.77423E+06         0.00000E+00
    0.77423E+06        -0.48538E+08         0.00000E+00
    0.00000E+00         0.00000E+00        -0.12685E-08
 
    0.43215E+05         0.81512E+06         0.00000E+00
    0.81512E+06        -0.48595E+08         0.00000E+00
    0.00000E+00         0.00000E+00        -0.63415E-09
 
    0.45215E+05         0.85790E+06         0.00000E+00
    0.85790E+06        -0.48655E+08         0.00000E+00
    0.00000E+00         0.00000E+00         0.00000E+00
 
    0.47261E+05         0.90262E+06         0.00000E+00
    0.90262E+06        -0.48720E+08         0.00000E+00
    0.00000E+00         0.00000E+00        -0.63437E-09
 
    0.49348E+05         0.94930E+06         0.00000E+00
    0.94930E+06        -0.48788E+08         0.00000E+00
    0.00000E+00         0.00000E+00         0.19027E-08
 
    0.51465E+05         0.99798E+06         0.00000E+00
    0.99798E+06        -0.48861E+08         0.00000E+00
    0.00000E+00         0.00000E+00        -0.63392E-09
 
    0.53602E+05         0.10487E+07         0.00000E+00
    0.10487E+07        -0.48939E+08         0.00000E+00
    0.00000E+00         0.00000E+00         0.19031E-08
 
    0.55748E+05         0.11014E+07         0.00000E+00
    0.11014E+07        -0.49022E+08         0.00000E+00
    0.00000E+00         0.00000E+00        -0.12683E-08
 
    0.57885E+05         0.11561E+07         0.00000E+00
    0.11561E+07        -0.49110E+08         0.00000E+00
    0.00000E+00         0.00000E+00         0.19027E-08
 
    0.59997E+05         0.12128E+07         0.00000E+00
    0.12128E+07        -0.49205E+08         0.00000E+00
    0.00000E+00         0.00000E+00         0.57080E-08
 
    0.62062E+05         0.12715E+07         0.00000E+00
    0.12715E+07        -0.49306E+08         0.00000E+00
    0.00000E+00         0.00000E+00        -0.63392E-09
 
    0.64054E+05         0.13320E+07         0.00000E+00
    0.13320E+07        -0.49415E+08         0.00000E+00
    0.00000E+00         0.00000E+00        -0.63437E-09
 
    0.65945E+05         0.13943E+07         0.00000E+00
    0.13943E+07        -0.49531E+08         0.00000E+00
    0.00000E+00         0.00000E+00         0.44402E-08
 
    0.67703E+05         0.14582E+07         0.00000E+00
    0.14582E+07        -0.49656E+08         0.00000E+00
    0.00000E+00         0.00000E+00        -0.63437E-09
 
    0.69288E+05         0.15236E+07         0.00000E+00
    0.15236E+07        -0.49790E+08         0.00000E+00
    0.00000E+00         0.00000E+00         0.38058E-08
 
    0.70658E+05         0.15902E+07         0.00000E+00
    0.15902E+07        -0.49934E+08         0.00000E+00
    0.00000E+00         0.00000E+00         0.12678E-08
 
    0.71767E+05         0.16578E+07         0.00000E+00
    0.16578E+07        -0.50088E+08         0.00000E+00
    0.00000E+00         0.00000E+00         0.00000E+00
 
    0.72560E+05         0.17261E+07         0.00000E+00
    0.17261E+07        -0.50255E+08         0.00000E+00
    0.00000E+00         0.00000E+00         0.76116E-08
 
    0.72980E+05         0.17948E+07         0.00000E+00
    0.17948E+07        -0.50435E+08         0.00000E+00
    0.00000E+00         0.00000E+00         0.19036E-08
 
    0.72964E+05         0.18633E+07         0.00000E+00
    0.18633E+07        -0.50629E+08         0.00000E+00
    0.00000E+00         0.00000E+00        -0.38053E-08
 
    0.72447E+05         0.19312E+07         0.00000E+00
    0.19312E+07        -0.50838E+08         0.00000E+00
    0.00000E+00         0.00000E+00        -0.57089E-08
 
    0.71357E+05         0.19980E+07         0.00000E+00
    0.19980E+07        -0.51064E+08         0.00000E+00
    0.00000E+00         0.00000E+00         0.38053E-08
 
    0.69625E+05         0.20629E+07         0.00000E+00
    0.20629E+07        -0.51309E+08         0.00000E+00
    0.00000E+00         0.00000E+00         0.38053E-08
 
    0.67177E+05         0.21254E+07         0.00000E+00
    0.21254E+07        -0.51573E+08         0.00000E+00
    0.00000E+00         0.00000E+00        -0.12687E-08
 
    0.63944E+05         0.21845E+07         0.00000E+00
    0.21845E+07        -0.51860E+08         0.00000E+00
    0.00000E+00         0.00000E+00        -0.44392E-08
 
    0.59862E+05         0.22396E+07         0.00000E+00
    0.22396E+07        -0.52170E+08         0.00000E+00
    0.00000E+00         0.00000E+00        -0.12697E-08
 
    0.54873E+05         0.22895E+07         0.00000E+00
    0.22895E+07        -0.52506E+08         0.00000E+00
    0.00000E+00         0.00000E+00        -0.57080E-08
 
    0.48931E+05         0.23336E+07         0.00000E+00
    0.23336E+07        -0.52869E+08         0.00000E+00
    0.00000E+00         0.00000E+00        -0.38053E-08
 
    0.42003E+05         0.23706E+07         0.00000E+00
    0.23706E+07        -0.53261E+08         0.00000E+00
    0.00000E+00         0.00000E+00         0.12678E-08
 
    0.34071E+05         0.23997E+07         0.00000E+00
    0.23997E+07        -0.53684E+08         0.00000E+00
    0.00000E+00         0.00000E+00        -0.38053E-08
 
    0.25129E+05         0.24199E+07         0.00000E+00
    0.24199E+07        -0.54139E+08         0.00000E+00
    0.00000E+00         0.00000E+00         0.31723E-08
 
    0.15180E+05         0.24301E+07         0.00000E+00
    0.24301E+07        -0.54627E+08         0.00000E+00
    0.00000E+00         0.00000E+00         0.50750E-08
 
    0.42194E+04         0.24295E+07         0.00000E+00
    0.24295E+07        -0.55148E+08         0.00000E+00
    0.00000E+00         0.00000E+00        -0.38053E-08
 
   -0.77906E+04         0.24172E+07         0.00000E+00
    0.24172E+07        -0.55702E+08         0.00000E+00
    0.00000E+00         0.00000E+00        -0.50750E-08
 
   -0.20970E+05         0.23921E+07         0.00000E+00
    0.23921E+07        -0.56286E+08         0.00000E+00
    0.00000E+00         0.00000E+00         0.00000E+00
 
   -0.35598E+05         0.23533E+07         0.00000E+00
    0.23533E+07        -0.56898E+08         0.00000E+00
    0.00000E+00         0.00000E+00        -0.63301E-09
 
   -0.52244E+05         0.22993E+07         0.00000E+00
    0.22993E+07        -0.57530E+08         0.00000E+00
    0.00000E+00         0.00000E+00        -0.19045E-08
 
   -0.71957E+05         0.22279E+07         0.00000E+00
    0.22279E+07        -0.58176E+08         0.00000E+00
    0.00000E+00         0.00000E+00        -0.12678E-08
 
   -0.96555E+05         0.21357E+07         0.00000E+00
    0.21357E+07        -0.58824E+08         0.00000E+00
    0.00000E+00         0.00000E+00         0.31705E-08
 
   -0.12910E+06         0.20168E+07         0.00000E+00
    0.20168E+07        -0.59461E+08         0.00000E+00
    0.00000E+00         0.00000E+00         0.38053E-08
 
   -0.17449E+06         0.18615E+07         0.00000E+00
    0.18615E+07        -0.60070E+08         0.00000E+00
    0.00000E+00         0.00000E+00         0.12678E-08
 
   -0.24126E+06         0.16536E+07         0.00000E+00
    0.16536E+07        -0.60629E+08         0.00000E+00
    0.00000E+00         0.00000E+00        -0.44402E-08
 
   -0.34377E+06         0.13670E+07         0.00000E+00
    0.13670E+07        -0.61118E+08         0.00000E+00
    0.00000E+00         0.00000E+00        -0.38053E-08
 
   -0.51650E+06         0.94763E+06         0.00000E+00
    0.94763E+06        -0.61497E+08         0.00000E+00
    0.00000E+00         0.00000E+00        -0.12674E-08
 
   -0.90984E+06         0.34764E+06         0.00000E+00
    0.34764E+06        -0.61706E+08         0.00000E+00
    0.00000E+00         0.00000E+00         0.12697E-08
 
    0.14211E+05         0.40943E+04         0.00000E+00
    0.40943E+04        -0.47587E+08         0.00000E+00
    0.00000E+00         0.00000E+00         0.31713E-08
 
    0.10948E+05         0.11863E+05         0.00000E+00
    0.11863E+05        -0.47588E+08         0.00000E+00
    0.00000E+00         0.00000E+00        -0.19028E-08
 
    0.93318E+04         0.18733E+05         0.00000E+00
    0.18733E+05        -0.47591E+08         0.00000E+00
    0.00000E+00         0.00000E+00        -0.12685E-08
 
    0.84019E+04         0.24824E+05         0.00000E+00
    0.24824E+05        -0.47595E+08         0.00000E+00
    0.00000E+00         0.00000E+00         0.63426E-09
 
    0.78254E+04         0.30436E+05         0.00000E+00
    0.30436E+05        -0.47600E+08         0.00000E+00
    0.00000E+00         0.00000E+00         0.25370E-08
 
    0.74701E+04         0.35757E+05         0.00000E+00
    0.35757E+05        -0.47606E+08         0.00000E+00
    0.00000E+00         0.00000E+00         0.19028E-08
 
    0.72574E+04         0.40901E+05         0.00000E+00
    0.40901E+05        -0.47612E+08         0.00000E+00
    0.00000E+00         0.00000E+00        -0.31713E-08
 
    0.71409E+04         0.45945E+05         0.00000E+00
    0.45945E+05        -0.47618E+08         0.00000E+00
    0.00000E+00         0.00000E+00        -0.57083E-08
 
    0.70921E+04         0.50941E+05         0.00000E+00
    0.50941E+05        -0.47625E+08         0.00000E+00
    0.00000E+00         0.00000E+00         0.25370E-08
 
    0.70940E+04         0.55924E+05         0.00000E+00
    0.55924E+05        -0.47631E+08         0.00000E+00
    0.00000E+00         0.00000E+00         0.63426E-09
 
    0.71371E+04         0.60923E+05         0.00000E+00
    0.60923E+05        -0.47638E+08         0.00000E+00
    0.00000E+00         0.00000E+00         0.44398E-08
 
    0.72163E+04         0.65962E+05         0.00000E+00
    0.65962E+05        -0.47645E+08         0.00000E+00
    0.00000E+00         0.00000E+00         0.00000E+00
 
    0.73293E+04         0.71062E+05         0.00000E+00
    0.71062E+05        -0.47653E+08         0.00000E+00
    0.00000E+00         0.00000E+00         0.19028E-08
 
    0.74757E+04         0.76246E+05         0.00000E+00
    0.76246E+05        -0.47660E+08         0.00000E+00
    0.00000E+00         0.00000E+00        -0.50741E-08
 
    0.76557E+04         0.81535E+05         0.00000E+00
    0.81535E+05        -0.47667E+08         0.00000E+00
    0.00000E+00         0.00000E+00         0.63426E-09
 
    0.78698E+04         0.86952E+05         0.00000E+00
    0.86952E+05        -0.47675E+08         0.00000E+00
    0.00000E+00         0.00000E+00        -0.19028E-08
 
    0.81189E+04         0.92521E+05         0.00000E+00
    0.92521E+05        -0.47682E+08         0.00000E+00
    0.00000E+00         0.00000E+00        -0.31713E-08
 
    0.84038E+04         0.98267E+05         0.00000E+00
    0.98267E+05        -0.47690E+08         0.00000E+00
    0.00000E+00         0.00000E+00         0.82454E-08
 
    0.87252E+04         0.10421E+06         0.00000E+00
    0.10421E+06        -0.47698E+08         0.00000E+00
    0.00000E+00         0.00000E+00        -0.19028E-08
 
    0.90839E+04         0.11039E+06         0.00000E+00
    0.11039E+06        -0.47706E+08         0.00000E+00
    0.00000E+00         0.00000E+00         0.76111E-08
 
    0.94804E+04         0.11681E+06         0.00000E+00
    0.11681E+06        -0.47715E+08         0.00000E+00
    0.00000E+00         0.00000E+00        -0.12685E-08
 
    0.99155E+04         0.12352E+06         0.00000E+00
    0.12352E+06        -0.47724E+08         0.00000E+00
    0.00000E+00         0.00000E+00        -0.19028E-08
 
    0.10390E+05         0.13054E+06         0.00000E+00
    0.13054E+06        -0.47733E+08         0.00000E+00
    0.00000E+00         0.00000E+00        -0.63426E-09
 
    0.10904E+05         0.13788E+06         0.00000E+00
    0.13788E+06        -0.47742E+08         0.00000E+00
    0.00000E+00         0.00000E+00        -0.38056E-08
 
    0.11459E+05         0.14560E+06         0.00000E+00
    0.14560E+06        -0.47752E+08         0.00000E+00
    0.00000E+00         0.00000E+00         0.63426E-09
 
    0.12055E+05         0.15370E+06         0.00000E+00
    0.15370E+06        -0.47762E+08         0.00000E+00
    0.00000E+00         0.00000E+00         0.00000E+00
 
    0.12693E+05         0.16222E+06         0.00000E+00
    0.16222E+06        -0.47773E+08         0.00000E+00
    0.00000E+00         0.00000E+00        -0.25370E-08
 
    0.13375E+05         0.17119E+06         0.00000E+00
    0.17119E+06        -0.47784E+08         0.00000E+00
    0.00000E+00         0.00000E+00         0.63426E-09
 
    0.14102E+05         0.18065E+06         0.00000E+00
    0.18065E+06        -0.47796E+08         0.00000E+00
    0.00000E+00         0.00000E+00         0.00000E+00
 
    0.14874E+05         0.19061E+06         0.00000E+00
    0.19061E+06        -0.47809E+08         0.00000E+00
    0.00000E+00         0.00000E+00         0.31712E-08
 
    0.15694E+05         0.20112E+06         0.00000E+00
    0.20112E+06        -0.47822E+08         0.00000E+00
    0.00000E+00         0.00000E+00         0.19028E-08
 
    0.16563E+05         0.21221E+06         0.00000E+00
    0.21221E+06        -0.47835E+08         0.00000E+00
    0.00000E+00         0.00000E+00         0.82454E-08
 
    0.17483E+05         0.22390E+06         0.00000E+00
    0.22390E+06        -0.47850E+08         0.00000E+00
    0.00000E+00         0.00000E+00         0.88796E-08
 
    0.18455E+05         0.23625E+06         0.00000E+00
    0.23625E+06        -0.47865E+08         0.00000E+00
    0.00000E+00         0.00000E+00         0.00000E+00
 
    0.19481E+05         0.24928E+06         0.00000E+00
    0.24928E+06        -0.47881E+08         0.00000E+00
    0.00000E+00         0.00000E+00         0.12685E-08
 
    0.20564E+05         0.26302E+06         0.00000E+00
    0.26302E+06        -0.47898E+08         0.00000E+00
    0.00000E+00         0.00000E+00        -0.57082E-08
 
    0.21706E+05         0.27754E+06         0.00000E+00
    0.27754E+06        -0.47916E+08         0.00000E+00
    0.00000E+00         0.00000E+00        -0.12685E-08
 
    0.22909E+05         0.29285E+06         0.00000E+00
    0.29285E+06        -0.47935E+08         0.00000E+00
    0.00000E+00         0.00000E+00         0.12685E-08
 
    0.24175E+05         0.30900E+06         0.00000E+00
    0.30900E+06        -0.47955E+08         0.00000E+00
    0.00000E+00         0.00000E+00         0.12685E-08
 
    0.25507E+05         0.32605E+06         0.00000E+00
    0.32605E+06        -0.47976E+08         0.00000E+00
    0.00000E+00         0.00000E+00        -0.50741E-08
 
    0.26907E+05         0.34402E+06         0.00000E+00
    0.34402E+06        -0.47998E+08         0.00000E+00
    0.00000E+00         0.00000E+00        -0.19028E-08
 
    0.28377E+05         0.36298E+06         0.00000E+00
    0.36298E+06        -0.48022E+08         0.00000E+00
    0.00000E+00         0.00000E+00        -0.31713E-08
 
    0.29921E+05         0.38297E+06         0.00000E+00
    0.38297E+06        -0.48047E+08         0.00000E+00
    0.00000E+00         0.00000E+00        -0.12685E-08
 
    0.31540E+05         0.40404E+06         0.00000E+00
    0.40404E+06        -0.48073E+08         0.00000E+00
    0.00000E+00         0.00000E+00        -0.31713E-08
 
    0.33237E+05         0.42623E+06         0.00000E+00
    0.42623E+06        -0.48101E+08         0.00000E+00
    0.00000E+00         0.00000E+00         0.12685E-08
 
    0.35015E+05         0.44962E+06         0.00000E+00
    0.44962E+06        -0.48131E+08         0.00000E+00
    0.00000E+00         0.00000E+00         0.57083E-08
 
    0.36874E+05         0.47424E+06         0.00000E+00
    0.47424E+06        -0.48162E+08         0.00000E+00
    0.00000E+00         0.00000E+00         0.00000E+00
 
    0.38818E+05         0.50016E+06         0.00000E+00
    0.50016E+06        -0.48195E+08         0.00000E+00
    0.00000E+00         0.00000E+00        -0.19029E-08
 
    0.40848E+05         0.52742E+06         0.00000E+00
    0.52742E+06        -0.48231E+08         0.00000E+00
    0.00000E+00         0.00000E+00        -0.31714E-08
 
    0.42965E+05         0.55610E+06         0.00000E+00
    0.55610E+06        -0.48268E+08         0.00000E+00
    0.00000E+00         0.00000E+00        -0.25373E-08
 
    0.45171E+05         0.58625E+06         0.00000E+00
    0.58625E+06        -0.48308E+08         0.00000E+00
    0.00000E+00         0.00000E+00        -0.38056E-08
 
    0.47465E+05         0.61792E+06         0.00000E+00
    0.61792E+06        -0.48350E+08         0.00000E+00
    0.00000E+00         0.00000E+00        -0.19027E-08
 
    0.49847E+05         0.65118E+06         0.00000E+00
    0.65118E+06        -0.48395E+08         0.00000E+00
    0.00000E+00         0.00000E+00         0.12687E-08
 
    0.52317E+05         0.68607E+06         0.00000E+00
    0.68607E+06        -0.48442E+08         0.00000E+00
    0.00000E+00         0.00000E+00        -0.63437E-09
 
    0.54872E+05         0.72267E+06         0.00000E+00
    0.72267E+06        -0.48493E+08         0.00000E+00
    0.00000E+00         0.00000E+00        -0.25370E-08
 
    0.57510E+05         0.76101E+06         0.00000E+00
    0.76101E+06        -0.48546E+08         0.00000E+00
    0.00000E+00         0.00000E+00         0.63415E-09
 
    0.60226E+05         0.80115E+06         0.00000E+00
    0.80115E+06        -0.48603E+08         0.00000E+00
    0.00000E+00         0.00000E+00        -0.44397E-08
 
    0.63014E+05         0.84314E+06         0.00000E+00
    0.84314E+06        -0.48664E+08         0.00000E+00
    0.00000E+00         0.00000E+00        -0.12687E-08
 
    0.65867E+05         0.88702E+06         0.00000E+00
    0.88702E+06        -0.48729E+08         0.00000E+00
    0.00000E+00         0.00000E+00        -0.25370E-08
 
    0.68776E+05         0.93282E+06         0.00000E+00
    0.93282E+06        -0.48798E+08         0.00000E+00
    0.00000E+00         0.00000E+00        -0.19027E-08
 
    0.71728E+05         0.98057E+06         0.00000E+00
    0.98057E+06        -0.48871E+08         0.00000E+00
    0.00000E+00         0.00000E+00         0.63437E-09
 
    0.74709E+05         0.10303E+07         0.00000E+00
    0.10303E+07        -0.48949E+08         0.00000E+00
    0.00000E+00         0.00000E+00         0.12687E-08
 
    0.77701E+05         0.10819E+07         0.00000E+00
    0.10819E+07        -0.49032E+08         0.00000E+00
    0.00000E+00         0.00000E+00         0.25366E-08
 
    0.80682E+05         0.11356E+07         0.00000E+00
    0.11356E+07        -0.49121E+08         0.00000E+00
    0.00000E+00         0.00000E+00         0.00000E+00
 
    0.83628E+05         0.11911E+07         0.00000E+00
    0.11911E+07        -0.49217E+08         0.00000E+00
    0.00000E+00         0.00000E+00         0.95142E-08
 
    0.86509E+05         0.12485E+07         0.00000E+00
    0.12485E+07        -0.49318E+08         0.00000E+00
    0.00000E+00         0.00000E+00         0.25370E-08
 
    0.89290E+05         0.13078E+07         0.00000E+00
    0.13078E+07        -0.49427E+08         0.00000E+00
    0.00000E+00         0.00000E+00         0.82455E-08
 
    0.91930E+05         0.13687E+07         0.00000E+00
    0.13687E+07        -0.49544E+08         0.00000E+00
    0.00000E+00         0.00000E+00        -0.12683E-08
 
    0.94384E+05         0.14311E+07         0.00000E+00
    0.14311E+07        -0.49669E+08         0.00000E+00
    0.00000E+00         0.00000E+00         0.50741E-08
 
    0.96599E+05         0.14950E+07         0.00000E+00
    0.14950E+07        -0.49803E+08         0.00000E+00
    0.00000E+00         0.00000E+00         0.57080E-08
 
    0.98515E+05         0.15600E+07         0.00000E+00
    0.15600E+07        -0.49947E+08         0.00000E+00
    0.00000E+00         0.00000E+00        -0.63392E-09
 
    0.10007E+06         0.16259E+07         0.00000E+00
    0.16259E+07        -0.50102E+08         0.00000E+00
    0.00000E+00         0.00000E+00        -0.12687E-08
 
    0.10118E+06         0.16924E+07         0.00000E+00
    0.16924E+07        -0.50269E+08         0.00000E+00
    0.00000E+00         0.00000E+00         0.76107E-08
 
    0.10177E+06         0.17591E+07         0.00000E+00
    0.17591E+07        -0.50448E+08         0.00000E+00
    0.00000E+00         0.00000E+00         0.31714E-08
 
    0.10175E+06         0.18256E+07         0.00000E+00
    0.18256E+07        -0.50642E+08         0.00000E+00
    0.00000E+00         0.00000E+00         0.12697E-08
 
    0.10104E+06         0.18913E+07         0.00000E+00
    0.18913E+07        -0.50851E+08         0.00000E+00
    0.00000E+00         0.00000E+00        -0.90949E-12
 
    0.99518E+05         0.19558E+07         0.00000E+00
    0.19558E+07        -0.51077E+08         0.00000E+00
    0.00000E+00         0.00000E+00        -0.50732E-08
 
    0.97099E+05         0.20183E+07         0.00000E+00
    0.20183E+07        -0.51321E+08         0.00000E+00
    0.00000E+00         0.00000E+00         0.12687E-08
 
    0.93677E+05         0.20782E+07         0.00000E+00
    0.20782E+07        -0.51585E+08         0.00000E+00
    0.00000E+00         0.00000E+00         0.38053E-08
 
    0.89152E+05         0.21346E+07         0.00000E+00
    0.21346E+07        -0.51871E+08         0.00000E+00
    0.00000E+00         0.00000E+00        -0.63392E-09
 
    0.83429E+05         0.21867E+07         0.00000E+00
    0.21867E+07        -0.52180E+08         0.00000E+00
    0.00000E+00         0.00000E+00        -0.31705E-08
 
    0.76424E+05         0.22335E+07         0.00000E+00
    0.22335E+07        -0.52515E+08         0.00000E+00
    0.00000E+00         0.00000E+00         0.63428E-08
 
    0.68067E+05         0.22741E+07         0.00000E+00
    0.22741E+07        -0.52877E+08         0.00000E+00
    0.00000E+00         0.00000E+00         0.57098E-08
 
    0.58304E+05         0.23076E+07         0.00000E+00
    0.23076E+07        -0.53267E+08         0.00000E+00
    0.00000E+00         0.00000E+00        -0.44402E-08
 
    0.47100E+05         0.23328E+07         0.00000E+00
    0.23328E+07        -0.53689E+08         0.00000E+00
    0.00000E+00         0.00000E+00         0.00000E+00
 
    0.34435E+05         0.23487E+07         0.00000E+00
    0.23487E+07        -0.54142E+08         0.00000E+00
    0.00000E+00         0.00000E+00         0.38053E-08
 
    0.20301E+05         0.23545E+07         0.00000E+00
    0.23545E+07        -0.54628E+08         0.00000E+00
    0.00000E+00         0.00000E+00        -0.12697E-08
 
    0.46754E+04         0.23491E+07         0.00000E+00
    0.23491E+07        -0.55147E+08         0.00000E+00
    0.00000E+00         0.00000E+00         0.25375E-08
 
   -0.12511E+05         0.23315E+07         0.00000E+00
    0.23315E+07        -0.55698E+08         0.00000E+00
    0.00000E+00         0.00000E+00         0.63483E-09
 
   -0.31443E+05         0.23010E+07         0.00000E+00
    0.23010E+07        -0.56279E+08         0.00000E+00
    0.00000E+00         0.00000E+00         0.12678E-08
 
   -0.52526E+05         0.22563E+07         0.00000E+00
    0.22563E+07        -0.56888E+08         0.00000E+00
    0.00000E+00         0.00000E+00        -0.31705E-08
 
   -0.76562E+05         0.21962E+07         0.00000E+00
    0.21962E+07        -0.57517E+08         0.00000E+00
    0.00000E+00         0.00000E+00         0.19045E-08
 
   -0.10501E+06         0.21185E+07         0.00000E+00
    0.21185E+07        -0.58159E+08         0.00000E+00
    0.00000E+00         0.00000E+00         0.31723E-08
 
   -0.14039E+06         0.20201E+07         0.00000E+00
    0.20201E+07        -0.58803E+08         0.00000E+00
    0.00000E+00         0.00000E+00        -0.19027E-08
 
   -0.18687E+06         0.18954E+07         0.00000E+00
    0.18954E+07        -0.59434E+08         0.00000E+00
    0.00000E+00         0.00000E+00         0.31723E-08
 
   -0.25125E+06         0.17353E+07         0.00000E+00
    0.17353E+07        -0.60034E+08         0.00000E+00
    0.00000E+00         0.00000E+00         0.00000E+00
 
   -0.34499E+06         0.15248E+07         0.00000E+00
    0.15248E+07        -0.60581E+08         0.00000E+00
    0.00000E+00         0.00000E+00         0.18190E-11
 
   -0.48739E+06         0.12389E+07         0.00000E+00
    0.12389E+07        -0.61050E+08         0.00000E+00
    0.00000E+00         0.00000E+00         0.12687E-08
 
   -0.72716E+06         0.83550E+06         0.00000E+00
    0.83550E+06        -0.61398E+08         0.00000E+00
    0.00000E+00         0.00000E+00        -0.12699E-08
 
   -0.12047E+07         0.29900E+06         0.00000E+00
    0.29900E+06        -0.61579E+08         0.00000E+00
    0.00000E+00         0.00000E+00         0.38053E-08
 
    0.17704E+05         0.37912E+04         0.00000E+00
    0.37912E+04        -0.47589E+08         0.00000E+00
    0.00000E+00         0.00000E+00         0.38056E-08
 
    0.14021E+05         0.11098E+05         0.00000E+00
    0.11098E+05        -0.47590E+08         0.00000E+00
    0.00000E+00         0.00000E+00         0.50741E-08
 
    0.12006E+05         0.17748E+05         0.00000E+00
    0.17748E+05        -0.47593E+08         0.00000E+00
    0.00000E+00         0.00000E+00        -0.88796E-08
 
    0.10822E+05         0.23738E+05         0.00000E+00
    0.23738E+05        -0.47597E+08         0.00000E+00
    0.00000E+00         0.00000E+00         0.00000E+00
 
    0.10081E+05         0.29286E+05         0.00000E+00
    0.29286E+05        -0.47601E+08         0.00000E+00
    0.00000E+00         0.00000E+00         0.25370E-08
 
    0.96183E+04         0.34560E+05         0.00000E+00
    0.34560E+05        -0.47607E+08         0.00000E+00
    0.00000E+00         0.00000E+00         0.00000E+00
 
    0.93369E+04         0.39666E+05         0.00000E+00
    0.39666E+05        -0.47613E+08         0.00000E+00
    0.00000E+00         0.00000E+00         0.25370E-08
 
    0.91786E+04         0.44675E+05         0.00000E+00
    0.44675E+05        -0.47619E+08         0.00000E+00
    0.00000E+00         0.00000E+00         0.12685E-08
 
    0.91077E+04         0.49636E+05         0.00000E+00
    0.49636E+05        -0.47626E+08         0.00000E+00
    0.00000E+00         0.00000E+00         0.12685E-08
 
    0.91028E+04         0.54583E+05         0.00000E+00
    0.54583E+05        -0.47632E+08         0.00000E+00
    0.00000E+00         0.00000E+00        -0.25370E-08
 
    0.91517E+04         0.59542E+05         0.00000E+00
    0.59542E+05        -0.47639E+08         0.00000E+00
    0.00000E+00         0.00000E+00         0.63426E-08
 
    0.92480E+04         0.64537E+05         0.00000E+00
    0.64537E+05        -0.47646E+08         0.00000E+00
    0.00000E+00         0.00000E+00        -0.38056E-08
 
    0.93886E+04         0.69588E+05         0.00000E+00
    0.69588E+05        -0.47654E+08         0.00000E+00
    0.00000E+00         0.00000E+00         0.76111E-08
 
    0.95727E+04         0.74718E+05         0.00000E+00
    0.74718E+05        -0.47661E+08         0.00000E+00
    0.00000E+00         0.00000E+00         0.00000E+00
 
    0.98005E+04         0.79947E+05         0.00000E+00
    0.79947E+05        -0.47668E+08         0.00000E+00
    0.00000E+00         0.00000E+00         0.25370E-08
 
    0.10073E+05         0.85299E+05         0.00000E+00
    0.85299E+05        -0.47676E+08         0.00000E+00
    0.00000E+00         0.00000E+00        -0.25370E-08
 
    0.10390E+05         0.90798E+05         0.00000E+00
    0.90798E+05        -0.47683E+08         0.00000E+00
    0.00000E+00         0.00000E+00        -0.10148E-07
 
    0.10754E+05         0.96467E+05         0.00000E+00
    0.96467E+05        -0.47691E+08         0.00000E+00
    0.00000E+00         0.00000E+00        -0.12685E-08
 
    0.11164E+05         0.10233E+06         0.00000E+00
    0.10233E+06        -0.47699E+08         0.00000E+00
    0.00000E+00         0.00000E+00         0.10148E-07
 
    0.11623E+05         0.10842E+06         0.00000E+00
    0.10842E+06        -0.47708E+08         0.00000E+00
    0.00000E+00         0.00000E+00        -0.25370E-08
 
    0.12130E+05         0.11475E+06         0.00000E+00
    0.11475E+06        -0.47716E+08         0.00000E+00
    0.00000E+00         0.00000E+00        -0.25370E-08
 
    0.12686E+05         0.12135E+06         0.00000E+00
    0.12135E+06        -0.47725E+08         0.00000E+00
    0.00000E+00         0.00000E+00        -0.63426E-08
 
    0.13293E+05         0.12826E+06         0.00000E+00
    0.12826E+06        -0.47734E+08         0.00000E+00
    0.00000E+00         0.00000E+00        -0.50741E-08
 
    0.13951E+05         0.13549E+06         0.00000E+00
    0.13549E+06        -0.47744E+08         0.00000E+00
    0.00000E+00         0.00000E+00         0.76111E-08
 
    0.14661E+05         0.14308E+06         0.00000E+00
    0.14308E+06        -0.47754E+08         0.00000E+00
    0.00000E+00         0.00000E+00        -0.12685E-08
 
    0.15424E+05         0.15105E+06         0.00000E+00
    0.15105E+06        -0.47764E+08         0.00000E+00
    0.00000E+00         0.00000E+00         0.00000E+00
 
    0.16241E+05         0.15944E+06         0.00000E+00
    0.15944E+06        -0.47775E+08         0.00000E+00
    0.00000E+00         0.00000E+00        -0.38056E-08
 
    0.17113E+05         0.16826E+06         0.00000E+00
    0.16826E+06        -0.47786E+08         0.00000E+00
    0.00000E+00         0.00000E+00        -0.12685E-08
 
    0.18043E+05         0.17756E+06         0.00000E+00
    0.17756E+06        -0.47798E+08         0.00000E+00
    0.00000E+00         0.00000E+00        -0.63426E-08
 
    0.19032E+05         0.18736E+06         0.00000E+00
    0.18736E+06        -0.47811E+08         0.00000E+00
    0.00000E+00         0.00000E+00        -0.56843E-13
 
    0.20081E+05         0.19769E+06         0.00000E+00
    0.19769E+06        -0.47824E+08         0.00000E+00
    0.00000E+00         0.00000E+00         0.38056E-08
 
    0.21193E+05         0.20859E+06         0.00000E+00
    0.20859E+06        -0.47838E+08         0.00000E+00
    0.00000E+00         0.00000E+00        -0.12685E-08
 
    0.22370E+05         0.22009E+06         0.00000E+00
    0.22009E+06        -0.47852E+08         0.00000E+00
    0.00000E+00         0.00000E+00         0.38056E-08
 
    0.23614E+05         0.23222E+06         0.00000E+00
    0.23222E+06        -0.47868E+08         0.00000E+00
    0.00000E+00         0.00000E+00         0.00000E+00
 
    0.24927E+05         0.24503E+06         0.00000E+00
    0.24503E+06        -0.47884E+08         0.00000E+00
    0.00000E+00         0.00000E+00         0.25370E-08
 
    0.26313E+05         0.25855E+06         0.00000E+00
    0.25855E+06        -0.47901E+08         0.00000E+00
    0.00000E+00         0.00000E+00        -0.88796E-08
 
    0.27774E+05         0.27281E+06         0.00000E+00
    0.27281E+06        -0.47919E+08         0.00000E+00
    0.00000E+00         0.00000E+00        -0.50741E-08
 
    0.29313E+05         0.28786E+06         0.00000E+00
    0.28786E+06        -0.47938E+08         0.00000E+00
    0.00000E+00         0.00000E+00        -0.88796E-08
 
    0.30933E+05         0.30373E+06         0.00000E+00
    0.30373E+06        -0.47958E+08         0.00000E+00
    0.00000E+00         0.00000E+00         0.25369E-08
 
    0.32637E+05         0.32048E+06         0.00000E+00
    0.32048E+06        -0.47979E+08         0.00000E+00
    0.00000E+00         0.00000E+00        -0.25370E-08
 
    0.34429E+05         0.33815E+06         0.00000E+00
    0.33815E+06        -0.48002E+08         0.00000E+00
    0.00000E+00         0.00000E+00        -0.50741E-08
 
    0.36311E+05         0.35678E+06         0.00000E+00
    0.35678E+06        -0.48026E+08         0.00000E+00
    0.00000E+00         0.00000E+00         0.13954E-07
 
    0.38286E+05         0.37642E+06         0.00000E+00
    0.37642E+06        -0.48051E+08         0.00000E+00
    0.00000E+00         0.00000E+00         0.25370E-08
 
    0.40358E+05         0.39712E+06         0.00000E+00
    0.39712E+06        -0.48077E+08         0.00000E+00
    0.00000E+00         0.00000E+00         0.25370E-08
 
    0.42530E+05         0.41893E+06         0.00000E+00
    0.41893E+06        -0.48106E+08         0.00000E+00
    0.00000E+00         0.00000E+00        -0.38056E-08
 
    0.44805E+05         0.44190E+06         0.00000E+00
    0.44190E+06        -0.48136E+08         0.00000E+00
    0.00000E+00         0.00000E+00         0.88796E-08
 
    0.47185E+05         0.46608E+06         0.00000E+00
    0.46608E+06        -0.48167E+08         0.00000E+00
    0.00000E+00         0.00000E+00         0.12685E-08
 
    0.49673E+05         0.49154E+06         0.00000E+00
    0.49154E+06        -0.48201E+08         0.00000E+00
    0.00000E+00         0.00000E+00        -0.12685E-08
 
    0.52270E+05         0.51832E+06         0.00000E+00
    0.51832E+06        -0.48236E+08         0.00000E+00
    0.00000E+00         0.00000E+00        -0.12685E-08
 
    0.54980E+05         0.54649E+06         0.00000E+00
    0.54649E+06        -0.48274E+08         0.00000E+00
    0.00000E+00         0.00000E+00        -0.25370E-08
 
    0.57803E+05         0.57609E+06         0.00000E+00
    0.57609E+06        -0.48314E+08         0.00000E+00
    0.00000E+00         0.00000E+00         0.16491E-07
 
    0.60739E+05         0.60719E+06         0.00000E+00
    0.60719E+06        -0.48357E+08         0.00000E+00
    0.00000E+00         0.00000E+00         0.50741E-08
 
    0.63788E+05         0.63984E+06         0.00000E+00
    0.63984E+06        -0.48402E+08         0.00000E+00
    0.00000E+00         0.00000E+00         0.12685E-08
 
    0.66949E+05         0.67410E+06         0.00000E+00
    0.67410E+06        -0.48449E+08         0.00000E+00
    0.00000E+00         0.00000E+00         0.00000E+00
 
    0.70220E+05         0.71001E+06         0.00000E+00
    0.71001E+06        -0.48500E+08         0.00000E+00
    0.00000E+00         0.00000E+00        -0.63426E-08
 
    0.73596E+05         0.74764E+06         0.00000E+00
    0.74764E+06        -0.48554E+08         0.00000E+00
    0.00000E+00         0.00000E+00        -0.25370E-08
 
    0.77073E+05         0.78703E+06         0.00000E+00
    0.78703E+06        -0.48612E+08         0.00000E+00
    0.00000E+00         0.00000E+00         0.12685E-08
 
    0.80642E+05         0.82822E+06         0.00000E+00
    0.82822E+06        -0.48673E+08         0.00000E+00
    0.00000E+00         0.00000E+00         0.12685E-08
 
    0.84296E+05         0.87126E+06         0.00000E+00
    0.87126E+06        -0.48738E+08         0.00000E+00
    0.00000E+00         0.00000E+00        -0.45475E-12
 
    0.88020E+05         0.91617E+06         0.00000E+00
    0.91617E+06        -0.48807E+08         0.00000E+00
    0.00000E+00         0.00000E+00        -0.63428E-08
 
    0.91800E+05         0.96298E+06         0.00000E+00
    0.96298E+06        -0.48881E+08         0.00000E+00
    0.00000E+00         0.00000E+00         0.12687E-08
 
    0.95618E+05         0.10117E+07         0.00000E+00
    0.10117E+07        -0.48959E+08         0.00000E+00
    0.00000E+00         0.00000E+00         0.76116E-08
 
    0.99450E+05         0.10623E+07         0.00000E+00
    0.10623E+07        -0.49043E+08         0.00000E+00
    0.00000E+00         0.00000E+00         0.63424E-08
 
    0.10327E+06         0.11149E+07         0.00000E+00
    0.11149E+07        -0.49132E+08         0.00000E+00
    0.00000E+00         0.00000E+00        -0.88799E-08
 
    0.10704E+06         0.11692E+07         0.00000E+00
    0.11692E+07        -0.49228E+08         0.00000E+00
    0.00000E+00         0.00000E+00        -0.25370E-08
 
    0.11074E+06         0.12254E+07         0.00000E+00
    0.12254E+07        -0.49330E+08         0.00000E+00
    0.00000E+00         0.00000E+00        -0.76111E-08
 
    0.11430E+06         0.12834E+07         0.00000E+00
    0.12834E+07        -0.49439E+08         0.00000E+00
    0.00000E+00         0.00000E+00         0.63428E-08
 
    0.11769E+06         0.13429E+07         0.00000E+00
    0.13429E+07        -0.49556E+08         0.00000E+00
    0.00000E+00         0.00000E+00        -0.63424E-08
 
    0.12084E+06         0.14039E+07         0.00000E+00
    0.14039E+07        -0.49681E+08         0.00000E+00
    0.00000E+00         0.00000E+00         0.63428E-08
 
    0.12368E+06         0.14662E+07         0.00000E+00
    0.14662E+07        -0.49816E+08         0.00000E+00
    0.00000E+00         0.00000E+00        -0.25370E-08
 
    0.12614E+06         0.15296E+07         0.00000E+00
    0.15296E+07        -0.49960E+08         0.00000E+00
    0.00000E+00         0.00000E+00         0.25375E-08
 
    0.12814E+06         0.15939E+07         0.00000E+00
    0.15939E+07        -0.50115E+08         0.00000E+00
    0.00000E+00         0.00000E+00         0.38053E-08
 
    0.12957E+06         0.16586E+07         0.00000E+00
    0.16586E+07        -0.50282E+08         0.00000E+00
    0.00000E+00         0.00000E+00        -0.63419E-08
 
    0.13034E+06         0.17234E+07         0.00000E+00
    0.17234E+07        -0.50462E+08         0.00000E+00
    0.00000E+00         0.00000E+00         0.25375E-08
 
    0.13033E+06         0.17879E+07         0.00000E+00
    0.17879E+07        -0.50655E+08         0.00000E+00
    0.00000E+00         0.00000E+00        -0.12678E-08
 
    0.12941E+06         0.18515E+07         0.00000E+00
    0.18515E+07        -0.50864E+08         0.00000E+00
    0.00000E+00         0.00000E+00        -0.50732E-08
 
    0.12748E+06         0.19138E+07         0.00000E+00
    0.19138E+07        -0.51090E+08         0.00000E+00
    0.00000E+00         0.00000E+00        -0.38062E-08
 
    0.12438E+06         0.19739E+07         0.00000E+00
    0.19739E+07        -0.51333E+08         0.00000E+00
    0.00000E+00         0.00000E+00        -0.11416E-07
 
    0.11999E+06         0.20312E+07         0.00000E+00
    0.20312E+07        -0.51597E+08         0.00000E+00
    0.00000E+00         0.00000E+00        -0.12687E-08
 
    0.11417E+06         0.20849E+07         0.00000E+00
    0.20849E+07        -0.51882E+08         0.00000E+00
    0.00000E+00         0.00000E+00        -0.76116E-08
 
    0.10681E+06         0.21341E+07         0.00000E+00
    0.21341E+07        -0.52190E+08         0.00000E+00
    0.00000E+00         0.00000E+00        -0.50750E-08
 
    0.97776E+05         0.21779E+07         0.00000E+00
    0.21779E+07        -0.52524E+08         0.00000E+00
    0.00000E+00         0.00000E+00         0.12686E-07
 
    0.86984E+05         0.22152E+07         0.00000E+00
    0.22152E+07        -0.52884E+08         0.00000E+00
    0.00000E+00         0.00000E+00        -0.25357E-08
 
    0.74349E+05         0.22451E+07         0.00000E+00
    0.22451E+07        -0.53273E+08         0.00000E+00
    0.00000E+00         0.00000E+00         0.25375E-08
 
    0.59816E+05         0.22665E+07         0.00000E+00
    0.22665E+07        -0.53693E+08         0.00000E+00
    0.00000E+00         0.00000E+00        -0.11416E-07
 
    0.43345E+05         0.22784E+07         0.00000E+00
    0.22784E+07        -0.54144E+08         0.00000E+00
    0.00000E+00         0.00000E+00         0.12697E-08
 
    0.24906E+05         0.22798E+07         0.00000E+00
    0.22798E+07        -0.54627E+08         0.00000E+00
    0.00000E+00         0.00000E+00        -0.25357E-08
 
    0.44529E+04         0.22696E+07         0.00000E+00
    0.22696E+07        -0.55144E+08         0.00000E+00
    0.00000E+00         0.00000E+00        -0.12678E-08
 
   -0.18124E+05         0.22470E+07         0.00000E+00
    0.22470E+07        -0.55693E+08         0.00000E+00
    0.00000E+00         0.00000E+00        -0.63428E-08
 
   -0.43081E+05         0.22110E+07         0.00000E+00
    0.22110E+07        -0.56271E+08         0.00000E+00
    0.00000E+00         0.00000E+00         0.76107E-08
 
   -0.70953E+05         0.21607E+07         0.00000E+00
    0.21607E+07        -0.56877E+08         0.00000E+00
    0.00000E+00         0.00000E+00         0.50732E-08
 
   -0.10277E+06         0.20946E+07         0.00000E+00
    0.20946E+07        -0.57503E+08         0.00000E+00
    0.00000E+00         0.00000E+00         0.11416E-07
 
   -0.14040E+06         0.20111E+07         0.00000E+00
    0.20111E+07        -0.58141E+08         0.00000E+00
    0.00000E+00         0.00000E+00        -0.63428E-08
 
   -0.18701E+06         0.19070E+07         0.00000E+00
    0.19070E+07        -0.58780E+08         0.00000E+00
    0.00000E+00         0.00000E+00        -0.12697E-08
 
   -0.24785E+06         0.17773E+07         0.00000E+00
    0.17773E+07        -0.59405E+08         0.00000E+00
    0.00000E+00         0.00000E+00        -0.12678E-08
 
   -0.33144E+06         0.16136E+07         0.00000E+00
    0.16136E+07        -0.59997E+08         0.00000E+00
    0.00000E+00         0.00000E+00        -0.13953E-07
 
   -0.45181E+06         0.14023E+07         0.00000E+00
    0.14023E+07        -0.60533E+08         0.00000E+00
    0.00000E+00         0.00000E+00        -0.13952E-07
 
   -0.63323E+06         0.11207E+07         0.00000E+00
    0.11207E+07        -0.60984E+08         0.00000E+00
    0.00000E+00         0.00000E+00        -0.15222E-07
 
   -0.93234E+06         0.73917E+06         0.00000E+00
    0.73917E+06        -0.61307E+08         0.00000E+00
    0.00000E+00         0.00000E+00         0.38044E-08
 
   -0.14716E+07         0.25985E+06         0.00000E+00
    0.25985E+06        -0.61468E+08         0.00000E+00
    0.00000E+00         0.00000E+00         0.15221E-07
 
    0.21026E+05         0.35333E+04         0.00000E+00
    0.35333E+04        -0.47590E+08         0.00000E+00
    0.00000E+00         0.00000E+00         0.88796E-08
 
    0.17027E+05         0.10418E+05         0.00000E+00
    0.10418E+05        -0.47591E+08         0.00000E+00
    0.00000E+00         0.00000E+00         0.50741E-08
 
    0.14668E+05         0.16825E+05         0.00000E+00
    0.16825E+05        -0.47594E+08         0.00000E+00
    0.00000E+00         0.00000E+00         0.63426E-08
 
    0.13241E+05         0.22692E+05         0.00000E+00
    0.22692E+05        -0.47598E+08         0.00000E+00
    0.00000E+00         0.00000E+00        -0.76111E-08
 
    0.12340E+05         0.28162E+05         0.00000E+00
    0.28162E+05        -0.47602E+08         0.00000E+00
    0.00000E+00         0.00000E+00         0.12685E-08
 
    0.11769E+05         0.33379E+05         0.00000E+00
    0.33379E+05        -0.47608E+08         0.00000E+00
    0.00000E+00         0.00000E+00         0.63426E-08
 
    0.11416E+05         0.38441E+05         0.00000E+00
    0.38441E+05        -0.47614E+08         0.00000E+00
    0.00000E+00         0.00000E+00        -0.12685E-08
 
    0.11213E+05         0.43412E+05         0.00000E+00
    0.43412E+05        -0.47620E+08         0.00000E+00
    0.00000E+00         0.00000E+00         0.38055E-08
 
    0.11117E+05         0.48335E+05         0.00000E+00
    0.48335E+05        -0.47627E+08         0.00000E+00
    0.00000E+00         0.00000E+00        -0.38056E-08
 
    0.11102E+05         0.53243E+05         0.00000E+00
    0.53243E+05        -0.47633E+08         0.00000E+00
    0.00000E+00         0.00000E+00         0.38056E-08
 
    0.11154E+05         0.58159E+05         0.00000E+00
    0.58159E+05        -0.47640E+08         0.00000E+00
    0.00000E+00         0.00000E+00         0.28422E-13
 
    0.11265E+05         0.63108E+05         0.00000E+00
    0.63108E+05        -0.47647E+08         0.00000E+00
    0.00000E+00         0.00000E+00        -0.25370E-08
 
    0.11431E+05         0.68108E+05         0.00000E+00
    0.68108E+05        -0.47655E+08         0.00000E+00
    0.00000E+00         0.00000E+00        -0.25370E-08
 
    0.11651E+05         0.73181E+05         0.00000E+00
    0.73181E+05        -0.47662E+08         0.00000E+00
    0.00000E+00         0.00000E+00         0.50740E-08
 
    0.11925E+05         0.78349E+05         0.00000E+00
    0.78349E+05        -0.47669E+08         0.00000E+00
    0.00000E+00         0.00000E+00        -0.12685E-08
 
    0.12254E+05         0.83634E+05         0.00000E+00
    0.83634E+05        -0.47677E+08         0.00000E+00
    0.00000E+00         0.00000E+00        -0.25370E-08
 
    0.12638E+05         0.89060E+05         0.00000E+00
    0.89060E+05        -0.47685E+08         0.00000E+00
    0.00000E+00         0.00000E+00         0.00000E+00
 
    0.13079E+05         0.94650E+05         0.00000E+00
    0.94650E+05        -0.47692E+08         0.00000E+00
    0.00000E+00         0.00000E+00         0.63426E-08
 
    0.13578E+05         0.10043E+06         0.00000E+00
    0.10043E+06        -0.47701E+08         0.00000E+00
    0.00000E+00         0.00000E+00        -0.13954E-07
 
    0.14135E+05         0.10642E+06         0.00000E+00
    0.10642E+06        -0.47709E+08         0.00000E+00
    0.00000E+00         0.00000E+00         0.50741E-08
 
    0.14751E+05         0.11266E+06         0.00000E+00
    0.11266E+06        -0.47717E+08         0.00000E+00
    0.00000E+00         0.00000E+00         0.11417E-07
 
    0.15428E+05         0.11916E+06         0.00000E+00
    0.11916E+06        -0.47726E+08         0.00000E+00
    0.00000E+00         0.00000E+00         0.15222E-07
 
    0.16166E+05         0.12596E+06         0.00000E+00
    0.12596E+06        -0.47736E+08         0.00000E+00
    0.00000E+00         0.00000E+00        -0.16491E-07
 
    0.16966E+05         0.13307E+06         0.00000E+00
    0.13307E+06        -0.47745E+08         0.00000E+00
    0.00000E+00         0.00000E+00        -0.88796E-08
 
    0.17829E+05         0.14053E+06         0.00000E+00
    0.14053E+06        -0.47755E+08         0.00000E+00
    0.00000E+00         0.00000E+00         0.12685E-08
 
    0.18757E+05         0.14837E+06         0.00000E+00
    0.14837E+06        -0.47766E+08         0.00000E+00
    0.00000E+00         0.00000E+00         0.25370E-08
 
    0.19751E+05         0.15661E+06         0.00000E+00
    0.15661E+06        -0.47777E+08         0.00000E+00
    0.00000E+00         0.00000E+00         0.76111E-08
 
    0.20812E+05         0.16529E+06         0.00000E+00
    0.16529E+06        -0.47788E+08         0.00000E+00
    0.00000E+00         0.00000E+00         0.38056E-08
 
    0.21943E+05         0.17443E+06         0.00000E+00
    0.17443E+06        -0.47800E+08         0.00000E+00
    0.00000E+00         0.00000E+00        -0.12685E-08
 
    0.23146E+05         0.18406E+06         0.00000E+00
    0.18406E+06        -0.47813E+08         0.00000E+00
    0.00000E+00         0.00000E+00         0.00000E+00
 
    0.24422E+05         0.19421E+06         0.00000E+00
    0.19421E+06        -0.47826E+08         0.00000E+00
    0.00000E+00         0.00000E+00         0.25370E-08
 
    0.25775E+05         0.20492E+06         0.00000E+00
    0.20492E+06        -0.47840E+08         0.00000E+00
    0.00000E+00         0.00000E+00         0.25370E-08
 
    0.27206E+05         0.21622E+06         0.00000E+00
    0.21622E+06        -0.47855E+08         0.00000E+00
    0.00000E+00         0.00000E+00         0.00000E+00
 
    0.28719E+05         0.22815E+06         0.00000E+00
    0.22815E+06        -0.47870E+08         0.00000E+00
    0.00000E+00         0.00000E+00         0.00000E+00
 
    0.30317E+05         0.24073E+06         0.00000E+00
    0.24073E+06        -0.47886E+08         0.00000E+00
    0.00000E+00         0.00000E+00         0.25370E-08
 
    0.32003E+05         0.25400E+06         0.00000E+00
    0.25400E+06        -0.47904E+08         0.00000E+00
    0.00000E+00         0.00000E+00        -0.25370E-08
 
    0.33780E+05         0.26801E+06         0.00000E+00
    0.26801E+06        -0.47922E+08         0.00000E+00
    0.00000E+00         0.00000E+00         0.00000E+00
 
    0.35652E+05         0.28280E+06         0.00000E+00
    0.28280E+06        -0.47941E+08         0.00000E+00
    0.00000E+00         0.00000E+00         0.38056E-08
 
    0.37622E+05         0.29839E+06         0.00000E+00
    0.29839E+06        -0.47961E+08         0.00000E+00
    0.00000E+00         0.00000E+00         0.38056E-08
 
    0.39695E+05         0.31485E+06         0.00000E+00
    0.31485E+06        -0.47983E+08         0.00000E+00
    0.00000E+00         0.00000E+00         0.00000E+00
 
    0.41874E+05         0.33220E+06         0.00000E+00
    0.33220E+06        -0.48005E+08         0.00000E+00
    0.00000E+00         0.00000E+00         0.38056E-08
 
    0.44163E+05         0.35049E+06         0.00000E+00
    0.35049E+06        -0.48029E+08         0.00000E+00
    0.00000E+00         0.00000E+00         0.12685E-08
 
    0.46566E+05         0.36978E+06         0.00000E+00
    0.36978E+06        -0.48055E+08         0.00000E+00
    0.00000E+00         0.00000E+00        -0.38056E-08
 
    0.49087E+05         0.39011E+06         0.00000E+00
    0.39011E+06        -0.48082E+08         0.00000E+00
    0.00000E+00         0.00000E+00         0.25370E-08
 
    0.51729E+05         0.41152E+06         0.00000E+00
    0.41152E+06        -0.48110E+08         0.00000E+00
    0.00000E+00         0.00000E+00         0.38056E-08
 
    0.54496E+05         0.43408E+06         0.00000E+00
    0.43408E+06        -0.48140E+08         0.00000E+00
    0.00000E+00         0.00000E+00         0.25370E-08
 
    0.57391E+05         0.45782E+06         0.00000E+00
    0.45782E+06        -0.48172E+08         0.00000E+00
    0.00000E+00         0.00000E+00        -0.25370E-08
 
    0.60417E+05         0.48281E+06         0.00000E+00
    0.48281E+06        -0.48206E+08         0.00000E+00
    0.00000E+00         0.00000E+00        -0.63426E-08
 
    0.63578E+05         0.50911E+06         0.00000E+00
    0.50911E+06        -0.48242E+08         0.00000E+00
    0.00000E+00         0.00000E+00         0.00000E+00
 
    0.66874E+05         0.53675E+06         0.00000E+00
    0.53675E+06        -0.48280E+08         0.00000E+00
    0.00000E+00         0.00000E+00        -0.63426E-08
 
    0.70308E+05         0.56581E+06         0.00000E+00
    0.56581E+06        -0.48320E+08         0.00000E+00
    0.00000E+00         0.00000E+00        -0.63426E-08
 
    0.73880E+05         0.59633E+06         0.00000E+00
    0.59633E+06        -0.48363E+08         0.00000E+00
    0.00000E+00         0.00000E+00        -0.76111E-08
 
    0.77590E+05         0.62837E+06         0.00000E+00
    0.62837E+06        -0.48408E+08         0.00000E+00
    0.00000E+00         0.00000E+00         0.00000E+00
 
    0.81436E+05         0.66198E+06         0.00000E+00
    0.66198E+06        -0.48456E+08         0.00000E+00
    0.00000E+00         0.00000E+00         0.12685E-08
 
    0.85416E+05         0.69721E+06         0.00000E+00
    0.69721E+06        -0.48508E+08         0.00000E+00
    0.00000E+00         0.00000E+00         0.13954E-07
 
    0.89524E+05         0.73412E+06         0.00000E+00
    0.73412E+06        -0.48562E+08         0.00000E+00
    0.00000E+00         0.00000E+00         0.76111E-08
 
    0.93755E+05         0.77275E+06         0.00000E+00
    0.77275E+06        -0.48620E+08         0.00000E+00
    0.00000E+00         0.00000E+00        -0.88796E-08
 
    0.98100E+05         0.81315E+06         0.00000E+00
    0.81315E+06        -0.48681E+08         0.00000E+00
    0.00000E+00         0.00000E+00         0.50741E-08
 
    0.10255E+06         0.85534E+06         0.00000E+00
    0.85534E+06        -0.48746E+08         0.00000E+00
    0.00000E+00         0.00000E+00        -0.25370E-08
 
    0.10708E+06         0.89936E+06         0.00000E+00
    0.89936E+06        -0.48816E+08         0.00000E+00
    0.00000E+00         0.00000E+00        -0.45475E-12
 
    0.11168E+06         0.94523E+06         0.00000E+00
    0.94523E+06        -0.48890E+08         0.00000E+00
    0.00000E+00         0.00000E+00         0.00000E+00
 
    0.11633E+06         0.99296E+06         0.00000E+00
    0.99296E+06        -0.48969E+08         0.00000E+00
    0.00000E+00         0.00000E+00        -0.25370E-08
 
    0.12100E+06         0.10425E+07         0.00000E+00
    0.10425E+07        -0.49053E+08         0.00000E+00
    0.00000E+00         0.00000E+00        -0.25366E-08
 
    0.12565E+06         0.10940E+07         0.00000E+00
    0.10940E+07        -0.49143E+08         0.00000E+00
    0.00000E+00         0.00000E+00         0.76111E-08
 
    0.13025E+06         0.11472E+07         0.00000E+00
    0.11472E+07        -0.49239E+08         0.00000E+00
    0.00000E+00         0.00000E+00         0.21565E-07
 
    0.13475E+06         0.12022E+07         0.00000E+00
    0.12022E+07        -0.49341E+08         0.00000E+00
    0.00000E+00         0.00000E+00        -0.12687E-08
 
    0.13909E+06         0.12588E+07         0.00000E+00
    0.12588E+07        -0.49451E+08         0.00000E+00
    0.00000E+00         0.00000E+00        -0.50741E-08
 
    0.14322E+06         0.13170E+07         0.00000E+00
    0.13170E+07        -0.49568E+08         0.00000E+00
    0.00000E+00         0.00000E+00         0.00000E+00
 
    0.14706E+06         0.13766E+07         0.00000E+00
    0.13766E+07        -0.49694E+08         0.00000E+00
    0.00000E+00         0.00000E+00        -0.12683E-08
 
    0.15054E+06         0.14374E+07         0.00000E+00
    0.14374E+07        -0.49828E+08         0.00000E+00
    0.00000E+00         0.00000E+00         0.12683E-08
 
    0.15354E+06         0.14992E+07         0.00000E+00
    0.14992E+07        -0.49973E+08         0.00000E+00
    0.00000E+00         0.00000E+00        -0.12678E-08
 
    0.15599E+06         0.15618E+07         0.00000E+00
    0.15618E+07        -0.50128E+08         0.00000E+00
    0.00000E+00         0.00000E+00         0.12687E-08
 
    0.15775E+06         0.16247E+07         0.00000E+00
    0.16247E+07        -0.50295E+08         0.00000E+00
    0.00000E+00         0.00000E+00         0.12678E-08
 
    0.15869E+06         0.16877E+07         0.00000E+00
    0.16877E+07        -0.50474E+08         0.00000E+00
    0.00000E+00         0.00000E+00         0.50741E-08
 
    0.15869E+06         0.17502E+07         0.00000E+00
    0.17502E+07        -0.50668E+08         0.00000E+00
    0.00000E+00         0.00000E+00         0.25375E-08
 
    0.15760E+06         0.18118E+07         0.00000E+00
    0.18118E+07        -0.50877E+08         0.00000E+00
    0.00000E+00         0.00000E+00         0.25366E-08
 
    0.15525E+06         0.18718E+07         0.00000E+00
    0.18718E+07        -0.51102E+08         0.00000E+00
    0.00000E+00         0.00000E+00        -0.25366E-08
 
    0.15148E+06         0.19296E+07         0.00000E+00
    0.19296E+07        -0.51345E+08         0.00000E+00
    0.00000E+00         0.00000E+00         0.12687E-08
 
    0.14613E+06         0.19845E+07         0.00000E+00
    0.19845E+07        -0.51608E+08         0.00000E+00
    0.00000E+00         0.00000E+00         0.63428E-08
 
    0.13902E+06         0.20355E+07         0.00000E+00
    0.20355E+07        -0.51892E+08         0.00000E+00
    0.00000E+00         0.00000E+00         0.76116E-08
 
    0.13002E+06         0.20819E+07         0.00000E+00
    0.20819E+07        -0.52199E+08         0.00000E+00
    0.00000E+00         0.00000E+00        -0.16491E-07
 
    0.11895E+06         0.21227E+07         0.00000E+00
    0.21227E+07        -0.52532E+08         0.00000E+00
    0.00000E+00         0.00000E+00        -0.25357E-08
 
    0.10571E+06         0.21569E+07         0.00000E+00
    0.21569E+07        -0.52890E+08         0.00000E+00
    0.00000E+00         0.00000E+00         0.12684E-07
 
    0.90167E+05         0.21833E+07         0.00000E+00
    0.21833E+07        -0.53278E+08         0.00000E+00
    0.00000E+00         0.00000E+00        -0.76107E-08
 
    0.72249E+05         0.22010E+07         0.00000E+00
    0.22010E+07        -0.53696E+08         0.00000E+00
    0.00000E+00         0.00000E+00         0.88785E-08
 
    0.51889E+05         0.22089E+07         0.00000E+00
    0.22089E+07        -0.54145E+08         0.00000E+00
    0.00000E+00         0.00000E+00         0.88821E-08
 
    0.29029E+05         0.22060E+07         0.00000E+00
    0.22060E+07        -0.54626E+08         0.00000E+00
    0.00000E+00         0.00000E+00         0.00000E+00
 
    0.35894E+04         0.21912E+07         0.00000E+00
    0.21912E+07        -0.55140E+08         0.00000E+00
    0.00000E+00         0.00000E+00         0.25375E-08
 
   -0.24586E+05         0.21637E+07         0.00000E+00
    0.21637E+07        -0.55686E+08         0.00000E+00
    0.00000E+00         0.00000E+00         0.88803E-08
 
   -0.55831E+05         0.21224E+07         0.00000E+00
    0.21224E+07        -0.56262E+08         0.00000E+00
    0.00000E+00         0.00000E+00         0.88803E-08
 
   -0.90812E+05         0.20665E+07         0.00000E+00
    0.20665E+07        -0.56864E+08         0.00000E+00
    0.00000E+00         0.00000E+00        -0.38053E-08
 
   -0.13079E+06         0.19949E+07         0.00000E+00
    0.19949E+07        -0.57487E+08         0.00000E+00
    0.00000E+00         0.00000E+00         0.12678E-08
 
   -0.17799E+06         0.19057E+07         0.00000E+00
    0.19057E+07        -0.58122E+08         0.00000E+00
    0.00000E+00         0.00000E+00         0.19027E-07
 
   -0.23623E+06         0.17964E+07         0.00000E+00
    0.17964E+07        -0.58756E+08         0.00000E+00
    0.00000E+00         0.00000E+00         0.63428E-08
 
   -0.31173E+06         0.16625E+07         0.00000E+00
    0.16625E+07        -0.59376E+08         0.00000E+00
    0.00000E+00         0.00000E+00        -0.38053E-08
 
   -0.41459E+06         0.14964E+07         0.00000E+00
    0.14964E+07        -0.59960E+08         0.00000E+00
    0.00000E+00         0.00000E+00         0.25375E-08
 
   -0.56112E+06         0.12860E+07         0.00000E+00
    0.12860E+07        -0.60484E+08         0.00000E+00
    0.00000E+00         0.00000E+00         0.76107E-08
 
   -0.77987E+06         0.10120E+07         0.00000E+00
    0.10120E+07        -0.60919E+08         0.00000E+00
    0.00000E+00         0.00000E+00         0.38062E-08
 
   -0.11303E+07         0.65534E+06         0.00000E+00
    0.65534E+06        -0.61223E+08         0.00000E+00
    0.00000E+00         0.00000E+00        -0.76124E-08
 
   -0.17161E+07         0.22736E+06         0.00000E+00
    0.22736E+06        -0.61371E+08         0.00000E+00
    0.00000E+00         0.00000E+00        -0.11416E-07
 
    0.24203E+05         0.33081E+04         0.00000E+00
    0.33081E+04        -0.47591E+08         0.00000E+00
    0.00000E+00         0.00000E+00        -0.38056E-08
 
    0.19961E+05         0.98041E+04         0.00000E+00
    0.98041E+04        -0.47593E+08         0.00000E+00
    0.00000E+00         0.00000E+00        -0.63426E-08
 
    0.17309E+05         0.15959E+05         0.00000E+00
    0.15959E+05        -0.47595E+08         0.00000E+00
    0.00000E+00         0.00000E+00         0.25370E-08
 
    0.15656E+05         0.21684E+05         0.00000E+00
    0.21684E+05        -0.47599E+08         0.00000E+00
    0.00000E+00         0.00000E+00        -0.38056E-08
 
    0.14598E+05         0.27064E+05         0.00000E+00
    0.27064E+05        -0.47603E+08         0.00000E+00
    0.00000E+00         0.00000E+00         0.63426E-08
 
    0.13919E+05         0.32217E+05         0.00000E+00
    0.32217E+05        -0.47609E+08         0.00000E+00
    0.00000E+00         0.00000E+00        -0.38056E-08
 
    0.13493E+05         0.37228E+05         0.00000E+00
    0.37228E+05        -0.47615E+08         0.00000E+00
    0.00000E+00         0.00000E+00         0.25370E-08
 
    0.13243E+05         0.42155E+05         0.00000E+00
    0.42155E+05        -0.47621E+08         0.00000E+00
    0.00000E+00         0.00000E+00         0.50741E-08
 
    0.13118E+05         0.47037E+05         0.00000E+00
    0.47037E+05        -0.47628E+08         0.00000E+00
    0.00000E+00         0.00000E+00         0.12685E-08
 
    0.13091E+05         0.51903E+05         0.00000E+00
    0.51903E+05        -0.47634E+08         0.00000E+00
    0.00000E+00         0.00000E+00        -0.12685E-08
 
    0.13143E+05         0.56775E+05         0.00000E+00
    0.56775E+05        -0.47641E+08         0.00000E+00
    0.00000E+00         0.00000E+00         0.25370E-08
 
    0.13266E+05         0.61675E+05         0.00000E+00
    0.61675E+05        -0.47648E+08         0.00000E+00
    0.00000E+00         0.00000E+00         0.00000E+00
 
    0.13456E+05         0.66622E+05         0.00000E+00
    0.66622E+05        -0.47656E+08         0.00000E+00
    0.00000E+00         0.00000E+00        -0.88796E-08
 
    0.13710E+05         0.71637E+05         0.00000E+00
    0.71637E+05        -0.47663E+08         0.00000E+00
    0.00000E+00         0.00000E+00        -0.16491E-07
 
    0.14029E+05         0.76741E+05         0.00000E+00
    0.76741E+05        -0.47670E+08         0.00000E+00
    0.00000E+00         0.00000E+00         0.11417E-07
 
    0.14413E+05         0.81957E+05         0.00000E+00
    0.81957E+05        -0.47678E+08         0.00000E+00
    0.00000E+00         0.00000E+00        -0.50741E-08
 
    0.14863E+05         0.87307E+05         0.00000E+00
    0.87307E+05        -0.47686E+08         0.00000E+00
    0.00000E+00         0.00000E+00        -0.10148E-07
 
    0.15380E+05         0.92817E+05         0.00000E+00
    0.92817E+05        -0.47694E+08         0.00000E+00
    0.00000E+00         0.00000E+00        -0.10148E-07
 
    0.15965E+05         0.98509E+05         0.00000E+00
    0.98509E+05        -0.47702E+08         0.00000E+00
    0.00000E+00         0.00000E+00         0.38056E-08
 
    0.16619E+05         0.10441E+06         0.00000E+00
    0.10441E+06        -0.47710E+08         0.00000E+00
    0.00000E+00         0.00000E+00         0.63426E-08
 
    0.17344E+05         0.11055E+06         0.00000E+00
    0.11055E+06        -0.47719E+08         0.00000E+00
    0.00000E+00         0.00000E+00        -0.13954E-07
 
    0.18139E+05         0.11694E+06         0.00000E+00
    0.11694E+06        -0.47728E+08         0.00000E+00
    0.00000E+00         0.00000E+00         0.00000E+00
 
    0.19007E+05         0.12362E+06         0.00000E+00
    0.12362E+06        -0.47737E+08         0.00000E+00
    0.00000E+00         0.00000E+00         0.38056E-08
 
    0.19948E+05         0.13062E+06         0.00000E+00
    0.13062E+06        -0.47747E+08         0.00000E+00
    0.00000E+00         0.00000E+00         0.00000E+00
 
    0.20963E+05         0.13796E+06         0.00000E+00
    0.13796E+06        -0.47757E+08         0.00000E+00
    0.00000E+00         0.00000E+00         0.25370E-08
 
    0.22054E+05         0.14566E+06         0.00000E+00
    0.14566E+06        -0.47767E+08         0.00000E+00
    0.00000E+00         0.00000E+00         0.00000E+00
 
    0.23223E+05         0.15376E+06         0.00000E+00
    0.15376E+06        -0.47778E+08         0.00000E+00
    0.00000E+00         0.00000E+00         0.17759E-07
 
    0.24472E+05         0.16228E+06         0.00000E+00
    0.16228E+06        -0.47790E+08         0.00000E+00
    0.00000E+00         0.00000E+00         0.12685E-08
 
    0.25802E+05         0.17126E+06         0.00000E+00
    0.17126E+06        -0.47802E+08         0.00000E+00
    0.00000E+00         0.00000E+00         0.25370E-08
 
    0.27216E+05         0.18072E+06         0.00000E+00
    0.18072E+06        -0.47815E+08         0.00000E+00
    0.00000E+00         0.00000E+00        -0.17759E-07
 
    0.28717E+05         0.19069E+06         0.00000E+00
    0.19069E+06        -0.47828E+08         0.00000E+00
    0.00000E+00         0.00000E+00         0.88796E-08
 
    0.30308E+05         0.20121E+06         0.00000E+00
    0.20121E+06        -0.47842E+08         0.00000E+00
    0.00000E+00         0.00000E+00         0.38056E-08
 
    0.31991E+05         0.21230E+06         0.00000E+00
    0.21230E+06        -0.47857E+08         0.00000E+00
    0.00000E+00         0.00000E+00        -0.12685E-07
 
    0.33770E+05         0.22401E+06         0.00000E+00
    0.22401E+06        -0.47872E+08         0.00000E+00
    0.00000E+00         0.00000E+00         0.25370E-08
 
    0.35649E+05         0.23637E+06         0.00000E+00
    0.23637E+06        -0.47889E+08         0.00000E+00
    0.00000E+00         0.00000E+00        -0.10148E-07
 
    0.37632E+05         0.24940E+06         0.00000E+00
    0.24940E+06        -0.47906E+08         0.00000E+00
    0.00000E+00         0.00000E+00         0.12685E-08
 
    0.39722E+05         0.26316E+06         0.00000E+00
    0.26316E+06        -0.47925E+08         0.00000E+00
    0.00000E+00         0.00000E+00         0.25370E-08
 
    0.41924E+05         0.27767E+06         0.00000E+00
    0.27767E+06        -0.47944E+08         0.00000E+00
    0.00000E+00         0.00000E+00         0.25370E-08
 
    0.44241E+05         0.29298E+06         0.00000E+00
    0.29298E+06        -0.47964E+08         0.00000E+00
    0.00000E+00         0.00000E+00         0.12685E-07
 
    0.46679E+05         0.30913E+06         0.00000E+00
    0.30913E+06        -0.47986E+08         0.00000E+00
    0.00000E+00         0.00000E+00        -0.12685E-08
 
    0.49242E+05         0.32616E+06         0.00000E+00
    0.32616E+06        -0.48009E+08         0.00000E+00
    0.00000E+00         0.00000E+00        -0.50741E-08
 
    0.51934E+05         0.34412E+06         0.00000E+00
    0.34412E+06        -0.48033E+08         0.00000E+00
    0.00000E+00         0.00000E+00        -0.76111E-08
 
    0.54760E+05         0.36305E+06         0.00000E+00
    0.36305E+06        -0.48059E+08         0.00000E+00
    0.00000E+00         0.00000E+00         0.25370E-08
 
    0.57724E+05         0.38300E+06         0.00000E+00
    0.38300E+06        -0.48086E+08         0.00000E+00
    0.00000E+00         0.00000E+00         0.00000E+00
 
    0.60832E+05         0.40402E+06         0.00000E+00
    0.40402E+06        -0.48115E+08         0.00000E+00
    0.00000E+00         0.00000E+00        -0.38056E-08
 
    0.64086E+05         0.42615E+06         0.00000E+00
    0.42615E+06        -0.48145E+08         0.00000E+00
    0.00000E+00         0.00000E+00        -0.12685E-08
 
    0.67491E+05         0.44946E+06         0.00000E+00
    0.44946E+06        -0.48177E+08         0.00000E+00
    0.00000E+00         0.00000E+00         0.88796E-08
 
    0.71051E+05         0.47398E+06         0.00000E+00
    0.47398E+06        -0.48211E+08         0.00000E+00
    0.00000E+00         0.00000E+00        -0.63426E-08
 
    0.74768E+05         0.49977E+06         0.00000E+00
    0.49977E+06        -0.48247E+08         0.00000E+00
    0.00000E+00         0.00000E+00         0.12685E-08
 
    0.78646E+05         0.52690E+06         0.00000E+00
    0.52690E+06        -0.48285E+08         0.00000E+00
    0.00000E+00         0.00000E+00        -0.88794E-08
 
    0.82685E+05         0.55540E+06         0.00000E+00
    0.55540E+06        -0.48326E+08         0.00000E+00
    0.00000E+00         0.00000E+00         0.25370E-08
 
    0.86887E+05         0.58533E+06         0.00000E+00
    0.58533E+06        -0.48369E+08         0.00000E+00
    0.00000E+00         0.00000E+00        -0.12685E-08
 
    0.91251E+05         0.61676E+06         0.00000E+00
    0.61676E+06        -0.48415E+08         0.00000E+00
    0.00000E+00         0.00000E+00        -0.50741E-08
 
    0.95776E+05         0.64972E+06         0.00000E+00
    0.64972E+06        -0.48463E+08         0.00000E+00
    0.00000E+00         0.00000E+00        -0.76111E-08
 
    0.10046E+06         0.68427E+06         0.00000E+00
    0.68427E+06        -0.48515E+08         0.00000E+00
    0.00000E+00         0.00000E+00         0.00000E+00
 
    0.10529E+06         0.72046E+06         0.00000E+00
    0.72046E+06        -0.48569E+08         0.00000E+00
    0.00000E+00         0.00000E+00         0.88796E-08
 
    0.11027E+06         0.75832E+06         0.00000E+00
    0.75832E+06        -0.48628E+08         0.00000E+00
    0.00000E+00         0.00000E+00         0.12685E-08
 
    0.11538E+06         0.79791E+06         0.00000E+00
    0.79791E+06        -0.48689E+08         0.00000E+00
    0.00000E+00         0.00000E+00        -0.25370E-08
 
    0.12062E+06         0.83926E+06         0.00000E+00
    0.83926E+06        -0.48755E+08         0.00000E+00
    0.00000E+00         0.00000E+00        -0.12687E-08
 
    0.12595E+06         0.88238E+06         0.00000E+00
    0.88238E+06        -0.48825E+08         0.00000E+00
    0.00000E+00         0.00000E+00        -0.63424E-08
 
    0.13137E+06         0.92731E+06         0.00000E+00
    0.92731E+06        -0.48899E+08         0.00000E+00
    0.00000E+00         0.00000E+00         0.00000E+00
 
    0.13684E+06         0.97405E+06         0.00000E+00
    0.97405E+06        -0.48979E+08         0.00000E+00
    0.00000E+00         0.00000E+00        -0.10148E-07
 
    0.14234E+06         0.10226E+07         0.00000E+00
    0.10226E+07        -0.49063E+08         0.00000E+00
    0.00000E+00         0.00000E+00         0.63424E-08
 
    0.14782E+06         0.10729E+07         0.00000E+00
    0.10729E+07        -0.49153E+08         0.00000E+00
    0.00000E+00         0.00000E+00        -0.13954E-07
 
    0.15324E+06         0.11250E+07         0.00000E+00
    0.11250E+07        -0.49250E+08         0.00000E+00
    0.00000E+00         0.00000E+00        -0.76111E-08
 
    0.15854E+06         0.11787E+07         0.00000E+00
    0.11787E+07        -0.49352E+08         0.00000E+00
    0.00000E+00         0.00000E+00        -0.22833E-07
 
    0.16366E+06         0.12341E+07         0.00000E+00
    0.12341E+07        -0.49462E+08         0.00000E+00
    0.00000E+00         0.00000E+00        -0.88799E-08
 
    0.16853E+06         0.12909E+07         0.00000E+00
    0.12909E+07        -0.49580E+08         0.00000E+00
    0.00000E+00         0.00000E+00        -0.12685E-07
 
    0.17307E+06         0.13491E+07         0.00000E+00
    0.13491E+07        -0.49706E+08         0.00000E+00
    0.00000E+00         0.00000E+00         0.38053E-08
 
    0.17717E+06         0.14084E+07         0.00000E+00
    0.14084E+07        -0.49840E+08         0.00000E+00
    0.00000E+00         0.00000E+00         0.12687E-08
 
    0.18073E+06         0.14687E+07         0.00000E+00
    0.14687E+07        -0.49985E+08         0.00000E+00
    0.00000E+00         0.00000E+00        -0.88794E-08
 
    0.18362E+06         0.15296E+07         0.00000E+00
    0.15296E+07        -0.50140E+08         0.00000E+00
    0.00000E+00         0.00000E+00        -0.25375E-08
 
    0.18571E+06         0.15908E+07         0.00000E+00
    0.15908E+07        -0.50307E+08         0.00000E+00
    0.00000E+00         0.00000E+00        -0.25375E-08
 
    0.18685E+06         0.16519E+07         0.00000E+00
    0.16519E+07        -0.50487E+08         0.00000E+00
    0.00000E+00         0.00000E+00        -0.76107E-08
 
    0.18687E+06         0.17125E+07         0.00000E+00
    0.17125E+07        -0.50680E+08         0.00000E+00
    0.00000E+00         0.00000E+00        -0.50750E-08
 
    0.18560E+06         0.17721E+07         0.00000E+00
    0.17721E+07        -0.50889E+08         0.00000E+00
    0.00000E+00         0.00000E+00        -0.50732E-08
 
    0.18284E+06         0.18300E+07         0.00000E+00
    0.18300E+07        -0.51114E+08         0.00000E+00
    0.00000E+00         0.00000E+00        -0.16492E-07
 
    0.17842E+06         0.18855E+07         0.00000E+00
    0.18855E+07        -0.51356E+08         0.00000E+00
    0.00000E+00         0.00000E+00        -0.50750E-08
 
    0.17211E+06         0.19379E+07         0.00000E+00
    0.19379E+07        -0.51618E+08         0.00000E+00
    0.00000E+00         0.00000E+00        -0.63428E-08
 
    0.16373E+06         0.19865E+07         0.00000E+00
    0.19865E+07        -0.51902E+08         0.00000E+00
    0.00000E+00         0.00000E+00         0.88794E-08
 
    0.15308E+06         0.20301E+07         0.00000E+00
    0.20301E+07        -0.52208E+08         0.00000E+00
    0.00000E+00         0.00000E+00         0.76088E-08
 
    0.13998E+06         0.20680E+07         0.00000E+00
    0.20680E+07        -0.52539E+08         0.00000E+00
    0.00000E+00         0.00000E+00         0.76125E-08
 
    0.12426E+06         0.20990E+07         0.00000E+00
    0.20990E+07        -0.52896E+08         0.00000E+00
    0.00000E+00         0.00000E+00        -0.50732E-08
 
    0.10579E+06         0.21221E+07         0.00000E+00
    0.21221E+07        -0.53282E+08         0.00000E+00
    0.00000E+00         0.00000E+00        -0.12697E-08
 
    0.84431E+05         0.21363E+07         0.00000E+00
    0.21363E+07        -0.53698E+08         0.00000E+00
    0.00000E+00         0.00000E+00         0.00000E+00
 
    0.60102E+05         0.21403E+07         0.00000E+00
    0.21403E+07        -0.54145E+08         0.00000E+00
    0.00000E+00         0.00000E+00        -0.50732E-08
 
    0.32707E+05         0.21331E+07         0.00000E+00
    0.21331E+07        -0.54624E+08         0.00000E+00
    0.00000E+00         0.00000E+00         0.00000E+00
 
    0.21265E+04         0.21139E+07         0.00000E+00
    0.21139E+07        -0.55136E+08         0.00000E+00
    0.00000E+00         0.00000E+00         0.50732E-08
 
   -0.31850E+05         0.20815E+07         0.00000E+00
    0.20815E+07        -0.55679E+08         0.00000E+00
    0.00000E+00         0.00000E+00        -0.25375E-08
 
   -0.69637E+05         0.20352E+07         0.00000E+00
    0.20352E+07        -0.56252E+08         0.00000E+00
    0.00000E+00         0.00000E+00         0.00000E+00
 
   -0.11203E+06         0.19740E+07         0.00000E+00
    0.19740E+07        -0.56851E+08         0.00000E+00
    0.00000E+00         0.00000E+00        -0.63446E-08
 
   -0.16051E+06         0.18969E+07         0.00000E+00
    0.18969E+07        -0.57470E+08         0.00000E+00
    0.00000E+00         0.00000E+00         0.38053E-08
 
   -0.21766E+06         0.18025E+07         0.00000E+00
    0.18025E+07        -0.58101E+08         0.00000E+00
    0.00000E+00         0.00000E+00        -0.88803E-08
 
   -0.28786E+06         0.16885E+07         0.00000E+00
    0.16885E+07        -0.58732E+08         0.00000E+00
    0.00000E+00         0.00000E+00        -0.10148E-07
 
   -0.37824E+06         0.15511E+07         0.00000E+00
    0.15511E+07        -0.59345E+08         0.00000E+00
    0.00000E+00         0.00000E+00        -0.12686E-07
 
   -0.50028E+06         0.13836E+07         0.00000E+00
    0.13836E+07        -0.59922E+08         0.00000E+00
    0.00000E+00         0.00000E+00         0.00000E+00
 
   -0.67233E+06         0.11757E+07         0.00000E+00
    0.11757E+07        -0.60437E+08         0.00000E+00
    0.00000E+00         0.00000E+00        -0.12697E-08
 
   -0.92608E+06         0.91187E+06         0.00000E+00
    0.91187E+06        -0.60858E+08         0.00000E+00
    0.00000E+00         0.00000E+00        -0.25357E-08
 
   -0.13204E+07         0.58151E+06         0.00000E+00
    0.58151E+06        -0.61147E+08         0.00000E+00
    0.00000E+00         0.00000E+00         0.38061E-08
 
   -0.19420E+07         0.19970E+06         0.00000E+00
    0.19970E+06        -0.61286E+08         0.00000E+00
    0.00000E+00         0.00000E+00         0.00000E+00
 
    0.27256E+05         0.31074E+04         0.00000E+00
    0.31074E+04        -0.47593E+08         0.00000E+00
    0.00000E+00         0.00000E+00        -0.25370E-08
 
    0.22825E+05         0.92444E+04         0.00000E+00
    0.92444E+04        -0.47594E+08         0.00000E+00
    0.00000E+00         0.00000E+00        -0.88796E-08
 
    0.19924E+05         0.15144E+05         0.00000E+00
    0.15144E+05        -0.47596E+08         0.00000E+00
    0.00000E+00         0.00000E+00        -0.63426E-08
 
    0.18061E+05         0.20712E+05         0.00000E+00
    0.20712E+05        -0.47600E+08         0.00000E+00
    0.00000E+00         0.00000E+00         0.25370E-08
 
    0.16852E+05         0.25991E+05         0.00000E+00
    0.25991E+05        -0.47605E+08         0.00000E+00
    0.00000E+00         0.00000E+00         0.50741E-08
 
    0.16067E+05         0.31072E+05         0.00000E+00
    0.31072E+05        -0.47610E+08         0.00000E+00
    0.00000E+00         0.00000E+00        -0.11417E-07
 
    0.15567E+05         0.36027E+05         0.00000E+00
    0.36027E+05        -0.47616E+08         0.00000E+00
    0.00000E+00         0.00000E+00        -0.63426E-08
 
    0.15266E+05         0.40906E+05         0.00000E+00
    0.40906E+05        -0.47622E+08         0.00000E+00
    0.00000E+00         0.00000E+00         0.16491E-07
 
    0.15111E+05         0.45744E+05         0.00000E+00
    0.45744E+05        -0.47629E+08         0.00000E+00
    0.00000E+00         0.00000E+00        -0.88796E-08
 
    0.15068E+05         0.50565E+05         0.00000E+00
    0.50565E+05        -0.47635E+08         0.00000E+00
    0.00000E+00         0.00000E+00         0.12685E-08
 
    0.15119E+05         0.55390E+05         0.00000E+00
    0.55390E+05        -0.47642E+08         0.00000E+00
    0.00000E+00         0.00000E+00        -0.25370E-08
 
    0.15252E+05         0.60238E+05         0.00000E+00
    0.60238E+05        -0.47649E+08         0.00000E+00
    0.00000E+00         0.00000E+00         0.19028E-07
 
    0.15463E+05         0.65130E+05         0.00000E+00
    0.65130E+05        -0.47657E+08         0.00000E+00
    0.00000E+00         0.00000E+00         0.63426E-08
 
    0.15749E+05         0.70084E+05         0.00000E+00
    0.70084E+05        -0.47664E+08         0.00000E+00
    0.00000E+00         0.00000E+00        -0.38056E-08
 
    0.16111E+05         0.75123E+05         0.00000E+00
    0.75123E+05        -0.47671E+08         0.00000E+00
    0.00000E+00         0.00000E+00        -0.38056E-08
 
    0.16549E+05         0.80267E+05         0.00000E+00
    0.80267E+05        -0.47679E+08         0.00000E+00
    0.00000E+00         0.00000E+00        -0.88796E-08
 
    0.17063E+05         0.85541E+05         0.00000E+00
    0.85541E+05        -0.47687E+08         0.00000E+00
    0.00000E+00         0.00000E+00         0.88796E-08
 
    0.17655E+05         0.90967E+05         0.00000E+00
    0.90967E+05        -0.47695E+08         0.00000E+00
    0.00000E+00         0.00000E+00        -0.20296E-07
 
    0.18326E+05         0.96571E+05         0.00000E+00
    0.96571E+05        -0.47703E+08         0.00000E+00
    0.00000E+00         0.00000E+00        -0.10148E-07
 
    0.19076E+05         0.10238E+06         0.00000E+00
    0.10238E+06        -0.47711E+08         0.00000E+00
    0.00000E+00         0.00000E+00         0.25370E-08
 
    0.19907E+05         0.10841E+06         0.00000E+00
    0.10841E+06        -0.47720E+08         0.00000E+00
    0.00000E+00         0.00000E+00         0.11417E-07
 
    0.20820E+05         0.11470E+06         0.00000E+00
    0.11470E+06        -0.47729E+08         0.00000E+00
    0.00000E+00         0.00000E+00         0.50741E-08
 
    0.21816E+05         0.12127E+06         0.00000E+00
    0.12127E+06        -0.47738E+08         0.00000E+00
    0.00000E+00         0.00000E+00        -0.38056E-08
 
    0.22896E+05         0.12814E+06         0.00000E+00
    0.12814E+06        -0.47748E+08         0.00000E+00
    0.00000E+00         0.00000E+00         0.11417E-07
 
    0.24062E+05         0.13534E+06         0.00000E+00
    0.13534E+06        -0.47758E+08         0.00000E+00
    0.00000E+00         0.00000E+00        -0.12685E-07
 
    0.25315E+05         0.14291E+06         0.00000E+00
    0.14291E+06        -0.47769E+08         0.00000E+00
    0.00000E+00         0.00000E+00        -0.25370E-08
 
    0.26657E+05         0.15086E+06         0.00000E+00
    0.15086E+06        -0.47780E+08         0.00000E+00
    0.00000E+00         0.00000E+00         0.25370E-08
 
    0.28091E+05         0.15923E+06         0.00000E+00
    0.15923E+06        -0.47792E+08         0.00000E+00
    0.00000E+00         0.00000E+00         0.38056E-08
 
    0.29618E+05         0.16804E+06         0.00000E+00
    0.16804E+06        -0.47804E+08         0.00000E+00
    0.00000E+00         0.00000E+00         0.00000E+00
 
    0.31242E+05         0.17733E+06         0.00000E+00
    0.17733E+06        -0.47817E+08         0.00000E+00
    0.00000E+00         0.00000E+00         0.12685E-08
 
    0.32965E+05         0.18712E+06         0.00000E+00
    0.18712E+06        -0.47830E+08         0.00000E+00
    0.00000E+00         0.00000E+00         0.12685E-08
 
    0.34791E+05         0.19744E+06         0.00000E+00
    0.19744E+06        -0.47844E+08         0.00000E+00
    0.00000E+00         0.00000E+00         0.38056E-08
 
    0.36724E+05         0.20833E+06         0.00000E+00
    0.20833E+06        -0.47859E+08         0.00000E+00
    0.00000E+00         0.00000E+00         0.15222E-07
 
    0.38767E+05         0.21982E+06         0.00000E+00
    0.21982E+06        -0.47875E+08         0.00000E+00
    0.00000E+00         0.00000E+00         0.00000E+00
 
    0.40924E+05         0.23195E+06         0.00000E+00
    0.23195E+06        -0.47891E+08         0.00000E+00
    0.00000E+00         0.00000E+00         0.88796E-08
 
    0.43200E+05         0.24474E+06         0.00000E+00
    0.24474E+06        -0.47909E+08         0.00000E+00
    0.00000E+00         0.00000E+00        -0.12685E-07
 
    0.45600E+05         0.25824E+06         0.00000E+00
    0.25824E+06        -0.47927E+08         0.00000E+00
    0.00000E+00         0.00000E+00         0.00000E+00
 
    0.48128E+05         0.27248E+06         0.00000E+00
    0.27248E+06        -0.47947E+08         0.00000E+00
    0.00000E+00         0.00000E+00         0.25370E-08
 
    0.50788E+05         0.28750E+06         0.00000E+00
    0.28750E+06        -0.47968E+08         0.00000E+00
    0.00000E+00         0.00000E+00         0.50741E-08
 
    0.53588E+05         0.30334E+06         0.00000E+00
    0.30334E+06        -0.47989E+08         0.00000E+00
    0.00000E+00         0.00000E+00         0.88796E-08
 
    0.56530E+05         0.32005E+06         0.00000E+00
    0.32005E+06        -0.48012E+08         0.00000E+00
    0.00000E+00         0.00000E+00         0.25370E-08
 
    0.59621E+05         0.33767E+06         0.00000E+00
    0.33767E+06        -0.48037E+08         0.00000E+00
    0.00000E+00         0.00000E+00        -0.38056E-08
 
    0.62866E+05         0.35624E+06         0.00000E+00
    0.35624E+06        -0.48063E+08         0.00000E+00
    0.00000E+00         0.00000E+00        -0.25370E-08
 
    0.66269E+05         0.37581E+06         0.00000E+00
    0.37581E+06        -0.48090E+08         0.00000E+00
    0.00000E+00         0.00000E+00        -0.76111E-08
 
    0.69837E+05         0.39642E+06         0.00000E+00
    0.39642E+06        -0.48119E+08         0.00000E+00
    0.00000E+00         0.00000E+00        -0.50741E-08
 
    0.73574E+05         0.41813E+06         0.00000E+00
    0.41813E+06        -0.48149E+08         0.00000E+00
    0.00000E+00         0.00000E+00         0.63426E-08
 
    0.77484E+05         0.44098E+06         0.00000E+00
    0.44098E+06        -0.48182E+08         0.00000E+00
    0.00000E+00         0.00000E+00         0.88796E-08
 
    0.81572E+05         0.46503E+06         0.00000E+00
    0.46503E+06        -0.48216E+08         0.00000E+00
    0.00000E+00         0.00000E+00         0.15222E-07
 
    0.85841E+05         0.49033E+06         0.00000E+00
    0.49033E+06        -0.48252E+08         0.00000E+00
    0.00000E+00         0.00000E+00        -0.25368E-08
 
    0.90293E+05         0.51692E+06         0.00000E+00
    0.51692E+06        -0.48291E+08         0.00000E+00
    0.00000E+00         0.00000E+00        -0.88796E-08
 
    0.94932E+05         0.54487E+06         0.00000E+00
    0.54487E+06        -0.48332E+08         0.00000E+00
    0.00000E+00         0.00000E+00         0.50741E-08
 
    0.99758E+05         0.57421E+06         0.00000E+00
    0.57421E+06        -0.48375E+08         0.00000E+00
    0.00000E+00         0.00000E+00         0.50741E-08
 
    0.10477E+06         0.60502E+06         0.00000E+00
    0.60502E+06        -0.48421E+08         0.00000E+00
    0.00000E+00         0.00000E+00        -0.25370E-08
 
    0.10997E+06         0.63732E+06         0.00000E+00
    0.63732E+06        -0.48470E+08         0.00000E+00
    0.00000E+00         0.00000E+00         0.38056E-08
 
    0.11535E+06         0.67118E+06         0.00000E+00
    0.67118E+06        -0.48522E+08         0.00000E+00
    0.00000E+00         0.00000E+00         0.38056E-08
 
    0.12090E+06         0.70664E+06         0.00000E+00
    0.70664E+06        -0.48577E+08         0.00000E+00
    0.00000E+00         0.00000E+00         0.25370E-08
 
    0.12662E+06         0.74374E+06         0.00000E+00
    0.74374E+06        -0.48635E+08         0.00000E+00
    0.00000E+00         0.00000E+00         0.63426E-08
 
    0.13249E+06         0.78252E+06         0.00000E+00
    0.78252E+06        -0.48697E+08         0.00000E+00
    0.00000E+00         0.00000E+00         0.00000E+00
 
    0.13851E+06         0.82302E+06         0.00000E+00
    0.82302E+06        -0.48763E+08         0.00000E+00
    0.00000E+00         0.00000E+00        -0.10148E-07
 
    0.14464E+06         0.86525E+06         0.00000E+00
    0.86525E+06        -0.48834E+08         0.00000E+00
    0.00000E+00         0.00000E+00        -0.12687E-08
 
    0.15087E+06         0.90923E+06         0.00000E+00
    0.90923E+06        -0.48909E+08         0.00000E+00
    0.00000E+00         0.00000E+00         0.00000E+00
 
    0.15716E+06         0.95497E+06         0.00000E+00
    0.95497E+06        -0.48988E+08         0.00000E+00
    0.00000E+00         0.00000E+00        -0.50741E-08
 
    0.16348E+06         0.10025E+07         0.00000E+00
    0.10025E+07        -0.49073E+08         0.00000E+00
    0.00000E+00         0.00000E+00         0.12685E-07
 
    0.16978E+06         0.10517E+07         0.00000E+00
    0.10517E+07        -0.49164E+08         0.00000E+00
    0.00000E+00         0.00000E+00         0.76111E-08
 
    0.17601E+06         0.11026E+07         0.00000E+00
    0.11026E+07        -0.49260E+08         0.00000E+00
    0.00000E+00         0.00000E+00         0.63428E-08
 
    0.18212E+06         0.11551E+07         0.00000E+00
    0.11551E+07        -0.49363E+08         0.00000E+00
    0.00000E+00         0.00000E+00        -0.12683E-08
 
    0.18802E+06         0.12092E+07         0.00000E+00
    0.12092E+07        -0.49473E+08         0.00000E+00
    0.00000E+00         0.00000E+00         0.15222E-07
 
    0.19363E+06         0.12647E+07         0.00000E+00
    0.12647E+07        -0.49591E+08         0.00000E+00
    0.00000E+00         0.00000E+00         0.11417E-07
 
    0.19885E+06         0.13215E+07         0.00000E+00
    0.13215E+07        -0.49717E+08         0.00000E+00
    0.00000E+00         0.00000E+00        -0.10148E-07
 
    0.20359E+06         0.13793E+07         0.00000E+00
    0.13793E+07        -0.49852E+08         0.00000E+00
    0.00000E+00         0.00000E+00        -0.25370E-08
 
    0.20770E+06         0.14380E+07         0.00000E+00
    0.14380E+07        -0.49997E+08         0.00000E+00
    0.00000E+00         0.00000E+00        -0.19028E-07
 
    0.21105E+06         0.14973E+07         0.00000E+00
    0.14973E+07        -0.50153E+08         0.00000E+00
    0.00000E+00         0.00000E+00        -0.25357E-08
 
    0.21347E+06         0.15568E+07         0.00000E+00
    0.15568E+07        -0.50320E+08         0.00000E+00
    0.00000E+00         0.00000E+00        -0.63419E-08
 
    0.21481E+06         0.16162E+07         0.00000E+00
    0.16162E+07        -0.50499E+08         0.00000E+00
    0.00000E+00         0.00000E+00         0.11416E-07
 
    0.21486E+06         0.16749E+07         0.00000E+00
    0.16749E+07        -0.50692E+08         0.00000E+00
    0.00000E+00         0.00000E+00        -0.25366E-08
 
    0.21343E+06         0.17324E+07         0.00000E+00
    0.17324E+07        -0.50900E+08         0.00000E+00
    0.00000E+00         0.00000E+00         0.88794E-08
 
    0.21028E+06         0.17882E+07         0.00000E+00
    0.17882E+07        -0.51125E+08         0.00000E+00
    0.00000E+00         0.00000E+00        -0.22833E-07
 
    0.20521E+06         0.18415E+07         0.00000E+00
    0.18415E+07        -0.51367E+08         0.00000E+00
    0.00000E+00         0.00000E+00         0.88803E-08
 
    0.19796E+06         0.18916E+07         0.00000E+00
    0.18916E+07        -0.51628E+08         0.00000E+00
    0.00000E+00         0.00000E+00        -0.12687E-08
 
    0.18832E+06         0.19377E+07         0.00000E+00
    0.19377E+07        -0.51911E+08         0.00000E+00
    0.00000E+00         0.00000E+00         0.00000E+00
 
    0.17603E+06         0.19787E+07         0.00000E+00
    0.19787E+07        -0.52216E+08         0.00000E+00
    0.00000E+00         0.00000E+00        -0.10147E-07
 
    0.16089E+06         0.20138E+07         0.00000E+00
    0.20138E+07        -0.52546E+08         0.00000E+00
    0.00000E+00         0.00000E+00         0.63428E-08
 
    0.14269E+06         0.20418E+07         0.00000E+00
    0.20418E+07        -0.52902E+08         0.00000E+00
    0.00000E+00         0.00000E+00         0.10150E-07
 
    0.12124E+06         0.20616E+07         0.00000E+00
    0.20616E+07        -0.53286E+08         0.00000E+00
    0.00000E+00         0.00000E+00         0.38053E-08
 
    0.96398E+05         0.20722E+07         0.00000E+00
    0.20722E+07        -0.53699E+08         0.00000E+00
    0.00000E+00         0.00000E+00        -0.88785E-08
 
    0.68022E+05         0.20725E+07         0.00000E+00
    0.20725E+07        -0.54144E+08         0.00000E+00
    0.00000E+00         0.00000E+00         0.63428E-08
 
    0.35981E+05         0.20613E+07         0.00000E+00
    0.20613E+07        -0.54621E+08         0.00000E+00
    0.00000E+00         0.00000E+00        -0.16491E-07
 
    0.10928E+03         0.20377E+07         0.00000E+00
    0.20377E+07        -0.55130E+08         0.00000E+00
    0.00000E+00         0.00000E+00        -0.20294E-07
 
   -0.39864E+05         0.20006E+07         0.00000E+00
    0.20006E+07        -0.55671E+08         0.00000E+00
    0.00000E+00         0.00000E+00        -0.22832E-07
 
   -0.84438E+05         0.19494E+07         0.00000E+00
    0.19494E+07        -0.56241E+08         0.00000E+00
    0.00000E+00         0.00000E+00         0.24102E-07
 
   -0.13454E+06         0.18830E+07         0.00000E+00
    0.18830E+07        -0.56837E+08         0.00000E+00
    0.00000E+00         0.00000E+00        -0.38071E-08
 
   -0.19185E+06         0.18008E+07         0.00000E+00
    0.18008E+07        -0.57453E+08         0.00000E+00
    0.00000E+00         0.00000E+00        -0.11416E-07
 
   -0.25928E+06         0.17015E+07         0.00000E+00
    0.17015E+07        -0.58080E+08         0.00000E+00
    0.00000E+00         0.00000E+00         0.12697E-08
 
   -0.34172E+06         0.15832E+07         0.00000E+00
    0.15832E+07        -0.58706E+08         0.00000E+00
    0.00000E+00         0.00000E+00         0.15221E-07
 
   -0.44712E+06         0.14429E+07         0.00000E+00
    0.14429E+07        -0.59315E+08         0.00000E+00
    0.00000E+00         0.00000E+00        -0.76107E-08
 
   -0.58813E+06         0.12752E+07         0.00000E+00
    0.12752E+07        -0.59885E+08         0.00000E+00
    0.00000E+00         0.00000E+00         0.25375E-08
 
   -0.78486E+06         0.10712E+07         0.00000E+00
    0.10712E+07        -0.60391E+08         0.00000E+00
    0.00000E+00         0.00000E+00         0.10150E-07
 
   -0.10710E+07         0.81952E+06         0.00000E+00
    0.81952E+06        -0.60800E+08         0.00000E+00
    0.00000E+00         0.00000E+00         0.12686E-07
 
   -0.15027E+07         0.51572E+06         0.00000E+00
    0.51572E+06        -0.61078E+08         0.00000E+00
    0.00000E+00         0.00000E+00         0.25360E-08
 
   -0.21525E+07         0.17568E+06         0.00000E+00
    0.17568E+06        -0.61211E+08         0.00000E+00
    0.00000E+00         0.00000E+00         0.25361E-08
 
    0.30202E+05         0.29253E+04         0.00000E+00
    0.29253E+04        -0.47594E+08         0.00000E+00
    0.00000E+00         0.00000E+00         0.25370E-08
 
    0.25619E+05         0.87283E+04         0.00000E+00
    0.87283E+04        -0.47595E+08         0.00000E+00
    0.00000E+00         0.00000E+00        -0.10148E-07
 
    0.22507E+05         0.14374E+05         0.00000E+00
    0.14374E+05        -0.47597E+08         0.00000E+00
    0.00000E+00         0.00000E+00        -0.17759E-07
 
    0.20454E+05         0.19775E+05         0.00000E+00
    0.19775E+05        -0.47601E+08         0.00000E+00
    0.00000E+00         0.00000E+00         0.76111E-08
 
    0.19101E+05         0.24943E+05         0.00000E+00
    0.24943E+05        -0.47606E+08         0.00000E+00
    0.00000E+00         0.00000E+00        -0.76111E-08
 
    0.18210E+05         0.29944E+05         0.00000E+00
    0.29944E+05        -0.47611E+08         0.00000E+00
    0.00000E+00         0.00000E+00         0.50741E-08
 
    0.17636E+05         0.34838E+05         0.00000E+00
    0.34838E+05        -0.47617E+08         0.00000E+00
    0.00000E+00         0.00000E+00         0.12685E-08
 
    0.17283E+05         0.39666E+05         0.00000E+00
    0.39666E+05        -0.47623E+08         0.00000E+00
    0.00000E+00         0.00000E+00         0.50741E-08
 
    0.17095E+05         0.44455E+05         0.00000E+00
    0.44455E+05        -0.47629E+08         0.00000E+00
    0.00000E+00         0.00000E+00         0.25370E-08
 
    0.17034E+05         0.49228E+05         0.00000E+00
    0.49228E+05        -0.47636E+08         0.00000E+00
    0.00000E+00         0.00000E+00         0.12685E-08
 
    0.17079E+05         0.54004E+05         0.00000E+00
    0.54004E+05        -0.47643E+08         0.00000E+00
    0.00000E+00         0.00000E+00         0.50741E-08
 
    0.17220E+05         0.58799E+05         0.00000E+00
    0.58799E+05        -0.47650E+08         0.00000E+00
    0.00000E+00         0.00000E+00        -0.11417E-07
 
    0.17450E+05         0.63633E+05         0.00000E+00
    0.63633E+05        -0.47658E+08         0.00000E+00
    0.00000E+00         0.00000E+00        -0.50740E-08
 
    0.17768E+05         0.68525E+05         0.00000E+00
    0.68525E+05        -0.47665E+08         0.00000E+00
    0.00000E+00         0.00000E+00        -0.12685E-08
 
    0.18171E+05         0.73495E+05         0.00000E+00
    0.73495E+05        -0.47672E+08         0.00000E+00
    0.00000E+00         0.00000E+00        -0.63426E-08
 
    0.18661E+05         0.78566E+05         0.00000E+00
    0.78566E+05        -0.47680E+08         0.00000E+00
    0.00000E+00         0.00000E+00         0.12685E-08
 
    0.19238E+05         0.83760E+05         0.00000E+00
    0.83760E+05        -0.47688E+08         0.00000E+00
    0.00000E+00         0.00000E+00         0.11417E-07
 
    0.19904E+05         0.89102E+05         0.00000E+00
    0.89102E+05        -0.47696E+08         0.00000E+00
    0.00000E+00         0.00000E+00         0.76111E-08
 
    0.20659E+05         0.94614E+05         0.00000E+00
    0.94614E+05        -0.47704E+08         0.00000E+00
    0.00000E+00         0.00000E+00         0.13954E-07
 
    0.21504E+05         0.10032E+06         0.00000E+00
    0.10032E+06        -0.47712E+08         0.00000E+00
    0.00000E+00         0.00000E+00        -0.76111E-08
 
    0.22441E+05         0.10625E+06         0.00000E+00
    0.10625E+06        -0.47721E+08         0.00000E+00
    0.00000E+00         0.00000E+00         0.10148E-07
 
    0.23470E+05         0.11243E+06         0.00000E+00
    0.11243E+06        -0.47730E+08         0.00000E+00
    0.00000E+00         0.00000E+00        -0.15222E-07
 
    0.24593E+05         0.11888E+06         0.00000E+00
    0.11888E+06        -0.47740E+08         0.00000E+00
    0.00000E+00         0.00000E+00         0.11417E-07
 
    0.25811E+05         0.12563E+06         0.00000E+00
    0.12563E+06        -0.47749E+08         0.00000E+00
    0.00000E+00         0.00000E+00        -0.12685E-07
 
    0.27125E+05         0.13270E+06         0.00000E+00
    0.13270E+06        -0.47760E+08         0.00000E+00
    0.00000E+00         0.00000E+00        -0.25370E-08
 
    0.28538E+05         0.14013E+06         0.00000E+00
    0.14013E+06        -0.47770E+08         0.00000E+00
    0.00000E+00         0.00000E+00         0.38056E-08
 
    0.30052E+05         0.14793E+06         0.00000E+00
    0.14793E+06        -0.47782E+08         0.00000E+00
    0.00000E+00         0.00000E+00         0.38056E-08
 
    0.31668E+05         0.15615E+06         0.00000E+00
    0.15615E+06        -0.47793E+08         0.00000E+00
    0.00000E+00         0.00000E+00        -0.12685E-08
 
    0.33390E+05         0.16479E+06         0.00000E+00
    0.16479E+06        -0.47806E+08         0.00000E+00
    0.00000E+00         0.00000E+00        -0.25370E-08
 
    0.35222E+05         0.17390E+06         0.00000E+00
    0.17390E+06        -0.47818E+08         0.00000E+00
    0.00000E+00         0.00000E+00         0.10148E-07
 
    0.37165E+05         0.18350E+06         0.00000E+00
    0.18350E+06        -0.47832E+08         0.00000E+00
    0.00000E+00         0.00000E+00         0.38056E-08
 
    0.39224E+05         0.19363E+06         0.00000E+00
    0.19363E+06        -0.47846E+08         0.00000E+00
    0.00000E+00         0.00000E+00         0.76111E-08
 
    0.41403E+05         0.20431E+06         0.00000E+00
    0.20431E+06        -0.47861E+08         0.00000E+00
    0.00000E+00         0.00000E+00        -0.13954E-07
 
    0.43707E+05         0.21558E+06         0.00000E+00
    0.21558E+06        -0.47877E+08         0.00000E+00
    0.00000E+00         0.00000E+00         0.13954E-07
 
    0.46140E+05         0.22747E+06         0.00000E+00
    0.22747E+06        -0.47894E+08         0.00000E+00
    0.00000E+00         0.00000E+00        -0.13954E-07
 
    0.48707E+05         0.24001E+06         0.00000E+00
    0.24001E+06        -0.47912E+08         0.00000E+00
    0.00000E+00         0.00000E+00        -0.16491E-07
 
    0.51412E+05         0.25325E+06         0.00000E+00
    0.25325E+06        -0.47930E+08         0.00000E+00
    0.00000E+00         0.00000E+00        -0.76111E-08
 
    0.54263E+05         0.26721E+06         0.00000E+00
    0.26721E+06        -0.47950E+08         0.00000E+00
    0.00000E+00         0.00000E+00         0.00000E+00
 
    0.57263E+05         0.28194E+06         0.00000E+00
    0.28194E+06        -0.47971E+08         0.00000E+00
    0.00000E+00         0.00000E+00         0.11417E-07
 
    0.60420E+05         0.29748E+06         0.00000E+00
    0.29748E+06        -0.47993E+08         0.00000E+00
    0.00000E+00         0.00000E+00         0.12685E-07
 
    0.63738E+05         0.31386E+06         0.00000E+00
    0.31386E+06        -0.48016E+08         0.00000E+00
    0.00000E+00         0.00000E+00         0.38056E-08
 
    0.67223E+05         0.33113E+06         0.00000E+00
    0.33113E+06        -0.48040E+08         0.00000E+00
    0.00000E+00         0.00000E+00         0.63426E-08
 
    0.70882E+05         0.34934E+06         0.00000E+00
    0.34934E+06        -0.48066E+08         0.00000E+00
    0.00000E+00         0.00000E+00         0.38056E-08
 
    0.74721E+05         0.36852E+06         0.00000E+00
    0.36852E+06        -0.48094E+08         0.00000E+00
    0.00000E+00         0.00000E+00         0.25370E-08
 
    0.78745E+05         0.38873E+06         0.00000E+00
    0.38873E+06        -0.48123E+08         0.00000E+00
    0.00000E+00         0.00000E+00         0.88795E-08
 
    0.82959E+05         0.41001E+06         0.00000E+00
    0.41001E+06        -0.48154E+08         0.00000E+00
    0.00000E+00         0.00000E+00        -0.38056E-08
 
    0.87369E+05         0.43241E+06         0.00000E+00
    0.43241E+06        -0.48186E+08         0.00000E+00
    0.00000E+00         0.00000E+00         0.50738E-08
 
    0.91979E+05         0.45598E+06         0.00000E+00
    0.45598E+06        -0.48221E+08         0.00000E+00
    0.00000E+00         0.00000E+00         0.16491E-07
 
    0.96793E+05         0.48077E+06         0.00000E+00
    0.48077E+06        -0.48258E+08         0.00000E+00
    0.00000E+00         0.00000E+00        -0.76111E-08
 
    0.10182E+06         0.50683E+06         0.00000E+00
    0.50683E+06        -0.48296E+08         0.00000E+00
    0.00000E+00         0.00000E+00        -0.17759E-07
 
    0.10705E+06         0.53421E+06         0.00000E+00
    0.53421E+06        -0.48338E+08         0.00000E+00
    0.00000E+00         0.00000E+00         0.25370E-08
 
    0.11249E+06         0.56297E+06         0.00000E+00
    0.56297E+06        -0.48381E+08         0.00000E+00
    0.00000E+00         0.00000E+00        -0.10148E-07
 
    0.11815E+06         0.59314E+06         0.00000E+00
    0.59314E+06        -0.48428E+08         0.00000E+00
    0.00000E+00         0.00000E+00         0.00000E+00
 
    0.12401E+06         0.62479E+06         0.00000E+00
    0.62479E+06        -0.48477E+08         0.00000E+00
    0.00000E+00         0.00000E+00         0.13954E-07
 
    0.13008E+06         0.65795E+06         0.00000E+00
    0.65795E+06        -0.48529E+08         0.00000E+00
    0.00000E+00         0.00000E+00         0.25370E-08
 
    0.13634E+06         0.69268E+06         0.00000E+00
    0.69268E+06        -0.48584E+08         0.00000E+00
    0.00000E+00         0.00000E+00        -0.12685E-07
 
    0.14280E+06         0.72901E+06         0.00000E+00
    0.72901E+06        -0.48643E+08         0.00000E+00
    0.00000E+00         0.00000E+00         0.13954E-07
 
    0.14943E+06         0.76698E+06         0.00000E+00
    0.76698E+06        -0.48705E+08         0.00000E+00
    0.00000E+00         0.00000E+00         0.88796E-08
 
    0.15622E+06         0.80662E+06         0.00000E+00
    0.80662E+06        -0.48772E+08         0.00000E+00
    0.00000E+00         0.00000E+00        -0.63428E-08
 
    0.16314E+06         0.84795E+06         0.00000E+00
    0.84795E+06        -0.48842E+08         0.00000E+00
    0.00000E+00         0.00000E+00        -0.25370E-07
 
    0.17017E+06         0.89098E+06         0.00000E+00
    0.89098E+06        -0.48917E+08         0.00000E+00
    0.00000E+00         0.00000E+00         0.50741E-08
 
    0.17727E+06         0.93573E+06         0.00000E+00
    0.93573E+06        -0.48997E+08         0.00000E+00
    0.00000E+00         0.00000E+00         0.00000E+00
 
    0.18441E+06         0.98218E+06         0.00000E+00
    0.98218E+06        -0.49083E+08         0.00000E+00
    0.00000E+00         0.00000E+00         0.15222E-07
 
    0.19153E+06         0.10303E+07         0.00000E+00
    0.10303E+07        -0.49174E+08         0.00000E+00
    0.00000E+00         0.00000E+00        -0.63424E-08
 
    0.19858E+06         0.10801E+07         0.00000E+00
    0.10801E+07        -0.49270E+08         0.00000E+00
    0.00000E+00         0.00000E+00         0.38053E-08
 
    0.20548E+06         0.11314E+07         0.00000E+00
    0.11314E+07        -0.49374E+08         0.00000E+00
    0.00000E+00         0.00000E+00        -0.15222E-07
 
    0.21215E+06         0.11842E+07         0.00000E+00
    0.11842E+07        -0.49484E+08         0.00000E+00
    0.00000E+00         0.00000E+00        -0.11417E-07
 
    0.21850E+06         0.12384E+07         0.00000E+00
    0.12384E+07        -0.49602E+08         0.00000E+00
    0.00000E+00         0.00000E+00        -0.12683E-08
 
    0.22443E+06         0.12938E+07         0.00000E+00
    0.12938E+07        -0.49729E+08         0.00000E+00
    0.00000E+00         0.00000E+00         0.29176E-07
 
    0.22979E+06         0.13501E+07         0.00000E+00
    0.13501E+07        -0.49864E+08         0.00000E+00
    0.00000E+00         0.00000E+00         0.45475E-12
 
    0.23446E+06         0.14073E+07         0.00000E+00
    0.14073E+07        -0.50009E+08         0.00000E+00
    0.00000E+00         0.00000E+00        -0.50750E-08
 
    0.23827E+06         0.14650E+07         0.00000E+00
    0.14650E+07        -0.50165E+08         0.00000E+00
    0.00000E+00         0.00000E+00         0.00000E+00
 
    0.24104E+06         0.15228E+07         0.00000E+00
    0.15228E+07        -0.50332E+08         0.00000E+00
    0.00000E+00         0.00000E+00         0.38044E-08
 
    0.24259E+06         0.15804E+07         0.00000E+00
    0.15804E+07        -0.50511E+08         0.00000E+00
    0.00000E+00         0.00000E+00        -0.10149E-07
 
    0.24268E+06         0.16372E+07         0.00000E+00
    0.16372E+07        -0.50704E+08         0.00000E+00
    0.00000E+00         0.00000E+00        -0.12685E-07
 
    0.24110E+06         0.16928E+07         0.00000E+00
    0.16928E+07        -0.50912E+08         0.00000E+00
    0.00000E+00         0.00000E+00        -0.16489E-07
 
    0.23758E+06         0.17466E+07         0.00000E+00
    0.17466E+07        -0.51136E+08         0.00000E+00
    0.00000E+00         0.00000E+00         0.22833E-07
 
    0.23187E+06         0.17977E+07         0.00000E+00
    0.17977E+07        -0.51377E+08         0.00000E+00
    0.00000E+00         0.00000E+00        -0.12685E-07
 
    0.22370E+06         0.18456E+07         0.00000E+00
    0.18456E+07        -0.51638E+08         0.00000E+00
    0.00000E+00         0.00000E+00        -0.11416E-07
 
    0.21280E+06         0.18892E+07         0.00000E+00
    0.18892E+07        -0.51920E+08         0.00000E+00
    0.00000E+00         0.00000E+00        -0.25366E-08
 
    0.19888E+06         0.19276E+07         0.00000E+00
    0.19276E+07        -0.52224E+08         0.00000E+00
    0.00000E+00         0.00000E+00        -0.22834E-07
 
    0.18170E+06         0.19599E+07         0.00000E+00
    0.19599E+07        -0.52552E+08         0.00000E+00
    0.00000E+00         0.00000E+00         0.13953E-07
 
    0.16100E+06         0.19850E+07         0.00000E+00
    0.19850E+07        -0.52906E+08         0.00000E+00
    0.00000E+00         0.00000E+00        -0.12697E-08
 
    0.13656E+06         0.20017E+07         0.00000E+00
    0.20017E+07        -0.53289E+08         0.00000E+00
    0.00000E+00         0.00000E+00        -0.16491E-07
 
    0.10818E+06         0.20090E+07         0.00000E+00
    0.20090E+07        -0.53700E+08         0.00000E+00
    0.00000E+00         0.00000E+00         0.25375E-08
 
    0.75688E+05         0.20056E+07         0.00000E+00
    0.20056E+07        -0.54143E+08         0.00000E+00
    0.00000E+00         0.00000E+00        -0.25357E-08
 
    0.38895E+05         0.19905E+07         0.00000E+00
    0.19905E+07        -0.54617E+08         0.00000E+00
    0.00000E+00         0.00000E+00         0.50732E-08
 
   -0.24129E+04         0.19626E+07         0.00000E+00
    0.19626E+07        -0.55124E+08         0.00000E+00
    0.00000E+00         0.00000E+00         0.50750E-08
 
   -0.48572E+05         0.19211E+07         0.00000E+00
    0.19211E+07        -0.55661E+08         0.00000E+00
    0.00000E+00         0.00000E+00        -0.17759E-07
 
   -0.10017E+06         0.18650E+07         0.00000E+00
    0.18650E+07        -0.56228E+08         0.00000E+00
    0.00000E+00         0.00000E+00        -0.20296E-07
 
   -0.15825E+06         0.17938E+07         0.00000E+00
    0.17938E+07        -0.56821E+08         0.00000E+00
    0.00000E+00         0.00000E+00        -0.76107E-08
 
   -0.22469E+06         0.17066E+07         0.00000E+00
    0.17066E+07        -0.57434E+08         0.00000E+00
    0.00000E+00         0.00000E+00         0.10146E-07
 
   -0.30270E+06         0.16027E+07         0.00000E+00
    0.16027E+07        -0.58058E+08         0.00000E+00
    0.00000E+00         0.00000E+00         0.00000E+00
 
   -0.39762E+06         0.14807E+07         0.00000E+00
    0.14807E+07        -0.58680E+08         0.00000E+00
    0.00000E+00         0.00000E+00         0.50732E-08
 
   -0.51810E+06         0.13382E+07         0.00000E+00
    0.13382E+07        -0.59284E+08         0.00000E+00
    0.00000E+00         0.00000E+00        -0.25375E-08
 
   -0.67781E+06         0.11709E+07         0.00000E+00
    0.11709E+07        -0.59848E+08         0.00000E+00
    0.00000E+00         0.00000E+00        -0.12687E-07
 
   -0.89820E+06         0.97219E+06         0.00000E+00
    0.97219E+06        -0.60346E+08         0.00000E+00
    0.00000E+00         0.00000E+00        -0.12686E-07
 
   -0.12139E+07         0.73407E+06         0.00000E+00
    0.73407E+06        -0.60746E+08         0.00000E+00
    0.00000E+00         0.00000E+00        -0.10147E-07
 
   -0.16777E+07         0.45650E+06         0.00000E+00
    0.45650E+06        -0.61016E+08         0.00000E+00
    0.00000E+00         0.00000E+00         0.76122E-08
 
   -0.23499E+07         0.15445E+06         0.00000E+00
    0.15445E+06        -0.61145E+08         0.00000E+00
    0.00000E+00         0.00000E+00        -0.25370E-08
 
    0.33053E+05         0.27577E+04         0.00000E+00
    0.27577E+04        -0.47595E+08         0.00000E+00
    0.00000E+00         0.00000E+00         0.50741E-08
 
    0.28347E+05         0.82478E+04         0.00000E+00
    0.82478E+04        -0.47596E+08         0.00000E+00
    0.00000E+00         0.00000E+00         0.76111E-08
 
    0.25055E+05         0.13644E+05         0.00000E+00
    0.13644E+05        -0.47599E+08         0.00000E+00
    0.00000E+00         0.00000E+00         0.00000E+00
 
    0.22831E+05         0.18870E+05         0.00000E+00
    0.18870E+05        -0.47602E+08         0.00000E+00
    0.00000E+00         0.00000E+00        -0.15222E-07
 
    0.21341E+05         0.23919E+05         0.00000E+00
    0.23919E+05        -0.47607E+08         0.00000E+00
    0.00000E+00         0.00000E+00        -0.25370E-08
 
    0.20348E+05         0.28835E+05         0.00000E+00
    0.28835E+05        -0.47612E+08         0.00000E+00
    0.00000E+00         0.00000E+00        -0.50741E-08
 
    0.19698E+05         0.33662E+05         0.00000E+00
    0.33662E+05        -0.47618E+08         0.00000E+00
    0.00000E+00         0.00000E+00         0.10148E-07
 
    0.19292E+05         0.38434E+05         0.00000E+00
    0.38434E+05        -0.47624E+08         0.00000E+00
    0.00000E+00         0.00000E+00         0.76111E-08
 
    0.19067E+05         0.43172E+05         0.00000E+00
    0.43172E+05        -0.47630E+08         0.00000E+00
    0.00000E+00         0.00000E+00         0.76111E-08
 
    0.18986E+05         0.47894E+05         0.00000E+00
    0.47894E+05        -0.47637E+08         0.00000E+00
    0.00000E+00         0.00000E+00         0.10148E-07
 
    0.19025E+05         0.52617E+05         0.00000E+00
    0.52617E+05        -0.47644E+08         0.00000E+00
    0.00000E+00         0.00000E+00         0.25370E-08
 
    0.19171E+05         0.57357E+05         0.00000E+00
    0.57357E+05        -0.47651E+08         0.00000E+00
    0.00000E+00         0.00000E+00        -0.76111E-08
 
    0.19419E+05         0.62131E+05         0.00000E+00
    0.62131E+05        -0.47659E+08         0.00000E+00
    0.00000E+00         0.00000E+00        -0.25370E-08
 
    0.19764E+05         0.66958E+05         0.00000E+00
    0.66958E+05        -0.47666E+08         0.00000E+00
    0.00000E+00         0.00000E+00         0.50741E-08
 
    0.20208E+05         0.71858E+05         0.00000E+00
    0.71858E+05        -0.47673E+08         0.00000E+00
    0.00000E+00         0.00000E+00         0.25370E-08
 
    0.20749E+05         0.76853E+05         0.00000E+00
    0.76853E+05        -0.47681E+08         0.00000E+00
    0.00000E+00         0.00000E+00        -0.22833E-07
 
    0.21388E+05         0.81966E+05         0.00000E+00
    0.81966E+05        -0.47689E+08         0.00000E+00
    0.00000E+00         0.00000E+00         0.00000E+00
 
    0.22126E+05         0.87220E+05         0.00000E+00
    0.87220E+05        -0.47697E+08         0.00000E+00
    0.00000E+00         0.00000E+00        -0.25370E-08
 
    0.22964E+05         0.92640E+05         0.00000E+00
    0.92640E+05        -0.47705E+08         0.00000E+00
    0.00000E+00         0.00000E+00         0.15222E-07
 
    0.23903E+05         0.98250E+05         0.00000E+00
    0.98250E+05        -0.47714E+08         0.00000E+00
    0.00000E+00         0.00000E+00         0.76111E-08
 
    0.24944E+05         0.10407E+06         0.00000E+00
    0.10407E+06        -0.47722E+08         0.00000E+00
    0.00000E+00         0.00000E+00         0.25370E-08
 
    0.26088E+05         0.11014E+06         0.00000E+00
    0.11014E+06        -0.47732E+08         0.00000E+00
    0.00000E+00         0.00000E+00         0.76111E-08
 
    0.27336E+05         0.11647E+06         0.00000E+00
    0.11647E+06        -0.47741E+08         0.00000E+00
    0.00000E+00         0.00000E+00        -0.17759E-07
 
    0.28691E+05         0.12309E+06         0.00000E+00
    0.12309E+06        -0.47751E+08         0.00000E+00
    0.00000E+00         0.00000E+00        -0.50741E-08
 
    0.30152E+05         0.13003E+06         0.00000E+00
    0.13003E+06        -0.47761E+08         0.00000E+00
    0.00000E+00         0.00000E+00         0.12685E-07
 
    0.31723E+05         0.13731E+06         0.00000E+00
    0.13731E+06        -0.47772E+08         0.00000E+00
    0.00000E+00         0.00000E+00         0.25370E-08
 
    0.33406E+05         0.14497E+06         0.00000E+00
    0.14497E+06        -0.47783E+08         0.00000E+00
    0.00000E+00         0.00000E+00         0.50741E-08
 
    0.35204E+05         0.15302E+06         0.00000E+00
    0.15302E+06        -0.47795E+08         0.00000E+00
    0.00000E+00         0.00000E+00        -0.50741E-08
 
    0.37119E+05         0.16150E+06         0.00000E+00
    0.16150E+06        -0.47807E+08         0.00000E+00
    0.00000E+00         0.00000E+00        -0.50741E-08
 
    0.39155E+05         0.17043E+06         0.00000E+00
    0.17043E+06        -0.47820E+08         0.00000E+00
    0.00000E+00         0.00000E+00         0.00000E+00
 
    0.41316E+05         0.17984E+06         0.00000E+00
    0.17984E+06        -0.47834E+08         0.00000E+00
    0.00000E+00         0.00000E+00        -0.10148E-07
 
    0.43606E+05         0.18977E+06         0.00000E+00
    0.18977E+06        -0.47848E+08         0.00000E+00
    0.00000E+00         0.00000E+00         0.00000E+00
 
    0.46029E+05         0.20024E+06         0.00000E+00
    0.20024E+06        -0.47864E+08         0.00000E+00
    0.00000E+00         0.00000E+00        -0.25370E-08
 
    0.48591E+05         0.21128E+06         0.00000E+00
    0.21128E+06        -0.47880E+08         0.00000E+00
    0.00000E+00         0.00000E+00        -0.50741E-08
 
    0.51296E+05         0.22294E+06         0.00000E+00
    0.22294E+06        -0.47896E+08         0.00000E+00
    0.00000E+00         0.00000E+00        -0.50741E-08
 
    0.54150E+05         0.23523E+06         0.00000E+00
    0.23523E+06        -0.47914E+08         0.00000E+00
    0.00000E+00         0.00000E+00         0.17759E-07
 
    0.57159E+05         0.24820E+06         0.00000E+00
    0.24820E+06        -0.47933E+08         0.00000E+00
    0.00000E+00         0.00000E+00         0.50741E-08
 
    0.60328E+05         0.26189E+06         0.00000E+00
    0.26189E+06        -0.47953E+08         0.00000E+00
    0.00000E+00         0.00000E+00         0.25370E-08
 
    0.63664E+05         0.27632E+06         0.00000E+00
    0.27632E+06        -0.47974E+08         0.00000E+00
    0.00000E+00         0.00000E+00        -0.50741E-08
 
    0.67174E+05         0.29154E+06         0.00000E+00
    0.29154E+06        -0.47996E+08         0.00000E+00
    0.00000E+00         0.00000E+00         0.12685E-07
 
    0.70864E+05         0.30760E+06         0.00000E+00
    0.30760E+06        -0.48019E+08         0.00000E+00
    0.00000E+00         0.00000E+00         0.17759E-07
 
    0.74740E+05         0.32452E+06         0.00000E+00
    0.32452E+06        -0.48044E+08         0.00000E+00
    0.00000E+00         0.00000E+00         0.12685E-07
 
    0.78809E+05         0.34236E+06         0.00000E+00
    0.34236E+06        -0.48070E+08         0.00000E+00
    0.00000E+00         0.00000E+00        -0.76111E-08
 
    0.83078E+05         0.36115E+06         0.00000E+00
    0.36115E+06        -0.48098E+08         0.00000E+00
    0.00000E+00         0.00000E+00         0.10148E-07
 
    0.87552E+05         0.38095E+06         0.00000E+00
    0.38095E+06        -0.48127E+08         0.00000E+00
    0.00000E+00         0.00000E+00         0.50741E-08
 
    0.92239E+05         0.40179E+06         0.00000E+00
    0.40179E+06        -0.48158E+08         0.00000E+00
    0.00000E+00         0.00000E+00        -0.12685E-07
 
    0.97143E+05         0.42373E+06         0.00000E+00
    0.42373E+06        -0.48191E+08         0.00000E+00
    0.00000E+00         0.00000E+00         0.12685E-07
 
    0.10227E+06         0.44682E+06         0.00000E+00
    0.44682E+06        -0.48226E+08         0.00000E+00
    0.00000E+00         0.00000E+00        -0.25370E-08
 
    0.10763E+06         0.47110E+06         0.00000E+00
    0.47110E+06        -0.48263E+08         0.00000E+00
    0.00000E+00         0.00000E+00         0.10148E-07
 
    0.11321E+06         0.49662E+06         0.00000E+00
    0.49662E+06        -0.48302E+08         0.00000E+00
    0.00000E+00         0.00000E+00        -0.76111E-08
 
    0.11903E+06         0.52344E+06         0.00000E+00
    0.52344E+06        -0.48343E+08         0.00000E+00
    0.00000E+00         0.00000E+00        -0.10148E-07
 
    0.12509E+06         0.55159E+06         0.00000E+00
    0.55159E+06        -0.48387E+08         0.00000E+00
    0.00000E+00         0.00000E+00        -0.50741E-08
 
    0.13138E+06         0.58114E+06         0.00000E+00
    0.58114E+06        -0.48434E+08         0.00000E+00
    0.00000E+00         0.00000E+00         0.00000E+00
 
    0.13790E+06         0.61212E+06         0.00000E+00
    0.61212E+06        -0.48483E+08         0.00000E+00
    0.00000E+00         0.00000E+00         0.76111E-08
 
    0.14465E+06         0.64459E+06         0.00000E+00
    0.64459E+06        -0.48536E+08         0.00000E+00
    0.00000E+00         0.00000E+00        -0.25370E-08
 
    0.15163E+06         0.67858E+06         0.00000E+00
    0.67858E+06        -0.48591E+08         0.00000E+00
    0.00000E+00         0.00000E+00         0.25370E-08
 
    0.15881E+06         0.71413E+06         0.00000E+00
    0.71413E+06        -0.48650E+08         0.00000E+00
    0.00000E+00         0.00000E+00         0.25370E-08
 
    0.16619E+06         0.75128E+06         0.00000E+00
    0.75128E+06        -0.48713E+08         0.00000E+00
    0.00000E+00         0.00000E+00        -0.15222E-07
 
    0.17374E+06         0.79006E+06         0.00000E+00
    0.79006E+06        -0.48780E+08         0.00000E+00
    0.00000E+00         0.00000E+00         0.15222E-07
 
    0.18145E+06         0.83049E+06         0.00000E+00
    0.83049E+06        -0.48851E+08         0.00000E+00
    0.00000E+00         0.00000E+00         0.50741E-08
 
    0.18928E+06         0.87258E+06         0.00000E+00
    0.87258E+06        -0.48926E+08         0.00000E+00
    0.00000E+00         0.00000E+00        -0.15222E-07
 
    0.19719E+06         0.91633E+06         0.00000E+00
    0.91633E+06        -0.49007E+08         0.00000E+00
    0.00000E+00         0.00000E+00         0.00000E+00
 
    0.20514E+06         0.96173E+06         0.00000E+00
    0.96173E+06        -0.49092E+08         0.00000E+00
    0.00000E+00         0.00000E+00         0.10148E-07
 
    0.21308E+06         0.10088E+07         0.00000E+00
    0.10088E+07        -0.49183E+08         0.00000E+00
    0.00000E+00         0.00000E+00        -0.76111E-08
 
    0.22093E+06         0.10574E+07         0.00000E+00
    0.10574E+07        -0.49281E+08         0.00000E+00
    0.00000E+00         0.00000E+00         0.10148E-07
 
    0.22863E+06         0.11075E+07         0.00000E+00
    0.11075E+07        -0.49384E+08         0.00000E+00
    0.00000E+00         0.00000E+00         0.50741E-08
 
    0.23608E+06         0.11590E+07         0.00000E+00
    0.11590E+07        -0.49495E+08         0.00000E+00
    0.00000E+00         0.00000E+00        -0.25370E-08
 
    0.24317E+06         0.12119E+07         0.00000E+00
    0.12119E+07        -0.49613E+08         0.00000E+00
    0.00000E+00         0.00000E+00        -0.12685E-07
 
    0.24978E+06         0.12659E+07         0.00000E+00
    0.12659E+07        -0.49740E+08         0.00000E+00
    0.00000E+00         0.00000E+00         0.25370E-08
 
    0.25579E+06         0.13208E+07         0.00000E+00
    0.13208E+07        -0.49875E+08         0.00000E+00
    0.00000E+00         0.00000E+00         0.15222E-07
 
    0.26102E+06         0.13765E+07         0.00000E+00
    0.13765E+07        -0.50021E+08         0.00000E+00
    0.00000E+00         0.00000E+00        -0.12685E-07
 
    0.26530E+06         0.14325E+07         0.00000E+00
    0.14325E+07        -0.50176E+08         0.00000E+00
    0.00000E+00         0.00000E+00         0.25375E-08
 
    0.26843E+06         0.14887E+07         0.00000E+00
    0.14887E+07        -0.50343E+08         0.00000E+00
    0.00000E+00         0.00000E+00        -0.50741E-08
 
    0.27019E+06         0.15445E+07         0.00000E+00
    0.15445E+07        -0.50522E+08         0.00000E+00
    0.00000E+00         0.00000E+00         0.00000E+00
 
    0.27034E+06         0.15996E+07         0.00000E+00
    0.15996E+07        -0.50715E+08         0.00000E+00
    0.00000E+00         0.00000E+00         0.76116E-08
 
    0.26862E+06         0.16533E+07         0.00000E+00
    0.16533E+07        -0.50923E+08         0.00000E+00
    0.00000E+00         0.00000E+00         0.76107E-08
 
    0.26475E+06         0.17050E+07         0.00000E+00
    0.17050E+07        -0.51146E+08         0.00000E+00
    0.00000E+00         0.00000E+00         0.10148E-07
 
    0.25843E+06         0.17541E+07         0.00000E+00
    0.17541E+07        -0.51387E+08         0.00000E+00
    0.00000E+00         0.00000E+00        -0.15222E-07
 
    0.24935E+06         0.17997E+07         0.00000E+00
    0.17997E+07        -0.51647E+08         0.00000E+00
    0.00000E+00         0.00000E+00         0.00000E+00
 
    0.23720E+06         0.18410E+07         0.00000E+00
    0.18410E+07        -0.51928E+08         0.00000E+00
    0.00000E+00         0.00000E+00        -0.25366E-08
 
    0.22167E+06         0.18769E+07         0.00000E+00
    0.18769E+07        -0.52231E+08         0.00000E+00
    0.00000E+00         0.00000E+00        -0.25366E-08
 
    0.20244E+06         0.19066E+07         0.00000E+00
    0.19066E+07        -0.52558E+08         0.00000E+00
    0.00000E+00         0.00000E+00         0.76107E-08
 
    0.17924E+06         0.19288E+07         0.00000E+00
    0.19288E+07        -0.52910E+08         0.00000E+00
    0.00000E+00         0.00000E+00         0.50768E-08
 
    0.15178E+06         0.19425E+07         0.00000E+00
    0.19425E+07        -0.53291E+08         0.00000E+00
    0.00000E+00         0.00000E+00         0.76107E-08
 
    0.11983E+06         0.19465E+07         0.00000E+00
    0.19465E+07        -0.53701E+08         0.00000E+00
    0.00000E+00         0.00000E+00        -0.10148E-07
 
    0.83142E+05         0.19396E+07         0.00000E+00
    0.19396E+07        -0.54141E+08         0.00000E+00
    0.00000E+00         0.00000E+00         0.50750E-08
 
    0.41497E+05         0.19207E+07         0.00000E+00
    0.19207E+07        -0.54613E+08         0.00000E+00
    0.00000E+00         0.00000E+00        -0.50750E-08
 
   -0.53873E+04         0.18887E+07         0.00000E+00
    0.18887E+07        -0.55116E+08         0.00000E+00
    0.00000E+00         0.00000E+00        -0.50750E-08
 
   -0.57914E+05         0.18428E+07         0.00000E+00
    0.18428E+07        -0.55651E+08         0.00000E+00
    0.00000E+00         0.00000E+00        -0.76107E-08
 
   -0.11676E+06         0.17822E+07         0.00000E+00
    0.17822E+07        -0.56215E+08         0.00000E+00
    0.00000E+00         0.00000E+00        -0.12686E-07
 
   -0.18308E+06         0.17062E+07         0.00000E+00
    0.17062E+07        -0.56805E+08         0.00000E+00
    0.00000E+00         0.00000E+00         0.12684E-07
 
   -0.25894E+06         0.16144E+07         0.00000E+00
    0.16144E+07        -0.57414E+08         0.00000E+00
    0.00000E+00         0.00000E+00        -0.12686E-07
 
   -0.34780E+06         0.15063E+07         0.00000E+00
    0.15063E+07        -0.58034E+08         0.00000E+00
    0.00000E+00         0.00000E+00        -0.76107E-08
 
   -0.45539E+06         0.13809E+07         0.00000E+00
    0.13809E+07        -0.58653E+08         0.00000E+00
    0.00000E+00         0.00000E+00         0.50732E-08
 
   -0.59096E+06         0.12368E+07         0.00000E+00
    0.12368E+07        -0.59253E+08         0.00000E+00
    0.00000E+00         0.00000E+00         0.10146E-07
 
   -0.76898E+06         0.10708E+07         0.00000E+00
    0.10708E+07        -0.59812E+08         0.00000E+00
    0.00000E+00         0.00000E+00        -0.25375E-08
 
   -0.10119E+07         0.87836E+06         0.00000E+00
    0.87836E+06        -0.60303E+08         0.00000E+00
    0.00000E+00         0.00000E+00         0.17760E-07
 
   -0.13546E+07         0.65469E+06         0.00000E+00
    0.65469E+06        -0.60695E+08         0.00000E+00
    0.00000E+00         0.00000E+00         0.10149E-07
 
   -0.18456E+07         0.40265E+06         0.00000E+00
    0.40265E+06        -0.60960E+08         0.00000E+00
    0.00000E+00         0.00000E+00         0.25373E-08
 
   -0.25362E+07         0.13541E+06         0.00000E+00
    0.13541E+06        -0.61087E+08         0.00000E+00
    0.00000E+00         0.00000E+00        -0.43129E-07
 
    0.35819E+05         0.26017E+04         0.00000E+00
    0.26017E+04        -0.47596E+08         0.00000E+00
    0.00000E+00         0.00000E+00        -0.50741E-08
 
    0.31012E+05         0.77964E+04         0.00000E+00
    0.77964E+04        -0.47597E+08         0.00000E+00
    0.00000E+00         0.00000E+00        -0.14211E-13
 
    0.27567E+05         0.12948E+05         0.00000E+00
    0.12948E+05        -0.47600E+08         0.00000E+00
    0.00000E+00         0.00000E+00        -0.50741E-08
 
    0.25189E+05         0.17994E+05         0.00000E+00
    0.17994E+05        -0.47603E+08         0.00000E+00
    0.00000E+00         0.00000E+00         0.00000E+00
 
    0.23570E+05         0.22918E+05         0.00000E+00
    0.22918E+05        -0.47608E+08         0.00000E+00
    0.00000E+00         0.00000E+00         0.76111E-08
 
    0.22477E+05         0.27743E+05         0.00000E+00
    0.27743E+05        -0.47613E+08         0.00000E+00
    0.00000E+00         0.00000E+00        -0.20296E-07
 
    0.21752E+05         0.32499E+05         0.00000E+00
    0.32499E+05        -0.47619E+08         0.00000E+00
    0.00000E+00         0.00000E+00        -0.12685E-07
 
    0.21291E+05         0.37211E+05         0.00000E+00
    0.37211E+05        -0.47625E+08         0.00000E+00
    0.00000E+00         0.00000E+00        -0.50741E-08
 
    0.21028E+05         0.41894E+05         0.00000E+00
    0.41894E+05        -0.47631E+08         0.00000E+00
    0.00000E+00         0.00000E+00        -0.20296E-07
 
    0.20924E+05         0.46564E+05         0.00000E+00
    0.46564E+05        -0.47638E+08         0.00000E+00
    0.00000E+00         0.00000E+00        -0.25370E-08
 
    0.20953E+05         0.51232E+05         0.00000E+00
    0.51232E+05        -0.47645E+08         0.00000E+00
    0.00000E+00         0.00000E+00        -0.17759E-07
 
    0.21103E+05         0.55913E+05         0.00000E+00
    0.55913E+05        -0.47652E+08         0.00000E+00
    0.00000E+00         0.00000E+00        -0.50741E-08
 
    0.21366E+05         0.60625E+05         0.00000E+00
    0.60625E+05        -0.47659E+08         0.00000E+00
    0.00000E+00         0.00000E+00        -0.76111E-08
 
    0.21739E+05         0.65384E+05         0.00000E+00
    0.65384E+05        -0.47667E+08         0.00000E+00
    0.00000E+00         0.00000E+00         0.00000E+00
 
    0.22221E+05         0.70212E+05         0.00000E+00
    0.70212E+05        -0.47674E+08         0.00000E+00
    0.00000E+00         0.00000E+00        -0.76111E-08
 
    0.22811E+05         0.75129E+05         0.00000E+00
    0.75129E+05        -0.47682E+08         0.00000E+00
    0.00000E+00         0.00000E+00        -0.25370E-08
 
    0.23511E+05         0.80159E+05         0.00000E+00
    0.80159E+05        -0.47690E+08         0.00000E+00
    0.00000E+00         0.00000E+00        -0.25370E-07
 
    0.24320E+05         0.85324E+05         0.00000E+00
    0.85324E+05        -0.47698E+08         0.00000E+00
    0.00000E+00         0.00000E+00        -0.25370E-08
 
    0.25240E+05         0.90648E+05         0.00000E+00
    0.90648E+05        -0.47706E+08         0.00000E+00
    0.00000E+00         0.00000E+00        -0.50741E-08
 
    0.26272E+05         0.96156E+05         0.00000E+00
    0.96156E+05        -0.47715E+08         0.00000E+00
    0.00000E+00         0.00000E+00         0.25370E-08
 
    0.27416E+05         0.10187E+06         0.00000E+00
    0.10187E+06        -0.47724E+08         0.00000E+00
    0.00000E+00         0.00000E+00         0.50741E-08
 
    0.28673E+05         0.10782E+06         0.00000E+00
    0.10782E+06        -0.47733E+08         0.00000E+00
    0.00000E+00         0.00000E+00         0.25370E-08
 
    0.30046E+05         0.11403E+06         0.00000E+00
    0.11403E+06        -0.47742E+08         0.00000E+00
    0.00000E+00         0.00000E+00         0.00000E+00
 
    0.31535E+05         0.12053E+06         0.00000E+00
    0.12053E+06        -0.47752E+08         0.00000E+00
    0.00000E+00         0.00000E+00         0.00000E+00
 
    0.33142E+05         0.12733E+06         0.00000E+00
    0.12733E+06        -0.47763E+08         0.00000E+00
    0.00000E+00         0.00000E+00        -0.25370E-08
 
    0.34870E+05         0.13447E+06         0.00000E+00
    0.13447E+06        -0.47773E+08         0.00000E+00
    0.00000E+00         0.00000E+00         0.50741E-08
 
    0.36720E+05         0.14197E+06         0.00000E+00
    0.14197E+06        -0.47785E+08         0.00000E+00
    0.00000E+00         0.00000E+00         0.25370E-08
 
    0.38697E+05         0.14986E+06         0.00000E+00
    0.14986E+06        -0.47797E+08         0.00000E+00
    0.00000E+00         0.00000E+00        -0.10148E-07
 
    0.40803E+05         0.15817E+06         0.00000E+00
    0.15817E+06        -0.47809E+08         0.00000E+00
    0.00000E+00         0.00000E+00         0.00000E+00
 
    0.43042E+05         0.16692E+06         0.00000E+00
    0.16692E+06        -0.47822E+08         0.00000E+00
    0.00000E+00         0.00000E+00        -0.50740E-08
 
    0.45418E+05         0.17614E+06         0.00000E+00
    0.17614E+06        -0.47836E+08         0.00000E+00
    0.00000E+00         0.00000E+00        -0.12685E-07
 
    0.47935E+05         0.18586E+06         0.00000E+00
    0.18586E+06        -0.47850E+08         0.00000E+00
    0.00000E+00         0.00000E+00         0.00000E+00
 
    0.50600E+05         0.19612E+06         0.00000E+00
    0.19612E+06        -0.47866E+08         0.00000E+00
    0.00000E+00         0.00000E+00         0.12685E-07
 
    0.53417E+05         0.20693E+06         0.00000E+00
    0.20693E+06        -0.47882E+08         0.00000E+00
    0.00000E+00         0.00000E+00         0.00000E+00
 
    0.56391E+05         0.21835E+06         0.00000E+00
    0.21835E+06        -0.47899E+08         0.00000E+00
    0.00000E+00         0.00000E+00        -0.50741E-08
 
    0.59529E+05         0.23039E+06         0.00000E+00
    0.23039E+06        -0.47917E+08         0.00000E+00
    0.00000E+00         0.00000E+00        -0.27907E-07
 
    0.62837E+05         0.24309E+06         0.00000E+00
    0.24309E+06        -0.47936E+08         0.00000E+00
    0.00000E+00         0.00000E+00        -0.10148E-07
 
    0.66322E+05         0.25649E+06         0.00000E+00
    0.25649E+06        -0.47956E+08         0.00000E+00
    0.00000E+00         0.00000E+00        -0.25370E-08
 
    0.69991E+05         0.27063E+06         0.00000E+00
    0.27063E+06        -0.47977E+08         0.00000E+00
    0.00000E+00         0.00000E+00        -0.50741E-08
 
    0.73850E+05         0.28553E+06         0.00000E+00
    0.28553E+06        -0.47999E+08         0.00000E+00
    0.00000E+00         0.00000E+00        -0.25370E-08
 
    0.77907E+05         0.30125E+06         0.00000E+00
    0.30125E+06        -0.48023E+08         0.00000E+00
    0.00000E+00         0.00000E+00         0.00000E+00
 
    0.82169E+05         0.31782E+06         0.00000E+00
    0.31782E+06        -0.48047E+08         0.00000E+00
    0.00000E+00         0.00000E+00         0.76111E-08
 
    0.86644E+05         0.33529E+06         0.00000E+00
    0.33529E+06        -0.48074E+08         0.00000E+00
    0.00000E+00         0.00000E+00         0.76111E-08
 
    0.91338E+05         0.35369E+06         0.00000E+00
    0.35369E+06        -0.48102E+08         0.00000E+00
    0.00000E+00         0.00000E+00        -0.25370E-08
 
    0.96258E+05         0.37307E+06         0.00000E+00
    0.37307E+06        -0.48131E+08         0.00000E+00
    0.00000E+00         0.00000E+00        -0.50740E-08
 
    0.10141E+06         0.39348E+06         0.00000E+00
    0.39348E+06        -0.48163E+08         0.00000E+00
    0.00000E+00         0.00000E+00        -0.50741E-08
 
    0.10681E+06         0.41496E+06         0.00000E+00
    0.41496E+06        -0.48196E+08         0.00000E+00
    0.00000E+00         0.00000E+00        -0.76111E-08
 
    0.11245E+06         0.43756E+06         0.00000E+00
    0.43756E+06        -0.48231E+08         0.00000E+00
    0.00000E+00         0.00000E+00        -0.50741E-08
 
    0.11833E+06         0.46132E+06         0.00000E+00
    0.46132E+06        -0.48268E+08         0.00000E+00
    0.00000E+00         0.00000E+00        -0.50741E-08
 
    0.12448E+06         0.48630E+06         0.00000E+00
    0.48630E+06        -0.48307E+08         0.00000E+00
    0.00000E+00         0.00000E+00         0.12685E-07
 
    0.13088E+06         0.51254E+06         0.00000E+00
    0.51254E+06        -0.48349E+08         0.00000E+00
    0.00000E+00         0.00000E+00        -0.76111E-08
 
    0.13754E+06         0.54010E+06         0.00000E+00
    0.54010E+06        -0.48393E+08         0.00000E+00
    0.00000E+00         0.00000E+00        -0.76111E-08
 
    0.14446E+06         0.56901E+06         0.00000E+00
    0.56901E+06        -0.48440E+08         0.00000E+00
    0.00000E+00         0.00000E+00        -0.50741E-08
 
    0.15164E+06         0.59932E+06         0.00000E+00
    0.59932E+06        -0.48489E+08         0.00000E+00
    0.00000E+00         0.00000E+00        -0.12685E-07
 
    0.15907E+06         0.63108E+06         0.00000E+00
    0.63108E+06        -0.48542E+08         0.00000E+00
    0.00000E+00         0.00000E+00         0.00000E+00
 
    0.16674E+06         0.66433E+06         0.00000E+00
    0.66433E+06        -0.48598E+08         0.00000E+00
    0.00000E+00         0.00000E+00        -0.10148E-07
 
    0.17465E+06         0.69910E+06         0.00000E+00
    0.69910E+06        -0.48658E+08         0.00000E+00
    0.00000E+00         0.00000E+00        -0.76111E-08
 
    0.18277E+06         0.73543E+06         0.00000E+00
    0.73543E+06        -0.48721E+08         0.00000E+00
    0.00000E+00         0.00000E+00        -0.50741E-08
 
    0.19108E+06         0.77335E+06         0.00000E+00
    0.77335E+06        -0.48788E+08         0.00000E+00
    0.00000E+00         0.00000E+00         0.50741E-08
 
    0.19957E+06         0.81287E+06         0.00000E+00
    0.81287E+06        -0.48859E+08         0.00000E+00
    0.00000E+00         0.00000E+00         0.50741E-08
 
    0.20819E+06         0.85401E+06         0.00000E+00
    0.85401E+06        -0.48935E+08         0.00000E+00
    0.00000E+00         0.00000E+00         0.50741E-08
 
    0.21691E+06         0.89676E+06         0.00000E+00
    0.89676E+06        -0.49016E+08         0.00000E+00
    0.00000E+00         0.00000E+00        -0.50741E-08
 
    0.22567E+06         0.94112E+06         0.00000E+00
    0.94112E+06        -0.49101E+08         0.00000E+00
    0.00000E+00         0.00000E+00         0.00000E+00
 
    0.23442E+06         0.98705E+06         0.00000E+00
    0.98705E+06        -0.49193E+08         0.00000E+00
    0.00000E+00         0.00000E+00         0.25370E-08
 
    0.24308E+06         0.10345E+07         0.00000E+00
    0.10345E+07        -0.49291E+08         0.00000E+00
    0.00000E+00         0.00000E+00         0.25370E-08
 
    0.25157E+06         0.10834E+07         0.00000E+00
    0.10834E+07        -0.49395E+08         0.00000E+00
    0.00000E+00         0.00000E+00         0.50741E-08
 
    0.25978E+06         0.11337E+07         0.00000E+00
    0.11337E+07        -0.49506E+08         0.00000E+00
    0.00000E+00         0.00000E+00         0.00000E+00
 
    0.26762E+06         0.11852E+07         0.00000E+00
    0.11852E+07        -0.49624E+08         0.00000E+00
    0.00000E+00         0.00000E+00         0.76111E-08
 
    0.27493E+06         0.12379E+07         0.00000E+00
    0.12379E+07        -0.49751E+08         0.00000E+00
    0.00000E+00         0.00000E+00         0.25370E-08
 
    0.28158E+06         0.12914E+07         0.00000E+00
    0.12914E+07        -0.49887E+08         0.00000E+00
    0.00000E+00         0.00000E+00         0.00000E+00
 
    0.28738E+06         0.13455E+07         0.00000E+00
    0.13455E+07        -0.50032E+08         0.00000E+00
    0.00000E+00         0.00000E+00         0.50741E-08
 
    0.29214E+06         0.14000E+07         0.00000E+00
    0.14000E+07        -0.50187E+08         0.00000E+00
    0.00000E+00         0.00000E+00        -0.17759E-07
 
    0.29563E+06         0.14546E+07         0.00000E+00
    0.14546E+07        -0.50354E+08         0.00000E+00
    0.00000E+00         0.00000E+00         0.00000E+00
 
    0.29763E+06         0.15087E+07         0.00000E+00
    0.15087E+07        -0.50534E+08         0.00000E+00
    0.00000E+00         0.00000E+00         0.20296E-07
 
    0.29785E+06         0.15619E+07         0.00000E+00
    0.15619E+07        -0.50726E+08         0.00000E+00
    0.00000E+00         0.00000E+00        -0.25366E-08
 
    0.29602E+06         0.16138E+07         0.00000E+00
    0.16138E+07        -0.50933E+08         0.00000E+00
    0.00000E+00         0.00000E+00        -0.12685E-07
 
    0.29181E+06         0.16636E+07         0.00000E+00
    0.16636E+07        -0.51156E+08         0.00000E+00
    0.00000E+00         0.00000E+00         0.25375E-08
 
    0.28489E+06         0.17106E+07         0.00000E+00
    0.17106E+07        -0.51397E+08         0.00000E+00
    0.00000E+00         0.00000E+00        -0.10148E-07
 
    0.27492E+06         0.17540E+07         0.00000E+00
    0.17540E+07        -0.51656E+08         0.00000E+00
    0.00000E+00         0.00000E+00         0.00000E+00
 
    0.26154E+06         0.17930E+07         0.00000E+00
    0.17930E+07        -0.51935E+08         0.00000E+00
    0.00000E+00         0.00000E+00        -0.50741E-08
 
    0.24441E+06         0.18266E+07         0.00000E+00
    0.18266E+07        -0.52237E+08         0.00000E+00
    0.00000E+00         0.00000E+00        -0.15222E-07
 
    0.22315E+06         0.18537E+07         0.00000E+00
    0.18537E+07        -0.52563E+08         0.00000E+00
    0.00000E+00         0.00000E+00         0.15221E-07
 
    0.19743E+06         0.18732E+07         0.00000E+00
    0.18732E+07        -0.52914E+08         0.00000E+00
    0.00000E+00         0.00000E+00        -0.25375E-08
 
    0.16694E+06         0.18840E+07         0.00000E+00
    0.18840E+07        -0.53293E+08         0.00000E+00
    0.00000E+00         0.00000E+00         0.25375E-08
 
    0.13137E+06         0.18848E+07         0.00000E+00
    0.18848E+07        -0.53700E+08         0.00000E+00
    0.00000E+00         0.00000E+00         0.00000E+00
 
    0.90430E+05         0.18745E+07         0.00000E+00
    0.18745E+07        -0.54138E+08         0.00000E+00
    0.00000E+00         0.00000E+00        -0.50750E-08
 
    0.43835E+05         0.18519E+07         0.00000E+00
    0.18519E+07        -0.54607E+08         0.00000E+00
    0.00000E+00         0.00000E+00        -0.27905E-07
 
   -0.87574E+04         0.18161E+07         0.00000E+00
    0.18161E+07        -0.55108E+08         0.00000E+00
    0.00000E+00         0.00000E+00        -0.76125E-08
 
   -0.67825E+05         0.17660E+07         0.00000E+00
    0.17660E+07        -0.55640E+08         0.00000E+00
    0.00000E+00         0.00000E+00        -0.12686E-07
 
   -0.13413E+06         0.17010E+07         0.00000E+00
    0.17010E+07        -0.56201E+08         0.00000E+00
    0.00000E+00         0.00000E+00         0.25357E-08
 
   -0.20895E+06         0.16205E+07         0.00000E+00
    0.16205E+07        -0.56788E+08         0.00000E+00
    0.00000E+00         0.00000E+00         0.50732E-08
 
   -0.29449E+06         0.15243E+07         0.00000E+00
    0.15243E+07        -0.57394E+08         0.00000E+00
    0.00000E+00         0.00000E+00         0.00000E+00
 
   -0.39444E+06         0.14122E+07         0.00000E+00
    0.14122E+07        -0.58010E+08         0.00000E+00
    0.00000E+00         0.00000E+00         0.20296E-07
 
   -0.51487E+06         0.12839E+07         0.00000E+00
    0.12839E+07        -0.58625E+08         0.00000E+00
    0.00000E+00         0.00000E+00        -0.50732E-08
 
   -0.66547E+06         0.11386E+07         0.00000E+00
    0.11386E+07        -0.59221E+08         0.00000E+00
    0.00000E+00         0.00000E+00        -0.20298E-07
 
   -0.86137E+06         0.97473E+06         0.00000E+00
    0.97473E+06        -0.59776E+08         0.00000E+00
    0.00000E+00         0.00000E+00         0.50732E-08
 
   -0.11257E+07         0.78935E+06         0.00000E+00
    0.78935E+06        -0.60262E+08         0.00000E+00
    0.00000E+00         0.00000E+00        -0.50732E-08
 
   -0.14927E+07         0.58067E+06         0.00000E+00
    0.58067E+06        -0.60649E+08         0.00000E+00
    0.00000E+00         0.00000E+00        -0.15221E-07
 
   -0.20072E+07         0.35328E+06         0.00000E+00
    0.35328E+06        -0.60910E+08         0.00000E+00
    0.00000E+00         0.00000E+00        -0.76107E-08
 
   -0.27128E+07         0.11812E+06         0.00000E+00
    0.11812E+06        -0.61037E+08         0.00000E+00
    0.00000E+00         0.00000E+00         0.45475E-12
 
    0.38508E+05         0.24550E+04         0.00000E+00
    0.24550E+04        -0.47597E+08         0.00000E+00
    0.00000E+00         0.00000E+00        -0.12685E-07
 
    0.33618E+05         0.73693E+04         0.00000E+00
    0.73693E+04        -0.47598E+08         0.00000E+00
    0.00000E+00         0.00000E+00        -0.76111E-08
 
    0.30043E+05         0.12281E+05         0.00000E+00
    0.12281E+05        -0.47601E+08         0.00000E+00
    0.00000E+00         0.00000E+00         0.50741E-08
 
    0.27526E+05         0.17147E+05         0.00000E+00
    0.17147E+05        -0.47604E+08         0.00000E+00
    0.00000E+00         0.00000E+00        -0.76111E-08
 
    0.25786E+05         0.21939E+05         0.00000E+00
    0.21939E+05        -0.47609E+08         0.00000E+00
    0.00000E+00         0.00000E+00         0.25370E-08
 
    0.24597E+05         0.26667E+05         0.00000E+00
    0.26667E+05        -0.47614E+08         0.00000E+00
    0.00000E+00         0.00000E+00         0.17759E-07
 
    0.23796E+05         0.31349E+05         0.00000E+00
    0.31349E+05        -0.47620E+08         0.00000E+00
    0.00000E+00         0.00000E+00        -0.15222E-07
 
    0.23279E+05         0.35997E+05         0.00000E+00
    0.35997E+05        -0.47626E+08         0.00000E+00
    0.00000E+00         0.00000E+00         0.00000E+00
 
    0.22977E+05         0.40623E+05         0.00000E+00
    0.40623E+05        -0.47632E+08         0.00000E+00
    0.00000E+00         0.00000E+00        -0.50741E-08
 
    0.22847E+05         0.45236E+05         0.00000E+00
    0.45236E+05        -0.47639E+08         0.00000E+00
    0.00000E+00         0.00000E+00         0.25370E-08
 
    0.22865E+05         0.49847E+05         0.00000E+00
    0.49847E+05        -0.47646E+08         0.00000E+00
    0.00000E+00         0.00000E+00        -0.76111E-08
 
    0.23016E+05         0.54467E+05         0.00000E+00
    0.54467E+05        -0.47653E+08         0.00000E+00
    0.00000E+00         0.00000E+00         0.25370E-08
 
    0.23293E+05         0.59114E+05         0.00000E+00
    0.59114E+05        -0.47660E+08         0.00000E+00
    0.00000E+00         0.00000E+00         0.20296E-07
 
    0.23691E+05         0.63804E+05         0.00000E+00
    0.63804E+05        -0.47668E+08         0.00000E+00
    0.00000E+00         0.00000E+00        -0.25370E-08
 
    0.24210E+05         0.68557E+05         0.00000E+00
    0.68557E+05        -0.47675E+08         0.00000E+00
    0.00000E+00         0.00000E+00         0.15222E-07
 
    0.24848E+05         0.73395E+05         0.00000E+00
    0.73395E+05        -0.47683E+08         0.00000E+00
    0.00000E+00         0.00000E+00         0.50741E-08
 
    0.25607E+05         0.78338E+05         0.00000E+00
    0.78338E+05        -0.47691E+08         0.00000E+00
    0.00000E+00         0.00000E+00         0.00000E+00
 
    0.26486E+05         0.83412E+05         0.00000E+00
    0.83412E+05        -0.47699E+08         0.00000E+00
    0.00000E+00         0.00000E+00         0.00000E+00
 
    0.27487E+05         0.88638E+05         0.00000E+00
    0.88638E+05        -0.47707E+08         0.00000E+00
    0.00000E+00         0.00000E+00         0.76110E-08
 
    0.28610E+05         0.94043E+05         0.00000E+00
    0.94043E+05        -0.47716E+08         0.00000E+00
    0.00000E+00         0.00000E+00         0.00000E+00
 
    0.29855E+05         0.99650E+05         0.00000E+00
    0.99650E+05        -0.47725E+08         0.00000E+00
    0.00000E+00         0.00000E+00        -0.17759E-07
 
    0.31225E+05         0.10548E+06         0.00000E+00
    0.10548E+06        -0.47734E+08         0.00000E+00
    0.00000E+00         0.00000E+00        -0.27907E-07
 
    0.32721E+05         0.11157E+06         0.00000E+00
    0.11157E+06        -0.47744E+08         0.00000E+00
    0.00000E+00         0.00000E+00        -0.15222E-07
 
    0.34343E+05         0.11793E+06         0.00000E+00
    0.11793E+06        -0.47754E+08         0.00000E+00
    0.00000E+00         0.00000E+00         0.00000E+00
 
    0.36094E+05         0.12460E+06         0.00000E+00
    0.12460E+06        -0.47764E+08         0.00000E+00
    0.00000E+00         0.00000E+00         0.00000E+00
 
    0.37976E+05         0.13159E+06         0.00000E+00
    0.13159E+06        -0.47775E+08         0.00000E+00
    0.00000E+00         0.00000E+00         0.00000E+00
 
    0.39993E+05         0.13893E+06         0.00000E+00
    0.13893E+06        -0.47786E+08         0.00000E+00
    0.00000E+00         0.00000E+00        -0.12685E-07
 
    0.42146E+05         0.14666E+06         0.00000E+00
    0.14666E+06        -0.47798E+08         0.00000E+00
    0.00000E+00         0.00000E+00        -0.50741E-08
 
    0.44441E+05         0.15479E+06         0.00000E+00
    0.15479E+06        -0.47811E+08         0.00000E+00
    0.00000E+00         0.00000E+00         0.25370E-08
 
    0.46880E+05         0.16336E+06         0.00000E+00
    0.16336E+06        -0.47824E+08         0.00000E+00
    0.00000E+00         0.00000E+00         0.15222E-07
 
    0.49469E+05         0.17239E+06         0.00000E+00
    0.17239E+06        -0.47838E+08         0.00000E+00
    0.00000E+00         0.00000E+00         0.50741E-08
 
    0.52212E+05         0.18191E+06         0.00000E+00
    0.18191E+06        -0.47852E+08         0.00000E+00
    0.00000E+00         0.00000E+00         0.12685E-07
 
    0.55115E+05         0.19194E+06         0.00000E+00
    0.19194E+06        -0.47868E+08         0.00000E+00
    0.00000E+00         0.00000E+00        -0.76111E-08
 
    0.58184E+05         0.20253E+06         0.00000E+00
    0.20253E+06        -0.47884E+08         0.00000E+00
    0.00000E+00         0.00000E+00        -0.22833E-07
 
    0.61424E+05         0.21370E+06         0.00000E+00
    0.21370E+06        -0.47901E+08         0.00000E+00
    0.00000E+00         0.00000E+00        -0.12685E-07
 
    0.64843E+05         0.22549E+06         0.00000E+00
    0.22549E+06        -0.47919E+08         0.00000E+00
    0.00000E+00         0.00000E+00         0.76111E-08
 
    0.68448E+05         0.23792E+06         0.00000E+00
    0.23792E+06        -0.47938E+08         0.00000E+00
    0.00000E+00         0.00000E+00        -0.12685E-07
 
    0.72245E+05         0.25103E+06         0.00000E+00
    0.25103E+06        -0.47958E+08         0.00000E+00
    0.00000E+00         0.00000E+00        -0.25370E-08
 
    0.76242E+05         0.26487E+06         0.00000E+00
    0.26487E+06        -0.47980E+08         0.00000E+00
    0.00000E+00         0.00000E+00         0.00000E+00
 
    0.80446E+05         0.27945E+06         0.00000E+00
    0.27945E+06        -0.48002E+08         0.00000E+00
    0.00000E+00         0.00000E+00        -0.12685E-07
 
    0.84867E+05         0.29484E+06         0.00000E+00
    0.29484E+06        -0.48026E+08         0.00000E+00
    0.00000E+00         0.00000E+00         0.00000E+00
 
    0.89511E+05         0.31105E+06         0.00000E+00
    0.31105E+06        -0.48051E+08         0.00000E+00
    0.00000E+00         0.00000E+00        -0.10148E-07
 
    0.94386E+05         0.32814E+06         0.00000E+00
    0.32814E+06        -0.48077E+08         0.00000E+00
    0.00000E+00         0.00000E+00        -0.76111E-08
 
    0.99501E+05         0.34614E+06         0.00000E+00
    0.34614E+06        -0.48106E+08         0.00000E+00
    0.00000E+00         0.00000E+00        -0.50741E-08
 
    0.10486E+06         0.36510E+06         0.00000E+00
    0.36510E+06        -0.48135E+08         0.00000E+00
    0.00000E+00         0.00000E+00        -0.17759E-07
 
    0.11048E+06         0.38507E+06         0.00000E+00
    0.38507E+06        -0.48167E+08         0.00000E+00
    0.00000E+00         0.00000E+00         0.50741E-08
 
    0.11636E+06         0.40608E+06         0.00000E+00
    0.40608E+06        -0.48200E+08         0.00000E+00
    0.00000E+00         0.00000E+00        -0.12685E-07
 
    0.12250E+06         0.42819E+06         0.00000E+00
    0.42819E+06        -0.48235E+08         0.00000E+00
    0.00000E+00         0.00000E+00        -0.10148E-07
 
    0.12892E+06         0.45143E+06         0.00000E+00
    0.45143E+06        -0.48273E+08         0.00000E+00
    0.00000E+00         0.00000E+00        -0.50741E-08
 
    0.13562E+06         0.47586E+06         0.00000E+00
    0.47586E+06        -0.48312E+08         0.00000E+00
    0.00000E+00         0.00000E+00         0.25370E-08
 
    0.14259E+06         0.50153E+06         0.00000E+00
    0.50153E+06        -0.48354E+08         0.00000E+00
    0.00000E+00         0.00000E+00         0.25370E-08
 
    0.14986E+06         0.52847E+06         0.00000E+00
    0.52847E+06        -0.48399E+08         0.00000E+00
    0.00000E+00         0.00000E+00        -0.76111E-08
 
    0.15740E+06         0.55674E+06         0.00000E+00
    0.55674E+06        -0.48446E+08         0.00000E+00
    0.00000E+00         0.00000E+00         0.00000E+00
 
    0.16522E+06         0.58638E+06         0.00000E+00
    0.58638E+06        -0.48496E+08         0.00000E+00
    0.00000E+00         0.00000E+00        -0.17759E-07
 
    0.17332E+06         0.61743E+06         0.00000E+00
    0.61743E+06        -0.48549E+08         0.00000E+00
    0.00000E+00         0.00000E+00         0.00000E+00
 
    0.18169E+06         0.64993E+06         0.00000E+00
    0.64993E+06        -0.48605E+08         0.00000E+00
    0.00000E+00         0.00000E+00        -0.20296E-07
 
    0.19031E+06         0.68392E+06         0.00000E+00
    0.68392E+06        -0.48665E+08         0.00000E+00
    0.00000E+00         0.00000E+00        -0.76111E-08
 
    0.19917E+06         0.71943E+06         0.00000E+00
    0.71943E+06        -0.48728E+08         0.00000E+00
    0.00000E+00         0.00000E+00         0.25370E-08
 
    0.20824E+06         0.75648E+06         0.00000E+00
    0.75648E+06        -0.48796E+08         0.00000E+00
    0.00000E+00         0.00000E+00         0.00000E+00
 
    0.21750E+06         0.79509E+06         0.00000E+00
    0.79509E+06        -0.48867E+08         0.00000E+00
    0.00000E+00         0.00000E+00         0.10148E-07
 
    0.22691E+06         0.83528E+06         0.00000E+00
    0.83528E+06        -0.48943E+08         0.00000E+00
    0.00000E+00         0.00000E+00        -0.25370E-08
 
    0.23642E+06         0.87703E+06         0.00000E+00
    0.87703E+06        -0.49024E+08         0.00000E+00
    0.00000E+00         0.00000E+00        -0.50741E-08
 
    0.24599E+06         0.92034E+06         0.00000E+00
    0.92034E+06        -0.49111E+08         0.00000E+00
    0.00000E+00         0.00000E+00         0.00000E+00
 
    0.25555E+06         0.96518E+06         0.00000E+00
    0.96518E+06        -0.49202E+08         0.00000E+00
    0.00000E+00         0.00000E+00         0.76111E-08
 
    0.26501E+06         0.10115E+07         0.00000E+00
    0.10115E+07        -0.49300E+08         0.00000E+00
    0.00000E+00         0.00000E+00        -0.25370E-08
 
    0.27429E+06         0.10592E+07         0.00000E+00
    0.10592E+07        -0.49404E+08         0.00000E+00
    0.00000E+00         0.00000E+00        -0.25370E-08
 
    0.28328E+06         0.11082E+07         0.00000E+00
    0.11082E+07        -0.49516E+08         0.00000E+00
    0.00000E+00         0.00000E+00         0.00000E+00
 
    0.29186E+06         0.11585E+07         0.00000E+00
    0.11585E+07        -0.49635E+08         0.00000E+00
    0.00000E+00         0.00000E+00        -0.10148E-07
 
    0.29988E+06         0.12097E+07         0.00000E+00
    0.12097E+07        -0.49762E+08         0.00000E+00
    0.00000E+00         0.00000E+00        -0.76111E-08
 
    0.30717E+06         0.12618E+07         0.00000E+00
    0.12618E+07        -0.49897E+08         0.00000E+00
    0.00000E+00         0.00000E+00         0.12685E-07
 
    0.31354E+06         0.13145E+07         0.00000E+00
    0.13145E+07        -0.50043E+08         0.00000E+00
    0.00000E+00         0.00000E+00        -0.10148E-07
 
    0.31879E+06         0.13674E+07         0.00000E+00
    0.13674E+07        -0.50198E+08         0.00000E+00
    0.00000E+00         0.00000E+00         0.25369E-07
 
    0.32267E+06         0.14203E+07         0.00000E+00
    0.14203E+07        -0.50365E+08         0.00000E+00
    0.00000E+00         0.00000E+00         0.76107E-08
 
    0.32491E+06         0.14728E+07         0.00000E+00
    0.14728E+07        -0.50544E+08         0.00000E+00
    0.00000E+00         0.00000E+00        -0.25375E-08
 
    0.32523E+06         0.15243E+07         0.00000E+00
    0.15243E+07        -0.50737E+08         0.00000E+00
    0.00000E+00         0.00000E+00        -0.76107E-08
 
    0.32329E+06         0.15743E+07         0.00000E+00
    0.15743E+07        -0.50944E+08         0.00000E+00
    0.00000E+00         0.00000E+00         0.25370E-07
 
    0.31876E+06         0.16222E+07         0.00000E+00
    0.16222E+07        -0.51166E+08         0.00000E+00
    0.00000E+00         0.00000E+00         0.00000E+00
 
    0.31127E+06         0.16672E+07         0.00000E+00
    0.16672E+07        -0.51406E+08         0.00000E+00
    0.00000E+00         0.00000E+00        -0.25375E-08
 
    0.30044E+06         0.17086E+07         0.00000E+00
    0.17086E+07        -0.51664E+08         0.00000E+00
    0.00000E+00         0.00000E+00         0.00000E+00
 
    0.28585E+06         0.17454E+07         0.00000E+00
    0.17454E+07        -0.51943E+08         0.00000E+00
    0.00000E+00         0.00000E+00         0.50750E-08
 
    0.26712E+06         0.17766E+07         0.00000E+00
    0.17766E+07        -0.52243E+08         0.00000E+00
    0.00000E+00         0.00000E+00        -0.20296E-07
 
    0.24384E+06         0.18013E+07         0.00000E+00
    0.18013E+07        -0.52567E+08         0.00000E+00
    0.00000E+00         0.00000E+00        -0.76125E-08
 
    0.21562E+06         0.18181E+07         0.00000E+00
    0.18181E+07        -0.52917E+08         0.00000E+00
    0.00000E+00         0.00000E+00         0.25375E-08
 
    0.18207E+06         0.18261E+07         0.00000E+00
    0.18261E+07        -0.53294E+08         0.00000E+00
    0.00000E+00         0.00000E+00        -0.25369E-07
 
    0.14285E+06         0.18239E+07         0.00000E+00
    0.18239E+07        -0.53699E+08         0.00000E+00
    0.00000E+00         0.00000E+00        -0.25357E-08
 
    0.97597E+05         0.18103E+07         0.00000E+00
    0.18103E+07        -0.54135E+08         0.00000E+00
    0.00000E+00         0.00000E+00         0.17759E-07
 
    0.45964E+05         0.17843E+07         0.00000E+00
    0.17843E+07        -0.54601E+08         0.00000E+00
    0.00000E+00         0.00000E+00         0.27905E-07
 
   -0.12463E+05         0.17446E+07         0.00000E+00
    0.17446E+07        -0.55099E+08         0.00000E+00
    0.00000E+00         0.00000E+00        -0.10146E-07
 
   -0.78237E+05         0.16906E+07         0.00000E+00
    0.16906E+07        -0.55628E+08         0.00000E+00
    0.00000E+00         0.00000E+00        -0.43130E-07
 
   -0.15220E+06         0.16214E+07         0.00000E+00
    0.16214E+07        -0.56186E+08         0.00000E+00
    0.00000E+00         0.00000E+00        -0.15223E-07
 
   -0.23576E+06         0.15367E+07         0.00000E+00
    0.15367E+07        -0.56769E+08         0.00000E+00
    0.00000E+00         0.00000E+00         0.15221E-07
 
   -0.33123E+06         0.14363E+07         0.00000E+00
    0.14363E+07        -0.57372E+08         0.00000E+00
    0.00000E+00         0.00000E+00         0.17761E-07
 
   -0.44249E+06         0.13206E+07         0.00000E+00
    0.13206E+07        -0.57986E+08         0.00000E+00
    0.00000E+00         0.00000E+00        -0.40593E-07
 
   -0.57588E+06         0.11897E+07         0.00000E+00
    0.11897E+07        -0.58598E+08         0.00000E+00
    0.00000E+00         0.00000E+00         0.50750E-08
 
   -0.74144E+06         0.10438E+07         0.00000E+00
    0.10438E+07        -0.59190E+08         0.00000E+00
    0.00000E+00         0.00000E+00         0.76107E-08
 
   -0.95474E+06         0.88245E+06         0.00000E+00
    0.88245E+06        -0.59741E+08         0.00000E+00
    0.00000E+00         0.00000E+00        -0.20296E-07
 
   -0.12392E+07         0.70481E+06         0.00000E+00
    0.70481E+06        -0.60224E+08         0.00000E+00
    0.00000E+00         0.00000E+00        -0.25357E-08
 
   -0.16282E+07         0.51135E+06         0.00000E+00
    0.51135E+06        -0.60607E+08         0.00000E+00
    0.00000E+00         0.00000E+00         0.50732E-08
 
   -0.21629E+07         0.30763E+06         0.00000E+00
    0.30763E+06        -0.60865E+08         0.00000E+00
    0.00000E+00         0.00000E+00        -0.76124E-08
 
   -0.28810E+07         0.10225E+06         0.00000E+00
    0.10225E+06        -0.60992E+08         0.00000E+00
    0.00000E+00         0.00000E+00        -0.17759E-07
 
    0.41129E+05         0.23158E+04         0.00000E+00
    0.23158E+04        -0.47598E+08         0.00000E+00
    0.00000E+00         0.00000E+00         0.17759E-07
 
    0.36169E+05         0.69623E+04         0.00000E+00
    0.69623E+04        -0.47599E+08         0.00000E+00
    0.00000E+00         0.00000E+00        -0.76111E-08
 
    0.32481E+05         0.11641E+05         0.00000E+00
    0.11641E+05        -0.47602E+08         0.00000E+00
    0.00000E+00         0.00000E+00         0.15222E-07
 
    0.29840E+05         0.16324E+05         0.00000E+00
    0.16324E+05        -0.47605E+08         0.00000E+00
    0.00000E+00         0.00000E+00         0.76111E-08
 
    0.27988E+05         0.20982E+05         0.00000E+00
    0.20982E+05        -0.47609E+08         0.00000E+00
    0.00000E+00         0.00000E+00        -0.25370E-08
 
    0.26705E+05         0.25609E+05         0.00000E+00
    0.25609E+05        -0.47615E+08         0.00000E+00
    0.00000E+00         0.00000E+00         0.00000E+00
 
    0.25830E+05         0.30212E+05         0.00000E+00
    0.30212E+05        -0.47620E+08         0.00000E+00
    0.00000E+00         0.00000E+00         0.50741E-08
 
    0.25255E+05         0.34793E+05         0.00000E+00
    0.34793E+05        -0.47627E+08         0.00000E+00
    0.00000E+00         0.00000E+00        -0.76111E-08
 
    0.24911E+05         0.39359E+05         0.00000E+00
    0.39359E+05        -0.47633E+08         0.00000E+00
    0.00000E+00         0.00000E+00         0.50741E-08
 
    0.24754E+05         0.43913E+05         0.00000E+00
    0.43913E+05        -0.47640E+08         0.00000E+00
    0.00000E+00         0.00000E+00        -0.12685E-07
 
    0.24759E+05         0.48463E+05         0.00000E+00
    0.48463E+05        -0.47647E+08         0.00000E+00
    0.00000E+00         0.00000E+00        -0.50741E-08
 
    0.24909E+05         0.53020E+05         0.00000E+00
    0.53020E+05        -0.47654E+08         0.00000E+00
    0.00000E+00         0.00000E+00         0.15222E-07
 
    0.25198E+05         0.57600E+05         0.00000E+00
    0.57600E+05        -0.47661E+08         0.00000E+00
    0.00000E+00         0.00000E+00        -0.76111E-08
 
    0.25620E+05         0.62218E+05         0.00000E+00
    0.62218E+05        -0.47669E+08         0.00000E+00
    0.00000E+00         0.00000E+00        -0.15222E-07
 
    0.26174E+05         0.66894E+05         0.00000E+00
    0.66894E+05        -0.47676E+08         0.00000E+00
    0.00000E+00         0.00000E+00         0.50741E-08
 
    0.26859E+05         0.71649E+05         0.00000E+00
    0.71649E+05        -0.47684E+08         0.00000E+00
    0.00000E+00         0.00000E+00         0.12685E-07
 
    0.27676E+05         0.76505E+05         0.00000E+00
    0.76505E+05        -0.47692E+08         0.00000E+00
    0.00000E+00         0.00000E+00        -0.22833E-07
 
    0.28624E+05         0.81485E+05         0.00000E+00
    0.81485E+05        -0.47700E+08         0.00000E+00
    0.00000E+00         0.00000E+00        -0.17759E-07
 
    0.29704E+05         0.86612E+05         0.00000E+00
    0.86612E+05        -0.47708E+08         0.00000E+00
    0.00000E+00         0.00000E+00         0.25370E-08
 
    0.30917E+05         0.91910E+05         0.00000E+00
    0.91910E+05        -0.47717E+08         0.00000E+00
    0.00000E+00         0.00000E+00        -0.15222E-07
 
    0.32263E+05         0.97405E+05         0.00000E+00
    0.97405E+05        -0.47726E+08         0.00000E+00
    0.00000E+00         0.00000E+00        -0.56843E-13
 
    0.33743E+05         0.10312E+06         0.00000E+00
    0.10312E+06        -0.47735E+08         0.00000E+00
    0.00000E+00         0.00000E+00        -0.40593E-07
 
    0.35360E+05         0.10908E+06         0.00000E+00
    0.10908E+06        -0.47745E+08         0.00000E+00
    0.00000E+00         0.00000E+00         0.12685E-07
 
    0.37114E+05         0.11531E+06         0.00000E+00
    0.11531E+06        -0.47755E+08         0.00000E+00
    0.00000E+00         0.00000E+00         0.00000E+00
 
    0.39007E+05         0.12183E+06         0.00000E+00
    0.12183E+06        -0.47765E+08         0.00000E+00
    0.00000E+00         0.00000E+00        -0.20296E-07
 
    0.41043E+05         0.12868E+06         0.00000E+00
    0.12868E+06        -0.47776E+08         0.00000E+00
    0.00000E+00         0.00000E+00         0.00000E+00
 
    0.43223E+05         0.13587E+06         0.00000E+00
    0.13587E+06        -0.47788E+08         0.00000E+00
    0.00000E+00         0.00000E+00        -0.25370E-08
 
    0.45552E+05         0.14343E+06         0.00000E+00
    0.14343E+06        -0.47800E+08         0.00000E+00
    0.00000E+00         0.00000E+00        -0.25370E-08
 
    0.48033E+05         0.15138E+06         0.00000E+00
    0.15138E+06        -0.47812E+08         0.00000E+00
    0.00000E+00         0.00000E+00         0.27907E-07
 
    0.50670E+05         0.15976E+06         0.00000E+00
    0.15976E+06        -0.47826E+08         0.00000E+00
    0.00000E+00         0.00000E+00         0.15222E-07
 
    0.53469E+05         0.16859E+06         0.00000E+00
    0.16859E+06        -0.47840E+08         0.00000E+00
    0.00000E+00         0.00000E+00         0.12685E-07
 
    0.56435E+05         0.17790E+06         0.00000E+00
    0.17790E+06        -0.47854E+08         0.00000E+00
    0.00000E+00         0.00000E+00        -0.50741E-08
 
    0.59574E+05         0.18772E+06         0.00000E+00
    0.18772E+06        -0.47870E+08         0.00000E+00
    0.00000E+00         0.00000E+00        -0.17759E-07
 
    0.62892E+05         0.19808E+06         0.00000E+00
    0.19808E+06        -0.47886E+08         0.00000E+00
    0.00000E+00         0.00000E+00         0.50741E-08
 
    0.66395E+05         0.20900E+06         0.00000E+00
    0.20900E+06        -0.47903E+08         0.00000E+00
    0.00000E+00         0.00000E+00        -0.12685E-07
 
    0.70092E+05         0.22053E+06         0.00000E+00
    0.22053E+06        -0.47922E+08         0.00000E+00
    0.00000E+00         0.00000E+00         0.00000E+00
 
    0.73989E+05         0.23269E+06         0.00000E+00
    0.23269E+06        -0.47941E+08         0.00000E+00
    0.00000E+00         0.00000E+00         0.10148E-07
 
    0.78094E+05         0.24551E+06         0.00000E+00
    0.24551E+06        -0.47961E+08         0.00000E+00
    0.00000E+00         0.00000E+00         0.25370E-08
 
    0.82415E+05         0.25904E+06         0.00000E+00
    0.25904E+06        -0.47982E+08         0.00000E+00
    0.00000E+00         0.00000E+00         0.10148E-07
 
    0.86962E+05         0.27330E+06         0.00000E+00
    0.27330E+06        -0.48005E+08         0.00000E+00
    0.00000E+00         0.00000E+00         0.50741E-08
 
    0.91741E+05         0.28834E+06         0.00000E+00
    0.28834E+06        -0.48029E+08         0.00000E+00
    0.00000E+00         0.00000E+00        -0.20296E-07
 
    0.96762E+05         0.30420E+06         0.00000E+00
    0.30420E+06        -0.48054E+08         0.00000E+00
    0.00000E+00         0.00000E+00        -0.12685E-07
 
    0.10203E+06         0.32090E+06         0.00000E+00
    0.32090E+06        -0.48081E+08         0.00000E+00
    0.00000E+00         0.00000E+00         0.15222E-07
 
    0.10756E+06         0.33851E+06         0.00000E+00
    0.33851E+06        -0.48109E+08         0.00000E+00
    0.00000E+00         0.00000E+00        -0.15222E-07
 
    0.11336E+06         0.35704E+06         0.00000E+00
    0.35704E+06        -0.48139E+08         0.00000E+00
    0.00000E+00         0.00000E+00         0.76111E-08
 
    0.11944E+06         0.37656E+06         0.00000E+00
    0.37656E+06        -0.48171E+08         0.00000E+00
    0.00000E+00         0.00000E+00         0.12685E-07
 
    0.12579E+06         0.39710E+06         0.00000E+00
    0.39710E+06        -0.48204E+08         0.00000E+00
    0.00000E+00         0.00000E+00        -0.50738E-08
 
    0.13244E+06         0.41871E+06         0.00000E+00
    0.41871E+06        -0.48240E+08         0.00000E+00
    0.00000E+00         0.00000E+00        -0.76111E-08
 
    0.13938E+06         0.44143E+06         0.00000E+00
    0.44143E+06        -0.48277E+08         0.00000E+00
    0.00000E+00         0.00000E+00         0.50741E-08
 
    0.14662E+06         0.46531E+06         0.00000E+00
    0.46531E+06        -0.48317E+08         0.00000E+00
    0.00000E+00         0.00000E+00         0.25370E-08
 
    0.15417E+06         0.49040E+06         0.00000E+00
    0.49040E+06        -0.48359E+08         0.00000E+00
    0.00000E+00         0.00000E+00         0.76111E-08
 
    0.16203E+06         0.51673E+06         0.00000E+00
    0.51673E+06        -0.48404E+08         0.00000E+00
    0.00000E+00         0.00000E+00         0.25370E-08
 
    0.17019E+06         0.54435E+06         0.00000E+00
    0.54435E+06        -0.48452E+08         0.00000E+00
    0.00000E+00         0.00000E+00        -0.38056E-07
 
    0.17865E+06         0.57331E+06         0.00000E+00
    0.57331E+06        -0.48502E+08         0.00000E+00
    0.00000E+00         0.00000E+00         0.00000E+00
 
    0.18742E+06         0.60365E+06         0.00000E+00
    0.60365E+06        -0.48555E+08         0.00000E+00
    0.00000E+00         0.00000E+00        -0.76111E-08
 
    0.19647E+06         0.63540E+06         0.00000E+00
    0.63540E+06        -0.48612E+08         0.00000E+00
    0.00000E+00         0.00000E+00         0.27907E-07
 
    0.20580E+06         0.66860E+06         0.00000E+00
    0.66860E+06        -0.48672E+08         0.00000E+00
    0.00000E+00         0.00000E+00         0.12685E-07
 
    0.21539E+06         0.70328E+06         0.00000E+00
    0.70328E+06        -0.48735E+08         0.00000E+00
    0.00000E+00         0.00000E+00         0.32981E-07
 
    0.22521E+06         0.73946E+06         0.00000E+00
    0.73946E+06        -0.48803E+08         0.00000E+00
    0.00000E+00         0.00000E+00         0.25370E-08
 
    0.23524E+06         0.77716E+06         0.00000E+00
    0.77716E+06        -0.48875E+08         0.00000E+00
    0.00000E+00         0.00000E+00        -0.10148E-07
 
    0.24543E+06         0.81639E+06         0.00000E+00
    0.81639E+06        -0.48952E+08         0.00000E+00
    0.00000E+00         0.00000E+00        -0.12685E-07
 
    0.25574E+06         0.85714E+06         0.00000E+00
    0.85714E+06        -0.49033E+08         0.00000E+00
    0.00000E+00         0.00000E+00         0.00000E+00
 
    0.26611E+06         0.89941E+06         0.00000E+00
    0.89941E+06        -0.49119E+08         0.00000E+00
    0.00000E+00         0.00000E+00        -0.25370E-08
 
    0.27647E+06         0.94314E+06         0.00000E+00
    0.94314E+06        -0.49211E+08         0.00000E+00
    0.00000E+00         0.00000E+00         0.00000E+00
 
    0.28673E+06         0.98831E+06         0.00000E+00
    0.98831E+06        -0.49310E+08         0.00000E+00
    0.00000E+00         0.00000E+00        -0.15222E-07
 
    0.29680E+06         0.10348E+07         0.00000E+00
    0.10348E+07        -0.49414E+08         0.00000E+00
    0.00000E+00         0.00000E+00         0.17759E-07
 
    0.30657E+06         0.10826E+07         0.00000E+00
    0.10826E+07        -0.49526E+08         0.00000E+00
    0.00000E+00         0.00000E+00        -0.76111E-08
 
    0.31589E+06         0.11315E+07         0.00000E+00
    0.11315E+07        -0.49645E+08         0.00000E+00
    0.00000E+00         0.00000E+00         0.10148E-07
 
    0.32461E+06         0.11814E+07         0.00000E+00
    0.11814E+07        -0.49772E+08         0.00000E+00
    0.00000E+00         0.00000E+00        -0.25370E-07
 
    0.33256E+06         0.12321E+07         0.00000E+00
    0.12321E+07        -0.49908E+08         0.00000E+00
    0.00000E+00         0.00000E+00         0.20296E-07
 
    0.33952E+06         0.12833E+07         0.00000E+00
    0.12833E+07        -0.50053E+08         0.00000E+00
    0.00000E+00         0.00000E+00         0.25375E-08
 
    0.34527E+06         0.13347E+07         0.00000E+00
    0.13347E+07        -0.50209E+08         0.00000E+00
    0.00000E+00         0.00000E+00         0.10148E-07
 
    0.34954E+06         0.13861E+07         0.00000E+00
    0.13861E+07        -0.50376E+08         0.00000E+00
    0.00000E+00         0.00000E+00         0.00000E+00
 
    0.35205E+06         0.14369E+07         0.00000E+00
    0.14369E+07        -0.50555E+08         0.00000E+00
    0.00000E+00         0.00000E+00         0.20296E-07
 
    0.35247E+06         0.14867E+07         0.00000E+00
    0.14867E+07        -0.50747E+08         0.00000E+00
    0.00000E+00         0.00000E+00         0.50741E-07
 
    0.35046E+06         0.15349E+07         0.00000E+00
    0.15349E+07        -0.50953E+08         0.00000E+00
    0.00000E+00         0.00000E+00        -0.15222E-07
 
    0.34563E+06         0.15809E+07         0.00000E+00
    0.15809E+07        -0.51176E+08         0.00000E+00
    0.00000E+00         0.00000E+00        -0.50732E-08
 
    0.33760E+06         0.16240E+07         0.00000E+00
    0.16240E+07        -0.51415E+08         0.00000E+00
    0.00000E+00         0.00000E+00        -0.25375E-08
 
    0.32591E+06         0.16633E+07         0.00000E+00
    0.16633E+07        -0.51672E+08         0.00000E+00
    0.00000E+00         0.00000E+00         0.76107E-08
 
    0.31015E+06         0.16980E+07         0.00000E+00
    0.16980E+07        -0.51950E+08         0.00000E+00
    0.00000E+00         0.00000E+00         0.50741E-08
 
    0.28985E+06         0.17270E+07         0.00000E+00
    0.17270E+07        -0.52249E+08         0.00000E+00
    0.00000E+00         0.00000E+00         0.76107E-08
 
    0.26456E+06         0.17493E+07         0.00000E+00
    0.17493E+07        -0.52572E+08         0.00000E+00
    0.00000E+00         0.00000E+00        -0.30443E-07
 
    0.23383E+06         0.17636E+07         0.00000E+00
    0.17636E+07        -0.52919E+08         0.00000E+00
    0.00000E+00         0.00000E+00         0.15221E-07
 
    0.19722E+06         0.17689E+07         0.00000E+00
    0.17689E+07        -0.53294E+08         0.00000E+00
    0.00000E+00         0.00000E+00         0.10148E-07
 
    0.15431E+06         0.17638E+07         0.00000E+00
    0.17638E+07        -0.53697E+08         0.00000E+00
    0.00000E+00         0.00000E+00        -0.50732E-08
 
    0.10469E+06         0.17471E+07         0.00000E+00
    0.17471E+07        -0.54131E+08         0.00000E+00
    0.00000E+00         0.00000E+00         0.10148E-07
 
    0.47938E+05         0.17177E+07         0.00000E+00
    0.17177E+07        -0.54595E+08         0.00000E+00
    0.00000E+00         0.00000E+00        -0.27907E-07
 
   -0.16442E+05         0.16745E+07         0.00000E+00
    0.16745E+07        -0.55090E+08         0.00000E+00
    0.00000E+00         0.00000E+00        -0.22832E-07
 
   -0.89077E+05         0.16166E+07         0.00000E+00
    0.16166E+07        -0.55616E+08         0.00000E+00
    0.00000E+00         0.00000E+00        -0.10148E-07
 
   -0.17090E+06         0.15434E+07         0.00000E+00
    0.15434E+07        -0.56170E+08         0.00000E+00
    0.00000E+00         0.00000E+00         0.00000E+00
 
   -0.26341E+06         0.14547E+07         0.00000E+00
    0.14547E+07        -0.56750E+08         0.00000E+00
    0.00000E+00         0.00000E+00         0.25357E-08
 
   -0.36904E+06         0.13505E+07         0.00000E+00
    0.13505E+07        -0.57350E+08         0.00000E+00
    0.00000E+00         0.00000E+00        -0.15221E-07
 
   -0.49182E+06         0.12314E+07         0.00000E+00
    0.12314E+07        -0.57961E+08         0.00000E+00
    0.00000E+00         0.00000E+00        -0.38055E-07
 
   -0.63827E+06         0.10982E+07         0.00000E+00
    0.10982E+07        -0.58569E+08         0.00000E+00
    0.00000E+00         0.00000E+00        -0.17759E-07
 
   -0.81868E+06         0.95209E+06         0.00000E+00
    0.95209E+06        -0.59159E+08         0.00000E+00
    0.00000E+00         0.00000E+00        -0.76125E-08
 
   -0.10489E+07         0.79386E+06         0.00000E+00
    0.79386E+06        -0.59708E+08         0.00000E+00
    0.00000E+00         0.00000E+00         0.76107E-08
 
   -0.13523E+07         0.62441E+06         0.00000E+00
    0.62441E+06        -0.60187E+08         0.00000E+00
    0.00000E+00         0.00000E+00        -0.15222E-07
 
   -0.17612E+07         0.44617E+06         0.00000E+00
    0.44617E+06        -0.60568E+08         0.00000E+00
    0.00000E+00         0.00000E+00        -0.76116E-08
 
   -0.23134E+07         0.26513E+06         0.00000E+00
    0.26513E+06        -0.60826E+08         0.00000E+00
    0.00000E+00         0.00000E+00         0.32981E-07
 
   -0.30420E+07         0.87545E+05         0.00000E+00
    0.87545E+05        -0.60954E+08         0.00000E+00
    0.00000E+00         0.00000E+00         0.17760E-07
 
    0.43686E+05         0.21828E+04         0.00000E+00
    0.21828E+04        -0.47599E+08         0.00000E+00
    0.00000E+00         0.00000E+00         0.50741E-08
 
    0.38667E+05         0.65723E+04         0.00000E+00
    0.65723E+04        -0.47600E+08         0.00000E+00
    0.00000E+00         0.00000E+00        -0.17759E-07
 
    0.34883E+05         0.11024E+05         0.00000E+00
    0.11024E+05        -0.47602E+08         0.00000E+00
    0.00000E+00         0.00000E+00        -0.50740E-08
 
    0.32131E+05         0.15524E+05         0.00000E+00
    0.15524E+05        -0.47606E+08         0.00000E+00
    0.00000E+00         0.00000E+00         0.12685E-07
 
    0.30174E+05         0.20044E+05         0.00000E+00
    0.20044E+05        -0.47610E+08         0.00000E+00
    0.00000E+00         0.00000E+00         0.12685E-07
 
    0.28801E+05         0.24568E+05         0.00000E+00
    0.24568E+05        -0.47616E+08         0.00000E+00
    0.00000E+00         0.00000E+00        -0.10148E-07
 
    0.27851E+05         0.29088E+05         0.00000E+00
    0.29088E+05        -0.47621E+08         0.00000E+00
    0.00000E+00         0.00000E+00         0.38055E-07
 
    0.27218E+05         0.33600E+05         0.00000E+00
    0.33600E+05        -0.47628E+08         0.00000E+00
    0.00000E+00         0.00000E+00         0.27907E-07
 
    0.26830E+05         0.38101E+05         0.00000E+00
    0.38101E+05        -0.47634E+08         0.00000E+00
    0.00000E+00         0.00000E+00        -0.17759E-07
 
    0.26644E+05         0.42593E+05         0.00000E+00
    0.42593E+05        -0.47641E+08         0.00000E+00
    0.00000E+00         0.00000E+00        -0.12685E-07
 
    0.26633E+05         0.47081E+05         0.00000E+00
    0.47081E+05        -0.47648E+08         0.00000E+00
    0.00000E+00         0.00000E+00         0.20296E-07
 
    0.26781E+05         0.51573E+05         0.00000E+00
    0.51573E+05        -0.47655E+08         0.00000E+00
    0.00000E+00         0.00000E+00         0.25370E-08
 
    0.27079E+05         0.56082E+05         0.00000E+00
    0.56082E+05        -0.47662E+08         0.00000E+00
    0.00000E+00         0.00000E+00         0.50740E-08
 
    0.27524E+05         0.60626E+05         0.00000E+00
    0.60626E+05        -0.47670E+08         0.00000E+00
    0.00000E+00         0.00000E+00         0.17759E-07
 
    0.28112E+05         0.65223E+05         0.00000E+00
    0.65223E+05        -0.47677E+08         0.00000E+00
    0.00000E+00         0.00000E+00         0.30444E-07
 
    0.28843E+05         0.69893E+05         0.00000E+00
    0.69893E+05        -0.47685E+08         0.00000E+00
    0.00000E+00         0.00000E+00         0.10148E-07
 
    0.29716E+05         0.74659E+05         0.00000E+00
    0.74659E+05        -0.47693E+08         0.00000E+00
    0.00000E+00         0.00000E+00        -0.50741E-08
 
    0.30732E+05         0.79543E+05         0.00000E+00
    0.79543E+05        -0.47701E+08         0.00000E+00
    0.00000E+00         0.00000E+00        -0.15222E-07
 
    0.31890E+05         0.84568E+05         0.00000E+00
    0.84568E+05        -0.47709E+08         0.00000E+00
    0.00000E+00         0.00000E+00         0.12685E-07
 
    0.33191E+05         0.89759E+05         0.00000E+00
    0.89759E+05        -0.47718E+08         0.00000E+00
    0.00000E+00         0.00000E+00         0.00000E+00
 
    0.34637E+05         0.95139E+05         0.00000E+00
    0.95139E+05        -0.47727E+08         0.00000E+00
    0.00000E+00         0.00000E+00        -0.25370E-08
 
    0.36227E+05         0.10073E+06         0.00000E+00
    0.10073E+06        -0.47736E+08         0.00000E+00
    0.00000E+00         0.00000E+00         0.15222E-07
 
    0.37964E+05         0.10657E+06         0.00000E+00
    0.10657E+06        -0.47746E+08         0.00000E+00
    0.00000E+00         0.00000E+00         0.00000E+00
 
    0.39848E+05         0.11266E+06         0.00000E+00
    0.11266E+06        -0.47756E+08         0.00000E+00
    0.00000E+00         0.00000E+00         0.12685E-07
 
    0.41882E+05         0.11904E+06         0.00000E+00
    0.11904E+06        -0.47767E+08         0.00000E+00
    0.00000E+00         0.00000E+00        -0.20296E-07
 
    0.44069E+05         0.12573E+06         0.00000E+00
    0.12573E+06        -0.47778E+08         0.00000E+00
    0.00000E+00         0.00000E+00        -0.50740E-08
 
    0.46411E+05         0.13276E+06         0.00000E+00
    0.13276E+06        -0.47789E+08         0.00000E+00
    0.00000E+00         0.00000E+00         0.00000E+00
 
    0.48913E+05         0.14015E+06         0.00000E+00
    0.14015E+06        -0.47801E+08         0.00000E+00
    0.00000E+00         0.00000E+00         0.00000E+00
 
    0.51578E+05         0.14793E+06         0.00000E+00
    0.14793E+06        -0.47814E+08         0.00000E+00
    0.00000E+00         0.00000E+00         0.50741E-08
 
    0.54411E+05         0.15612E+06         0.00000E+00
    0.15612E+06        -0.47827E+08         0.00000E+00
    0.00000E+00         0.00000E+00         0.00000E+00
 
    0.57418E+05         0.16476E+06         0.00000E+00
    0.16476E+06        -0.47841E+08         0.00000E+00
    0.00000E+00         0.00000E+00         0.25370E-08
 
    0.60604E+05         0.17386E+06         0.00000E+00
    0.17386E+06        -0.47856E+08         0.00000E+00
    0.00000E+00         0.00000E+00         0.12685E-07
 
    0.63975E+05         0.18345E+06         0.00000E+00
    0.18345E+06        -0.47872E+08         0.00000E+00
    0.00000E+00         0.00000E+00         0.35518E-07
 
    0.67539E+05         0.19357E+06         0.00000E+00
    0.19357E+06        -0.47888E+08         0.00000E+00
    0.00000E+00         0.00000E+00         0.76110E-08
 
    0.71302E+05         0.20425E+06         0.00000E+00
    0.20425E+06        -0.47906E+08         0.00000E+00
    0.00000E+00         0.00000E+00        -0.32981E-07
 
    0.75273E+05         0.21551E+06         0.00000E+00
    0.21551E+06        -0.47924E+08         0.00000E+00
    0.00000E+00         0.00000E+00        -0.10148E-07
 
    0.79459E+05         0.22740E+06         0.00000E+00
    0.22740E+06        -0.47943E+08         0.00000E+00
    0.00000E+00         0.00000E+00         0.22833E-07
 
    0.83869E+05         0.23993E+06         0.00000E+00
    0.23993E+06        -0.47964E+08         0.00000E+00
    0.00000E+00         0.00000E+00         0.27907E-07
 
    0.88511E+05         0.25314E+06         0.00000E+00
    0.25314E+06        -0.47985E+08         0.00000E+00
    0.00000E+00         0.00000E+00         0.25370E-08
 
    0.93395E+05         0.26708E+06         0.00000E+00
    0.26708E+06        -0.48008E+08         0.00000E+00
    0.00000E+00         0.00000E+00         0.00000E+00
 
    0.98529E+05         0.28178E+06         0.00000E+00
    0.28178E+06        -0.48032E+08         0.00000E+00
    0.00000E+00         0.00000E+00         0.22833E-07
 
    0.10392E+06         0.29727E+06         0.00000E+00
    0.29727E+06        -0.48058E+08         0.00000E+00
    0.00000E+00         0.00000E+00         0.25370E-07
 
    0.10959E+06         0.31359E+06         0.00000E+00
    0.31359E+06        -0.48084E+08         0.00000E+00
    0.00000E+00         0.00000E+00        -0.20296E-07
 
    0.11553E+06         0.33079E+06         0.00000E+00
    0.33079E+06        -0.48113E+08         0.00000E+00
    0.00000E+00         0.00000E+00         0.15222E-07
 
    0.12176E+06         0.34890E+06         0.00000E+00
    0.34890E+06        -0.48143E+08         0.00000E+00
    0.00000E+00         0.00000E+00        -0.30444E-07
 
    0.12828E+06         0.36796E+06         0.00000E+00
    0.36796E+06        -0.48175E+08         0.00000E+00
    0.00000E+00         0.00000E+00         0.12685E-07
 
    0.13511E+06         0.38803E+06         0.00000E+00
    0.38803E+06        -0.48209E+08         0.00000E+00
    0.00000E+00         0.00000E+00        -0.25370E-07
 
    0.14225E+06         0.40913E+06         0.00000E+00
    0.40913E+06        -0.48244E+08         0.00000E+00
    0.00000E+00         0.00000E+00         0.76111E-08
 
    0.14971E+06         0.43133E+06         0.00000E+00
    0.43133E+06        -0.48282E+08         0.00000E+00
    0.00000E+00         0.00000E+00        -0.25370E-07
 
    0.15750E+06         0.45465E+06         0.00000E+00
    0.45465E+06        -0.48322E+08         0.00000E+00
    0.00000E+00         0.00000E+00         0.50741E-08
 
    0.16561E+06         0.47915E+06         0.00000E+00
    0.47915E+06        -0.48365E+08         0.00000E+00
    0.00000E+00         0.00000E+00         0.76111E-08
 
    0.17405E+06         0.50486E+06         0.00000E+00
    0.50486E+06        -0.48410E+08         0.00000E+00
    0.00000E+00         0.00000E+00         0.10148E-07
 
    0.18282E+06         0.53184E+06         0.00000E+00
    0.53184E+06        -0.48457E+08         0.00000E+00
    0.00000E+00         0.00000E+00        -0.12685E-07
 
    0.19192E+06         0.56011E+06         0.00000E+00
    0.56011E+06        -0.48508E+08         0.00000E+00
    0.00000E+00         0.00000E+00        -0.25370E-08
 
    0.20134E+06         0.58973E+06         0.00000E+00
    0.58973E+06        -0.48561E+08         0.00000E+00
    0.00000E+00         0.00000E+00        -0.25370E-08
 
    0.21108E+06         0.62073E+06         0.00000E+00
    0.62073E+06        -0.48618E+08         0.00000E+00
    0.00000E+00         0.00000E+00        -0.25370E-08
 
    0.22111E+06         0.65314E+06         0.00000E+00
    0.65314E+06        -0.48678E+08         0.00000E+00
    0.00000E+00         0.00000E+00         0.15222E-07
 
    0.23143E+06         0.68698E+06         0.00000E+00
    0.68698E+06        -0.48743E+08         0.00000E+00
    0.00000E+00         0.00000E+00         0.76111E-08
 
    0.24199E+06         0.72229E+06         0.00000E+00
    0.72229E+06        -0.48811E+08         0.00000E+00
    0.00000E+00         0.00000E+00         0.76111E-08
 
    0.25278E+06         0.75907E+06         0.00000E+00
    0.75907E+06        -0.48883E+08         0.00000E+00
    0.00000E+00         0.00000E+00         0.50741E-08
 
    0.26375E+06         0.79734E+06         0.00000E+00
    0.79734E+06        -0.48960E+08         0.00000E+00
    0.00000E+00         0.00000E+00        -0.10148E-07
 
    0.27485E+06         0.83709E+06         0.00000E+00
    0.83709E+06        -0.49041E+08         0.00000E+00
    0.00000E+00         0.00000E+00        -0.20296E-07
 
    0.28602E+06         0.87830E+06         0.00000E+00
    0.87830E+06        -0.49128E+08         0.00000E+00
    0.00000E+00         0.00000E+00        -0.35518E-07
 
    0.29718E+06         0.92095E+06         0.00000E+00
    0.92095E+06        -0.49220E+08         0.00000E+00
    0.00000E+00         0.00000E+00         0.27907E-07
 
    0.30824E+06         0.96497E+06         0.00000E+00
    0.96497E+06        -0.49319E+08         0.00000E+00
    0.00000E+00         0.00000E+00         0.10148E-07
 
    0.31911E+06         0.10103E+07         0.00000E+00
    0.10103E+07        -0.49424E+08         0.00000E+00
    0.00000E+00         0.00000E+00         0.25370E-08
 
    0.32965E+06         0.10568E+07         0.00000E+00
    0.10568E+07        -0.49535E+08         0.00000E+00
    0.00000E+00         0.00000E+00         0.43130E-07
 
    0.33972E+06         0.11045E+07         0.00000E+00
    0.11045E+07        -0.49655E+08         0.00000E+00
    0.00000E+00         0.00000E+00         0.10148E-07
 
    0.34915E+06         0.11530E+07         0.00000E+00
    0.11530E+07        -0.49782E+08         0.00000E+00
    0.00000E+00         0.00000E+00        -0.15222E-07
 
    0.35776E+06         0.12023E+07         0.00000E+00
    0.12023E+07        -0.49918E+08         0.00000E+00
    0.00000E+00         0.00000E+00         0.17759E-07
 
    0.36531E+06         0.12520E+07         0.00000E+00
    0.12520E+07        -0.50064E+08         0.00000E+00
    0.00000E+00         0.00000E+00        -0.76116E-08
 
    0.37157E+06         0.13020E+07         0.00000E+00
    0.13020E+07        -0.50219E+08         0.00000E+00
    0.00000E+00         0.00000E+00         0.00000E+00
 
    0.37625E+06         0.13517E+07         0.00000E+00
    0.13517E+07        -0.50386E+08         0.00000E+00
    0.00000E+00         0.00000E+00        -0.38056E-07
 
    0.37904E+06         0.14009E+07         0.00000E+00
    0.14009E+07        -0.50565E+08         0.00000E+00
    0.00000E+00         0.00000E+00         0.30444E-07
 
    0.37959E+06         0.14490E+07         0.00000E+00
    0.14490E+07        -0.50757E+08         0.00000E+00
    0.00000E+00         0.00000E+00         0.27908E-07
 
    0.37753E+06         0.14955E+07         0.00000E+00
    0.14955E+07        -0.50963E+08         0.00000E+00
    0.00000E+00         0.00000E+00         0.22834E-07
 
    0.37244E+06         0.15397E+07         0.00000E+00
    0.15397E+07        -0.51185E+08         0.00000E+00
    0.00000E+00         0.00000E+00         0.15221E-07
 
    0.36387E+06         0.15809E+07         0.00000E+00
    0.15809E+07        -0.51423E+08         0.00000E+00
    0.00000E+00         0.00000E+00         0.12685E-07
 
    0.35138E+06         0.16183E+07         0.00000E+00
    0.16183E+07        -0.51680E+08         0.00000E+00
    0.00000E+00         0.00000E+00        -0.50741E-08
 
    0.33446E+06         0.16509E+07         0.00000E+00
    0.16509E+07        -0.51956E+08         0.00000E+00
    0.00000E+00         0.00000E+00        -0.50741E-08
 
    0.31261E+06         0.16777E+07         0.00000E+00
    0.16777E+07        -0.52254E+08         0.00000E+00
    0.00000E+00         0.00000E+00         0.76116E-08
 
    0.28532E+06         0.16977E+07         0.00000E+00
    0.16977E+07        -0.52575E+08         0.00000E+00
    0.00000E+00         0.00000E+00        -0.10148E-07
 
    0.25209E+06         0.17097E+07         0.00000E+00
    0.17097E+07        -0.52921E+08         0.00000E+00
    0.00000E+00         0.00000E+00        -0.22834E-07
 
    0.21242E+06         0.17123E+07         0.00000E+00
    0.17123E+07        -0.53294E+08         0.00000E+00
    0.00000E+00         0.00000E+00        -0.15223E-07
 
    0.16580E+06         0.17045E+07         0.00000E+00
    0.17045E+07        -0.53695E+08         0.00000E+00
    0.00000E+00         0.00000E+00        -0.20298E-07
 
    0.11177E+06         0.16849E+07         0.00000E+00
    0.16849E+07        -0.54126E+08         0.00000E+00
    0.00000E+00         0.00000E+00         0.25357E-08
 
    0.49817E+05         0.16523E+07         0.00000E+00
    0.16523E+07        -0.54587E+08         0.00000E+00
    0.00000E+00         0.00000E+00         0.25375E-08
 
   -0.20626E+05         0.16057E+07         0.00000E+00
    0.16057E+07        -0.55079E+08         0.00000E+00
    0.00000E+00         0.00000E+00        -0.17759E-07
 
   -0.10027E+06         0.15442E+07         0.00000E+00
    0.15442E+07        -0.55602E+08         0.00000E+00
    0.00000E+00         0.00000E+00        -0.15221E-07
 
   -0.19014E+06         0.14672E+07         0.00000E+00
    0.14672E+07        -0.56154E+08         0.00000E+00
    0.00000E+00         0.00000E+00        -0.50750E-08
 
   -0.29181E+06         0.13747E+07         0.00000E+00
    0.13747E+07        -0.56731E+08         0.00000E+00
    0.00000E+00         0.00000E+00         0.50743E-07
 
   -0.40782E+06         0.12668E+07         0.00000E+00
    0.12668E+07        -0.57327E+08         0.00000E+00
    0.00000E+00         0.00000E+00         0.25371E-07
 
   -0.54231E+06         0.11447E+07         0.00000E+00
    0.11447E+07        -0.57935E+08         0.00000E+00
    0.00000E+00         0.00000E+00        -0.50750E-08
 
   -0.70190E+06         0.10096E+07         0.00000E+00
    0.10096E+07        -0.58541E+08         0.00000E+00
    0.00000E+00         0.00000E+00        -0.27907E-07
 
   -0.89703E+06         0.86357E+06         0.00000E+00
    0.86357E+06        -0.59128E+08         0.00000E+00
    0.00000E+00         0.00000E+00         0.00000E+00
 
   -0.11436E+07         0.70879E+06         0.00000E+00
    0.70879E+06        -0.59675E+08         0.00000E+00
    0.00000E+00         0.00000E+00         0.17761E-07
 
   -0.14648E+07         0.54782E+06         0.00000E+00
    0.54782E+06        -0.60153E+08         0.00000E+00
    0.00000E+00         0.00000E+00        -0.25375E-08
 
   -0.18917E+07         0.38463E+06         0.00000E+00
    0.38463E+06        -0.60533E+08         0.00000E+00
    0.00000E+00         0.00000E+00         0.50732E-08
 
   -0.24591E+07         0.22530E+06         0.00000E+00
    0.22530E+06        -0.60793E+08         0.00000E+00
    0.00000E+00         0.00000E+00         0.30444E-07
 
   -0.31966E+07         0.73814E+05         0.00000E+00
    0.73814E+05        -0.60922E+08         0.00000E+00
    0.00000E+00         0.00000E+00        -0.17759E-07
 
    0.46186E+05         0.20549E+04         0.00000E+00
    0.20549E+04        -0.47600E+08         0.00000E+00
    0.00000E+00         0.00000E+00         0.76111E-08
 
    0.41117E+05         0.61964E+04         0.00000E+00
    0.61964E+04        -0.47601E+08         0.00000E+00
    0.00000E+00         0.00000E+00         0.35518E-07
 
    0.37248E+05         0.10426E+05         0.00000E+00
    0.10426E+05        -0.47603E+08         0.00000E+00
    0.00000E+00         0.00000E+00        -0.17759E-07
 
    0.34397E+05         0.14745E+05         0.00000E+00
    0.14745E+05        -0.47607E+08         0.00000E+00
    0.00000E+00         0.00000E+00        -0.25370E-08
 
    0.32343E+05         0.19126E+05         0.00000E+00
    0.19126E+05        -0.47611E+08         0.00000E+00
    0.00000E+00         0.00000E+00        -0.12685E-07
 
    0.30882E+05         0.23542E+05         0.00000E+00
    0.23542E+05        -0.47617E+08         0.00000E+00
    0.00000E+00         0.00000E+00         0.25370E-08
 
    0.29859E+05         0.27977E+05         0.00000E+00
    0.27977E+05        -0.47622E+08         0.00000E+00
    0.00000E+00         0.00000E+00         0.00000E+00
 
    0.29167E+05         0.32416E+05         0.00000E+00
    0.32416E+05        -0.47629E+08         0.00000E+00
    0.00000E+00         0.00000E+00         0.22833E-07
 
    0.28734E+05         0.36851E+05         0.00000E+00
    0.36851E+05        -0.47635E+08         0.00000E+00
    0.00000E+00         0.00000E+00         0.12685E-07
 
    0.28516E+05         0.41279E+05         0.00000E+00
    0.41279E+05        -0.47642E+08         0.00000E+00
    0.00000E+00         0.00000E+00         0.17759E-07
 
    0.28487E+05         0.45700E+05         0.00000E+00
    0.45700E+05        -0.47649E+08         0.00000E+00
    0.00000E+00         0.00000E+00        -0.10148E-07
 
    0.28631E+05         0.50124E+05         0.00000E+00
    0.50124E+05        -0.47656E+08         0.00000E+00
    0.00000E+00         0.00000E+00         0.50741E-08
 
    0.28938E+05         0.54562E+05         0.00000E+00
    0.54562E+05        -0.47663E+08         0.00000E+00
    0.00000E+00         0.00000E+00        -0.76111E-08
 
    0.29403E+05         0.59029E+05         0.00000E+00
    0.59029E+05        -0.47671E+08         0.00000E+00
    0.00000E+00         0.00000E+00         0.20296E-07
 
    0.30023E+05         0.63544E+05         0.00000E+00
    0.63544E+05        -0.47678E+08         0.00000E+00
    0.00000E+00         0.00000E+00         0.12685E-07
 
    0.30798E+05         0.68127E+05         0.00000E+00
    0.68127E+05        -0.47686E+08         0.00000E+00
    0.00000E+00         0.00000E+00         0.35518E-07
 
    0.31727E+05         0.72800E+05         0.00000E+00
    0.72800E+05        -0.47694E+08         0.00000E+00
    0.00000E+00         0.00000E+00        -0.27907E-07
 
    0.32809E+05         0.77586E+05         0.00000E+00
    0.77586E+05        -0.47702E+08         0.00000E+00
    0.00000E+00         0.00000E+00        -0.50741E-08
 
    0.34045E+05         0.82508E+05         0.00000E+00
    0.82508E+05        -0.47710E+08         0.00000E+00
    0.00000E+00         0.00000E+00         0.00000E+00
 
    0.35434E+05         0.87589E+05         0.00000E+00
    0.87589E+05        -0.47719E+08         0.00000E+00
    0.00000E+00         0.00000E+00         0.27907E-07
 
    0.36977E+05         0.92853E+05         0.00000E+00
    0.92853E+05        -0.47728E+08         0.00000E+00
    0.00000E+00         0.00000E+00         0.15222E-07
 
    0.38676E+05         0.98324E+05         0.00000E+00
    0.98324E+05        -0.47738E+08         0.00000E+00
    0.00000E+00         0.00000E+00         0.20296E-07
 
    0.40531E+05         0.10403E+06         0.00000E+00
    0.10403E+06        -0.47747E+08         0.00000E+00
    0.00000E+00         0.00000E+00         0.76110E-08
 
    0.42544E+05         0.10998E+06         0.00000E+00
    0.10998E+06        -0.47757E+08         0.00000E+00
    0.00000E+00         0.00000E+00         0.45667E-07
 
    0.44717E+05         0.11622E+06         0.00000E+00
    0.11622E+06        -0.47768E+08         0.00000E+00
    0.00000E+00         0.00000E+00        -0.50740E-08
 
    0.47053E+05         0.12276E+06         0.00000E+00
    0.12276E+06        -0.47779E+08         0.00000E+00
    0.00000E+00         0.00000E+00         0.00000E+00
 
    0.49555E+05         0.12963E+06         0.00000E+00
    0.12963E+06        -0.47791E+08         0.00000E+00
    0.00000E+00         0.00000E+00        -0.10148E-07
 
    0.52228E+05         0.13685E+06         0.00000E+00
    0.13685E+06        -0.47803E+08         0.00000E+00
    0.00000E+00         0.00000E+00        -0.76111E-08
 
    0.55075E+05         0.14444E+06         0.00000E+00
    0.14444E+06        -0.47816E+08         0.00000E+00
    0.00000E+00         0.00000E+00        -0.12685E-07
 
    0.58101E+05         0.15245E+06         0.00000E+00
    0.15245E+06        -0.47829E+08         0.00000E+00
    0.00000E+00         0.00000E+00         0.50741E-08
 
    0.61313E+05         0.16088E+06         0.00000E+00
    0.16088E+06        -0.47843E+08         0.00000E+00
    0.00000E+00         0.00000E+00        -0.17759E-07
 
    0.64717E+05         0.16976E+06         0.00000E+00
    0.16976E+06        -0.47858E+08         0.00000E+00
    0.00000E+00         0.00000E+00        -0.27907E-07
 
    0.68318E+05         0.17914E+06         0.00000E+00
    0.17914E+06        -0.47874E+08         0.00000E+00
    0.00000E+00         0.00000E+00        -0.15222E-07
 
    0.72125E+05         0.18902E+06         0.00000E+00
    0.18902E+06        -0.47890E+08         0.00000E+00
    0.00000E+00         0.00000E+00        -0.25370E-08
 
    0.76145E+05         0.19945E+06         0.00000E+00
    0.19945E+06        -0.47908E+08         0.00000E+00
    0.00000E+00         0.00000E+00        -0.25370E-08
 
    0.80387E+05         0.21044E+06         0.00000E+00
    0.21044E+06        -0.47926E+08         0.00000E+00
    0.00000E+00         0.00000E+00         0.35518E-07
 
    0.84859E+05         0.22204E+06         0.00000E+00
    0.22204E+06        -0.47946E+08         0.00000E+00
    0.00000E+00         0.00000E+00        -0.10148E-07
 
    0.89569E+05         0.23428E+06         0.00000E+00
    0.23428E+06        -0.47966E+08         0.00000E+00
    0.00000E+00         0.00000E+00         0.10148E-07
 
    0.94528E+05         0.24718E+06         0.00000E+00
    0.24718E+06        -0.47988E+08         0.00000E+00
    0.00000E+00         0.00000E+00        -0.76111E-08
 
    0.99745E+05         0.26079E+06         0.00000E+00
    0.26079E+06        -0.48011E+08         0.00000E+00
    0.00000E+00         0.00000E+00        -0.20296E-07
 
    0.10523E+06         0.27514E+06         0.00000E+00
    0.27514E+06        -0.48035E+08         0.00000E+00
    0.00000E+00         0.00000E+00         0.76111E-08
 
    0.11099E+06         0.29026E+06         0.00000E+00
    0.29026E+06        -0.48061E+08         0.00000E+00
    0.00000E+00         0.00000E+00        -0.20296E-07
 
    0.11704E+06         0.30619E+06         0.00000E+00
    0.30619E+06        -0.48088E+08         0.00000E+00
    0.00000E+00         0.00000E+00         0.76111E-08
 
    0.12339E+06         0.32298E+06         0.00000E+00
    0.32298E+06        -0.48116E+08         0.00000E+00
    0.00000E+00         0.00000E+00         0.00000E+00
 
    0.13005E+06         0.34066E+06         0.00000E+00
    0.34066E+06        -0.48147E+08         0.00000E+00
    0.00000E+00         0.00000E+00         0.38056E-07
 
    0.13702E+06         0.35927E+06         0.00000E+00
    0.35927E+06        -0.48179E+08         0.00000E+00
    0.00000E+00         0.00000E+00        -0.20296E-07
 
    0.14431E+06         0.37886E+06         0.00000E+00
    0.37886E+06        -0.48213E+08         0.00000E+00
    0.00000E+00         0.00000E+00         0.12685E-07
 
    0.15195E+06         0.39946E+06         0.00000E+00
    0.39946E+06        -0.48249E+08         0.00000E+00
    0.00000E+00         0.00000E+00        -0.25370E-07
 
    0.15992E+06         0.42112E+06         0.00000E+00
    0.42112E+06        -0.48287E+08         0.00000E+00
    0.00000E+00         0.00000E+00         0.76111E-08
 
    0.16824E+06         0.44388E+06         0.00000E+00
    0.44388E+06        -0.48327E+08         0.00000E+00
    0.00000E+00         0.00000E+00        -0.17759E-07
 
    0.17690E+06         0.46778E+06         0.00000E+00
    0.46778E+06        -0.48370E+08         0.00000E+00
    0.00000E+00         0.00000E+00         0.17759E-07
 
    0.18593E+06         0.49288E+06         0.00000E+00
    0.49288E+06        -0.48415E+08         0.00000E+00
    0.00000E+00         0.00000E+00         0.35518E-07
 
    0.19531E+06         0.51920E+06         0.00000E+00
    0.51920E+06        -0.48463E+08         0.00000E+00
    0.00000E+00         0.00000E+00        -0.20296E-07
 
    0.20503E+06         0.54679E+06         0.00000E+00
    0.54679E+06        -0.48514E+08         0.00000E+00
    0.00000E+00         0.00000E+00         0.25370E-08
 
    0.21511E+06         0.57568E+06         0.00000E+00
    0.57568E+06        -0.48567E+08         0.00000E+00
    0.00000E+00         0.00000E+00        -0.50741E-08
 
    0.22552E+06         0.60592E+06         0.00000E+00
    0.60592E+06        -0.48625E+08         0.00000E+00
    0.00000E+00         0.00000E+00         0.22833E-07
 
    0.23625E+06         0.63753E+06         0.00000E+00
    0.63753E+06        -0.48685E+08         0.00000E+00
    0.00000E+00         0.00000E+00        -0.10148E-07
 
    0.24728E+06         0.67053E+06         0.00000E+00
    0.67053E+06        -0.48749E+08         0.00000E+00
    0.00000E+00         0.00000E+00         0.76111E-08
 
    0.25859E+06         0.70497E+06         0.00000E+00
    0.70497E+06        -0.48818E+08         0.00000E+00
    0.00000E+00         0.00000E+00         0.25370E-08
 
    0.27013E+06         0.74083E+06         0.00000E+00
    0.74083E+06        -0.48890E+08         0.00000E+00
    0.00000E+00         0.00000E+00        -0.20296E-07
 
    0.28188E+06         0.77814E+06         0.00000E+00
    0.77814E+06        -0.48967E+08         0.00000E+00
    0.00000E+00         0.00000E+00         0.25370E-08
 
    0.29376E+06         0.81688E+06         0.00000E+00
    0.81688E+06        -0.49049E+08         0.00000E+00
    0.00000E+00         0.00000E+00         0.27907E-07
 
    0.30572E+06         0.85704E+06         0.00000E+00
    0.85704E+06        -0.49136E+08         0.00000E+00
    0.00000E+00         0.00000E+00         0.22833E-07
 
    0.31768E+06         0.89859E+06         0.00000E+00
    0.89859E+06        -0.49229E+08         0.00000E+00
    0.00000E+00         0.00000E+00        -0.38056E-07
 
    0.32955E+06         0.94146E+06         0.00000E+00
    0.94146E+06        -0.49328E+08         0.00000E+00
    0.00000E+00         0.00000E+00         0.17759E-07
 
    0.34120E+06         0.98560E+06         0.00000E+00
    0.98560E+06        -0.49433E+08         0.00000E+00
    0.00000E+00         0.00000E+00         0.10148E-07
 
    0.35252E+06         0.10309E+07         0.00000E+00
    0.10309E+07        -0.49545E+08         0.00000E+00
    0.00000E+00         0.00000E+00         0.27907E-07
 
    0.36334E+06         0.10772E+07         0.00000E+00
    0.10772E+07        -0.49664E+08         0.00000E+00
    0.00000E+00         0.00000E+00         0.76111E-08
 
    0.37349E+06         0.11244E+07         0.00000E+00
    0.11244E+07        -0.49792E+08         0.00000E+00
    0.00000E+00         0.00000E+00        -0.27907E-07
 
    0.38276E+06         0.11723E+07         0.00000E+00
    0.11723E+07        -0.49928E+08         0.00000E+00
    0.00000E+00         0.00000E+00         0.10148E-07
 
    0.39093E+06         0.12206E+07         0.00000E+00
    0.12206E+07        -0.50074E+08         0.00000E+00
    0.00000E+00         0.00000E+00        -0.25366E-08
 
    0.39771E+06         0.12691E+07         0.00000E+00
    0.12691E+07        -0.50229E+08         0.00000E+00
    0.00000E+00         0.00000E+00         0.25370E-07
 
    0.40281E+06         0.13173E+07         0.00000E+00
    0.13173E+07        -0.50396E+08         0.00000E+00
    0.00000E+00         0.00000E+00        -0.20296E-07
 
    0.40590E+06         0.13649E+07         0.00000E+00
    0.13649E+07        -0.50575E+08         0.00000E+00
    0.00000E+00         0.00000E+00         0.20295E-07
 
    0.40661E+06         0.14114E+07         0.00000E+00
    0.14114E+07        -0.50766E+08         0.00000E+00
    0.00000E+00         0.00000E+00        -0.20296E-07
 
    0.40451E+06         0.14562E+07         0.00000E+00
    0.14562E+07        -0.50972E+08         0.00000E+00
    0.00000E+00         0.00000E+00        -0.25370E-07
 
    0.39918E+06         0.14986E+07         0.00000E+00
    0.14986E+07        -0.51193E+08         0.00000E+00
    0.00000E+00         0.00000E+00        -0.27908E-07
 
    0.39013E+06         0.15380E+07         0.00000E+00
    0.15380E+07        -0.51431E+08         0.00000E+00
    0.00000E+00         0.00000E+00         0.00000E+00
 
    0.37684E+06         0.15734E+07         0.00000E+00
    0.15734E+07        -0.51687E+08         0.00000E+00
    0.00000E+00         0.00000E+00         0.00000E+00
 
    0.35880E+06         0.16041E+07         0.00000E+00
    0.16041E+07        -0.51962E+08         0.00000E+00
    0.00000E+00         0.00000E+00        -0.27908E-07
 
    0.33543E+06         0.16288E+07         0.00000E+00
    0.16288E+07        -0.52259E+08         0.00000E+00
    0.00000E+00         0.00000E+00         0.50741E-08
 
    0.30617E+06         0.16466E+07         0.00000E+00
    0.16466E+07        -0.52579E+08         0.00000E+00
    0.00000E+00         0.00000E+00         0.15221E-07
 
    0.27045E+06         0.16563E+07         0.00000E+00
    0.16563E+07        -0.52923E+08         0.00000E+00
    0.00000E+00         0.00000E+00         0.22834E-07
 
    0.22771E+06         0.16565E+07         0.00000E+00
    0.16565E+07        -0.53294E+08         0.00000E+00
    0.00000E+00         0.00000E+00         0.25375E-08
 
    0.17737E+06         0.16460E+07         0.00000E+00
    0.16460E+07        -0.53693E+08         0.00000E+00
    0.00000E+00         0.00000E+00        -0.50750E-08
 
    0.11888E+06         0.16236E+07         0.00000E+00
    0.16236E+07        -0.54121E+08         0.00000E+00
    0.00000E+00         0.00000E+00        -0.12687E-07
 
    0.51662E+05         0.15880E+07         0.00000E+00
    0.15880E+07        -0.54579E+08         0.00000E+00
    0.00000E+00         0.00000E+00        -0.76125E-08
 
   -0.24945E+05         0.15381E+07         0.00000E+00
    0.15381E+07        -0.55068E+08         0.00000E+00
    0.00000E+00         0.00000E+00        -0.40591E-07
 
   -0.11174E+06         0.14732E+07         0.00000E+00
    0.14732E+07        -0.55588E+08         0.00000E+00
    0.00000E+00         0.00000E+00         0.00000E+00
 
   -0.20982E+06         0.13927E+07         0.00000E+00
    0.13927E+07        -0.56136E+08         0.00000E+00
    0.00000E+00         0.00000E+00         0.10150E-07
 
   -0.32085E+06         0.12966E+07         0.00000E+00
    0.12966E+07        -0.56710E+08         0.00000E+00
    0.00000E+00         0.00000E+00        -0.22834E-07
 
   -0.44746E+06         0.11854E+07         0.00000E+00
    0.11854E+07        -0.57304E+08         0.00000E+00
    0.00000E+00         0.00000E+00         0.50732E-08
 
   -0.59382E+06         0.10605E+07         0.00000E+00
    0.10605E+07        -0.57908E+08         0.00000E+00
    0.00000E+00         0.00000E+00         0.25369E-07
 
   -0.76663E+06         0.92375E+06         0.00000E+00
    0.92375E+06        -0.58512E+08         0.00000E+00
    0.00000E+00         0.00000E+00         0.25393E-08
 
   -0.97634E+06         0.77815E+06         0.00000E+00
    0.77815E+06        -0.59098E+08         0.00000E+00
    0.00000E+00         0.00000E+00         0.38055E-07
 
   -0.12388E+07         0.62710E+06         0.00000E+00
    0.62710E+06        -0.59643E+08         0.00000E+00
    0.00000E+00         0.00000E+00        -0.76107E-08
 
   -0.15767E+07         0.47473E+06         0.00000E+00
    0.47473E+06        -0.60121E+08         0.00000E+00
    0.00000E+00         0.00000E+00        -0.17760E-07
 
   -0.20198E+07         0.32632E+06         0.00000E+00
    0.32632E+06        -0.60502E+08         0.00000E+00
    0.00000E+00         0.00000E+00         0.12685E-07
 
   -0.26005E+07         0.18774E+06         0.00000E+00
    0.18774E+06        -0.60763E+08         0.00000E+00
    0.00000E+00         0.00000E+00        -0.22737E-12
 
   -0.33457E+07         0.60897E+05         0.00000E+00
    0.60897E+05        -0.60895E+08         0.00000E+00
    0.00000E+00         0.00000E+00         0.50745E-08
 
    0.48632E+05         0.19312E+04         0.00000E+00
    0.19312E+04        -0.47601E+08         0.00000E+00
    0.00000E+00         0.00000E+00        -0.50741E-08
 
    0.43520E+05         0.58326E+04         0.00000E+00
    0.58326E+04        -0.47602E+08         0.00000E+00
    0.00000E+00         0.00000E+00         0.10148E-07
 
    0.39579E+05         0.98459E+04         0.00000E+00
    0.98459E+04        -0.47604E+08         0.00000E+00
    0.00000E+00         0.00000E+00        -0.10148E-07
 
    0.36639E+05         0.13986E+05         0.00000E+00
    0.13986E+05        -0.47608E+08         0.00000E+00
    0.00000E+00         0.00000E+00         0.76111E-08
 
    0.34493E+05         0.18225E+05         0.00000E+00
    0.18225E+05        -0.47612E+08         0.00000E+00
    0.00000E+00         0.00000E+00        -0.10148E-07
 
    0.32948E+05         0.22533E+05         0.00000E+00
    0.22533E+05        -0.47617E+08         0.00000E+00
    0.00000E+00         0.00000E+00         0.12685E-07
 
    0.31853E+05         0.26880E+05         0.00000E+00
    0.26880E+05        -0.47623E+08         0.00000E+00
    0.00000E+00         0.00000E+00        -0.20296E-07
 
    0.31100E+05         0.31243E+05         0.00000E+00
    0.31243E+05        -0.47629E+08         0.00000E+00
    0.00000E+00         0.00000E+00        -0.76111E-08
 
    0.30620E+05         0.35609E+05         0.00000E+00
    0.35609E+05        -0.47636E+08         0.00000E+00
    0.00000E+00         0.00000E+00        -0.76111E-08
 
    0.30370E+05         0.39969E+05         0.00000E+00
    0.39969E+05        -0.47643E+08         0.00000E+00
    0.00000E+00         0.00000E+00         0.12685E-07
 
    0.30321E+05         0.44323E+05         0.00000E+00
    0.44323E+05        -0.47650E+08         0.00000E+00
    0.00000E+00         0.00000E+00         0.10148E-07
 
    0.30458E+05         0.48675E+05         0.00000E+00
    0.48675E+05        -0.47657E+08         0.00000E+00
    0.00000E+00         0.00000E+00         0.22833E-07
 
    0.30771E+05         0.53038E+05         0.00000E+00
    0.53038E+05        -0.47664E+08         0.00000E+00
    0.00000E+00         0.00000E+00         0.12685E-07
 
    0.31256E+05         0.57426E+05         0.00000E+00
    0.57426E+05        -0.47672E+08         0.00000E+00
    0.00000E+00         0.00000E+00         0.12685E-07
 
    0.31908E+05         0.61857E+05         0.00000E+00
    0.61857E+05        -0.47679E+08         0.00000E+00
    0.00000E+00         0.00000E+00        -0.10148E-07
 
    0.32726E+05         0.66351E+05         0.00000E+00
    0.66351E+05        -0.47687E+08         0.00000E+00
    0.00000E+00         0.00000E+00         0.27907E-07
 
    0.33709E+05         0.70930E+05         0.00000E+00
    0.70930E+05        -0.47695E+08         0.00000E+00
    0.00000E+00         0.00000E+00        -0.25370E-08
 
    0.34856E+05         0.75615E+05         0.00000E+00
    0.75615E+05        -0.47703E+08         0.00000E+00
    0.00000E+00         0.00000E+00        -0.32981E-07
 
    0.36167E+05         0.80431E+05         0.00000E+00
    0.80431E+05        -0.47711E+08         0.00000E+00
    0.00000E+00         0.00000E+00         0.25370E-07
 
    0.37643E+05         0.85400E+05         0.00000E+00
    0.85400E+05        -0.47720E+08         0.00000E+00
    0.00000E+00         0.00000E+00         0.10148E-07
 
    0.39283E+05         0.90545E+05         0.00000E+00
    0.90545E+05        -0.47729E+08         0.00000E+00
    0.00000E+00         0.00000E+00        -0.27907E-07
 
    0.41089E+05         0.95891E+05         0.00000E+00
    0.95891E+05        -0.47739E+08         0.00000E+00
    0.00000E+00         0.00000E+00        -0.76111E-08
 
    0.43061E+05         0.10146E+06         0.00000E+00
    0.10146E+06        -0.47748E+08         0.00000E+00
    0.00000E+00         0.00000E+00        -0.12685E-07
 
    0.45201E+05         0.10728E+06         0.00000E+00
    0.10728E+06        -0.47759E+08         0.00000E+00
    0.00000E+00         0.00000E+00         0.15222E-07
 
    0.47511E+05         0.11337E+06         0.00000E+00
    0.11337E+06        -0.47769E+08         0.00000E+00
    0.00000E+00         0.00000E+00         0.76111E-08
 
    0.49995E+05         0.11975E+06         0.00000E+00
    0.11975E+06        -0.47780E+08         0.00000E+00
    0.00000E+00         0.00000E+00         0.76111E-08
 
    0.52655E+05         0.12646E+06         0.00000E+00
    0.12646E+06        -0.47792E+08         0.00000E+00
    0.00000E+00         0.00000E+00        -0.76111E-08
 
    0.55497E+05         0.13350E+06         0.00000E+00
    0.13350E+06        -0.47804E+08         0.00000E+00
    0.00000E+00         0.00000E+00        -0.76111E-08
 
    0.58523E+05         0.14092E+06         0.00000E+00
    0.14092E+06        -0.47817E+08         0.00000E+00
    0.00000E+00         0.00000E+00         0.76111E-08
 
    0.61741E+05         0.14873E+06         0.00000E+00
    0.14873E+06        -0.47831E+08         0.00000E+00
    0.00000E+00         0.00000E+00        -0.12685E-07
 
    0.65156E+05         0.15695E+06         0.00000E+00
    0.15695E+06        -0.47845E+08         0.00000E+00
    0.00000E+00         0.00000E+00         0.12685E-07
 
    0.68774E+05         0.16563E+06         0.00000E+00
    0.16563E+06        -0.47860E+08         0.00000E+00
    0.00000E+00         0.00000E+00        -0.25370E-08
 
    0.72602E+05         0.17477E+06         0.00000E+00
    0.17477E+06        -0.47876E+08         0.00000E+00
    0.00000E+00         0.00000E+00        -0.22833E-07
 
    0.76649E+05         0.18441E+06         0.00000E+00
    0.18441E+06        -0.47892E+08         0.00000E+00
    0.00000E+00         0.00000E+00         0.50741E-08
 
    0.80923E+05         0.19459E+06         0.00000E+00
    0.19459E+06        -0.47910E+08         0.00000E+00
    0.00000E+00         0.00000E+00        -0.55815E-07
 
    0.85432E+05         0.20532E+06         0.00000E+00
    0.20532E+06        -0.47929E+08         0.00000E+00
    0.00000E+00         0.00000E+00        -0.50741E-08
 
    0.90186E+05         0.21663E+06         0.00000E+00
    0.21663E+06        -0.47948E+08         0.00000E+00
    0.00000E+00         0.00000E+00        -0.25370E-08
 
    0.95193E+05         0.22857E+06         0.00000E+00
    0.22857E+06        -0.47969E+08         0.00000E+00
    0.00000E+00         0.00000E+00        -0.20296E-07
 
    0.10047E+06         0.24116E+06         0.00000E+00
    0.24116E+06        -0.47991E+08         0.00000E+00
    0.00000E+00         0.00000E+00        -0.15222E-07
 
    0.10601E+06         0.25443E+06         0.00000E+00
    0.25443E+06        -0.48014E+08         0.00000E+00
    0.00000E+00         0.00000E+00         0.22833E-07
 
    0.11184E+06         0.26843E+06         0.00000E+00
    0.26843E+06        -0.48038E+08         0.00000E+00
    0.00000E+00         0.00000E+00        -0.25370E-07
 
    0.11797E+06         0.28318E+06         0.00000E+00
    0.28318E+06        -0.48064E+08         0.00000E+00
    0.00000E+00         0.00000E+00         0.00000E+00
 
    0.12440E+06         0.29872E+06         0.00000E+00
    0.29872E+06        -0.48091E+08         0.00000E+00
    0.00000E+00         0.00000E+00        -0.25370E-08
 
    0.13115E+06         0.31509E+06         0.00000E+00
    0.31509E+06        -0.48120E+08         0.00000E+00
    0.00000E+00         0.00000E+00        -0.25370E-08
 
    0.13823E+06         0.33234E+06         0.00000E+00
    0.33234E+06        -0.48150E+08         0.00000E+00
    0.00000E+00         0.00000E+00         0.17759E-07
 
    0.14564E+06         0.35049E+06         0.00000E+00
    0.35049E+06        -0.48183E+08         0.00000E+00
    0.00000E+00         0.00000E+00        -0.17759E-07
 
    0.15340E+06         0.36959E+06         0.00000E+00
    0.36959E+06        -0.48217E+08         0.00000E+00
    0.00000E+00         0.00000E+00        -0.40593E-07
 
    0.16151E+06         0.38968E+06         0.00000E+00
    0.38968E+06        -0.48253E+08         0.00000E+00
    0.00000E+00         0.00000E+00         0.50741E-08
 
    0.16999E+06         0.41080E+06         0.00000E+00
    0.41080E+06        -0.48291E+08         0.00000E+00
    0.00000E+00         0.00000E+00        -0.25370E-08
 
    0.17884E+06         0.43300E+06         0.00000E+00
    0.43300E+06        -0.48332E+08         0.00000E+00
    0.00000E+00         0.00000E+00        -0.25373E-08
 
    0.18806E+06         0.45631E+06         0.00000E+00
    0.45631E+06        -0.48375E+08         0.00000E+00
    0.00000E+00         0.00000E+00         0.10148E-07
 
    0.19766E+06         0.48077E+06         0.00000E+00
    0.48077E+06        -0.48420E+08         0.00000E+00
    0.00000E+00         0.00000E+00        -0.15222E-07
 
    0.20763E+06         0.50643E+06         0.00000E+00
    0.50643E+06        -0.48468E+08         0.00000E+00
    0.00000E+00         0.00000E+00        -0.25370E-08
 
    0.21798E+06         0.53333E+06         0.00000E+00
    0.53333E+06        -0.48519E+08         0.00000E+00
    0.00000E+00         0.00000E+00         0.22833E-07
 
    0.22870E+06         0.56149E+06         0.00000E+00
    0.56149E+06        -0.48573E+08         0.00000E+00
    0.00000E+00         0.00000E+00         0.50741E-08
 
    0.23978E+06         0.59097E+06         0.00000E+00
    0.59097E+06        -0.48631E+08         0.00000E+00
    0.00000E+00         0.00000E+00         0.17759E-07
 
    0.25121E+06         0.62177E+06         0.00000E+00
    0.62177E+06        -0.48692E+08         0.00000E+00
    0.00000E+00         0.00000E+00        -0.10148E-07
 
    0.26295E+06         0.65394E+06         0.00000E+00
    0.65394E+06        -0.48756E+08         0.00000E+00
    0.00000E+00         0.00000E+00        -0.20296E-07
 
    0.27499E+06         0.68749E+06         0.00000E+00
    0.68749E+06        -0.48825E+08         0.00000E+00
    0.00000E+00         0.00000E+00        -0.12685E-07
 
    0.28729E+06         0.72243E+06         0.00000E+00
    0.72243E+06        -0.48898E+08         0.00000E+00
    0.00000E+00         0.00000E+00         0.50741E-08
 
    0.29980E+06         0.75878E+06         0.00000E+00
    0.75878E+06        -0.48975E+08         0.00000E+00
    0.00000E+00         0.00000E+00         0.76111E-08
 
    0.31246E+06         0.79651E+06         0.00000E+00
    0.79651E+06        -0.49057E+08         0.00000E+00
    0.00000E+00         0.00000E+00         0.00000E+00
 
    0.32522E+06         0.83562E+06         0.00000E+00
    0.83562E+06        -0.49145E+08         0.00000E+00
    0.00000E+00         0.00000E+00         0.76111E-08
 
    0.33798E+06         0.87607E+06         0.00000E+00
    0.87607E+06        -0.49238E+08         0.00000E+00
    0.00000E+00         0.00000E+00         0.25370E-07
 
    0.35064E+06         0.91780E+06         0.00000E+00
    0.91780E+06        -0.49337E+08         0.00000E+00
    0.00000E+00         0.00000E+00        -0.76111E-08
 
    0.36309E+06         0.96075E+06         0.00000E+00
    0.96075E+06        -0.49442E+08         0.00000E+00
    0.00000E+00         0.00000E+00         0.25370E-07
 
    0.37518E+06         0.10048E+07         0.00000E+00
    0.10048E+07        -0.49554E+08         0.00000E+00
    0.00000E+00         0.00000E+00        -0.10148E-07
 
    0.38676E+06         0.10499E+07         0.00000E+00
    0.10499E+07        -0.49674E+08         0.00000E+00
    0.00000E+00         0.00000E+00         0.40592E-07
 
    0.39763E+06         0.10957E+07         0.00000E+00
    0.10957E+07        -0.49802E+08         0.00000E+00
    0.00000E+00         0.00000E+00         0.25370E-07
 
    0.40758E+06         0.11422E+07         0.00000E+00
    0.11422E+07        -0.49938E+08         0.00000E+00
    0.00000E+00         0.00000E+00        -0.32981E-07
 
    0.41636E+06         0.11891E+07         0.00000E+00
    0.11891E+07        -0.50083E+08         0.00000E+00
    0.00000E+00         0.00000E+00         0.76116E-08
 
    0.42368E+06         0.12361E+07         0.00000E+00
    0.12361E+07        -0.50239E+08         0.00000E+00
    0.00000E+00         0.00000E+00         0.38056E-07
 
    0.42923E+06         0.12828E+07         0.00000E+00
    0.12828E+07        -0.50406E+08         0.00000E+00
    0.00000E+00         0.00000E+00        -0.35518E-07
 
    0.43264E+06         0.13288E+07         0.00000E+00
    0.13288E+07        -0.50584E+08         0.00000E+00
    0.00000E+00         0.00000E+00        -0.25366E-08
 
    0.43352E+06         0.13737E+07         0.00000E+00
    0.13737E+07        -0.50776E+08         0.00000E+00
    0.00000E+00         0.00000E+00         0.15221E-07
 
    0.43143E+06         0.14168E+07         0.00000E+00
    0.14168E+07        -0.50981E+08         0.00000E+00
    0.00000E+00         0.00000E+00         0.20296E-07
 
    0.42588E+06         0.14575E+07         0.00000E+00
    0.14575E+07        -0.51202E+08         0.00000E+00
    0.00000E+00         0.00000E+00        -0.27908E-07
 
    0.41637E+06         0.14951E+07         0.00000E+00
    0.14951E+07        -0.51439E+08         0.00000E+00
    0.00000E+00         0.00000E+00        -0.15222E-07
 
    0.40233E+06         0.15288E+07         0.00000E+00
    0.15288E+07        -0.51693E+08         0.00000E+00
    0.00000E+00         0.00000E+00        -0.32981E-07
 
    0.38319E+06         0.15575E+07         0.00000E+00
    0.15575E+07        -0.51968E+08         0.00000E+00
    0.00000E+00         0.00000E+00         0.50750E-08
 
    0.35833E+06         0.15803E+07         0.00000E+00
    0.15803E+07        -0.52263E+08         0.00000E+00
    0.00000E+00         0.00000E+00         0.27908E-07
 
    0.32713E+06         0.15960E+07         0.00000E+00
    0.15960E+07        -0.52581E+08         0.00000E+00
    0.00000E+00         0.00000E+00         0.17759E-07
 
    0.28894E+06         0.16034E+07         0.00000E+00
    0.16034E+07        -0.52924E+08         0.00000E+00
    0.00000E+00         0.00000E+00        -0.25357E-08
 
    0.24313E+06         0.16013E+07         0.00000E+00
    0.16013E+07        -0.53293E+08         0.00000E+00
    0.00000E+00         0.00000E+00        -0.76125E-08
 
    0.18906E+06         0.15884E+07         0.00000E+00
    0.15884E+07        -0.53689E+08         0.00000E+00
    0.00000E+00         0.00000E+00         0.45668E-07
 
    0.12609E+06         0.15633E+07         0.00000E+00
    0.15633E+07        -0.54115E+08         0.00000E+00
    0.00000E+00         0.00000E+00        -0.32984E-07
 
    0.53537E+05         0.15248E+07         0.00000E+00
    0.15248E+07        -0.54570E+08         0.00000E+00
    0.00000E+00         0.00000E+00        -0.20294E-07
 
   -0.29328E+05         0.14720E+07         0.00000E+00
    0.14720E+07        -0.55057E+08         0.00000E+00
    0.00000E+00         0.00000E+00        -0.50732E-08
 
   -0.12339E+06         0.14039E+07         0.00000E+00
    0.14039E+07        -0.55573E+08         0.00000E+00
    0.00000E+00         0.00000E+00        -0.32982E-07
 
   -0.22985E+06         0.13201E+07         0.00000E+00
    0.13201E+07        -0.56118E+08         0.00000E+00
    0.00000E+00         0.00000E+00         0.20296E-07
 
   -0.35044E+06         0.12206E+07         0.00000E+00
    0.12206E+07        -0.56689E+08         0.00000E+00
    0.00000E+00         0.00000E+00        -0.32982E-07
 
   -0.48783E+06         0.11063E+07         0.00000E+00
    0.11063E+07        -0.57279E+08         0.00000E+00
    0.00000E+00         0.00000E+00         0.50750E-08
 
   -0.64623E+06         0.97879E+06         0.00000E+00
    0.97879E+06        -0.57882E+08         0.00000E+00
    0.00000E+00         0.00000E+00         0.20298E-07
 
   -0.83233E+06         0.84071E+06         0.00000E+00
    0.84071E+06        -0.58483E+08         0.00000E+00
    0.00000E+00         0.00000E+00         0.25375E-08
 
   -0.10565E+07         0.69576E+06         0.00000E+00
    0.69576E+06        -0.59068E+08         0.00000E+00
    0.00000E+00         0.00000E+00         0.32982E-07
 
   -0.13343E+07         0.54863E+06         0.00000E+00
    0.54863E+06        -0.59613E+08         0.00000E+00
    0.00000E+00         0.00000E+00        -0.32982E-07
 
   -0.16880E+07         0.40488E+06         0.00000E+00
    0.40488E+06        -0.60091E+08         0.00000E+00
    0.00000E+00         0.00000E+00        -0.15221E-07
 
   -0.21458E+07         0.27087E+06         0.00000E+00
    0.27087E+06        -0.60474E+08         0.00000E+00
    0.00000E+00         0.00000E+00         0.10148E-07
 
   -0.27381E+07         0.15215E+06         0.00000E+00
    0.15215E+06        -0.60739E+08         0.00000E+00
    0.00000E+00         0.00000E+00        -0.45667E-07
 
   -0.34899E+07         0.48667E+05         0.00000E+00
    0.48667E+05        -0.60872E+08         0.00000E+00
    0.00000E+00         0.00000E+00        -0.35519E-07
 
    0.51029E+05         0.18110E+04         0.00000E+00
    0.18110E+04        -0.47601E+08         0.00000E+00
    0.00000E+00         0.00000E+00        -0.14211E-13
 
    0.45880E+05         0.54790E+04         0.00000E+00
    0.54790E+04        -0.47603E+08         0.00000E+00
    0.00000E+00         0.00000E+00        -0.50741E-08
 
    0.41875E+05         0.92808E+04         0.00000E+00
    0.92808E+04        -0.47605E+08         0.00000E+00
    0.00000E+00         0.00000E+00        -0.50741E-08
 
    0.38855E+05         0.13243E+05         0.00000E+00
    0.13243E+05        -0.47609E+08         0.00000E+00
    0.00000E+00         0.00000E+00         0.25371E-08
 
    0.36625E+05         0.17342E+05         0.00000E+00
    0.17342E+05        -0.47613E+08         0.00000E+00
    0.00000E+00         0.00000E+00         0.27907E-07
 
    0.34998E+05         0.21539E+05         0.00000E+00
    0.21539E+05        -0.47618E+08         0.00000E+00
    0.00000E+00         0.00000E+00        -0.10148E-07
 
    0.33830E+05         0.25796E+05         0.00000E+00
    0.25796E+05        -0.47624E+08         0.00000E+00
    0.00000E+00         0.00000E+00         0.22833E-07
 
    0.33016E+05         0.30082E+05         0.00000E+00
    0.30082E+05        -0.47630E+08         0.00000E+00
    0.00000E+00         0.00000E+00        -0.32981E-07
 
    0.32488E+05         0.34375E+05         0.00000E+00
    0.34375E+05        -0.47637E+08         0.00000E+00
    0.00000E+00         0.00000E+00        -0.27907E-07
 
    0.32202E+05         0.38665E+05         0.00000E+00
    0.38665E+05        -0.47644E+08         0.00000E+00
    0.00000E+00         0.00000E+00         0.12685E-07
 
    0.32132E+05         0.42948E+05         0.00000E+00
    0.42948E+05        -0.47651E+08         0.00000E+00
    0.00000E+00         0.00000E+00        -0.25370E-08
 
    0.32261E+05         0.47227E+05         0.00000E+00
    0.47227E+05        -0.47658E+08         0.00000E+00
    0.00000E+00         0.00000E+00        -0.22833E-07
 
    0.32580E+05         0.51512E+05         0.00000E+00
    0.51512E+05        -0.47665E+08         0.00000E+00
    0.00000E+00         0.00000E+00        -0.25370E-08
 
    0.33082E+05         0.55819E+05         0.00000E+00
    0.55819E+05        -0.47672E+08         0.00000E+00
    0.00000E+00         0.00000E+00         0.76111E-08
 
    0.33764E+05         0.60163E+05         0.00000E+00
    0.60163E+05        -0.47680E+08         0.00000E+00
    0.00000E+00         0.00000E+00        -0.20296E-07
 
    0.34624E+05         0.64565E+05         0.00000E+00
    0.64565E+05        -0.47688E+08         0.00000E+00
    0.00000E+00         0.00000E+00         0.30444E-07
 
    0.35660E+05         0.69047E+05         0.00000E+00
    0.69047E+05        -0.47696E+08         0.00000E+00
    0.00000E+00         0.00000E+00        -0.10148E-07
 
    0.36871E+05         0.73630E+05         0.00000E+00
    0.73630E+05        -0.47704E+08         0.00000E+00
    0.00000E+00         0.00000E+00         0.25370E-08
 
    0.38258E+05         0.78338E+05         0.00000E+00
    0.78338E+05        -0.47712E+08         0.00000E+00
    0.00000E+00         0.00000E+00         0.00000E+00
 
    0.39819E+05         0.83192E+05         0.00000E+00
    0.83192E+05        -0.47721E+08         0.00000E+00
    0.00000E+00         0.00000E+00        -0.15222E-07
 
    0.41554E+05         0.88218E+05         0.00000E+00
    0.88218E+05        -0.47730E+08         0.00000E+00
    0.00000E+00         0.00000E+00        -0.15222E-07
 
    0.43465E+05         0.93437E+05         0.00000E+00
    0.93437E+05        -0.47740E+08         0.00000E+00
    0.00000E+00         0.00000E+00         0.25370E-07
 
    0.45553E+05         0.98873E+05         0.00000E+00
    0.98873E+05        -0.47750E+08         0.00000E+00
    0.00000E+00         0.00000E+00         0.25370E-08
 
    0.47818E+05         0.10455E+06         0.00000E+00
    0.10455E+06        -0.47760E+08         0.00000E+00
    0.00000E+00         0.00000E+00        -0.10148E-07
 
    0.50264E+05         0.11049E+06         0.00000E+00
    0.11049E+06        -0.47771E+08         0.00000E+00
    0.00000E+00         0.00000E+00         0.25370E-08
 
    0.52894E+05         0.11672E+06         0.00000E+00
    0.11672E+06        -0.47782E+08         0.00000E+00
    0.00000E+00         0.00000E+00         0.15222E-07
 
    0.55711E+05         0.12325E+06         0.00000E+00
    0.12325E+06        -0.47793E+08         0.00000E+00
    0.00000E+00         0.00000E+00        -0.20296E-07
 
    0.58719E+05         0.13013E+06         0.00000E+00
    0.13013E+06        -0.47806E+08         0.00000E+00
    0.00000E+00         0.00000E+00        -0.15222E-07
 
    0.61923E+05         0.13736E+06         0.00000E+00
    0.13736E+06        -0.47819E+08         0.00000E+00
    0.00000E+00         0.00000E+00         0.25370E-08
 
    0.65329E+05         0.14497E+06         0.00000E+00
    0.14497E+06        -0.47832E+08         0.00000E+00
    0.00000E+00         0.00000E+00         0.50741E-08
 
    0.68944E+05         0.15299E+06         0.00000E+00
    0.15299E+06        -0.47847E+08         0.00000E+00
    0.00000E+00         0.00000E+00         0.10148E-07
 
    0.72774E+05         0.16144E+06         0.00000E+00
    0.16144E+06        -0.47862E+08         0.00000E+00
    0.00000E+00         0.00000E+00         0.12685E-07
 
    0.76827E+05         0.17036E+06         0.00000E+00
    0.17036E+06        -0.47878E+08         0.00000E+00
    0.00000E+00         0.00000E+00        -0.50741E-08
 
    0.81111E+05         0.17976E+06         0.00000E+00
    0.17976E+06        -0.47894E+08         0.00000E+00
    0.00000E+00         0.00000E+00        -0.30444E-07
 
    0.85635E+05         0.18967E+06         0.00000E+00
    0.18967E+06        -0.47912E+08         0.00000E+00
    0.00000E+00         0.00000E+00         0.17759E-07
 
    0.90408E+05         0.20013E+06         0.00000E+00
    0.20013E+06        -0.47931E+08         0.00000E+00
    0.00000E+00         0.00000E+00        -0.22833E-07
 
    0.95439E+05         0.21116E+06         0.00000E+00
    0.21116E+06        -0.47950E+08         0.00000E+00
    0.00000E+00         0.00000E+00         0.10148E-07
 
    0.10074E+06         0.22280E+06         0.00000E+00
    0.22280E+06        -0.47971E+08         0.00000E+00
    0.00000E+00         0.00000E+00        -0.50741E-08
 
    0.10632E+06         0.23507E+06         0.00000E+00
    0.23507E+06        -0.47993E+08         0.00000E+00
    0.00000E+00         0.00000E+00         0.22833E-07
 
    0.11219E+06         0.24801E+06         0.00000E+00
    0.24801E+06        -0.48016E+08         0.00000E+00
    0.00000E+00         0.00000E+00         0.00000E+00
 
    0.11837E+06         0.26165E+06         0.00000E+00
    0.26165E+06        -0.48041E+08         0.00000E+00
    0.00000E+00         0.00000E+00         0.20296E-07
 
    0.12485E+06         0.27602E+06         0.00000E+00
    0.27602E+06        -0.48067E+08         0.00000E+00
    0.00000E+00         0.00000E+00         0.76111E-08
 
    0.13166E+06         0.29117E+06         0.00000E+00
    0.29117E+06        -0.48094E+08         0.00000E+00
    0.00000E+00         0.00000E+00        -0.50741E-08
 
    0.13881E+06         0.30712E+06         0.00000E+00
    0.30712E+06        -0.48123E+08         0.00000E+00
    0.00000E+00         0.00000E+00         0.22833E-07
 
    0.14630E+06         0.32393E+06         0.00000E+00
    0.32393E+06        -0.48154E+08         0.00000E+00
    0.00000E+00         0.00000E+00        -0.25370E-08
 
    0.15415E+06         0.34161E+06         0.00000E+00
    0.34161E+06        -0.48186E+08         0.00000E+00
    0.00000E+00         0.00000E+00        -0.25370E-08
 
    0.16236E+06         0.36023E+06         0.00000E+00
    0.36023E+06        -0.48221E+08         0.00000E+00
    0.00000E+00         0.00000E+00         0.12685E-07
 
    0.17096E+06         0.37980E+06         0.00000E+00
    0.37980E+06        -0.48257E+08         0.00000E+00
    0.00000E+00         0.00000E+00         0.17759E-07
 
    0.17993E+06         0.40038E+06         0.00000E+00
    0.40038E+06        -0.48295E+08         0.00000E+00
    0.00000E+00         0.00000E+00        -0.12685E-07
 
    0.18930E+06         0.42201E+06         0.00000E+00
    0.42201E+06        -0.48336E+08         0.00000E+00
    0.00000E+00         0.00000E+00         0.50741E-08
 
    0.19907E+06         0.44472E+06         0.00000E+00
    0.44472E+06        -0.48379E+08         0.00000E+00
    0.00000E+00         0.00000E+00         0.00000E+00
 
    0.20924E+06         0.46855E+06         0.00000E+00
    0.46855E+06        -0.48425E+08         0.00000E+00
    0.00000E+00         0.00000E+00         0.50741E-08
 
    0.21981E+06         0.49355E+06         0.00000E+00
    0.49355E+06        -0.48473E+08         0.00000E+00
    0.00000E+00         0.00000E+00         0.25370E-08
 
    0.23077E+06         0.51974E+06         0.00000E+00
    0.51974E+06        -0.48525E+08         0.00000E+00
    0.00000E+00         0.00000E+00        -0.32981E-07
 
    0.24213E+06         0.54718E+06         0.00000E+00
    0.54718E+06        -0.48579E+08         0.00000E+00
    0.00000E+00         0.00000E+00         0.00000E+00
 
    0.25387E+06         0.57588E+06         0.00000E+00
    0.57588E+06        -0.48637E+08         0.00000E+00
    0.00000E+00         0.00000E+00        -0.12685E-07
 
    0.26598E+06         0.60588E+06         0.00000E+00
    0.60588E+06        -0.48698E+08         0.00000E+00
    0.00000E+00         0.00000E+00        -0.10148E-07
 
    0.27843E+06         0.63720E+06         0.00000E+00
    0.63720E+06        -0.48763E+08         0.00000E+00
    0.00000E+00         0.00000E+00        -0.17759E-07
 
    0.29120E+06         0.66987E+06         0.00000E+00
    0.66987E+06        -0.48832E+08         0.00000E+00
    0.00000E+00         0.00000E+00         0.10148E-07
 
    0.30425E+06         0.70388E+06         0.00000E+00
    0.70388E+06        -0.48905E+08         0.00000E+00
    0.00000E+00         0.00000E+00        -0.12685E-07
 
    0.31752E+06         0.73926E+06         0.00000E+00
    0.73926E+06        -0.48982E+08         0.00000E+00
    0.00000E+00         0.00000E+00         0.30444E-07
 
    0.33096E+06         0.77598E+06         0.00000E+00
    0.77598E+06        -0.49065E+08         0.00000E+00
    0.00000E+00         0.00000E+00         0.50741E-08
 
    0.34451E+06         0.81404E+06         0.00000E+00
    0.81404E+06        -0.49153E+08         0.00000E+00
    0.00000E+00         0.00000E+00         0.25370E-08
 
    0.35806E+06         0.85338E+06         0.00000E+00
    0.85338E+06        -0.49246E+08         0.00000E+00
    0.00000E+00         0.00000E+00         0.25370E-08
 
    0.37152E+06         0.89397E+06         0.00000E+00
    0.89397E+06        -0.49345E+08         0.00000E+00
    0.00000E+00         0.00000E+00         0.25370E-08
 
    0.38476E+06         0.93573E+06         0.00000E+00
    0.93573E+06        -0.49451E+08         0.00000E+00
    0.00000E+00         0.00000E+00        -0.12685E-07
 
    0.39764E+06         0.97856E+06         0.00000E+00
    0.97856E+06        -0.49563E+08         0.00000E+00
    0.00000E+00         0.00000E+00        -0.10148E-07
 
    0.40997E+06         0.10223E+07         0.00000E+00
    0.10223E+07        -0.49683E+08         0.00000E+00
    0.00000E+00         0.00000E+00        -0.25370E-08
 
    0.42158E+06         0.10669E+07         0.00000E+00
    0.10669E+07        -0.49811E+08         0.00000E+00
    0.00000E+00         0.00000E+00        -0.50741E-08
 
    0.43221E+06         0.11120E+07         0.00000E+00
    0.11120E+07        -0.49947E+08         0.00000E+00
    0.00000E+00         0.00000E+00        -0.15222E-07
 
    0.44162E+06         0.11575E+07         0.00000E+00
    0.11575E+07        -0.50093E+08         0.00000E+00
    0.00000E+00         0.00000E+00        -0.17759E-07
 
    0.44950E+06         0.12030E+07         0.00000E+00
    0.12030E+07        -0.50249E+08         0.00000E+00
    0.00000E+00         0.00000E+00         0.15222E-07
 
    0.45551E+06         0.12482E+07         0.00000E+00
    0.12482E+07        -0.50415E+08         0.00000E+00
    0.00000E+00         0.00000E+00        -0.20295E-07
 
    0.45926E+06         0.12927E+07         0.00000E+00
    0.12927E+07        -0.50594E+08         0.00000E+00
    0.00000E+00         0.00000E+00         0.12685E-07
 
    0.46035E+06         0.13360E+07         0.00000E+00
    0.13360E+07        -0.50785E+08         0.00000E+00
    0.00000E+00         0.00000E+00         0.40592E-07
 
    0.45828E+06         0.13775E+07         0.00000E+00
    0.13775E+07        -0.50990E+08         0.00000E+00
    0.00000E+00         0.00000E+00        -0.25366E-08
 
    0.45256E+06         0.14165E+07         0.00000E+00
    0.14165E+07        -0.51209E+08         0.00000E+00
    0.00000E+00         0.00000E+00         0.76107E-08
 
    0.44262E+06         0.14524E+07         0.00000E+00
    0.14524E+07        -0.51446E+08         0.00000E+00
    0.00000E+00         0.00000E+00         0.12686E-07
 
    0.42787E+06         0.14843E+07         0.00000E+00
    0.14843E+07        -0.51700E+08         0.00000E+00
    0.00000E+00         0.00000E+00        -0.50741E-08
 
    0.40767E+06         0.15112E+07         0.00000E+00
    0.15112E+07        -0.51973E+08         0.00000E+00
    0.00000E+00         0.00000E+00         0.50741E-07
 
    0.38135E+06         0.15320E+07         0.00000E+00
    0.15320E+07        -0.52267E+08         0.00000E+00
    0.00000E+00         0.00000E+00         0.48203E-07
 
    0.34823E+06         0.15458E+07         0.00000E+00
    0.15458E+07        -0.52584E+08         0.00000E+00
    0.00000E+00         0.00000E+00         0.45666E-07
 
    0.30760E+06         0.15511E+07         0.00000E+00
    0.15511E+07        -0.52925E+08         0.00000E+00
    0.00000E+00         0.00000E+00         0.15223E-07
 
    0.25874E+06         0.15468E+07         0.00000E+00
    0.15468E+07        -0.53291E+08         0.00000E+00
    0.00000E+00         0.00000E+00        -0.25375E-08
 
    0.20093E+06         0.15315E+07         0.00000E+00
    0.15315E+07        -0.53685E+08         0.00000E+00
    0.00000E+00         0.00000E+00         0.12684E-07
 
    0.13344E+06         0.15040E+07         0.00000E+00
    0.15040E+07        -0.54108E+08         0.00000E+00
    0.00000E+00         0.00000E+00         0.22832E-07
 
    0.55509E+05         0.14629E+07         0.00000E+00
    0.14629E+07        -0.54561E+08         0.00000E+00
    0.00000E+00         0.00000E+00         0.15223E-07
 
   -0.33696E+05         0.14072E+07         0.00000E+00
    0.14072E+07        -0.55044E+08         0.00000E+00
    0.00000E+00         0.00000E+00         0.30444E-07
 
   -0.13516E+06         0.13361E+07         0.00000E+00
    0.13361E+07        -0.55558E+08         0.00000E+00
    0.00000E+00         0.00000E+00        -0.25375E-08
 
   -0.25014E+06         0.12492E+07         0.00000E+00
    0.12492E+07        -0.56100E+08         0.00000E+00
    0.00000E+00         0.00000E+00         0.12686E-07
 
   -0.38046E+06         0.11467E+07         0.00000E+00
    0.11467E+07        -0.56667E+08         0.00000E+00
    0.00000E+00         0.00000E+00         0.17759E-07
 
   -0.52882E+06         0.10295E+07         0.00000E+00
    0.10295E+07        -0.57255E+08         0.00000E+00
    0.00000E+00         0.00000E+00         0.20296E-07
 
   -0.69942E+06         0.89970E+06         0.00000E+00
    0.89970E+06        -0.57854E+08         0.00000E+00
    0.00000E+00         0.00000E+00         0.15223E-07
 
   -0.89887E+06         0.76047E+06         0.00000E+00
    0.76047E+06        -0.58454E+08         0.00000E+00
    0.00000E+00         0.00000E+00        -0.30444E-07
 
   -0.11373E+07         0.61636E+06         0.00000E+00
    0.61636E+06        -0.59038E+08         0.00000E+00
    0.00000E+00         0.00000E+00         0.18190E-11
 
   -0.14301E+07         0.47324E+06         0.00000E+00
    0.47324E+06        -0.59583E+08         0.00000E+00
    0.00000E+00         0.00000E+00         0.10150E-07
 
   -0.17986E+07         0.33802E+06         0.00000E+00
    0.33802E+06        -0.60063E+08         0.00000E+00
    0.00000E+00         0.00000E+00         0.10147E-07
 
   -0.22698E+07         0.21797E+06         0.00000E+00
    0.21797E+06        -0.60450E+08         0.00000E+00
    0.00000E+00         0.00000E+00         0.50741E-08
 
   -0.28724E+07         0.11824E+06         0.00000E+00
    0.11824E+06        -0.60718E+08         0.00000E+00
    0.00000E+00         0.00000E+00         0.20296E-07
 
   -0.36299E+07         0.37020E+05         0.00000E+00
    0.37020E+05        -0.60855E+08         0.00000E+00
    0.00000E+00         0.00000E+00         0.10148E-07
 
    0.53381E+05         0.16938E+04         0.00000E+00
    0.16938E+04        -0.47602E+08         0.00000E+00
    0.00000E+00         0.00000E+00         0.00000E+00
 
    0.48200E+05         0.51340E+04         0.00000E+00
    0.51340E+04        -0.47603E+08         0.00000E+00
    0.00000E+00         0.00000E+00         0.35518E-07
 
    0.44139E+05         0.87291E+04         0.00000E+00
    0.87291E+04        -0.47606E+08         0.00000E+00
    0.00000E+00         0.00000E+00         0.20296E-07
 
    0.41047E+05         0.12517E+05         0.00000E+00
    0.12517E+05        -0.47609E+08         0.00000E+00
    0.00000E+00         0.00000E+00         0.76111E-08
 
    0.38736E+05         0.16475E+05         0.00000E+00
    0.16475E+05        -0.47614E+08         0.00000E+00
    0.00000E+00         0.00000E+00         0.20296E-07
 
    0.37031E+05         0.20560E+05         0.00000E+00
    0.20560E+05        -0.47619E+08         0.00000E+00
    0.00000E+00         0.00000E+00        -0.10148E-07
 
    0.35791E+05         0.24725E+05         0.00000E+00
    0.24725E+05        -0.47625E+08         0.00000E+00
    0.00000E+00         0.00000E+00         0.30444E-07
 
    0.34915E+05         0.28931E+05         0.00000E+00
    0.28931E+05        -0.47631E+08         0.00000E+00
    0.00000E+00         0.00000E+00        -0.25370E-08
 
    0.34337E+05         0.33150E+05         0.00000E+00
    0.33150E+05        -0.47638E+08         0.00000E+00
    0.00000E+00         0.00000E+00        -0.12685E-07
 
    0.34014E+05         0.37367E+05         0.00000E+00
    0.37367E+05        -0.47644E+08         0.00000E+00
    0.00000E+00         0.00000E+00         0.76111E-08
 
    0.33921E+05         0.41576E+05         0.00000E+00
    0.41576E+05        -0.47651E+08         0.00000E+00
    0.00000E+00         0.00000E+00         0.25370E-08
 
    0.34040E+05         0.45779E+05         0.00000E+00
    0.45779E+05        -0.47659E+08         0.00000E+00
    0.00000E+00         0.00000E+00        -0.25370E-07
 
    0.34362E+05         0.49984E+05         0.00000E+00
    0.49984E+05        -0.47666E+08         0.00000E+00
    0.00000E+00         0.00000E+00         0.43130E-07
 
    0.34880E+05         0.54206E+05         0.00000E+00
    0.54206E+05        -0.47673E+08         0.00000E+00
    0.00000E+00         0.00000E+00         0.25370E-07
 
    0.35591E+05         0.58462E+05         0.00000E+00
    0.58462E+05        -0.47681E+08         0.00000E+00
    0.00000E+00         0.00000E+00         0.25370E-07
 
    0.36491E+05         0.62770E+05         0.00000E+00
    0.62770E+05        -0.47689E+08         0.00000E+00
    0.00000E+00         0.00000E+00        -0.27907E-07
 
    0.37580E+05         0.67153E+05         0.00000E+00
    0.67153E+05        -0.47697E+08         0.00000E+00
    0.00000E+00         0.00000E+00         0.27907E-07
 
    0.38854E+05         0.71631E+05         0.00000E+00
    0.71631E+05        -0.47705E+08         0.00000E+00
    0.00000E+00         0.00000E+00        -0.30444E-07
 
    0.40314E+05         0.76228E+05         0.00000E+00
    0.76228E+05        -0.47713E+08         0.00000E+00
    0.00000E+00         0.00000E+00        -0.25370E-08
 
    0.41959E+05         0.80967E+05         0.00000E+00
    0.80967E+05        -0.47722E+08         0.00000E+00
    0.00000E+00         0.00000E+00        -0.10148E-07
 
    0.43789E+05         0.85870E+05         0.00000E+00
    0.85870E+05        -0.47731E+08         0.00000E+00
    0.00000E+00         0.00000E+00        -0.15222E-07
 
    0.45805E+05         0.90960E+05         0.00000E+00
    0.90960E+05        -0.47741E+08         0.00000E+00
    0.00000E+00         0.00000E+00         0.00000E+00
 
    0.48006E+05         0.96260E+05         0.00000E+00
    0.96260E+05        -0.47751E+08         0.00000E+00
    0.00000E+00         0.00000E+00         0.43130E-07
 
    0.50396E+05         0.10179E+06         0.00000E+00
    0.10179E+06        -0.47761E+08         0.00000E+00
    0.00000E+00         0.00000E+00        -0.10148E-07
 
    0.52976E+05         0.10758E+06         0.00000E+00
    0.10758E+06        -0.47772E+08         0.00000E+00
    0.00000E+00         0.00000E+00        -0.25370E-08
 
    0.55750E+05         0.11365E+06         0.00000E+00
    0.11365E+06        -0.47783E+08         0.00000E+00
    0.00000E+00         0.00000E+00         0.00000E+00
 
    0.58721E+05         0.12002E+06         0.00000E+00
    0.12002E+06        -0.47795E+08         0.00000E+00
    0.00000E+00         0.00000E+00         0.00000E+00
 
    0.61893E+05         0.12671E+06         0.00000E+00
    0.12671E+06        -0.47807E+08         0.00000E+00
    0.00000E+00         0.00000E+00         0.27907E-07
 
    0.65273E+05         0.13376E+06         0.00000E+00
    0.13376E+06        -0.47820E+08         0.00000E+00
    0.00000E+00         0.00000E+00         0.20296E-07
 
    0.68865E+05         0.14117E+06         0.00000E+00
    0.14117E+06        -0.47834E+08         0.00000E+00
    0.00000E+00         0.00000E+00         0.10148E-07
 
    0.72677E+05         0.14899E+06         0.00000E+00
    0.14899E+06        -0.47848E+08         0.00000E+00
    0.00000E+00         0.00000E+00         0.32981E-07
 
    0.76716E+05         0.15722E+06         0.00000E+00
    0.15722E+06        -0.47864E+08         0.00000E+00
    0.00000E+00         0.00000E+00        -0.20296E-07
 
    0.80991E+05         0.16590E+06         0.00000E+00
    0.16590E+06        -0.47880E+08         0.00000E+00
    0.00000E+00         0.00000E+00        -0.12685E-07
 
    0.85508E+05         0.17506E+06         0.00000E+00
    0.17506E+06        -0.47896E+08         0.00000E+00
    0.00000E+00         0.00000E+00        -0.38056E-07
 
    0.90279E+05         0.18471E+06         0.00000E+00
    0.18471E+06        -0.47914E+08         0.00000E+00
    0.00000E+00         0.00000E+00         0.27907E-07
 
    0.95312E+05         0.19490E+06         0.00000E+00
    0.19490E+06        -0.47933E+08         0.00000E+00
    0.00000E+00         0.00000E+00         0.20296E-07
 
    0.10062E+06         0.20564E+06         0.00000E+00
    0.20564E+06        -0.47953E+08         0.00000E+00
    0.00000E+00         0.00000E+00         0.00000E+00
 
    0.10621E+06         0.21697E+06         0.00000E+00
    0.21697E+06        -0.47974E+08         0.00000E+00
    0.00000E+00         0.00000E+00         0.00000E+00
 
    0.11209E+06         0.22892E+06         0.00000E+00
    0.22892E+06        -0.47996E+08         0.00000E+00
    0.00000E+00         0.00000E+00         0.12685E-07
 
    0.11829E+06         0.24151E+06         0.00000E+00
    0.24151E+06        -0.48019E+08         0.00000E+00
    0.00000E+00         0.00000E+00        -0.50741E-08
 
    0.12480E+06         0.25479E+06         0.00000E+00
    0.25479E+06        -0.48044E+08         0.00000E+00
    0.00000E+00         0.00000E+00        -0.17759E-07
 
    0.13164E+06         0.26879E+06         0.00000E+00
    0.26879E+06        -0.48070E+08         0.00000E+00
    0.00000E+00         0.00000E+00         0.10148E-07
 
    0.13882E+06         0.28354E+06         0.00000E+00
    0.28354E+06        -0.48097E+08         0.00000E+00
    0.00000E+00         0.00000E+00        -0.50741E-08
 
    0.14636E+06         0.29907E+06         0.00000E+00
    0.29907E+06        -0.48127E+08         0.00000E+00
    0.00000E+00         0.00000E+00         0.20296E-07
 
    0.15426E+06         0.31543E+06         0.00000E+00
    0.31543E+06        -0.48157E+08         0.00000E+00
    0.00000E+00         0.00000E+00        -0.27907E-07
 
    0.16254E+06         0.33265E+06         0.00000E+00
    0.33265E+06        -0.48190E+08         0.00000E+00
    0.00000E+00         0.00000E+00         0.76111E-08
 
    0.17121E+06         0.35077E+06         0.00000E+00
    0.35077E+06        -0.48225E+08         0.00000E+00
    0.00000E+00         0.00000E+00         0.22833E-07
 
    0.18027E+06         0.36983E+06         0.00000E+00
    0.36983E+06        -0.48261E+08         0.00000E+00
    0.00000E+00         0.00000E+00        -0.10148E-07
 
    0.18974E+06         0.38986E+06         0.00000E+00
    0.38986E+06        -0.48300E+08         0.00000E+00
    0.00000E+00         0.00000E+00         0.15222E-07
 
    0.19963E+06         0.41091E+06         0.00000E+00
    0.41091E+06        -0.48341E+08         0.00000E+00
    0.00000E+00         0.00000E+00         0.20296E-07
 
    0.20994E+06         0.43301E+06         0.00000E+00
    0.43301E+06        -0.48384E+08         0.00000E+00
    0.00000E+00         0.00000E+00        -0.76109E-08
 
    0.22067E+06         0.45621E+06         0.00000E+00
    0.45621E+06        -0.48430E+08         0.00000E+00
    0.00000E+00         0.00000E+00        -0.22833E-07
 
    0.23182E+06         0.48054E+06         0.00000E+00
    0.48054E+06        -0.48479E+08         0.00000E+00
    0.00000E+00         0.00000E+00         0.25370E-08
 
    0.24340E+06         0.50603E+06         0.00000E+00
    0.50603E+06        -0.48530E+08         0.00000E+00
    0.00000E+00         0.00000E+00         0.25370E-08
 
    0.25539E+06         0.53273E+06         0.00000E+00
    0.53273E+06        -0.48585E+08         0.00000E+00
    0.00000E+00         0.00000E+00        -0.71037E-07
 
    0.26779E+06         0.56066E+06         0.00000E+00
    0.56066E+06        -0.48643E+08         0.00000E+00
    0.00000E+00         0.00000E+00         0.22833E-07
 
    0.28058E+06         0.58985E+06         0.00000E+00
    0.58985E+06        -0.48704E+08         0.00000E+00
    0.00000E+00         0.00000E+00        -0.12685E-07
 
    0.29373E+06         0.62032E+06         0.00000E+00
    0.62032E+06        -0.48769E+08         0.00000E+00
    0.00000E+00         0.00000E+00        -0.38056E-07
 
    0.30722E+06         0.65209E+06         0.00000E+00
    0.65209E+06        -0.48838E+08         0.00000E+00
    0.00000E+00         0.00000E+00         0.12685E-07
 
    0.32101E+06         0.68518E+06         0.00000E+00
    0.68518E+06        -0.48912E+08         0.00000E+00
    0.00000E+00         0.00000E+00        -0.27907E-07
 
    0.33504E+06         0.71959E+06         0.00000E+00
    0.71959E+06        -0.48990E+08         0.00000E+00
    0.00000E+00         0.00000E+00        -0.12685E-07
 
    0.34926E+06         0.75530E+06         0.00000E+00
    0.75530E+06        -0.49073E+08         0.00000E+00
    0.00000E+00         0.00000E+00         0.00000E+00
 
    0.36359E+06         0.79229E+06         0.00000E+00
    0.79229E+06        -0.49160E+08         0.00000E+00
    0.00000E+00         0.00000E+00        -0.50741E-08
 
    0.37793E+06         0.83054E+06         0.00000E+00
    0.83054E+06        -0.49254E+08         0.00000E+00
    0.00000E+00         0.00000E+00        -0.17759E-07
 
    0.39219E+06         0.86999E+06         0.00000E+00
    0.86999E+06        -0.49353E+08         0.00000E+00
    0.00000E+00         0.00000E+00         0.10148E-07
 
    0.40622E+06         0.91056E+06         0.00000E+00
    0.91056E+06        -0.49459E+08         0.00000E+00
    0.00000E+00         0.00000E+00         0.32981E-07
 
    0.41988E+06         0.95216E+06         0.00000E+00
    0.95216E+06        -0.49572E+08         0.00000E+00
    0.00000E+00         0.00000E+00        -0.12685E-07
 
    0.43299E+06         0.99465E+06         0.00000E+00
    0.99465E+06        -0.49692E+08         0.00000E+00
    0.00000E+00         0.00000E+00         0.76111E-08
 
    0.44533E+06         0.10379E+07         0.00000E+00
    0.10379E+07        -0.49820E+08         0.00000E+00
    0.00000E+00         0.00000E+00         0.00000E+00
 
    0.45666E+06         0.10817E+07         0.00000E+00
    0.10817E+07        -0.49956E+08         0.00000E+00
    0.00000E+00         0.00000E+00         0.38056E-07
 
    0.46671E+06         0.11257E+07         0.00000E+00
    0.11257E+07        -0.50102E+08         0.00000E+00
    0.00000E+00         0.00000E+00        -0.38056E-07
 
    0.47516E+06         0.11698E+07         0.00000E+00
    0.11698E+07        -0.50258E+08         0.00000E+00
    0.00000E+00         0.00000E+00         0.00000E+00
 
    0.48165E+06         0.12136E+07         0.00000E+00
    0.12136E+07        -0.50424E+08         0.00000E+00
    0.00000E+00         0.00000E+00         0.15222E-07
 
    0.48578E+06         0.12565E+07         0.00000E+00
    0.12565E+07        -0.50602E+08         0.00000E+00
    0.00000E+00         0.00000E+00         0.00000E+00
 
    0.48709E+06         0.12983E+07         0.00000E+00
    0.12983E+07        -0.50793E+08         0.00000E+00
    0.00000E+00         0.00000E+00        -0.25370E-07
 
    0.48508E+06         0.13382E+07         0.00000E+00
    0.13382E+07        -0.50998E+08         0.00000E+00
    0.00000E+00         0.00000E+00         0.25370E-07
 
    0.47922E+06         0.13756E+07         0.00000E+00
    0.13756E+07        -0.51217E+08         0.00000E+00
    0.00000E+00         0.00000E+00        -0.15222E-07
 
    0.46889E+06         0.14098E+07         0.00000E+00
    0.14098E+07        -0.51453E+08         0.00000E+00
    0.00000E+00         0.00000E+00        -0.17759E-07
 
    0.45346E+06         0.14400E+07         0.00000E+00
    0.14400E+07        -0.51706E+08         0.00000E+00
    0.00000E+00         0.00000E+00         0.50732E-08
 
    0.43224E+06         0.14651E+07         0.00000E+00
    0.14651E+07        -0.51978E+08         0.00000E+00
    0.00000E+00         0.00000E+00        -0.22833E-07
 
    0.40451E+06         0.14842E+07         0.00000E+00
    0.14842E+07        -0.52271E+08         0.00000E+00
    0.00000E+00         0.00000E+00        -0.17759E-07
 
    0.36951E+06         0.14960E+07         0.00000E+00
    0.14960E+07        -0.52586E+08         0.00000E+00
    0.00000E+00         0.00000E+00        -0.25371E-07
 
    0.32646E+06         0.14994E+07         0.00000E+00
    0.14994E+07        -0.52925E+08         0.00000E+00
    0.00000E+00         0.00000E+00         0.76107E-08
 
    0.27457E+06         0.14930E+07         0.00000E+00
    0.14930E+07        -0.53289E+08         0.00000E+00
    0.00000E+00         0.00000E+00         0.15223E-07
 
    0.21302E+06         0.14755E+07         0.00000E+00
    0.14755E+07        -0.53681E+08         0.00000E+00
    0.00000E+00         0.00000E+00        -0.10148E-07
 
    0.14100E+06         0.14456E+07         0.00000E+00
    0.14456E+07        -0.54102E+08         0.00000E+00
    0.00000E+00         0.00000E+00         0.50750E-08
 
    0.57648E+05         0.14021E+07         0.00000E+00
    0.14021E+07        -0.54551E+08         0.00000E+00
    0.00000E+00         0.00000E+00        -0.20298E-07
 
   -0.37972E+05         0.13438E+07         0.00000E+00
    0.13438E+07        -0.55032E+08         0.00000E+00
    0.00000E+00         0.00000E+00         0.50750E-08
 
   -0.14693E+06         0.12699E+07         0.00000E+00
    0.12699E+07        -0.55542E+08         0.00000E+00
    0.00000E+00         0.00000E+00        -0.15223E-07
 
   -0.27059E+06         0.11802E+07         0.00000E+00
    0.11802E+07        -0.56080E+08         0.00000E+00
    0.00000E+00         0.00000E+00        -0.20296E-07
 
   -0.41081E+06         0.10749E+07         0.00000E+00
    0.10749E+07        -0.56644E+08         0.00000E+00
    0.00000E+00         0.00000E+00         0.15221E-07
 
   -0.57031E+06         0.95508E+06         0.00000E+00
    0.95508E+06        -0.57229E+08         0.00000E+00
    0.00000E+00         0.00000E+00         0.15221E-07
 
   -0.75327E+06         0.82321E+06         0.00000E+00
    0.82321E+06        -0.57827E+08         0.00000E+00
    0.00000E+00         0.00000E+00         0.00000E+00
 
   -0.96614E+06         0.68302E+06         0.00000E+00
    0.68302E+06        -0.58425E+08         0.00000E+00
    0.00000E+00         0.00000E+00        -0.20294E-07
 
   -0.12188E+07         0.53990E+06         0.00000E+00
    0.53990E+06        -0.59009E+08         0.00000E+00
    0.00000E+00         0.00000E+00         0.50750E-08
 
   -0.15261E+07         0.40082E+06         0.00000E+00
    0.40082E+06        -0.59555E+08         0.00000E+00
    0.00000E+00         0.00000E+00         0.00000E+00
 
   -0.19086E+07         0.27394E+06         0.00000E+00
    0.27394E+06        -0.60038E+08         0.00000E+00
    0.00000E+00         0.00000E+00         0.25371E-07
 
   -0.23921E+07         0.16734E+06         0.00000E+00
    0.16734E+06        -0.60429E+08         0.00000E+00
    0.00000E+00         0.00000E+00        -0.30444E-07
 
   -0.30038E+07         0.85801E+05         0.00000E+00
    0.85801E+05        -0.60702E+08         0.00000E+00
    0.00000E+00         0.00000E+00         0.15222E-07
 
   -0.37663E+07         0.25871E+05         0.00000E+00
    0.25871E+05        -0.60842E+08         0.00000E+00
    0.00000E+00         0.00000E+00        -0.15223E-07
 
    0.55691E+05         0.15791E+04         0.00000E+00
    0.15791E+04        -0.47603E+08         0.00000E+00
    0.00000E+00         0.00000E+00         0.00000E+00
 
    0.50481E+05         0.47965E+04         0.00000E+00
    0.47965E+04        -0.47604E+08         0.00000E+00
    0.00000E+00         0.00000E+00         0.25370E-08
 
    0.46372E+05         0.81891E+04         0.00000E+00
    0.81891E+04        -0.47607E+08         0.00000E+00
    0.00000E+00         0.00000E+00         0.27907E-07
 
    0.43213E+05         0.11805E+05         0.00000E+00
    0.11805E+05        -0.47610E+08         0.00000E+00
    0.00000E+00         0.00000E+00        -0.76111E-08
 
    0.40827E+05         0.15624E+05         0.00000E+00
    0.15624E+05        -0.47615E+08         0.00000E+00
    0.00000E+00         0.00000E+00        -0.76111E-08
 
    0.39046E+05         0.19597E+05         0.00000E+00
    0.19597E+05        -0.47620E+08         0.00000E+00
    0.00000E+00         0.00000E+00         0.76111E-08
 
    0.37734E+05         0.23668E+05         0.00000E+00
    0.23668E+05        -0.47626E+08         0.00000E+00
    0.00000E+00         0.00000E+00         0.12685E-07
 
    0.36795E+05         0.27791E+05         0.00000E+00
    0.27791E+05        -0.47632E+08         0.00000E+00
    0.00000E+00         0.00000E+00        -0.25370E-08
 
    0.36165E+05         0.31934E+05         0.00000E+00
    0.31934E+05        -0.47639E+08         0.00000E+00
    0.00000E+00         0.00000E+00         0.76111E-08
 
    0.35804E+05         0.36076E+05         0.00000E+00
    0.36076E+05        -0.47645E+08         0.00000E+00
    0.00000E+00         0.00000E+00         0.43130E-07
 
    0.35685E+05         0.40208E+05         0.00000E+00
    0.40208E+05        -0.47652E+08         0.00000E+00
    0.00000E+00         0.00000E+00         0.00000E+00
 
    0.35793E+05         0.44331E+05         0.00000E+00
    0.44331E+05        -0.47659E+08         0.00000E+00
    0.00000E+00         0.00000E+00         0.50741E-08
 
    0.36117E+05         0.48454E+05         0.00000E+00
    0.48454E+05        -0.47667E+08         0.00000E+00
    0.00000E+00         0.00000E+00        -0.20296E-07
 
    0.36650E+05         0.52589E+05         0.00000E+00
    0.52589E+05        -0.47674E+08         0.00000E+00
    0.00000E+00         0.00000E+00         0.00000E+00
 
    0.37388E+05         0.56754E+05         0.00000E+00
    0.56754E+05        -0.47682E+08         0.00000E+00
    0.00000E+00         0.00000E+00        -0.12685E-07
 
    0.38328E+05         0.60966E+05         0.00000E+00
    0.60966E+05        -0.47690E+08         0.00000E+00
    0.00000E+00         0.00000E+00         0.10148E-07
 
    0.39468E+05         0.65247E+05         0.00000E+00
    0.65247E+05        -0.47698E+08         0.00000E+00
    0.00000E+00         0.00000E+00        -0.25370E-08
 
    0.40805E+05         0.69619E+05         0.00000E+00
    0.69619E+05        -0.47706E+08         0.00000E+00
    0.00000E+00         0.00000E+00        -0.25370E-07
 
    0.42337E+05         0.74103E+05         0.00000E+00
    0.74103E+05        -0.47714E+08         0.00000E+00
    0.00000E+00         0.00000E+00        -0.10148E-07
 
    0.44065E+05         0.78724E+05         0.00000E+00
    0.78724E+05        -0.47723E+08         0.00000E+00
    0.00000E+00         0.00000E+00         0.10148E-07
 
    0.45988E+05         0.83502E+05         0.00000E+00
    0.83502E+05        -0.47732E+08         0.00000E+00
    0.00000E+00         0.00000E+00         0.25370E-08
 
    0.48107E+05         0.88461E+05         0.00000E+00
    0.88461E+05        -0.47742E+08         0.00000E+00
    0.00000E+00         0.00000E+00        -0.27907E-07
 
    0.50421E+05         0.93623E+05         0.00000E+00
    0.93623E+05        -0.47752E+08         0.00000E+00
    0.00000E+00         0.00000E+00         0.58352E-07
 
    0.52933E+05         0.99011E+05         0.00000E+00
    0.99011E+05        -0.47762E+08         0.00000E+00
    0.00000E+00         0.00000E+00        -0.20296E-07
 
    0.55646E+05         0.10465E+06         0.00000E+00
    0.10465E+06        -0.47773E+08         0.00000E+00
    0.00000E+00         0.00000E+00        -0.30444E-07
 
    0.58562E+05         0.11055E+06         0.00000E+00
    0.11055E+06        -0.47784E+08         0.00000E+00
    0.00000E+00         0.00000E+00        -0.25370E-08
 
    0.61685E+05         0.11675E+06         0.00000E+00
    0.11675E+06        -0.47796E+08         0.00000E+00
    0.00000E+00         0.00000E+00         0.76111E-08
 
    0.65020E+05         0.12327E+06         0.00000E+00
    0.12327E+06        -0.47809E+08         0.00000E+00
    0.00000E+00         0.00000E+00         0.00000E+00
 
    0.68572E+05         0.13012E+06         0.00000E+00
    0.13012E+06        -0.47822E+08         0.00000E+00
    0.00000E+00         0.00000E+00         0.17759E-07
 
    0.72348E+05         0.13734E+06         0.00000E+00
    0.13734E+06        -0.47835E+08         0.00000E+00
    0.00000E+00         0.00000E+00         0.55815E-07
 
    0.76355E+05         0.14494E+06         0.00000E+00
    0.14494E+06        -0.47850E+08         0.00000E+00
    0.00000E+00         0.00000E+00        -0.27907E-07
 
    0.80601E+05         0.15295E+06         0.00000E+00
    0.15295E+06        -0.47865E+08         0.00000E+00
    0.00000E+00         0.00000E+00        -0.76111E-08
 
    0.85093E+05         0.16140E+06         0.00000E+00
    0.16140E+06        -0.47881E+08         0.00000E+00
    0.00000E+00         0.00000E+00         0.50741E-08
 
    0.89841E+05         0.17030E+06         0.00000E+00
    0.17030E+06        -0.47898E+08         0.00000E+00
    0.00000E+00         0.00000E+00         0.50741E-08
 
    0.94856E+05         0.17970E+06         0.00000E+00
    0.17970E+06        -0.47916E+08         0.00000E+00
    0.00000E+00         0.00000E+00        -0.12685E-07
 
    0.10015E+06         0.18961E+06         0.00000E+00
    0.18961E+06        -0.47935E+08         0.00000E+00
    0.00000E+00         0.00000E+00        -0.50741E-08
 
    0.10572E+06         0.20006E+06         0.00000E+00
    0.20006E+06        -0.47955E+08         0.00000E+00
    0.00000E+00         0.00000E+00        -0.20296E-07
 
    0.11160E+06         0.21108E+06         0.00000E+00
    0.21108E+06        -0.47976E+08         0.00000E+00
    0.00000E+00         0.00000E+00         0.00000E+00
 
    0.11779E+06         0.22270E+06         0.00000E+00
    0.22270E+06        -0.47998E+08         0.00000E+00
    0.00000E+00         0.00000E+00         0.25370E-08
 
    0.12429E+06         0.23495E+06         0.00000E+00
    0.23495E+06        -0.48022E+08         0.00000E+00
    0.00000E+00         0.00000E+00        -0.27907E-07
 
    0.13114E+06         0.24787E+06         0.00000E+00
    0.24787E+06        -0.48047E+08         0.00000E+00
    0.00000E+00         0.00000E+00         0.00000E+00
 
    0.13833E+06         0.26149E+06         0.00000E+00
    0.26149E+06        -0.48073E+08         0.00000E+00
    0.00000E+00         0.00000E+00         0.25370E-08
 
    0.14588E+06         0.27583E+06         0.00000E+00
    0.27583E+06        -0.48100E+08         0.00000E+00
    0.00000E+00         0.00000E+00        -0.12685E-07
 
    0.15380E+06         0.29094E+06         0.00000E+00
    0.29094E+06        -0.48130E+08         0.00000E+00
    0.00000E+00         0.00000E+00        -0.76111E-08
 
    0.16211E+06         0.30685E+06         0.00000E+00
    0.30685E+06        -0.48161E+08         0.00000E+00
    0.00000E+00         0.00000E+00        -0.53278E-07
 
    0.17081E+06         0.32360E+06         0.00000E+00
    0.32360E+06        -0.48194E+08         0.00000E+00
    0.00000E+00         0.00000E+00        -0.25370E-07
 
    0.17993E+06         0.34122E+06         0.00000E+00
    0.34122E+06        -0.48228E+08         0.00000E+00
    0.00000E+00         0.00000E+00        -0.22833E-07
 
    0.18946E+06         0.35975E+06         0.00000E+00
    0.35975E+06        -0.48265E+08         0.00000E+00
    0.00000E+00         0.00000E+00         0.50741E-08
 
    0.19942E+06         0.37924E+06         0.00000E+00
    0.37924E+06        -0.48304E+08         0.00000E+00
    0.00000E+00         0.00000E+00        -0.30444E-07
 
    0.20982E+06         0.39970E+06         0.00000E+00
    0.39970E+06        -0.48345E+08         0.00000E+00
    0.00000E+00         0.00000E+00        -0.25370E-08
 
    0.22066E+06         0.42120E+06         0.00000E+00
    0.42120E+06        -0.48389E+08         0.00000E+00
    0.00000E+00         0.00000E+00         0.10148E-07
 
    0.23194E+06         0.44375E+06         0.00000E+00
    0.44375E+06        -0.48435E+08         0.00000E+00
    0.00000E+00         0.00000E+00         0.20296E-07
 
    0.24368E+06         0.46741E+06         0.00000E+00
    0.46741E+06        -0.48484E+08         0.00000E+00
    0.00000E+00         0.00000E+00         0.50738E-08
 
    0.25586E+06         0.49220E+06         0.00000E+00
    0.49220E+06        -0.48535E+08         0.00000E+00
    0.00000E+00         0.00000E+00        -0.25370E-08
 
    0.26848E+06         0.51815E+06         0.00000E+00
    0.51815E+06        -0.48590E+08         0.00000E+00
    0.00000E+00         0.00000E+00         0.40593E-07
 
    0.28153E+06         0.54530E+06         0.00000E+00
    0.54530E+06        -0.48648E+08         0.00000E+00
    0.00000E+00         0.00000E+00         0.27907E-07
 
    0.29499E+06         0.57367E+06         0.00000E+00
    0.57367E+06        -0.48710E+08         0.00000E+00
    0.00000E+00         0.00000E+00        -0.45666E-07
 
    0.30884E+06         0.60329E+06         0.00000E+00
    0.60329E+06        -0.48776E+08         0.00000E+00
    0.00000E+00         0.00000E+00         0.00000E+00
 
    0.32304E+06         0.63418E+06         0.00000E+00
    0.63418E+06        -0.48845E+08         0.00000E+00
    0.00000E+00         0.00000E+00        -0.35518E-07
 
    0.33757E+06         0.66633E+06         0.00000E+00
    0.66633E+06        -0.48919E+08         0.00000E+00
    0.00000E+00         0.00000E+00        -0.76111E-08
 
    0.35235E+06         0.69976E+06         0.00000E+00
    0.69976E+06        -0.48997E+08         0.00000E+00
    0.00000E+00         0.00000E+00         0.17759E-07
 
    0.36734E+06         0.73445E+06         0.00000E+00
    0.73445E+06        -0.49080E+08         0.00000E+00
    0.00000E+00         0.00000E+00        -0.12685E-07
 
    0.38246E+06         0.77039E+06         0.00000E+00
    0.77039E+06        -0.49168E+08         0.00000E+00
    0.00000E+00         0.00000E+00         0.25370E-08
 
    0.39760E+06         0.80754E+06         0.00000E+00
    0.80754E+06        -0.49262E+08         0.00000E+00
    0.00000E+00         0.00000E+00        -0.22833E-07
 
    0.41265E+06         0.84584E+06         0.00000E+00
    0.84584E+06        -0.49362E+08         0.00000E+00
    0.00000E+00         0.00000E+00         0.50741E-08
 
    0.42748E+06         0.88522E+06         0.00000E+00
    0.88522E+06        -0.49468E+08         0.00000E+00
    0.00000E+00         0.00000E+00         0.76111E-08
 
    0.44193E+06         0.92559E+06         0.00000E+00
    0.92559E+06        -0.49580E+08         0.00000E+00
    0.00000E+00         0.00000E+00        -0.12685E-07
 
    0.45580E+06         0.96682E+06         0.00000E+00
    0.96682E+06        -0.49701E+08         0.00000E+00
    0.00000E+00         0.00000E+00         0.25370E-08
 
    0.46889E+06         0.10088E+07         0.00000E+00
    0.10088E+07        -0.49829E+08         0.00000E+00
    0.00000E+00         0.00000E+00        -0.25370E-08
 
    0.48093E+06         0.10512E+07         0.00000E+00
    0.10512E+07        -0.49965E+08         0.00000E+00
    0.00000E+00         0.00000E+00        -0.25370E-08
 
    0.49164E+06         0.10939E+07         0.00000E+00
    0.10939E+07        -0.50111E+08         0.00000E+00
    0.00000E+00         0.00000E+00        -0.10148E-07
 
    0.50068E+06         0.11365E+07         0.00000E+00
    0.11365E+07        -0.50267E+08         0.00000E+00
    0.00000E+00         0.00000E+00        -0.15222E-07
 
    0.50767E+06         0.11788E+07         0.00000E+00
    0.11788E+07        -0.50433E+08         0.00000E+00
    0.00000E+00         0.00000E+00         0.10148E-07
 
    0.51219E+06         0.12203E+07         0.00000E+00
    0.12203E+07        -0.50611E+08         0.00000E+00
    0.00000E+00         0.00000E+00        -0.12685E-07
 
    0.51376E+06         0.12605E+07         0.00000E+00
    0.12605E+07        -0.50802E+08         0.00000E+00
    0.00000E+00         0.00000E+00        -0.12685E-07
 
    0.51185E+06         0.12989E+07         0.00000E+00
    0.12989E+07        -0.51006E+08         0.00000E+00
    0.00000E+00         0.00000E+00         0.00000E+00
 
    0.50587E+06         0.13347E+07         0.00000E+00
    0.13347E+07        -0.51224E+08         0.00000E+00
    0.00000E+00         0.00000E+00         0.35518E-07
 
    0.49520E+06         0.13673E+07         0.00000E+00
    0.13673E+07        -0.51459E+08         0.00000E+00
    0.00000E+00         0.00000E+00        -0.10148E-07
 
    0.47914E+06         0.13958E+07         0.00000E+00
    0.13958E+07        -0.51712E+08         0.00000E+00
    0.00000E+00         0.00000E+00         0.50741E-08
 
    0.45694E+06         0.14193E+07         0.00000E+00
    0.14193E+07        -0.51983E+08         0.00000E+00
    0.00000E+00         0.00000E+00        -0.20296E-07
 
    0.42784E+06         0.14366E+07         0.00000E+00
    0.14366E+07        -0.52274E+08         0.00000E+00
    0.00000E+00         0.00000E+00         0.25370E-07
 
    0.39100E+06         0.14466E+07         0.00000E+00
    0.14466E+07        -0.52588E+08         0.00000E+00
    0.00000E+00         0.00000E+00         0.15223E-07
 
    0.34556E+06         0.14482E+07         0.00000E+00
    0.14482E+07        -0.52925E+08         0.00000E+00
    0.00000E+00         0.00000E+00        -0.10148E-07
 
    0.29067E+06         0.14399E+07         0.00000E+00
    0.14399E+07        -0.53287E+08         0.00000E+00
    0.00000E+00         0.00000E+00        -0.35519E-07
 
    0.22540E+06         0.14204E+07         0.00000E+00
    0.14204E+07        -0.53677E+08         0.00000E+00
    0.00000E+00         0.00000E+00         0.00000E+00
 
    0.14884E+06         0.13883E+07         0.00000E+00
    0.13883E+07        -0.54094E+08         0.00000E+00
    0.00000E+00         0.00000E+00        -0.15223E-07
 
    0.60025E+05         0.13425E+07         0.00000E+00
    0.13425E+07        -0.54541E+08         0.00000E+00
    0.00000E+00         0.00000E+00         0.50732E-08
 
   -0.42073E+05         0.12818E+07         0.00000E+00
    0.12818E+07        -0.55018E+08         0.00000E+00
    0.00000E+00         0.00000E+00         0.10148E-07
 
   -0.15863E+06         0.12054E+07         0.00000E+00
    0.12054E+07        -0.55525E+08         0.00000E+00
    0.00000E+00         0.00000E+00        -0.25369E-07
 
   -0.29109E+06         0.11131E+07         0.00000E+00
    0.11131E+07        -0.56060E+08         0.00000E+00
    0.00000E+00         0.00000E+00        -0.50750E-08
 
   -0.44136E+06         0.10052E+07         0.00000E+00
    0.10052E+07        -0.56622E+08         0.00000E+00
    0.00000E+00         0.00000E+00        -0.35519E-07
 
   -0.61219E+06         0.88303E+06         0.00000E+00
    0.88303E+06        -0.57204E+08         0.00000E+00
    0.00000E+00         0.00000E+00        -0.30443E-07
 
   -0.80766E+06         0.74934E+06         0.00000E+00
    0.74934E+06        -0.57799E+08         0.00000E+00
    0.00000E+00         0.00000E+00        -0.10148E-07
 
   -0.10340E+07         0.60838E+06         0.00000E+00
    0.60838E+06        -0.58396E+08         0.00000E+00
    0.00000E+00         0.00000E+00        -0.10148E-07
 
   -0.13008E+07         0.46633E+06         0.00000E+00
    0.46633E+06        -0.58980E+08         0.00000E+00
    0.00000E+00         0.00000E+00         0.00000E+00
 
   -0.16222E+07         0.33124E+06         0.00000E+00
    0.33124E+06        -0.59528E+08         0.00000E+00
    0.00000E+00         0.00000E+00         0.10148E-07
 
   -0.20180E+07         0.21244E+06         0.00000E+00
    0.21244E+06        -0.60015E+08         0.00000E+00
    0.00000E+00         0.00000E+00         0.50732E-08
 
   -0.25129E+07         0.11875E+06         0.00000E+00
    0.11875E+06        -0.60411E+08         0.00000E+00
    0.00000E+00         0.00000E+00         0.25370E-07
 
   -0.31328E+07         0.54639E+05         0.00000E+00
    0.54639E+05        -0.60690E+08         0.00000E+00
    0.00000E+00         0.00000E+00        -0.15223E-07
 
   -0.38995E+07         0.15149E+05         0.00000E+00
    0.15149E+05        -0.60833E+08         0.00000E+00
    0.00000E+00         0.00000E+00        -0.50738E-08
 
    0.57962E+05         0.14664E+04         0.00000E+00
    0.14664E+04        -0.47603E+08         0.00000E+00
    0.00000E+00         0.00000E+00        -0.14211E-13
 
    0.52728E+05         0.44653E+04         0.00000E+00
    0.44653E+04        -0.47605E+08         0.00000E+00
    0.00000E+00         0.00000E+00         0.10148E-07
 
    0.48574E+05         0.76597E+04         0.00000E+00
    0.76597E+04        -0.47607E+08         0.00000E+00
    0.00000E+00         0.00000E+00         0.15222E-07
 
    0.45355E+05         0.11106E+05         0.00000E+00
    0.11106E+05        -0.47611E+08         0.00000E+00
    0.00000E+00         0.00000E+00         0.15222E-07
 
    0.42898E+05         0.14788E+05         0.00000E+00
    0.14788E+05        -0.47615E+08         0.00000E+00
    0.00000E+00         0.00000E+00         0.00000E+00
 
    0.41042E+05         0.18648E+05         0.00000E+00
    0.18648E+05        -0.47621E+08         0.00000E+00
    0.00000E+00         0.00000E+00         0.25370E-07
 
    0.39657E+05         0.22625E+05         0.00000E+00
    0.22625E+05        -0.47627E+08         0.00000E+00
    0.00000E+00         0.00000E+00         0.25370E-07
 
    0.38654E+05         0.26664E+05         0.00000E+00
    0.26664E+05        -0.47633E+08         0.00000E+00
    0.00000E+00         0.00000E+00         0.50740E-08
 
    0.37971E+05         0.30727E+05         0.00000E+00
    0.30727E+05        -0.47639E+08         0.00000E+00
    0.00000E+00         0.00000E+00        -0.20296E-07
 
    0.37570E+05         0.34790E+05         0.00000E+00
    0.34790E+05        -0.47646E+08         0.00000E+00
    0.00000E+00         0.00000E+00         0.15222E-07
 
    0.37424E+05         0.38843E+05         0.00000E+00
    0.38843E+05        -0.47653E+08         0.00000E+00
    0.00000E+00         0.00000E+00         0.00000E+00
 
    0.37519E+05         0.42885E+05         0.00000E+00
    0.42885E+05        -0.47660E+08         0.00000E+00
    0.00000E+00         0.00000E+00         0.00000E+00
 
    0.37844E+05         0.46923E+05         0.00000E+00
    0.46923E+05        -0.47668E+08         0.00000E+00
    0.00000E+00         0.00000E+00         0.00000E+00
 
    0.38391E+05         0.50968E+05         0.00000E+00
    0.50968E+05        -0.47675E+08         0.00000E+00
    0.00000E+00         0.00000E+00        -0.20296E-07
 
    0.39156E+05         0.55039E+05         0.00000E+00
    0.55039E+05        -0.47683E+08         0.00000E+00
    0.00000E+00         0.00000E+00         0.20296E-07
 
    0.40134E+05         0.59152E+05         0.00000E+00
    0.59152E+05        -0.47690E+08         0.00000E+00
    0.00000E+00         0.00000E+00        -0.35518E-07
 
    0.41323E+05         0.63330E+05         0.00000E+00
    0.63330E+05        -0.47698E+08         0.00000E+00
    0.00000E+00         0.00000E+00        -0.15222E-07
 
    0.42721E+05         0.67592E+05         0.00000E+00
    0.67592E+05        -0.47707E+08         0.00000E+00
    0.00000E+00         0.00000E+00         0.15222E-07
 
    0.44326E+05         0.71963E+05         0.00000E+00
    0.71963E+05        -0.47715E+08         0.00000E+00
    0.00000E+00         0.00000E+00         0.40593E-07
 
    0.46136E+05         0.76463E+05         0.00000E+00
    0.76463E+05        -0.47724E+08         0.00000E+00
    0.00000E+00         0.00000E+00         0.15222E-07
 
    0.48150E+05         0.81114E+05         0.00000E+00
    0.81114E+05        -0.47733E+08         0.00000E+00
    0.00000E+00         0.00000E+00        -0.50741E-08
 
    0.50370E+05         0.85941E+05         0.00000E+00
    0.85941E+05        -0.47743E+08         0.00000E+00
    0.00000E+00         0.00000E+00         0.00000E+00
 
    0.52796E+05         0.90963E+05         0.00000E+00
    0.90963E+05        -0.47753E+08         0.00000E+00
    0.00000E+00         0.00000E+00        -0.30444E-07
 
    0.55429E+05         0.96204E+05         0.00000E+00
    0.96204E+05        -0.47763E+08         0.00000E+00
    0.00000E+00         0.00000E+00         0.50741E-08
 
    0.58272E+05         0.10168E+06         0.00000E+00
    0.10168E+06        -0.47774E+08         0.00000E+00
    0.00000E+00         0.00000E+00         0.35518E-07
 
    0.61329E+05         0.10743E+06         0.00000E+00
    0.10743E+06        -0.47785E+08         0.00000E+00
    0.00000E+00         0.00000E+00         0.00000E+00
 
    0.64602E+05         0.11346E+06         0.00000E+00
    0.11346E+06        -0.47797E+08         0.00000E+00
    0.00000E+00         0.00000E+00         0.00000E+00
 
    0.68097E+05         0.11979E+06         0.00000E+00
    0.11979E+06        -0.47810E+08         0.00000E+00
    0.00000E+00         0.00000E+00        -0.50741E-08
 
    0.71820E+05         0.12645E+06         0.00000E+00
    0.12645E+06        -0.47823E+08         0.00000E+00
    0.00000E+00         0.00000E+00         0.50740E-08
 
    0.75777E+05         0.13346E+06         0.00000E+00
    0.13346E+06        -0.47837E+08         0.00000E+00
    0.00000E+00         0.00000E+00        -0.55815E-07
 
    0.79977E+05         0.14085E+06         0.00000E+00
    0.14085E+06        -0.47852E+08         0.00000E+00
    0.00000E+00         0.00000E+00         0.00000E+00
 
    0.84425E+05         0.14864E+06         0.00000E+00
    0.14864E+06        -0.47867E+08         0.00000E+00
    0.00000E+00         0.00000E+00         0.20296E-07
 
    0.89133E+05         0.15685E+06         0.00000E+00
    0.15685E+06        -0.47883E+08         0.00000E+00
    0.00000E+00         0.00000E+00         0.10148E-07
 
    0.94109E+05         0.16550E+06         0.00000E+00
    0.16550E+06        -0.47900E+08         0.00000E+00
    0.00000E+00         0.00000E+00         0.35518E-07
 
    0.99363E+05         0.17463E+06         0.00000E+00
    0.17463E+06        -0.47918E+08         0.00000E+00
    0.00000E+00         0.00000E+00        -0.50741E-08
 
    0.10491E+06         0.18426E+06         0.00000E+00
    0.18426E+06        -0.47937E+08         0.00000E+00
    0.00000E+00         0.00000E+00         0.00000E+00
 
    0.11075E+06         0.19442E+06         0.00000E+00
    0.19442E+06        -0.47957E+08         0.00000E+00
    0.00000E+00         0.00000E+00        -0.20296E-07
 
    0.11691E+06         0.20513E+06         0.00000E+00
    0.20513E+06        -0.47978E+08         0.00000E+00
    0.00000E+00         0.00000E+00         0.00000E+00
 
    0.12339E+06         0.21642E+06         0.00000E+00
    0.21642E+06        -0.48001E+08         0.00000E+00
    0.00000E+00         0.00000E+00        -0.10148E-07
 
    0.13021E+06         0.22833E+06         0.00000E+00
    0.22833E+06        -0.48024E+08         0.00000E+00
    0.00000E+00         0.00000E+00        -0.25370E-07
 
    0.13738E+06         0.24088E+06         0.00000E+00
    0.24088E+06        -0.48049E+08         0.00000E+00
    0.00000E+00         0.00000E+00        -0.10148E-07
 
    0.14492E+06         0.25411E+06         0.00000E+00
    0.25411E+06        -0.48076E+08         0.00000E+00
    0.00000E+00         0.00000E+00         0.00000E+00
 
    0.15283E+06         0.26805E+06         0.00000E+00
    0.26805E+06        -0.48103E+08         0.00000E+00
    0.00000E+00         0.00000E+00         0.00000E+00
 
    0.16114E+06         0.28273E+06         0.00000E+00
    0.28273E+06        -0.48133E+08         0.00000E+00
    0.00000E+00         0.00000E+00         0.15222E-07
 
    0.16985E+06         0.29819E+06         0.00000E+00
    0.29819E+06        -0.48164E+08         0.00000E+00
    0.00000E+00         0.00000E+00         0.30444E-07
 
    0.17897E+06         0.31446E+06         0.00000E+00
    0.31446E+06        -0.48197E+08         0.00000E+00
    0.00000E+00         0.00000E+00        -0.60889E-07
 
    0.18852E+06         0.33158E+06         0.00000E+00
    0.33158E+06        -0.48232E+08         0.00000E+00
    0.00000E+00         0.00000E+00        -0.10148E-07
 
    0.19852E+06         0.34959E+06         0.00000E+00
    0.34959E+06        -0.48269E+08         0.00000E+00
    0.00000E+00         0.00000E+00         0.00000E+00
 
    0.20896E+06         0.36851E+06         0.00000E+00
    0.36851E+06        -0.48308E+08         0.00000E+00
    0.00000E+00         0.00000E+00        -0.30444E-07
 
    0.21986E+06         0.38840E+06         0.00000E+00
    0.38840E+06        -0.48349E+08         0.00000E+00
    0.00000E+00         0.00000E+00        -0.15222E-07
 
    0.23123E+06         0.40928E+06         0.00000E+00
    0.40928E+06        -0.48393E+08         0.00000E+00
    0.00000E+00         0.00000E+00         0.15222E-07
 
    0.24306E+06         0.43119E+06         0.00000E+00
    0.43119E+06        -0.48439E+08         0.00000E+00
    0.00000E+00         0.00000E+00         0.10148E-07
 
    0.25537E+06         0.45416E+06         0.00000E+00
    0.45416E+06        -0.48488E+08         0.00000E+00
    0.00000E+00         0.00000E+00        -0.15222E-07
 
    0.26815E+06         0.47824E+06         0.00000E+00
    0.47824E+06        -0.48541E+08         0.00000E+00
    0.00000E+00         0.00000E+00        -0.20296E-07
 
    0.28139E+06         0.50344E+06         0.00000E+00
    0.50344E+06        -0.48596E+08         0.00000E+00
    0.00000E+00         0.00000E+00         0.15222E-07
 
    0.29508E+06         0.52981E+06         0.00000E+00
    0.52981E+06        -0.48654E+08         0.00000E+00
    0.00000E+00         0.00000E+00        -0.35518E-07
 
    0.30921E+06         0.55736E+06         0.00000E+00
    0.55736E+06        -0.48716E+08         0.00000E+00
    0.00000E+00         0.00000E+00         0.20296E-07
 
    0.32375E+06         0.58613E+06         0.00000E+00
    0.58613E+06        -0.48782E+08         0.00000E+00
    0.00000E+00         0.00000E+00        -0.25370E-07
 
    0.33867E+06         0.61611E+06         0.00000E+00
    0.61611E+06        -0.48851E+08         0.00000E+00
    0.00000E+00         0.00000E+00        -0.35518E-07
 
    0.35392E+06         0.64733E+06         0.00000E+00
    0.64733E+06        -0.48925E+08         0.00000E+00
    0.00000E+00         0.00000E+00        -0.10148E-07
 
    0.36946E+06         0.67978E+06         0.00000E+00
    0.67978E+06        -0.49004E+08         0.00000E+00
    0.00000E+00         0.00000E+00        -0.50741E-07
 
    0.38522E+06         0.71345E+06         0.00000E+00
    0.71345E+06        -0.49087E+08         0.00000E+00
    0.00000E+00         0.00000E+00         0.10148E-07
 
    0.40111E+06         0.74833E+06         0.00000E+00
    0.74833E+06        -0.49175E+08         0.00000E+00
    0.00000E+00         0.00000E+00         0.00000E+00
 
    0.41705E+06         0.78437E+06         0.00000E+00
    0.78437E+06        -0.49269E+08         0.00000E+00
    0.00000E+00         0.00000E+00        -0.25370E-07
 
    0.43290E+06         0.82153E+06         0.00000E+00
    0.82153E+06        -0.49369E+08         0.00000E+00
    0.00000E+00         0.00000E+00        -0.45667E-07
 
    0.44852E+06         0.85973E+06         0.00000E+00
    0.85973E+06        -0.49476E+08         0.00000E+00
    0.00000E+00         0.00000E+00        -0.40593E-07
 
    0.46376E+06         0.89887E+06         0.00000E+00
    0.89887E+06        -0.49589E+08         0.00000E+00
    0.00000E+00         0.00000E+00        -0.25370E-07
 
    0.47842E+06         0.93884E+06         0.00000E+00
    0.93884E+06        -0.49709E+08         0.00000E+00
    0.00000E+00         0.00000E+00         0.50741E-08
 
    0.49226E+06         0.97946E+06         0.00000E+00
    0.97946E+06        -0.49837E+08         0.00000E+00
    0.00000E+00         0.00000E+00         0.50741E-08
 
    0.50502E+06         0.10206E+07         0.00000E+00
    0.10206E+07        -0.49974E+08         0.00000E+00
    0.00000E+00         0.00000E+00         0.00000E+00
 
    0.51640E+06         0.10619E+07         0.00000E+00
    0.10619E+07        -0.50120E+08         0.00000E+00
    0.00000E+00         0.00000E+00         0.00000E+00
 
    0.52605E+06         0.11031E+07         0.00000E+00
    0.11031E+07        -0.50275E+08         0.00000E+00
    0.00000E+00         0.00000E+00         0.50741E-07
 
    0.53356E+06         0.11440E+07         0.00000E+00
    0.11440E+07        -0.50442E+08         0.00000E+00
    0.00000E+00         0.00000E+00         0.60889E-07
 
    0.53850E+06         0.11840E+07         0.00000E+00
    0.11840E+07        -0.50619E+08         0.00000E+00
    0.00000E+00         0.00000E+00        -0.20296E-07
 
    0.54036E+06         0.12227E+07         0.00000E+00
    0.12227E+07        -0.50810E+08         0.00000E+00
    0.00000E+00         0.00000E+00         0.15222E-07
 
    0.53858E+06         0.12595E+07         0.00000E+00
    0.12595E+07        -0.51013E+08         0.00000E+00
    0.00000E+00         0.00000E+00         0.15222E-07
 
    0.53254E+06         0.12939E+07         0.00000E+00
    0.12939E+07        -0.51232E+08         0.00000E+00
    0.00000E+00         0.00000E+00         0.25370E-07
 
    0.52157E+06         0.13249E+07         0.00000E+00
    0.13249E+07        -0.51466E+08         0.00000E+00
    0.00000E+00         0.00000E+00        -0.55815E-07
 
    0.50491E+06         0.13518E+07         0.00000E+00
    0.13518E+07        -0.51717E+08         0.00000E+00
    0.00000E+00         0.00000E+00         0.00000E+00
 
    0.48180E+06         0.13736E+07         0.00000E+00
    0.13736E+07        -0.51987E+08         0.00000E+00
    0.00000E+00         0.00000E+00        -0.20296E-07
 
    0.45136E+06         0.13893E+07         0.00000E+00
    0.13893E+07        -0.52277E+08         0.00000E+00
    0.00000E+00         0.00000E+00        -0.50741E-08
 
    0.41273E+06         0.13977E+07         0.00000E+00
    0.13977E+07        -0.52589E+08         0.00000E+00
    0.00000E+00         0.00000E+00         0.10148E-07
 
    0.36496E+06         0.13975E+07         0.00000E+00
    0.13975E+07        -0.52924E+08         0.00000E+00
    0.00000E+00         0.00000E+00         0.10148E-07
 
    0.30708E+06         0.13874E+07         0.00000E+00
    0.13874E+07        -0.53285E+08         0.00000E+00
    0.00000E+00         0.00000E+00         0.10146E-07
 
    0.23811E+06         0.13660E+07         0.00000E+00
    0.13660E+07        -0.53672E+08         0.00000E+00
    0.00000E+00         0.00000E+00         0.35519E-07
 
    0.15701E+06         0.13320E+07         0.00000E+00
    0.13320E+07        -0.54087E+08         0.00000E+00
    0.00000E+00         0.00000E+00         0.20296E-07
 
    0.62714E+05         0.12841E+07         0.00000E+00
    0.12841E+07        -0.54531E+08         0.00000E+00
    0.00000E+00         0.00000E+00        -0.20294E-07
 
   -0.45913E+05         0.12212E+07         0.00000E+00
    0.12212E+07        -0.55004E+08         0.00000E+00
    0.00000E+00         0.00000E+00        -0.10148E-07
 
   -0.17015E+06         0.11426E+07         0.00000E+00
    0.11426E+07        -0.55508E+08         0.00000E+00
    0.00000E+00         0.00000E+00        -0.45668E-07
 
   -0.31153E+06         0.10479E+07         0.00000E+00
    0.10479E+07        -0.56040E+08         0.00000E+00
    0.00000E+00         0.00000E+00         0.15223E-07
 
   -0.47201E+06         0.93767E+06         0.00000E+00
    0.93767E+06        -0.56598E+08         0.00000E+00
    0.00000E+00         0.00000E+00        -0.35518E-07
 
   -0.65432E+06         0.81342E+06         0.00000E+00
    0.81342E+06        -0.57177E+08         0.00000E+00
    0.00000E+00         0.00000E+00         0.71037E-07
 
   -0.86246E+06         0.67812E+06         0.00000E+00
    0.67812E+06        -0.57771E+08         0.00000E+00
    0.00000E+00         0.00000E+00         0.10148E-07
 
   -0.11024E+07         0.53655E+06         0.00000E+00
    0.53655E+06        -0.58367E+08         0.00000E+00
    0.00000E+00         0.00000E+00         0.00000E+00
 
   -0.13833E+07         0.39562E+06         0.00000E+00
    0.39562E+06        -0.58951E+08         0.00000E+00
    0.00000E+00         0.00000E+00         0.50750E-08
 
   -0.17186E+07         0.26440E+06         0.00000E+00
    0.26440E+06        -0.59502E+08         0.00000E+00
    0.00000E+00         0.00000E+00        -0.10148E-07
 
   -0.21271E+07         0.15335E+06         0.00000E+00
    0.15335E+06        -0.59993E+08         0.00000E+00
    0.00000E+00         0.00000E+00         0.10148E-07
 
   -0.26324E+07         0.72010E+05         0.00000E+00
    0.72010E+05        -0.60396E+08         0.00000E+00
    0.00000E+00         0.00000E+00         0.20296E-07
 
   -0.32596E+07         0.24597E+05         0.00000E+00
    0.24597E+05        -0.60681E+08         0.00000E+00
    0.00000E+00         0.00000E+00         0.45475E-12
 
   -0.40302E+07         0.47931E+04         0.00000E+00
    0.47931E+04        -0.60829E+08         0.00000E+00
    0.00000E+00         0.00000E+00        -0.45666E-07
 
    0.60197E+05         0.13554E+04         0.00000E+00
    0.13554E+04        -0.47604E+08         0.00000E+00
    0.00000E+00         0.00000E+00         0.10148E-07
 
    0.54941E+05         0.41395E+04         0.00000E+00
    0.41395E+04        -0.47605E+08         0.00000E+00
    0.00000E+00         0.00000E+00         0.10148E-07
 
    0.50749E+05         0.71396E+04         0.00000E+00
    0.71396E+04        -0.47608E+08         0.00000E+00
    0.00000E+00         0.00000E+00        -0.50741E-07
 
    0.47474E+05         0.10421E+05         0.00000E+00
    0.10421E+05        -0.47612E+08         0.00000E+00
    0.00000E+00         0.00000E+00        -0.45667E-07
 
    0.44948E+05         0.13966E+05         0.00000E+00
    0.13966E+05        -0.47616E+08         0.00000E+00
    0.00000E+00         0.00000E+00        -0.15222E-07
 
    0.43018E+05         0.17715E+05         0.00000E+00
    0.17715E+05        -0.47622E+08         0.00000E+00
    0.00000E+00         0.00000E+00         0.10148E-07
 
    0.41561E+05         0.21596E+05         0.00000E+00
    0.21596E+05        -0.47627E+08         0.00000E+00
    0.00000E+00         0.00000E+00         0.20296E-07
 
    0.40493E+05         0.25548E+05         0.00000E+00
    0.25548E+05        -0.47634E+08         0.00000E+00
    0.00000E+00         0.00000E+00         0.00000E+00
 
    0.39755E+05         0.29530E+05         0.00000E+00
    0.29530E+05        -0.47640E+08         0.00000E+00
    0.00000E+00         0.00000E+00        -0.30444E-07
 
    0.39311E+05         0.33512E+05         0.00000E+00
    0.33512E+05        -0.47647E+08         0.00000E+00
    0.00000E+00         0.00000E+00         0.00000E+00
 
    0.39137E+05         0.37483E+05         0.00000E+00
    0.37483E+05        -0.47654E+08         0.00000E+00
    0.00000E+00         0.00000E+00        -0.50741E-08
 
    0.39218E+05         0.41440E+05         0.00000E+00
    0.41440E+05        -0.47661E+08         0.00000E+00
    0.00000E+00         0.00000E+00         0.15222E-07
 
    0.39541E+05         0.45390E+05         0.00000E+00
    0.45390E+05        -0.47668E+08         0.00000E+00
    0.00000E+00         0.00000E+00        -0.15222E-07
 
    0.40101E+05         0.49343E+05         0.00000E+00
    0.49343E+05        -0.47676E+08         0.00000E+00
    0.00000E+00         0.00000E+00        -0.25370E-07
 
    0.40891E+05         0.53317E+05         0.00000E+00
    0.53317E+05        -0.47683E+08         0.00000E+00
    0.00000E+00         0.00000E+00         0.55815E-07
 
    0.41907E+05         0.57330E+05         0.00000E+00
    0.57330E+05        -0.47691E+08         0.00000E+00
    0.00000E+00         0.00000E+00         0.30444E-07
 
    0.43146E+05         0.61401E+05         0.00000E+00
    0.61401E+05        -0.47699E+08         0.00000E+00
    0.00000E+00         0.00000E+00         0.50741E-08
 
    0.44604E+05         0.65553E+05         0.00000E+00
    0.65553E+05        -0.47708E+08         0.00000E+00
    0.00000E+00         0.00000E+00         0.10148E-07
 
    0.46279E+05         0.69807E+05         0.00000E+00
    0.69807E+05        -0.47716E+08         0.00000E+00
    0.00000E+00         0.00000E+00         0.30444E-07
 
    0.48169E+05         0.74184E+05         0.00000E+00
    0.74184E+05        -0.47725E+08         0.00000E+00
    0.00000E+00         0.00000E+00        -0.15222E-07
 
    0.50275E+05         0.78708E+05         0.00000E+00
    0.78708E+05        -0.47734E+08         0.00000E+00
    0.00000E+00         0.00000E+00         0.40593E-07
 
    0.52595E+05         0.83399E+05         0.00000E+00
    0.83399E+05        -0.47744E+08         0.00000E+00
    0.00000E+00         0.00000E+00         0.00000E+00
 
    0.55131E+05         0.88279E+05         0.00000E+00
    0.88279E+05        -0.47754E+08         0.00000E+00
    0.00000E+00         0.00000E+00        -0.25370E-07
 
    0.57884E+05         0.93371E+05         0.00000E+00
    0.93371E+05        -0.47764E+08         0.00000E+00
    0.00000E+00         0.00000E+00         0.30444E-07
 
    0.60856E+05         0.98695E+05         0.00000E+00
    0.98695E+05        -0.47775E+08         0.00000E+00
    0.00000E+00         0.00000E+00         0.45667E-07
 
    0.64050E+05         0.10427E+06         0.00000E+00
    0.10427E+06        -0.47787E+08         0.00000E+00
    0.00000E+00         0.00000E+00        -0.10148E-07
 
    0.67472E+05         0.11013E+06         0.00000E+00
    0.11013E+06        -0.47799E+08         0.00000E+00
    0.00000E+00         0.00000E+00        -0.10148E-07
 
    0.71125E+05         0.11628E+06         0.00000E+00
    0.11628E+06        -0.47811E+08         0.00000E+00
    0.00000E+00         0.00000E+00         0.50741E-08
 
    0.75016E+05         0.12274E+06         0.00000E+00
    0.12274E+06        -0.47824E+08         0.00000E+00
    0.00000E+00         0.00000E+00        -0.25370E-07
 
    0.79152E+05         0.12955E+06         0.00000E+00
    0.12955E+06        -0.47838E+08         0.00000E+00
    0.00000E+00         0.00000E+00        -0.10148E-07
 
    0.83541E+05         0.13673E+06         0.00000E+00
    0.13673E+06        -0.47853E+08         0.00000E+00
    0.00000E+00         0.00000E+00         0.10148E-07
 
    0.88191E+05         0.14429E+06         0.00000E+00
    0.14429E+06        -0.47869E+08         0.00000E+00
    0.00000E+00         0.00000E+00         0.25370E-07
 
    0.93110E+05         0.15226E+06         0.00000E+00
    0.15226E+06        -0.47885E+08         0.00000E+00
    0.00000E+00         0.00000E+00         0.10148E-07
 
    0.98310E+05         0.16066E+06         0.00000E+00
    0.16066E+06        -0.47902E+08         0.00000E+00
    0.00000E+00         0.00000E+00        -0.50741E-08
 
    0.10380E+06         0.16952E+06         0.00000E+00
    0.16952E+06        -0.47920E+08         0.00000E+00
    0.00000E+00         0.00000E+00        -0.76111E-07
 
    0.10960E+06         0.17887E+06         0.00000E+00
    0.17887E+06        -0.47939E+08         0.00000E+00
    0.00000E+00         0.00000E+00        -0.10148E-07
 
    0.11570E+06         0.18872E+06         0.00000E+00
    0.18872E+06        -0.47959E+08         0.00000E+00
    0.00000E+00         0.00000E+00         0.55815E-07
 
    0.12214E+06         0.19912E+06         0.00000E+00
    0.19912E+06        -0.47981E+08         0.00000E+00
    0.00000E+00         0.00000E+00         0.10148E-07
 
    0.12891E+06         0.21008E+06         0.00000E+00
    0.21008E+06        -0.48003E+08         0.00000E+00
    0.00000E+00         0.00000E+00         0.25370E-07
 
    0.13604E+06         0.22164E+06         0.00000E+00
    0.22164E+06        -0.48027E+08         0.00000E+00
    0.00000E+00         0.00000E+00        -0.65963E-07
 
    0.14354E+06         0.23382E+06         0.00000E+00
    0.23382E+06        -0.48052E+08         0.00000E+00
    0.00000E+00         0.00000E+00         0.30444E-07
 
    0.15141E+06         0.24666E+06         0.00000E+00
    0.24666E+06        -0.48078E+08         0.00000E+00
    0.00000E+00         0.00000E+00        -0.10148E-07
 
    0.15968E+06         0.26019E+06         0.00000E+00
    0.26019E+06        -0.48106E+08         0.00000E+00
    0.00000E+00         0.00000E+00         0.40593E-07
 
    0.16837E+06         0.27444E+06         0.00000E+00
    0.27444E+06        -0.48136E+08         0.00000E+00
    0.00000E+00         0.00000E+00        -0.50741E-08
 
    0.17747E+06         0.28944E+06         0.00000E+00
    0.28944E+06        -0.48167E+08         0.00000E+00
    0.00000E+00         0.00000E+00        -0.30444E-07
 
    0.18701E+06         0.30524E+06         0.00000E+00
    0.30524E+06        -0.48200E+08         0.00000E+00
    0.00000E+00         0.00000E+00         0.50741E-08
 
    0.19699E+06         0.32185E+06         0.00000E+00
    0.32185E+06        -0.48235E+08         0.00000E+00
    0.00000E+00         0.00000E+00        -0.35518E-07
 
    0.20744E+06         0.33932E+06         0.00000E+00
    0.33932E+06        -0.48273E+08         0.00000E+00
    0.00000E+00         0.00000E+00         0.60889E-07
 
    0.21836E+06         0.35769E+06         0.00000E+00
    0.35769E+06        -0.48312E+08         0.00000E+00
    0.00000E+00         0.00000E+00         0.00000E+00
 
    0.22976E+06         0.37698E+06         0.00000E+00
    0.37698E+06        -0.48353E+08         0.00000E+00
    0.00000E+00         0.00000E+00         0.20296E-07
 
    0.24165E+06         0.39725E+06         0.00000E+00
    0.39725E+06        -0.48397E+08         0.00000E+00
    0.00000E+00         0.00000E+00        -0.50741E-08
 
    0.25403E+06         0.41850E+06         0.00000E+00
    0.41850E+06        -0.48444E+08         0.00000E+00
    0.00000E+00         0.00000E+00         0.55815E-07
 
    0.26691E+06         0.44080E+06         0.00000E+00
    0.44080E+06        -0.48493E+08         0.00000E+00
    0.00000E+00         0.00000E+00         0.50741E-08
 
    0.28027E+06         0.46416E+06         0.00000E+00
    0.46416E+06        -0.48545E+08         0.00000E+00
    0.00000E+00         0.00000E+00        -0.10148E-07
 
    0.29413E+06         0.48861E+06         0.00000E+00
    0.48861E+06        -0.48601E+08         0.00000E+00
    0.00000E+00         0.00000E+00         0.00000E+00
 
    0.30846E+06         0.51419E+06         0.00000E+00
    0.51419E+06        -0.48660E+08         0.00000E+00
    0.00000E+00         0.00000E+00        -0.91333E-07
 
    0.32325E+06         0.54092E+06         0.00000E+00
    0.54092E+06        -0.48722E+08         0.00000E+00
    0.00000E+00         0.00000E+00         0.35518E-07
 
    0.33847E+06         0.56882E+06         0.00000E+00
    0.56882E+06        -0.48788E+08         0.00000E+00
    0.00000E+00         0.00000E+00         0.10148E-07
 
    0.35410E+06         0.59790E+06         0.00000E+00
    0.59790E+06        -0.48858E+08         0.00000E+00
    0.00000E+00         0.00000E+00         0.30444E-07
 
    0.37008E+06         0.62817E+06         0.00000E+00
    0.62817E+06        -0.48932E+08         0.00000E+00
    0.00000E+00         0.00000E+00         0.10148E-07
 
    0.38637E+06         0.65964E+06         0.00000E+00
    0.65964E+06        -0.49010E+08         0.00000E+00
    0.00000E+00         0.00000E+00         0.50741E-07
 
    0.40289E+06         0.69229E+06         0.00000E+00
    0.69229E+06        -0.49094E+08         0.00000E+00
    0.00000E+00         0.00000E+00         0.00000E+00
 
    0.41956E+06         0.72610E+06         0.00000E+00
    0.72610E+06        -0.49183E+08         0.00000E+00
    0.00000E+00         0.00000E+00         0.00000E+00
 
    0.43628E+06         0.76104E+06         0.00000E+00
    0.76104E+06        -0.49277E+08         0.00000E+00
    0.00000E+00         0.00000E+00        -0.30444E-07
 
    0.45293E+06         0.79706E+06         0.00000E+00
    0.79706E+06        -0.49377E+08         0.00000E+00
    0.00000E+00         0.00000E+00        -0.10148E-07
 
    0.46936E+06         0.83407E+06         0.00000E+00
    0.83407E+06        -0.49483E+08         0.00000E+00
    0.00000E+00         0.00000E+00         0.50741E-08
 
    0.48539E+06         0.87199E+06         0.00000E+00
    0.87199E+06        -0.49597E+08         0.00000E+00
    0.00000E+00         0.00000E+00         0.10148E-07
 
    0.50083E+06         0.91069E+06         0.00000E+00
    0.91069E+06        -0.49717E+08         0.00000E+00
    0.00000E+00         0.00000E+00         0.15222E-07
 
    0.51544E+06         0.95002E+06         0.00000E+00
    0.95002E+06        -0.49846E+08         0.00000E+00
    0.00000E+00         0.00000E+00        -0.50741E-07
 
    0.52893E+06         0.98978E+06         0.00000E+00
    0.98978E+06        -0.49982E+08         0.00000E+00
    0.00000E+00         0.00000E+00        -0.50741E-08
 
    0.54100E+06         0.10297E+07         0.00000E+00
    0.10297E+07        -0.50128E+08         0.00000E+00
    0.00000E+00         0.00000E+00         0.10148E-07
 
    0.55127E+06         0.10696E+07         0.00000E+00
    0.10696E+07        -0.50284E+08         0.00000E+00
    0.00000E+00         0.00000E+00         0.15222E-07
 
    0.55934E+06         0.11090E+07         0.00000E+00
    0.11090E+07        -0.50450E+08         0.00000E+00
    0.00000E+00         0.00000E+00         0.25370E-07
 
    0.56473E+06         0.11476E+07         0.00000E+00
    0.11476E+07        -0.50627E+08         0.00000E+00
    0.00000E+00         0.00000E+00        -0.50741E-08
 
    0.56691E+06         0.11848E+07         0.00000E+00
    0.11848E+07        -0.50817E+08         0.00000E+00
    0.00000E+00         0.00000E+00        -0.15222E-07
 
    0.56530E+06         0.12202E+07         0.00000E+00
    0.12202E+07        -0.51021E+08         0.00000E+00
    0.00000E+00         0.00000E+00        -0.40593E-07
 
    0.55923E+06         0.12530E+07         0.00000E+00
    0.12530E+07        -0.51238E+08         0.00000E+00
    0.00000E+00         0.00000E+00        -0.30444E-07
 
    0.54800E+06         0.12826E+07         0.00000E+00
    0.12826E+07        -0.51472E+08         0.00000E+00
    0.00000E+00         0.00000E+00        -0.20296E-07
 
    0.53081E+06         0.13080E+07         0.00000E+00
    0.13080E+07        -0.51722E+08         0.00000E+00
    0.00000E+00         0.00000E+00        -0.10148E-07
 
    0.50682E+06         0.13282E+07         0.00000E+00
    0.13282E+07        -0.51991E+08         0.00000E+00
    0.00000E+00         0.00000E+00         0.00000E+00
 
    0.47512E+06         0.13424E+07         0.00000E+00
    0.13424E+07        -0.52280E+08         0.00000E+00
    0.00000E+00         0.00000E+00         0.40593E-07
 
    0.43474E+06         0.13492E+07         0.00000E+00
    0.13492E+07        -0.52590E+08         0.00000E+00
    0.00000E+00         0.00000E+00        -0.15221E-07
 
    0.38467E+06         0.13474E+07         0.00000E+00
    0.13474E+07        -0.52923E+08         0.00000E+00
    0.00000E+00         0.00000E+00        -0.30444E-07
 
    0.32386E+06         0.13356E+07         0.00000E+00
    0.13356E+07        -0.53282E+08         0.00000E+00
    0.00000E+00         0.00000E+00         0.25369E-07
 
    0.25120E+06         0.13125E+07         0.00000E+00
    0.13125E+07        -0.53666E+08         0.00000E+00
    0.00000E+00         0.00000E+00        -0.50732E-08
 
    0.16558E+06         0.12767E+07         0.00000E+00
    0.12767E+07        -0.54078E+08         0.00000E+00
    0.00000E+00         0.00000E+00         0.50732E-08
 
    0.65792E+05         0.12270E+07         0.00000E+00
    0.12270E+07        -0.54520E+08         0.00000E+00
    0.00000E+00         0.00000E+00        -0.15223E-07
 
   -0.49404E+05         0.11621E+07         0.00000E+00
    0.11621E+07        -0.54990E+08         0.00000E+00
    0.00000E+00         0.00000E+00         0.20296E-07
 
   -0.18140E+06         0.10814E+07         0.00000E+00
    0.10814E+07        -0.55490E+08         0.00000E+00
    0.00000E+00         0.00000E+00         0.20294E-07
 
   -0.33180E+06         0.98466E+06         0.00000E+00
    0.98466E+06        -0.56019E+08         0.00000E+00
    0.00000E+00         0.00000E+00         0.15221E-07
 
   -0.50263E+06         0.87237E+06         0.00000E+00
    0.87237E+06        -0.56574E+08         0.00000E+00
    0.00000E+00         0.00000E+00        -0.15221E-07
 
   -0.69660E+06         0.74627E+06         0.00000E+00
    0.74627E+06        -0.57151E+08         0.00000E+00
    0.00000E+00         0.00000E+00        -0.10148E-07
 
   -0.91755E+06         0.60958E+06         0.00000E+00
    0.60958E+06        -0.57742E+08         0.00000E+00
    0.00000E+00         0.00000E+00        -0.71037E-07
 
   -0.11712E+07         0.46753E+06         0.00000E+00
    0.46753E+06        -0.58338E+08         0.00000E+00
    0.00000E+00         0.00000E+00        -0.45666E-07
 
   -0.14662E+07         0.32774E+06         0.00000E+00
    0.32774E+06        -0.58923E+08         0.00000E+00
    0.00000E+00         0.00000E+00         0.00000E+00
 
   -0.18151E+07         0.20024E+06         0.00000E+00
    0.20024E+06        -0.59477E+08         0.00000E+00
    0.00000E+00         0.00000E+00        -0.25369E-07
 
   -0.22358E+07         0.96548E+05         0.00000E+00
    0.96548E+05        -0.59974E+08         0.00000E+00
    0.00000E+00         0.00000E+00         0.15223E-07
 
   -0.27509E+07         0.26956E+05         0.00000E+00
    0.26956E+05        -0.60383E+08         0.00000E+00
    0.00000E+00         0.00000E+00         0.50732E-08
 
   -0.33847E+07        -0.44602E+04         0.00000E+00
   -0.44602E+04        -0.60676E+08         0.00000E+00
    0.00000E+00         0.00000E+00        -0.10149E-07
 
   -0.41588E+07        -0.52473E+04         0.00000E+00
   -0.52473E+04        -0.60829E+08         0.00000E+00
    0.00000E+00         0.00000E+00        -0.25371E-07
 
    0.62399E+05         0.12458E+04         0.00000E+00
    0.12458E+04        -0.47604E+08         0.00000E+00
    0.00000E+00         0.00000E+00         0.00000E+00
 
    0.57123E+05         0.38184E+04         0.00000E+00
    0.38184E+04        -0.47606E+08         0.00000E+00
    0.00000E+00         0.00000E+00         0.50741E-08
 
    0.52896E+05         0.66279E+04         0.00000E+00
    0.66279E+04        -0.47608E+08         0.00000E+00
    0.00000E+00         0.00000E+00         0.50741E-08
 
    0.49569E+05         0.97471E+04         0.00000E+00
    0.97471E+04        -0.47612E+08         0.00000E+00
    0.00000E+00         0.00000E+00        -0.15222E-07
 
    0.46977E+05         0.13159E+05         0.00000E+00
    0.13159E+05        -0.47617E+08         0.00000E+00
    0.00000E+00         0.00000E+00         0.50741E-08
 
    0.44974E+05         0.16796E+05         0.00000E+00
    0.16796E+05        -0.47622E+08         0.00000E+00
    0.00000E+00         0.00000E+00         0.10148E-07
 
    0.43444E+05         0.20580E+05         0.00000E+00
    0.20580E+05        -0.47628E+08         0.00000E+00
    0.00000E+00         0.00000E+00        -0.25370E-07
 
    0.42309E+05         0.24445E+05         0.00000E+00
    0.24445E+05        -0.47634E+08         0.00000E+00
    0.00000E+00         0.00000E+00        -0.50741E-07
 
    0.41515E+05         0.28342E+05         0.00000E+00
    0.28342E+05        -0.47641E+08         0.00000E+00
    0.00000E+00         0.00000E+00        -0.30444E-07
 
    0.41027E+05         0.32241E+05         0.00000E+00
    0.32241E+05        -0.47648E+08         0.00000E+00
    0.00000E+00         0.00000E+00        -0.10148E-07
 
    0.40823E+05         0.36127E+05         0.00000E+00
    0.36127E+05        -0.47655E+08         0.00000E+00
    0.00000E+00         0.00000E+00        -0.10148E-07
 
    0.40887E+05         0.39997E+05         0.00000E+00
    0.39997E+05        -0.47662E+08         0.00000E+00
    0.00000E+00         0.00000E+00         0.50741E-08
 
    0.41209E+05         0.43856E+05         0.00000E+00
    0.43856E+05        -0.47669E+08         0.00000E+00
    0.00000E+00         0.00000E+00         0.50741E-08
 
    0.41781E+05         0.47715E+05         0.00000E+00
    0.47715E+05        -0.47677E+08         0.00000E+00
    0.00000E+00         0.00000E+00         0.15222E-07
 
    0.42595E+05         0.51590E+05         0.00000E+00
    0.51590E+05        -0.47684E+08         0.00000E+00
    0.00000E+00         0.00000E+00        -0.25370E-07
 
    0.43648E+05         0.55499E+05         0.00000E+00
    0.55499E+05        -0.47692E+08         0.00000E+00
    0.00000E+00         0.00000E+00         0.10148E-07
 
    0.44934E+05         0.59462E+05         0.00000E+00
    0.59462E+05        -0.47700E+08         0.00000E+00
    0.00000E+00         0.00000E+00        -0.25370E-07
 
    0.46451E+05         0.63500E+05         0.00000E+00
    0.63500E+05        -0.47708E+08         0.00000E+00
    0.00000E+00         0.00000E+00         0.45667E-07
 
    0.48196E+05         0.67635E+05         0.00000E+00
    0.67635E+05        -0.47717E+08         0.00000E+00
    0.00000E+00         0.00000E+00         0.35518E-07
 
    0.50166E+05         0.71889E+05         0.00000E+00
    0.71889E+05        -0.47726E+08         0.00000E+00
    0.00000E+00         0.00000E+00         0.35518E-07
 
    0.52361E+05         0.76282E+05         0.00000E+00
    0.76282E+05        -0.47735E+08         0.00000E+00
    0.00000E+00         0.00000E+00        -0.20296E-07
 
    0.54781E+05         0.80836E+05         0.00000E+00
    0.80836E+05        -0.47745E+08         0.00000E+00
    0.00000E+00         0.00000E+00        -0.10148E-07
 
    0.57425E+05         0.85573E+05         0.00000E+00
    0.85573E+05        -0.47755E+08         0.00000E+00
    0.00000E+00         0.00000E+00        -0.30444E-07
 
    0.60296E+05         0.90513E+05         0.00000E+00
    0.90513E+05        -0.47765E+08         0.00000E+00
    0.00000E+00         0.00000E+00        -0.50741E-08
 
    0.63395E+05         0.95678E+05         0.00000E+00
    0.95678E+05        -0.47776E+08         0.00000E+00
    0.00000E+00         0.00000E+00         0.50741E-08
 
    0.66726E+05         0.10109E+06         0.00000E+00
    0.10109E+06        -0.47788E+08         0.00000E+00
    0.00000E+00         0.00000E+00        -0.25370E-07
 
    0.70294E+05         0.10677E+06         0.00000E+00
    0.10677E+06        -0.47800E+08         0.00000E+00
    0.00000E+00         0.00000E+00         0.00000E+00
 
    0.74103E+05         0.11273E+06         0.00000E+00
    0.11273E+06        -0.47813E+08         0.00000E+00
    0.00000E+00         0.00000E+00        -0.15222E-07
 
    0.78160E+05         0.11900E+06         0.00000E+00
    0.11900E+06        -0.47826E+08         0.00000E+00
    0.00000E+00         0.00000E+00        -0.50741E-08
 
    0.82472E+05         0.12561E+06         0.00000E+00
    0.12561E+06        -0.47840E+08         0.00000E+00
    0.00000E+00         0.00000E+00        -0.50741E-08
 
    0.87048E+05         0.13256E+06         0.00000E+00
    0.13256E+06        -0.47855E+08         0.00000E+00
    0.00000E+00         0.00000E+00         0.10148E-07
 
    0.91895E+05         0.13989E+06         0.00000E+00
    0.13989E+06        -0.47870E+08         0.00000E+00
    0.00000E+00         0.00000E+00        -0.35518E-07
 
    0.97024E+05         0.14762E+06         0.00000E+00
    0.14762E+06        -0.47886E+08         0.00000E+00
    0.00000E+00         0.00000E+00         0.45667E-07
 
    0.10244E+06         0.15577E+06         0.00000E+00
    0.15577E+06        -0.47904E+08         0.00000E+00
    0.00000E+00         0.00000E+00         0.50741E-08
 
    0.10817E+06         0.16436E+06         0.00000E+00
    0.16436E+06        -0.47922E+08         0.00000E+00
    0.00000E+00         0.00000E+00         0.50741E-07
 
    0.11421E+06         0.17342E+06         0.00000E+00
    0.17342E+06        -0.47941E+08         0.00000E+00
    0.00000E+00         0.00000E+00        -0.10148E-07
 
    0.12058E+06         0.18298E+06         0.00000E+00
    0.18298E+06        -0.47961E+08         0.00000E+00
    0.00000E+00         0.00000E+00        -0.20296E-07
 
    0.12729E+06         0.19306E+06         0.00000E+00
    0.19306E+06        -0.47983E+08         0.00000E+00
    0.00000E+00         0.00000E+00         0.00000E+00
 
    0.13435E+06         0.20368E+06         0.00000E+00
    0.20368E+06        -0.48005E+08         0.00000E+00
    0.00000E+00         0.00000E+00         0.00000E+00
 
    0.14178E+06         0.21489E+06         0.00000E+00
    0.21489E+06        -0.48029E+08         0.00000E+00
    0.00000E+00         0.00000E+00         0.00000E+00
 
    0.14960E+06         0.22670E+06         0.00000E+00
    0.22670E+06        -0.48054E+08         0.00000E+00
    0.00000E+00         0.00000E+00         0.30444E-07
 
    0.15781E+06         0.23915E+06         0.00000E+00
    0.23915E+06        -0.48081E+08         0.00000E+00
    0.00000E+00         0.00000E+00         0.10148E-07
 
    0.16643E+06         0.25226E+06         0.00000E+00
    0.25226E+06        -0.48109E+08         0.00000E+00
    0.00000E+00         0.00000E+00         0.00000E+00
 
    0.17548E+06         0.26607E+06         0.00000E+00
    0.26607E+06        -0.48139E+08         0.00000E+00
    0.00000E+00         0.00000E+00         0.50741E-08
 
    0.18497E+06         0.28062E+06         0.00000E+00
    0.28062E+06        -0.48170E+08         0.00000E+00
    0.00000E+00         0.00000E+00         0.10148E-07
 
    0.19492E+06         0.29593E+06         0.00000E+00
    0.29593E+06        -0.48204E+08         0.00000E+00
    0.00000E+00         0.00000E+00        -0.10148E-07
 
    0.20534E+06         0.31203E+06         0.00000E+00
    0.31203E+06        -0.48239E+08         0.00000E+00
    0.00000E+00         0.00000E+00        -0.25370E-07
 
    0.21624E+06         0.32897E+06         0.00000E+00
    0.32897E+06        -0.48276E+08         0.00000E+00
    0.00000E+00         0.00000E+00         0.00000E+00
 
    0.22763E+06         0.34677E+06         0.00000E+00
    0.34677E+06        -0.48316E+08         0.00000E+00
    0.00000E+00         0.00000E+00         0.10148E-07
 
    0.23952E+06         0.36547E+06         0.00000E+00
    0.36547E+06        -0.48357E+08         0.00000E+00
    0.00000E+00         0.00000E+00         0.10148E-07
 
    0.25192E+06         0.38511E+06         0.00000E+00
    0.38511E+06        -0.48402E+08         0.00000E+00
    0.00000E+00         0.00000E+00        -0.10148E-07
 
    0.26484E+06         0.40571E+06         0.00000E+00
    0.40571E+06        -0.48448E+08         0.00000E+00
    0.00000E+00         0.00000E+00        -0.10148E-07
 
    0.27827E+06         0.42732E+06         0.00000E+00
    0.42732E+06        -0.48498E+08         0.00000E+00
    0.00000E+00         0.00000E+00         0.10148E-07
 
    0.29223E+06         0.44995E+06         0.00000E+00
    0.44995E+06        -0.48550E+08         0.00000E+00
    0.00000E+00         0.00000E+00        -0.40592E-07
 
    0.30669E+06         0.47365E+06         0.00000E+00
    0.47365E+06        -0.48606E+08         0.00000E+00
    0.00000E+00         0.00000E+00         0.00000E+00
 
    0.32165E+06         0.49844E+06         0.00000E+00
    0.49844E+06        -0.48665E+08         0.00000E+00
    0.00000E+00         0.00000E+00        -0.30444E-07
 
    0.33710E+06         0.52434E+06         0.00000E+00
    0.52434E+06        -0.48727E+08         0.00000E+00
    0.00000E+00         0.00000E+00        -0.15222E-07
 
    0.35300E+06         0.55137E+06         0.00000E+00
    0.55137E+06        -0.48793E+08         0.00000E+00
    0.00000E+00         0.00000E+00        -0.30444E-07
 
    0.36933E+06         0.57954E+06         0.00000E+00
    0.57954E+06        -0.48864E+08         0.00000E+00
    0.00000E+00         0.00000E+00        -0.25370E-07
 
    0.38603E+06         0.60887E+06         0.00000E+00
    0.60887E+06        -0.48938E+08         0.00000E+00
    0.00000E+00         0.00000E+00         0.00000E+00
 
    0.40306E+06         0.63935E+06         0.00000E+00
    0.63935E+06        -0.49017E+08         0.00000E+00
    0.00000E+00         0.00000E+00         0.10148E-07
 
    0.42034E+06         0.67098E+06         0.00000E+00
    0.67098E+06        -0.49101E+08         0.00000E+00
    0.00000E+00         0.00000E+00        -0.50741E-07
 
    0.43779E+06         0.70372E+06         0.00000E+00
    0.70372E+06        -0.49190E+08         0.00000E+00
    0.00000E+00         0.00000E+00         0.00000E+00
 
    0.45531E+06         0.73756E+06         0.00000E+00
    0.73756E+06        -0.49284E+08         0.00000E+00
    0.00000E+00         0.00000E+00         0.00000E+00
 
    0.47275E+06         0.77242E+06         0.00000E+00
    0.77242E+06        -0.49384E+08         0.00000E+00
    0.00000E+00         0.00000E+00        -0.55814E-07
 
    0.48998E+06         0.80825E+06         0.00000E+00
    0.80825E+06        -0.49491E+08         0.00000E+00
    0.00000E+00         0.00000E+00        -0.20296E-07
 
    0.50682E+06         0.84495E+06         0.00000E+00
    0.84495E+06        -0.49604E+08         0.00000E+00
    0.00000E+00         0.00000E+00         0.00000E+00
 
    0.52305E+06         0.88239E+06         0.00000E+00
    0.88239E+06        -0.49725E+08         0.00000E+00
    0.00000E+00         0.00000E+00         0.10148E-07
 
    0.53843E+06         0.92043E+06         0.00000E+00
    0.92043E+06        -0.49854E+08         0.00000E+00
    0.00000E+00         0.00000E+00         0.10148E-07
 
    0.55267E+06         0.95886E+06         0.00000E+00
    0.95886E+06        -0.49990E+08         0.00000E+00
    0.00000E+00         0.00000E+00         0.00000E+00
 
    0.56544E+06         0.99746E+06         0.00000E+00
    0.99746E+06        -0.50136E+08         0.00000E+00
    0.00000E+00         0.00000E+00         0.10148E-07
 
    0.57636E+06         0.10359E+07         0.00000E+00
    0.10359E+07        -0.50292E+08         0.00000E+00
    0.00000E+00         0.00000E+00        -0.25370E-07
 
    0.58500E+06         0.10740E+07         0.00000E+00
    0.10740E+07        -0.50458E+08         0.00000E+00
    0.00000E+00         0.00000E+00         0.00000E+00
 
    0.59087E+06         0.11111E+07         0.00000E+00
    0.11111E+07        -0.50635E+08         0.00000E+00
    0.00000E+00         0.00000E+00         0.25370E-07
 
    0.59341E+06         0.11469E+07         0.00000E+00
    0.11469E+07        -0.50825E+08         0.00000E+00
    0.00000E+00         0.00000E+00        -0.50741E-08
 
    0.59200E+06         0.11808E+07         0.00000E+00
    0.11808E+07        -0.51028E+08         0.00000E+00
    0.00000E+00         0.00000E+00         0.10148E-07
 
    0.58596E+06         0.12122E+07         0.00000E+00
    0.12122E+07        -0.51245E+08         0.00000E+00
    0.00000E+00         0.00000E+00         0.20296E-07
 
    0.57452E+06         0.12403E+07         0.00000E+00
    0.12403E+07        -0.51477E+08         0.00000E+00
    0.00000E+00         0.00000E+00        -0.10148E-07
 
    0.55684E+06         0.12642E+07         0.00000E+00
    0.12642E+07        -0.51727E+08         0.00000E+00
    0.00000E+00         0.00000E+00        -0.50741E-08
 
    0.53204E+06         0.12831E+07         0.00000E+00
    0.12831E+07        -0.51995E+08         0.00000E+00
    0.00000E+00         0.00000E+00        -0.20296E-07
 
    0.49912E+06         0.12957E+07         0.00000E+00
    0.12957E+07        -0.52282E+08         0.00000E+00
    0.00000E+00         0.00000E+00         0.20296E-07
 
    0.45706E+06         0.13010E+07         0.00000E+00
    0.13010E+07        -0.52591E+08         0.00000E+00
    0.00000E+00         0.00000E+00         0.25369E-07
 
    0.40475E+06         0.12977E+07         0.00000E+00
    0.12977E+07        -0.52922E+08         0.00000E+00
    0.00000E+00         0.00000E+00         0.35518E-07
 
    0.34105E+06         0.12845E+07         0.00000E+00
    0.12845E+07        -0.53278E+08         0.00000E+00
    0.00000E+00         0.00000E+00         0.00000E+00
 
    0.26475E+06         0.12598E+07         0.00000E+00
    0.12598E+07        -0.53660E+08         0.00000E+00
    0.00000E+00         0.00000E+00         0.50750E-08
 
    0.17462E+06         0.12224E+07         0.00000E+00
    0.12224E+07        -0.54070E+08         0.00000E+00
    0.00000E+00         0.00000E+00        -0.45666E-07
 
    0.69338E+05         0.11710E+07         0.00000E+00
    0.11710E+07        -0.54508E+08         0.00000E+00
    0.00000E+00         0.00000E+00        -0.50741E-07
 
   -0.52457E+05         0.11044E+07         0.00000E+00
    0.11044E+07        -0.54976E+08         0.00000E+00
    0.00000E+00         0.00000E+00        -0.60891E-07
 
   -0.19227E+06         0.10220E+07         0.00000E+00
    0.10220E+07        -0.55473E+08         0.00000E+00
    0.00000E+00         0.00000E+00         0.00000E+00
 
   -0.35179E+06         0.92338E+06         0.00000E+00
    0.92338E+06        -0.55998E+08         0.00000E+00
    0.00000E+00         0.00000E+00        -0.40593E-07
 
   -0.53310E+06         0.80932E+06         0.00000E+00
    0.80932E+06        -0.56550E+08         0.00000E+00
    0.00000E+00         0.00000E+00         0.25371E-07
 
   -0.73888E+06         0.68162E+06         0.00000E+00
    0.68162E+06        -0.57124E+08         0.00000E+00
    0.00000E+00         0.00000E+00         0.10148E-07
 
   -0.97282E+06         0.54374E+06         0.00000E+00
    0.54374E+06        -0.57714E+08         0.00000E+00
    0.00000E+00         0.00000E+00         0.00000E+00
 
   -0.12403E+07         0.40135E+06         0.00000E+00
    0.40135E+06        -0.58309E+08         0.00000E+00
    0.00000E+00         0.00000E+00        -0.10150E-07
 
   -0.15494E+07         0.26269E+06         0.00000E+00
    0.26269E+06        -0.58896E+08         0.00000E+00
    0.00000E+00         0.00000E+00        -0.20294E-07
 
   -0.19118E+07         0.13869E+06         0.00000E+00
    0.13869E+06        -0.59454E+08         0.00000E+00
    0.00000E+00         0.00000E+00         0.50732E-08
 
   -0.23444E+07         0.41913E+05         0.00000E+00
    0.41913E+05        -0.59957E+08         0.00000E+00
    0.00000E+00         0.00000E+00         0.10148E-07
 
   -0.28687E+07        -0.16554E+05         0.00000E+00
   -0.16554E+05        -0.60374E+08         0.00000E+00
    0.00000E+00         0.00000E+00         0.35518E-07
 
   -0.35085E+07        -0.32646E+05         0.00000E+00
   -0.32646E+05        -0.60675E+08         0.00000E+00
    0.00000E+00         0.00000E+00         0.15222E-07
 
   -0.42856E+07        -0.15016E+05         0.00000E+00
   -0.15016E+05        -0.60832E+08         0.00000E+00
    0.00000E+00         0.00000E+00         0.50738E-08
 
    0.64570E+05         0.11374E+04         0.00000E+00
    0.11374E+04        -0.47605E+08         0.00000E+00
    0.00000E+00         0.00000E+00         0.00000E+00
 
    0.59277E+05         0.35012E+04         0.00000E+00
    0.35012E+04        -0.47606E+08         0.00000E+00
    0.00000E+00         0.00000E+00        -0.20296E-07
 
    0.55018E+05         0.61240E+04         0.00000E+00
    0.61240E+04        -0.47609E+08         0.00000E+00
    0.00000E+00         0.00000E+00        -0.10148E-07
 
    0.51642E+05         0.90848E+04         0.00000E+00
    0.90848E+04        -0.47613E+08         0.00000E+00
    0.00000E+00         0.00000E+00        -0.55815E-07
 
    0.48986E+05         0.12365E+05         0.00000E+00
    0.12365E+05        -0.47618E+08         0.00000E+00
    0.00000E+00         0.00000E+00         0.50741E-08
 
    0.46909E+05         0.15892E+05         0.00000E+00
    0.15892E+05        -0.47623E+08         0.00000E+00
    0.00000E+00         0.00000E+00         0.00000E+00
 
    0.45305E+05         0.19579E+05         0.00000E+00
    0.19579E+05        -0.47629E+08         0.00000E+00
    0.00000E+00         0.00000E+00        -0.25370E-07
 
    0.44102E+05         0.23355E+05         0.00000E+00
    0.23355E+05        -0.47635E+08         0.00000E+00
    0.00000E+00         0.00000E+00         0.30444E-07
 
    0.43249E+05         0.27165E+05         0.00000E+00
    0.27165E+05        -0.47642E+08         0.00000E+00
    0.00000E+00         0.00000E+00         0.55815E-07
 
    0.42716E+05         0.30978E+05         0.00000E+00
    0.30978E+05        -0.47649E+08         0.00000E+00
    0.00000E+00         0.00000E+00        -0.25370E-07
 
    0.42480E+05         0.34776E+05         0.00000E+00
    0.34776E+05        -0.47656E+08         0.00000E+00
    0.00000E+00         0.00000E+00         0.10148E-07
 
    0.42528E+05         0.38556E+05         0.00000E+00
    0.38556E+05        -0.47663E+08         0.00000E+00
    0.00000E+00         0.00000E+00         0.15222E-07
 
    0.42846E+05         0.42321E+05         0.00000E+00
    0.42321E+05        -0.47670E+08         0.00000E+00
    0.00000E+00         0.00000E+00         0.20296E-07
 
    0.43428E+05         0.46082E+05         0.00000E+00
    0.46082E+05        -0.47677E+08         0.00000E+00
    0.00000E+00         0.00000E+00         0.40593E-07
 
    0.44266E+05         0.49856E+05         0.00000E+00
    0.49856E+05        -0.47685E+08         0.00000E+00
    0.00000E+00         0.00000E+00         0.10148E-07
 
    0.45354E+05         0.53659E+05         0.00000E+00
    0.53659E+05        -0.47693E+08         0.00000E+00
    0.00000E+00         0.00000E+00         0.20296E-07
 
    0.46688E+05         0.57512E+05         0.00000E+00
    0.57512E+05        -0.47701E+08         0.00000E+00
    0.00000E+00         0.00000E+00         0.10148E-07
 
    0.48263E+05         0.61435E+05         0.00000E+00
    0.61435E+05        -0.47709E+08         0.00000E+00
    0.00000E+00         0.00000E+00        -0.20296E-07
 
    0.50076E+05         0.65449E+05         0.00000E+00
    0.65449E+05        -0.47718E+08         0.00000E+00
    0.00000E+00         0.00000E+00         0.20296E-07
 
    0.52126E+05         0.69576E+05         0.00000E+00
    0.69576E+05        -0.47727E+08         0.00000E+00
    0.00000E+00         0.00000E+00         0.65963E-07
 
    0.54409E+05         0.73837E+05         0.00000E+00
    0.73837E+05        -0.47736E+08         0.00000E+00
    0.00000E+00         0.00000E+00        -0.20296E-07
 
    0.56926E+05         0.78252E+05         0.00000E+00
    0.78252E+05        -0.47746E+08         0.00000E+00
    0.00000E+00         0.00000E+00        -0.25370E-07
 
    0.59678E+05         0.82843E+05         0.00000E+00
    0.82843E+05        -0.47756E+08         0.00000E+00
    0.00000E+00         0.00000E+00         0.15222E-07
 
    0.62665E+05         0.87631E+05         0.00000E+00
    0.87631E+05        -0.47766E+08         0.00000E+00
    0.00000E+00         0.00000E+00        -0.10148E-07
 
    0.65889E+05         0.92635E+05         0.00000E+00
    0.92635E+05        -0.47777E+08         0.00000E+00
    0.00000E+00         0.00000E+00        -0.20296E-07
 
    0.69355E+05         0.97877E+05         0.00000E+00
    0.97877E+05        -0.47789E+08         0.00000E+00
    0.00000E+00         0.00000E+00         0.00000E+00
 
    0.73067E+05         0.10338E+06         0.00000E+00
    0.10338E+06        -0.47801E+08         0.00000E+00
    0.00000E+00         0.00000E+00         0.15222E-07
 
    0.77030E+05         0.10915E+06         0.00000E+00
    0.10915E+06        -0.47814E+08         0.00000E+00
    0.00000E+00         0.00000E+00        -0.50741E-07
 
    0.81251E+05         0.11523E+06         0.00000E+00
    0.11523E+06        -0.47827E+08         0.00000E+00
    0.00000E+00         0.00000E+00        -0.20296E-07
 
    0.85736E+05         0.12162E+06         0.00000E+00
    0.12162E+06        -0.47841E+08         0.00000E+00
    0.00000E+00         0.00000E+00         0.10148E-07
 
    0.90496E+05         0.12836E+06         0.00000E+00
    0.12836E+06        -0.47856E+08         0.00000E+00
    0.00000E+00         0.00000E+00        -0.25370E-07
 
    0.95538E+05         0.13546E+06         0.00000E+00
    0.13546E+06        -0.47872E+08         0.00000E+00
    0.00000E+00         0.00000E+00         0.15222E-07
 
    0.10087E+06         0.14294E+06         0.00000E+00
    0.14294E+06        -0.47888E+08         0.00000E+00
    0.00000E+00         0.00000E+00         0.45667E-07
 
    0.10651E+06         0.15083E+06         0.00000E+00
    0.15083E+06        -0.47905E+08         0.00000E+00
    0.00000E+00         0.00000E+00        -0.35518E-07
 
    0.11247E+06         0.15915E+06         0.00000E+00
    0.15915E+06        -0.47924E+08         0.00000E+00
    0.00000E+00         0.00000E+00        -0.55815E-07
 
    0.11875E+06         0.16792E+06         0.00000E+00
    0.16792E+06        -0.47943E+08         0.00000E+00
    0.00000E+00         0.00000E+00        -0.10148E-07
 
    0.12537E+06         0.17718E+06         0.00000E+00
    0.17718E+06        -0.47963E+08         0.00000E+00
    0.00000E+00         0.00000E+00         0.00000E+00
 
    0.13235E+06         0.18693E+06         0.00000E+00
    0.18693E+06        -0.47985E+08         0.00000E+00
    0.00000E+00         0.00000E+00         0.00000E+00
 
    0.13970E+06         0.19723E+06         0.00000E+00
    0.19723E+06        -0.48007E+08         0.00000E+00
    0.00000E+00         0.00000E+00        -0.50741E-07
 
    0.14743E+06         0.20807E+06         0.00000E+00
    0.20807E+06        -0.48031E+08         0.00000E+00
    0.00000E+00         0.00000E+00        -0.10148E-07
 
    0.15556E+06         0.21951E+06         0.00000E+00
    0.21951E+06        -0.48057E+08         0.00000E+00
    0.00000E+00         0.00000E+00        -0.15222E-07
 
    0.16410E+06         0.23156E+06         0.00000E+00
    0.23156E+06        -0.48084E+08         0.00000E+00
    0.00000E+00         0.00000E+00        -0.35518E-07
 
    0.17307E+06         0.24426E+06         0.00000E+00
    0.24426E+06        -0.48112E+08         0.00000E+00
    0.00000E+00         0.00000E+00         0.15222E-07
 
    0.18249E+06         0.25763E+06         0.00000E+00
    0.25763E+06        -0.48142E+08         0.00000E+00
    0.00000E+00         0.00000E+00         0.50741E-07
 
    0.19236E+06         0.27171E+06         0.00000E+00
    0.27171E+06        -0.48173E+08         0.00000E+00
    0.00000E+00         0.00000E+00         0.25370E-07
 
    0.20272E+06         0.28653E+06         0.00000E+00
    0.28653E+06        -0.48207E+08         0.00000E+00
    0.00000E+00         0.00000E+00         0.50741E-08
 
    0.21355E+06         0.30212E+06         0.00000E+00
    0.30212E+06        -0.48242E+08         0.00000E+00
    0.00000E+00         0.00000E+00        -0.20296E-07
 
    0.22489E+06         0.31852E+06         0.00000E+00
    0.31852E+06        -0.48280E+08         0.00000E+00
    0.00000E+00         0.00000E+00         0.10148E-07
 
    0.23675E+06         0.33575E+06         0.00000E+00
    0.33575E+06        -0.48319E+08         0.00000E+00
    0.00000E+00         0.00000E+00         0.10148E-07
 
    0.24913E+06         0.35386E+06         0.00000E+00
    0.35386E+06        -0.48361E+08         0.00000E+00
    0.00000E+00         0.00000E+00         0.10148E-07
 
    0.26204E+06         0.37286E+06         0.00000E+00
    0.37286E+06        -0.48406E+08         0.00000E+00
    0.00000E+00         0.00000E+00        -0.50741E-08
 
    0.27549E+06         0.39281E+06         0.00000E+00
    0.39281E+06        -0.48453E+08         0.00000E+00
    0.00000E+00         0.00000E+00         0.00000E+00
 
    0.28948E+06         0.41372E+06         0.00000E+00
    0.41372E+06        -0.48502E+08         0.00000E+00
    0.00000E+00         0.00000E+00         0.50741E-08
 
    0.30401E+06         0.43563E+06         0.00000E+00
    0.43563E+06        -0.48555E+08         0.00000E+00
    0.00000E+00         0.00000E+00         0.55815E-07
 
    0.31907E+06         0.45857E+06         0.00000E+00
    0.45857E+06        -0.48611E+08         0.00000E+00
    0.00000E+00         0.00000E+00         0.00000E+00
 
    0.33466E+06         0.48256E+06         0.00000E+00
    0.48256E+06        -0.48670E+08         0.00000E+00
    0.00000E+00         0.00000E+00         0.15222E-07
 
    0.35076E+06         0.50762E+06         0.00000E+00
    0.50762E+06        -0.48733E+08         0.00000E+00
    0.00000E+00         0.00000E+00         0.10148E-07
 
    0.36733E+06         0.53378E+06         0.00000E+00
    0.53378E+06        -0.48799E+08         0.00000E+00
    0.00000E+00         0.00000E+00         0.00000E+00
 
    0.38435E+06         0.56104E+06         0.00000E+00
    0.56104E+06        -0.48869E+08         0.00000E+00
    0.00000E+00         0.00000E+00         0.10148E-07
 
    0.40178E+06         0.58942E+06         0.00000E+00
    0.58942E+06        -0.48944E+08         0.00000E+00
    0.00000E+00         0.00000E+00        -0.10148E-07
 
    0.41955E+06         0.61891E+06         0.00000E+00
    0.61891E+06        -0.49023E+08         0.00000E+00
    0.00000E+00         0.00000E+00        -0.50741E-07
 
    0.43759E+06         0.64951E+06         0.00000E+00
    0.64951E+06        -0.49107E+08         0.00000E+00
    0.00000E+00         0.00000E+00         0.10148E-07
 
    0.45581E+06         0.68118E+06         0.00000E+00
    0.68118E+06        -0.49196E+08         0.00000E+00
    0.00000E+00         0.00000E+00        -0.10148E-07
 
    0.47411E+06         0.71391E+06         0.00000E+00
    0.71391E+06        -0.49291E+08         0.00000E+00
    0.00000E+00         0.00000E+00        -0.10148E-07
 
    0.49236E+06         0.74763E+06         0.00000E+00
    0.74763E+06        -0.49392E+08         0.00000E+00
    0.00000E+00         0.00000E+00         0.20296E-07
 
    0.51039E+06         0.78227E+06         0.00000E+00
    0.78227E+06        -0.49498E+08         0.00000E+00
    0.00000E+00         0.00000E+00         0.50741E-07
 
    0.52804E+06         0.81775E+06         0.00000E+00
    0.81775E+06        -0.49612E+08         0.00000E+00
    0.00000E+00         0.00000E+00        -0.50741E-08
 
    0.54507E+06         0.85393E+06         0.00000E+00
    0.85393E+06        -0.49733E+08         0.00000E+00
    0.00000E+00         0.00000E+00         0.10148E-07
 
    0.56123E+06         0.89068E+06         0.00000E+00
    0.89068E+06        -0.49861E+08         0.00000E+00
    0.00000E+00         0.00000E+00        -0.50741E-08
 
    0.57623E+06         0.92779E+06         0.00000E+00
    0.92779E+06        -0.49998E+08         0.00000E+00
    0.00000E+00         0.00000E+00         0.50741E-08
 
    0.58972E+06         0.96504E+06         0.00000E+00
    0.96504E+06        -0.50144E+08         0.00000E+00
    0.00000E+00         0.00000E+00         0.10148E-07
 
    0.60132E+06         0.10022E+07         0.00000E+00
    0.10022E+07        -0.50300E+08         0.00000E+00
    0.00000E+00         0.00000E+00         0.15222E-07
 
    0.61056E+06         0.10388E+07         0.00000E+00
    0.10388E+07        -0.50466E+08         0.00000E+00
    0.00000E+00         0.00000E+00         0.10148E-07
 
    0.61693E+06         0.10746E+07         0.00000E+00
    0.10746E+07        -0.50643E+08         0.00000E+00
    0.00000E+00         0.00000E+00        -0.30444E-07
 
    0.61987E+06         0.11090E+07         0.00000E+00
    0.11090E+07        -0.50832E+08         0.00000E+00
    0.00000E+00         0.00000E+00         0.10148E-07
 
    0.61871E+06         0.11415E+07         0.00000E+00
    0.11415E+07        -0.51034E+08         0.00000E+00
    0.00000E+00         0.00000E+00         0.50741E-08
 
    0.61273E+06         0.11714E+07         0.00000E+00
    0.11714E+07        -0.51251E+08         0.00000E+00
    0.00000E+00         0.00000E+00        -0.45666E-07
 
    0.60113E+06         0.11981E+07         0.00000E+00
    0.11981E+07        -0.51483E+08         0.00000E+00
    0.00000E+00         0.00000E+00        -0.10148E-07
 
    0.58303E+06         0.12206E+07         0.00000E+00
    0.12206E+07        -0.51731E+08         0.00000E+00
    0.00000E+00         0.00000E+00         0.50741E-08
 
    0.55747E+06         0.12381E+07         0.00000E+00
    0.12381E+07        -0.51998E+08         0.00000E+00
    0.00000E+00         0.00000E+00         0.50741E-08
 
    0.52340E+06         0.12493E+07         0.00000E+00
    0.12493E+07        -0.52284E+08         0.00000E+00
    0.00000E+00         0.00000E+00         0.30444E-07
 
    0.47972E+06         0.12533E+07         0.00000E+00
    0.12533E+07        -0.52591E+08         0.00000E+00
    0.00000E+00         0.00000E+00         0.15221E-07
 
    0.42524E+06         0.12486E+07         0.00000E+00
    0.12486E+07        -0.52921E+08         0.00000E+00
    0.00000E+00         0.00000E+00        -0.55816E-07
 
    0.35870E+06         0.12340E+07         0.00000E+00
    0.12340E+07        -0.53275E+08         0.00000E+00
    0.00000E+00         0.00000E+00         0.15223E-07
 
    0.27881E+06         0.12079E+07         0.00000E+00
    0.12079E+07        -0.53654E+08         0.00000E+00
    0.00000E+00         0.00000E+00        -0.50750E-08
 
    0.18419E+06         0.11692E+07         0.00000E+00
    0.11692E+07        -0.54061E+08         0.00000E+00
    0.00000E+00         0.00000E+00         0.55816E-07
 
    0.73434E+05         0.11163E+07         0.00000E+00
    0.11163E+07        -0.54496E+08         0.00000E+00
    0.00000E+00         0.00000E+00         0.10148E-07
 
   -0.54976E+05         0.10482E+07         0.00000E+00
    0.10482E+07        -0.54961E+08         0.00000E+00
    0.00000E+00         0.00000E+00         0.30444E-07
 
   -0.20265E+06         0.96422E+06         0.00000E+00
    0.96422E+06        -0.55454E+08         0.00000E+00
    0.00000E+00         0.00000E+00         0.00000E+00
 
   -0.37138E+06         0.86410E+06         0.00000E+00
    0.86410E+06        -0.55977E+08         0.00000E+00
    0.00000E+00         0.00000E+00         0.20296E-07
 
   -0.56330E+06         0.74854E+06         0.00000E+00
    0.74854E+06        -0.56525E+08         0.00000E+00
    0.00000E+00         0.00000E+00         0.60889E-07
 
   -0.78104E+06         0.61949E+06         0.00000E+00
    0.61949E+06        -0.57097E+08         0.00000E+00
    0.00000E+00         0.00000E+00         0.35518E-07
 
   -0.10281E+07         0.48065E+06         0.00000E+00
    0.48065E+06        -0.57685E+08         0.00000E+00
    0.00000E+00         0.00000E+00         0.25371E-07
 
   -0.13096E+07         0.33803E+06         0.00000E+00
    0.33803E+06        -0.58280E+08         0.00000E+00
    0.00000E+00         0.00000E+00         0.60889E-07
 
   -0.16329E+07         0.20045E+06         0.00000E+00
    0.20045E+06        -0.58869E+08         0.00000E+00
    0.00000E+00         0.00000E+00        -0.35519E-07
 
   -0.20088E+07         0.79704E+05         0.00000E+00
    0.79704E+05        -0.59431E+08         0.00000E+00
    0.00000E+00         0.00000E+00         0.40594E-07
 
   -0.24530E+07        -0.10639E+05         0.00000E+00
   -0.10639E+05        -0.59941E+08         0.00000E+00
    0.00000E+00         0.00000E+00        -0.65962E-07
 
   -0.29860E+07        -0.58632E+05         0.00000E+00
   -0.58632E+05        -0.60367E+08         0.00000E+00
    0.00000E+00         0.00000E+00        -0.45666E-07
 
   -0.36314E+07        -0.60057E+05         0.00000E+00
   -0.60057E+05        -0.60677E+08         0.00000E+00
    0.00000E+00         0.00000E+00        -0.50745E-08
 
   -0.44112E+07        -0.24551E+05         0.00000E+00
   -0.24551E+05        -0.60840E+08         0.00000E+00
    0.00000E+00         0.00000E+00        -0.20296E-07
 
    0.66714E+05         0.10299E+04         0.00000E+00
    0.10299E+04        -0.47605E+08         0.00000E+00
    0.00000E+00         0.00000E+00        -0.30444E-07
 
    0.61405E+05         0.31876E+04         0.00000E+00
    0.31876E+04        -0.47607E+08         0.00000E+00
    0.00000E+00         0.00000E+00        -0.10148E-07
 
    0.57117E+05         0.56272E+04         0.00000E+00
    0.56272E+04        -0.47610E+08         0.00000E+00
    0.00000E+00         0.00000E+00         0.71037E-07
 
    0.53693E+05         0.84335E+04         0.00000E+00
    0.84335E+04        -0.47614E+08         0.00000E+00
    0.00000E+00         0.00000E+00        -0.20296E-07
 
    0.50973E+05         0.11586E+05         0.00000E+00
    0.11586E+05        -0.47618E+08         0.00000E+00
    0.00000E+00         0.00000E+00         0.20296E-07
 
    0.48823E+05         0.15003E+05         0.00000E+00
    0.15003E+05        -0.47624E+08         0.00000E+00
    0.00000E+00         0.00000E+00         0.10148E-07
 
    0.47144E+05         0.18593E+05         0.00000E+00
    0.18593E+05        -0.47630E+08         0.00000E+00
    0.00000E+00         0.00000E+00        -0.20296E-07
 
    0.45870E+05         0.22277E+05         0.00000E+00
    0.22277E+05        -0.47636E+08         0.00000E+00
    0.00000E+00         0.00000E+00        -0.50741E-08
 
    0.44957E+05         0.25999E+05         0.00000E+00
    0.25999E+05        -0.47643E+08         0.00000E+00
    0.00000E+00         0.00000E+00         0.86259E-07
 
    0.44377E+05         0.29723E+05         0.00000E+00
    0.29723E+05        -0.47649E+08         0.00000E+00
    0.00000E+00         0.00000E+00         0.10148E-07
 
    0.44108E+05         0.33430E+05         0.00000E+00
    0.33430E+05        -0.47656E+08         0.00000E+00
    0.00000E+00         0.00000E+00         0.50741E-07
 
    0.44137E+05         0.37116E+05         0.00000E+00
    0.37116E+05        -0.47663E+08         0.00000E+00
    0.00000E+00         0.00000E+00        -0.40593E-07
 
    0.44451E+05         0.40785E+05         0.00000E+00
    0.40785E+05        -0.47671E+08         0.00000E+00
    0.00000E+00         0.00000E+00         0.10148E-07
 
    0.45043E+05         0.44447E+05         0.00000E+00
    0.44447E+05        -0.47678E+08         0.00000E+00
    0.00000E+00         0.00000E+00        -0.50741E-08
 
    0.45903E+05         0.48116E+05         0.00000E+00
    0.48116E+05        -0.47686E+08         0.00000E+00
    0.00000E+00         0.00000E+00        -0.30444E-07
 
    0.47026E+05         0.51811E+05         0.00000E+00
    0.51811E+05        -0.47694E+08         0.00000E+00
    0.00000E+00         0.00000E+00        -0.50741E-08
 
    0.48406E+05         0.55551E+05         0.00000E+00
    0.55551E+05        -0.47702E+08         0.00000E+00
    0.00000E+00         0.00000E+00        -0.30444E-07
 
    0.50039E+05         0.59357E+05         0.00000E+00
    0.59357E+05        -0.47710E+08         0.00000E+00
    0.00000E+00         0.00000E+00        -0.10148E-07
 
    0.51920E+05         0.63248E+05         0.00000E+00
    0.63248E+05        -0.47719E+08         0.00000E+00
    0.00000E+00         0.00000E+00         0.35518E-07
 
    0.54047E+05         0.67246E+05         0.00000E+00
    0.67246E+05        -0.47728E+08         0.00000E+00
    0.00000E+00         0.00000E+00         0.30444E-07
 
    0.56418E+05         0.71373E+05         0.00000E+00
    0.71373E+05        -0.47737E+08         0.00000E+00
    0.00000E+00         0.00000E+00        -0.35518E-07
 
    0.59032E+05         0.75648E+05         0.00000E+00
    0.75648E+05        -0.47747E+08         0.00000E+00
    0.00000E+00         0.00000E+00         0.20296E-07
 
    0.61889E+05         0.80092E+05         0.00000E+00
    0.80092E+05        -0.47757E+08         0.00000E+00
    0.00000E+00         0.00000E+00         0.86259E-07
 
    0.64990E+05         0.84724E+05         0.00000E+00
    0.84724E+05        -0.47767E+08         0.00000E+00
    0.00000E+00         0.00000E+00         0.00000E+00
 
    0.68339E+05         0.89566E+05         0.00000E+00
    0.89566E+05        -0.47778E+08         0.00000E+00
    0.00000E+00         0.00000E+00         0.30444E-07
 
    0.71937E+05         0.94637E+05         0.00000E+00
    0.94637E+05        -0.47790E+08         0.00000E+00
    0.00000E+00         0.00000E+00        -0.35518E-07
 
    0.75791E+05         0.99956E+05         0.00000E+00
    0.99956E+05        -0.47802E+08         0.00000E+00
    0.00000E+00         0.00000E+00        -0.15222E-07
 
    0.79906E+05         0.10554E+06         0.00000E+00
    0.10554E+06        -0.47815E+08         0.00000E+00
    0.00000E+00         0.00000E+00         0.40592E-07
 
    0.84287E+05         0.11142E+06         0.00000E+00
    0.11142E+06        -0.47828E+08         0.00000E+00
    0.00000E+00         0.00000E+00        -0.50741E-08
 
    0.88944E+05         0.11760E+06         0.00000E+00
    0.11760E+06        -0.47843E+08         0.00000E+00
    0.00000E+00         0.00000E+00         0.00000E+00
 
    0.93885E+05         0.12412E+06         0.00000E+00
    0.12412E+06        -0.47857E+08         0.00000E+00
    0.00000E+00         0.00000E+00        -0.40593E-07
 
    0.99119E+05         0.13098E+06         0.00000E+00
    0.13098E+06        -0.47873E+08         0.00000E+00
    0.00000E+00         0.00000E+00        -0.40593E-07
 
    0.10466E+06         0.13822E+06         0.00000E+00
    0.13822E+06        -0.47890E+08         0.00000E+00
    0.00000E+00         0.00000E+00        -0.25370E-07
 
    0.11051E+06         0.14585E+06         0.00000E+00
    0.14585E+06        -0.47907E+08         0.00000E+00
    0.00000E+00         0.00000E+00         0.35518E-07
 
    0.11669E+06         0.15389E+06         0.00000E+00
    0.15389E+06        -0.47925E+08         0.00000E+00
    0.00000E+00         0.00000E+00         0.40593E-07
 
    0.12321E+06         0.16237E+06         0.00000E+00
    0.16237E+06        -0.47945E+08         0.00000E+00
    0.00000E+00         0.00000E+00         0.10148E-07
 
    0.13009E+06         0.17132E+06         0.00000E+00
    0.17132E+06        -0.47965E+08         0.00000E+00
    0.00000E+00         0.00000E+00        -0.10148E-07
 
    0.13733E+06         0.18076E+06         0.00000E+00
    0.18076E+06        -0.47987E+08         0.00000E+00
    0.00000E+00         0.00000E+00        -0.65963E-07
 
    0.14496E+06         0.19071E+06         0.00000E+00
    0.19071E+06        -0.48010E+08         0.00000E+00
    0.00000E+00         0.00000E+00        -0.65963E-07
 
    0.15298E+06         0.20120E+06         0.00000E+00
    0.20120E+06        -0.48034E+08         0.00000E+00
    0.00000E+00         0.00000E+00         0.35518E-07
 
    0.16142E+06         0.21226E+06         0.00000E+00
    0.21226E+06        -0.48059E+08         0.00000E+00
    0.00000E+00         0.00000E+00        -0.50741E-08
 
    0.17029E+06         0.22391E+06         0.00000E+00
    0.22391E+06        -0.48086E+08         0.00000E+00
    0.00000E+00         0.00000E+00        -0.25370E-07
 
    0.17960E+06         0.23618E+06         0.00000E+00
    0.23618E+06        -0.48114E+08         0.00000E+00
    0.00000E+00         0.00000E+00        -0.50741E-08
 
    0.18938E+06         0.24911E+06         0.00000E+00
    0.24911E+06        -0.48145E+08         0.00000E+00
    0.00000E+00         0.00000E+00        -0.25370E-07
 
    0.19964E+06         0.26273E+06         0.00000E+00
    0.26273E+06        -0.48176E+08         0.00000E+00
    0.00000E+00         0.00000E+00        -0.10148E-07
 
    0.21038E+06         0.27705E+06         0.00000E+00
    0.27705E+06        -0.48210E+08         0.00000E+00
    0.00000E+00         0.00000E+00         0.55815E-07
 
    0.22164E+06         0.29213E+06         0.00000E+00
    0.29213E+06        -0.48245E+08         0.00000E+00
    0.00000E+00         0.00000E+00         0.10148E-07
 
    0.23342E+06         0.30798E+06         0.00000E+00
    0.30798E+06        -0.48283E+08         0.00000E+00
    0.00000E+00         0.00000E+00         0.30444E-07
 
    0.24573E+06         0.32464E+06         0.00000E+00
    0.32464E+06        -0.48323E+08         0.00000E+00
    0.00000E+00         0.00000E+00        -0.10148E-07
 
    0.25859E+06         0.34214E+06         0.00000E+00
    0.34214E+06        -0.48365E+08         0.00000E+00
    0.00000E+00         0.00000E+00         0.00000E+00
 
    0.27200E+06         0.36052E+06         0.00000E+00
    0.36052E+06        -0.48410E+08         0.00000E+00
    0.00000E+00         0.00000E+00        -0.15222E-07
 
    0.28597E+06         0.37980E+06         0.00000E+00
    0.37980E+06        -0.48457E+08         0.00000E+00
    0.00000E+00         0.00000E+00        -0.15222E-07
 
    0.30051E+06         0.40001E+06         0.00000E+00
    0.40001E+06        -0.48507E+08         0.00000E+00
    0.00000E+00         0.00000E+00         0.20296E-07
 
    0.31561E+06         0.42119E+06         0.00000E+00
    0.42119E+06        -0.48560E+08         0.00000E+00
    0.00000E+00         0.00000E+00         0.00000E+00
 
    0.33128E+06         0.44336E+06         0.00000E+00
    0.44336E+06        -0.48616E+08         0.00000E+00
    0.00000E+00         0.00000E+00        -0.10148E-07
 
    0.34748E+06         0.46655E+06         0.00000E+00
    0.46655E+06        -0.48675E+08         0.00000E+00
    0.00000E+00         0.00000E+00         0.30444E-07
 
    0.36422E+06         0.49077E+06         0.00000E+00
    0.49077E+06        -0.48738E+08         0.00000E+00
    0.00000E+00         0.00000E+00        -0.20296E-07
 
    0.38146E+06         0.51605E+06         0.00000E+00
    0.51605E+06        -0.48804E+08         0.00000E+00
    0.00000E+00         0.00000E+00        -0.65963E-07
 
    0.39918E+06         0.54240E+06         0.00000E+00
    0.54240E+06        -0.48875E+08         0.00000E+00
    0.00000E+00         0.00000E+00         0.15222E-07
 
    0.41732E+06         0.56982E+06         0.00000E+00
    0.56982E+06        -0.48950E+08         0.00000E+00
    0.00000E+00         0.00000E+00         0.10148E-07
 
    0.43582E+06         0.59832E+06         0.00000E+00
    0.59832E+06        -0.49029E+08         0.00000E+00
    0.00000E+00         0.00000E+00        -0.30444E-07
 
    0.45461E+06         0.62788E+06         0.00000E+00
    0.62788E+06        -0.49113E+08         0.00000E+00
    0.00000E+00         0.00000E+00        -0.20296E-07
 
    0.47361E+06         0.65849E+06         0.00000E+00
    0.65849E+06        -0.49203E+08         0.00000E+00
    0.00000E+00         0.00000E+00         0.00000E+00
 
    0.49270E+06         0.69010E+06         0.00000E+00
    0.69010E+06        -0.49298E+08         0.00000E+00
    0.00000E+00         0.00000E+00        -0.15222E-07
 
    0.51175E+06         0.72267E+06         0.00000E+00
    0.72267E+06        -0.49399E+08         0.00000E+00
    0.00000E+00         0.00000E+00        -0.40593E-07
 
    0.53059E+06         0.75613E+06         0.00000E+00
    0.75613E+06        -0.49506E+08         0.00000E+00
    0.00000E+00         0.00000E+00        -0.50741E-07
 
    0.54905E+06         0.79038E+06         0.00000E+00
    0.79038E+06        -0.49619E+08         0.00000E+00
    0.00000E+00         0.00000E+00         0.20296E-07
 
    0.56688E+06         0.82531E+06         0.00000E+00
    0.82531E+06        -0.49740E+08         0.00000E+00
    0.00000E+00         0.00000E+00        -0.30444E-07
 
    0.58384E+06         0.86077E+06         0.00000E+00
    0.86077E+06        -0.49869E+08         0.00000E+00
    0.00000E+00         0.00000E+00        -0.20296E-07
 
    0.59962E+06         0.89657E+06         0.00000E+00
    0.89657E+06        -0.50006E+08         0.00000E+00
    0.00000E+00         0.00000E+00         0.10148E-07
 
    0.61385E+06         0.93249E+06         0.00000E+00
    0.93249E+06        -0.50152E+08         0.00000E+00
    0.00000E+00         0.00000E+00        -0.50741E-07
 
    0.62614E+06         0.96824E+06         0.00000E+00
    0.96824E+06        -0.50307E+08         0.00000E+00
    0.00000E+00         0.00000E+00         0.50741E-08
 
    0.63601E+06         0.10035E+07         0.00000E+00
    0.10035E+07        -0.50473E+08         0.00000E+00
    0.00000E+00         0.00000E+00        -0.20296E-07
 
    0.64292E+06         0.10379E+07         0.00000E+00
    0.10379E+07        -0.50650E+08         0.00000E+00
    0.00000E+00         0.00000E+00        -0.55815E-07
 
    0.64629E+06         0.10709E+07         0.00000E+00
    0.10709E+07        -0.50839E+08         0.00000E+00
    0.00000E+00         0.00000E+00        -0.20296E-07
 
    0.64542E+06         0.11020E+07         0.00000E+00
    0.11020E+07        -0.51041E+08         0.00000E+00
    0.00000E+00         0.00000E+00        -0.50741E-08
 
    0.63956E+06         0.11306E+07         0.00000E+00
    0.11306E+07        -0.51257E+08         0.00000E+00
    0.00000E+00         0.00000E+00        -0.10148E-07
 
    0.62786E+06         0.11559E+07         0.00000E+00
    0.11559E+07        -0.51488E+08         0.00000E+00
    0.00000E+00         0.00000E+00        -0.35518E-07
 
    0.60940E+06         0.11771E+07         0.00000E+00
    0.11771E+07        -0.51736E+08         0.00000E+00
    0.00000E+00         0.00000E+00         0.50741E-08
 
    0.58314E+06         0.11933E+07         0.00000E+00
    0.11933E+07        -0.52001E+08         0.00000E+00
    0.00000E+00         0.00000E+00        -0.20296E-07
 
    0.54800E+06         0.12032E+07         0.00000E+00
    0.12032E+07        -0.52286E+08         0.00000E+00
    0.00000E+00         0.00000E+00        -0.50741E-07
 
    0.50276E+06         0.12059E+07         0.00000E+00
    0.12059E+07        -0.52591E+08         0.00000E+00
    0.00000E+00         0.00000E+00         0.00000E+00
 
    0.44617E+06         0.12000E+07         0.00000E+00
    0.12000E+07        -0.52919E+08         0.00000E+00
    0.00000E+00         0.00000E+00        -0.45668E-07
 
    0.37686E+06         0.11841E+07         0.00000E+00
    0.11841E+07        -0.53271E+08         0.00000E+00
    0.00000E+00         0.00000E+00        -0.20296E-07
 
    0.29343E+06         0.11569E+07         0.00000E+00
    0.11569E+07        -0.53648E+08         0.00000E+00
    0.00000E+00         0.00000E+00        -0.25371E-07
 
    0.19438E+06         0.11169E+07         0.00000E+00
    0.11169E+07        -0.54052E+08         0.00000E+00
    0.00000E+00         0.00000E+00        -0.50750E-08
 
    0.78161E+05         0.10628E+07         0.00000E+00
    0.10628E+07        -0.54484E+08         0.00000E+00
    0.00000E+00         0.00000E+00         0.18190E-11
 
   -0.56866E+05         0.99347E+06         0.00000E+00
    0.99347E+06        -0.54946E+08         0.00000E+00
    0.00000E+00         0.00000E+00         0.10148E-07
 
   -0.21244E+06         0.90821E+06         0.00000E+00
    0.90821E+06        -0.55436E+08         0.00000E+00
    0.00000E+00         0.00000E+00         0.10148E-07
 
   -0.39045E+06         0.80683E+06         0.00000E+00
    0.80683E+06        -0.55955E+08         0.00000E+00
    0.00000E+00         0.00000E+00         0.45668E-07
 
   -0.59308E+06         0.69006E+06         0.00000E+00
    0.69006E+06        -0.56501E+08         0.00000E+00
    0.00000E+00         0.00000E+00        -0.25371E-07
 
   -0.82294E+06         0.55994E+06         0.00000E+00
    0.55994E+06        -0.57070E+08         0.00000E+00
    0.00000E+00         0.00000E+00         0.18190E-11
 
   -0.10834E+07         0.42035E+06         0.00000E+00
    0.42035E+06        -0.57656E+08         0.00000E+00
    0.00000E+00         0.00000E+00         0.00000E+00
 
   -0.13790E+07         0.27760E+06         0.00000E+00
    0.27760E+06        -0.58251E+08         0.00000E+00
    0.00000E+00         0.00000E+00        -0.30444E-07
 
   -0.17166E+07         0.14105E+06         0.00000E+00
    0.14105E+06        -0.58842E+08         0.00000E+00
    0.00000E+00         0.00000E+00         0.45666E-07
 
   -0.21060E+07         0.23267E+05         0.00000E+00
    0.23267E+05        -0.59409E+08         0.00000E+00
    0.00000E+00         0.00000E+00         0.10148E-07
 
   -0.25616E+07        -0.61170E+05         0.00000E+00
   -0.61170E+05        -0.59927E+08         0.00000E+00
    0.00000E+00         0.00000E+00        -0.60889E-07
 
   -0.31031E+07        -0.99366E+05         0.00000E+00
   -0.99366E+05        -0.60363E+08         0.00000E+00
    0.00000E+00         0.00000E+00         0.30444E-07
 
   -0.37536E+07        -0.86774E+05         0.00000E+00
   -0.86774E+05        -0.60682E+08         0.00000E+00
    0.00000E+00         0.00000E+00        -0.25370E-07
 
   -0.45360E+07        -0.33885E+05         0.00000E+00
   -0.33885E+05        -0.60851E+08         0.00000E+00
    0.00000E+00         0.00000E+00         0.25371E-07
 
    0.68833E+05         0.92314E+03         0.00000E+00
    0.92314E+03        -0.47606E+08         0.00000E+00
    0.00000E+00         0.00000E+00         0.30444E-07
 
    0.63509E+05         0.28769E+04         0.00000E+00
    0.28769E+04        -0.47607E+08         0.00000E+00
    0.00000E+00         0.00000E+00         0.20296E-07
 
    0.59193E+05         0.51370E+04         0.00000E+00
    0.51370E+04        -0.47610E+08         0.00000E+00
    0.00000E+00         0.00000E+00        -0.15222E-07
 
    0.55723E+05         0.77931E+04         0.00000E+00
    0.77931E+04        -0.47614E+08         0.00000E+00
    0.00000E+00         0.00000E+00        -0.50741E-08
 
    0.52940E+05         0.10820E+05         0.00000E+00
    0.10820E+05        -0.47619E+08         0.00000E+00
    0.00000E+00         0.00000E+00        -0.40593E-07
 
    0.50714E+05         0.14129E+05         0.00000E+00
    0.14129E+05        -0.47625E+08         0.00000E+00
    0.00000E+00         0.00000E+00        -0.15222E-07
 
    0.48958E+05         0.17622E+05         0.00000E+00
    0.17622E+05        -0.47630E+08         0.00000E+00
    0.00000E+00         0.00000E+00         0.15222E-07
 
    0.47612E+05         0.21213E+05         0.00000E+00
    0.21213E+05        -0.47637E+08         0.00000E+00
    0.00000E+00         0.00000E+00        -0.50741E-08
 
    0.46638E+05         0.24843E+05         0.00000E+00
    0.24843E+05        -0.47643E+08         0.00000E+00
    0.00000E+00         0.00000E+00         0.00000E+00
 
    0.46008E+05         0.28475E+05         0.00000E+00
    0.28475E+05        -0.47650E+08         0.00000E+00
    0.00000E+00         0.00000E+00        -0.50741E-08
 
    0.45705E+05         0.32090E+05         0.00000E+00
    0.32090E+05        -0.47657E+08         0.00000E+00
    0.00000E+00         0.00000E+00        -0.10148E-07
 
    0.45714E+05         0.35680E+05         0.00000E+00
    0.35680E+05        -0.47664E+08         0.00000E+00
    0.00000E+00         0.00000E+00        -0.35518E-07
 
    0.46024E+05         0.39249E+05         0.00000E+00
    0.39249E+05        -0.47671E+08         0.00000E+00
    0.00000E+00         0.00000E+00         0.25370E-07
 
    0.46623E+05         0.42808E+05         0.00000E+00
    0.42808E+05        -0.47679E+08         0.00000E+00
    0.00000E+00         0.00000E+00        -0.25370E-07
 
    0.47506E+05         0.46371E+05         0.00000E+00
    0.46371E+05        -0.47687E+08         0.00000E+00
    0.00000E+00         0.00000E+00        -0.25370E-07
 
    0.48663E+05         0.49955E+05         0.00000E+00
    0.49955E+05        -0.47694E+08         0.00000E+00
    0.00000E+00         0.00000E+00         0.00000E+00
 
    0.50089E+05         0.53580E+05         0.00000E+00
    0.53580E+05        -0.47702E+08         0.00000E+00
    0.00000E+00         0.00000E+00         0.10148E-07
 
    0.51778E+05         0.57266E+05         0.00000E+00
    0.57266E+05        -0.47711E+08         0.00000E+00
    0.00000E+00         0.00000E+00         0.50741E-08
 
    0.53726E+05         0.61032E+05         0.00000E+00
    0.61032E+05        -0.47719E+08         0.00000E+00
    0.00000E+00         0.00000E+00         0.00000E+00
 
    0.55929E+05         0.64900E+05         0.00000E+00
    0.64900E+05        -0.47728E+08         0.00000E+00
    0.00000E+00         0.00000E+00         0.50741E-08
 
    0.58386E+05         0.68891E+05         0.00000E+00
    0.68891E+05        -0.47738E+08         0.00000E+00
    0.00000E+00         0.00000E+00         0.10148E-07
 
    0.61095E+05         0.73023E+05         0.00000E+00
    0.73023E+05        -0.47748E+08         0.00000E+00
    0.00000E+00         0.00000E+00         0.50741E-08
 
    0.64057E+05         0.77318E+05         0.00000E+00
    0.77318E+05        -0.47758E+08         0.00000E+00
    0.00000E+00         0.00000E+00         0.50741E-08
 
    0.67272E+05         0.81794E+05         0.00000E+00
    0.81794E+05        -0.47768E+08         0.00000E+00
    0.00000E+00         0.00000E+00        -0.50741E-08
 
    0.70742E+05         0.86471E+05         0.00000E+00
    0.86471E+05        -0.47779E+08         0.00000E+00
    0.00000E+00         0.00000E+00        -0.50741E-08
 
    0.74472E+05         0.91369E+05         0.00000E+00
    0.91369E+05        -0.47791E+08         0.00000E+00
    0.00000E+00         0.00000E+00        -0.15222E-07
 
    0.78466E+05         0.96506E+05         0.00000E+00
    0.96506E+05        -0.47803E+08         0.00000E+00
    0.00000E+00         0.00000E+00        -0.15222E-07
 
    0.82729E+05         0.10190E+06         0.00000E+00
    0.10190E+06        -0.47816E+08         0.00000E+00
    0.00000E+00         0.00000E+00         0.25370E-07
 
    0.87270E+05         0.10758E+06         0.00000E+00
    0.10758E+06        -0.47830E+08         0.00000E+00
    0.00000E+00         0.00000E+00         0.15222E-07
 
    0.92095E+05         0.11355E+06         0.00000E+00
    0.11355E+06        -0.47844E+08         0.00000E+00
    0.00000E+00         0.00000E+00        -0.15222E-07
 
    0.97214E+05         0.11984E+06         0.00000E+00
    0.11984E+06        -0.47859E+08         0.00000E+00
    0.00000E+00         0.00000E+00        -0.25370E-07
 
    0.10264E+06         0.12647E+06         0.00000E+00
    0.12647E+06        -0.47874E+08         0.00000E+00
    0.00000E+00         0.00000E+00        -0.35518E-07
 
    0.10837E+06         0.13345E+06         0.00000E+00
    0.13345E+06        -0.47891E+08         0.00000E+00
    0.00000E+00         0.00000E+00         0.30444E-07
 
    0.11444E+06         0.14082E+06         0.00000E+00
    0.14082E+06        -0.47909E+08         0.00000E+00
    0.00000E+00         0.00000E+00         0.15222E-07
 
    0.12084E+06         0.14859E+06         0.00000E+00
    0.14859E+06        -0.47927E+08         0.00000E+00
    0.00000E+00         0.00000E+00        -0.45667E-07
 
    0.12760E+06         0.15678E+06         0.00000E+00
    0.15678E+06        -0.47946E+08         0.00000E+00
    0.00000E+00         0.00000E+00         0.20296E-07
 
    0.13472E+06         0.16542E+06         0.00000E+00
    0.16542E+06        -0.47967E+08         0.00000E+00
    0.00000E+00         0.00000E+00        -0.20296E-07
 
    0.14223E+06         0.17453E+06         0.00000E+00
    0.17453E+06        -0.47989E+08         0.00000E+00
    0.00000E+00         0.00000E+00        -0.10148E-07
 
    0.15013E+06         0.18413E+06         0.00000E+00
    0.18413E+06        -0.48012E+08         0.00000E+00
    0.00000E+00         0.00000E+00        -0.45667E-07
 
    0.15844E+06         0.19426E+06         0.00000E+00
    0.19426E+06        -0.48036E+08         0.00000E+00
    0.00000E+00         0.00000E+00         0.00000E+00
 
    0.16719E+06         0.20494E+06         0.00000E+00
    0.20494E+06        -0.48061E+08         0.00000E+00
    0.00000E+00         0.00000E+00        -0.50741E-08
 
    0.17638E+06         0.21619E+06         0.00000E+00
    0.21619E+06        -0.48088E+08         0.00000E+00
    0.00000E+00         0.00000E+00         0.00000E+00
 
    0.18603E+06         0.22804E+06         0.00000E+00
    0.22804E+06        -0.48117E+08         0.00000E+00
    0.00000E+00         0.00000E+00        -0.50741E-07
 
    0.19616E+06         0.24052E+06         0.00000E+00
    0.24052E+06        -0.48147E+08         0.00000E+00
    0.00000E+00         0.00000E+00        -0.10148E-07
 
    0.20679E+06         0.25366E+06         0.00000E+00
    0.25366E+06        -0.48179E+08         0.00000E+00
    0.00000E+00         0.00000E+00         0.81185E-07
 
    0.21793E+06         0.26750E+06         0.00000E+00
    0.26750E+06        -0.48213E+08         0.00000E+00
    0.00000E+00         0.00000E+00         0.10148E-07
 
    0.22960E+06         0.28205E+06         0.00000E+00
    0.28205E+06        -0.48249E+08         0.00000E+00
    0.00000E+00         0.00000E+00         0.50741E-08
 
    0.24180E+06         0.29735E+06         0.00000E+00
    0.29735E+06        -0.48286E+08         0.00000E+00
    0.00000E+00         0.00000E+00        -0.20296E-07
 
    0.25457E+06         0.31343E+06         0.00000E+00
    0.31343E+06        -0.48326E+08         0.00000E+00
    0.00000E+00         0.00000E+00         0.15222E-07
 
    0.26790E+06         0.33033E+06         0.00000E+00
    0.33033E+06        -0.48369E+08         0.00000E+00
    0.00000E+00         0.00000E+00         0.10148E-07
 
    0.28181E+06         0.34806E+06         0.00000E+00
    0.34806E+06        -0.48413E+08         0.00000E+00
    0.00000E+00         0.00000E+00         0.45667E-07
 
    0.29630E+06         0.36668E+06         0.00000E+00
    0.36668E+06        -0.48461E+08         0.00000E+00
    0.00000E+00         0.00000E+00        -0.20296E-07
 
    0.31138E+06         0.38619E+06         0.00000E+00
    0.38619E+06        -0.48511E+08         0.00000E+00
    0.00000E+00         0.00000E+00        -0.10148E-07
 
    0.32705E+06         0.40663E+06         0.00000E+00
    0.40663E+06        -0.48564E+08         0.00000E+00
    0.00000E+00         0.00000E+00         0.50741E-08
 
    0.34330E+06         0.42803E+06         0.00000E+00
    0.42803E+06        -0.48620E+08         0.00000E+00
    0.00000E+00         0.00000E+00         0.00000E+00
 
    0.36012E+06         0.45041E+06         0.00000E+00
    0.45041E+06        -0.48680E+08         0.00000E+00
    0.00000E+00         0.00000E+00        -0.40593E-07
 
    0.37749E+06         0.47379E+06         0.00000E+00
    0.47379E+06        -0.48743E+08         0.00000E+00
    0.00000E+00         0.00000E+00         0.35518E-07
 
    0.39540E+06         0.49819E+06         0.00000E+00
    0.49819E+06        -0.48810E+08         0.00000E+00
    0.00000E+00         0.00000E+00         0.10148E-07
 
    0.41380E+06         0.52362E+06         0.00000E+00
    0.52362E+06        -0.48880E+08         0.00000E+00
    0.00000E+00         0.00000E+00        -0.20296E-07
 
    0.43264E+06         0.55008E+06         0.00000E+00
    0.55008E+06        -0.48955E+08         0.00000E+00
    0.00000E+00         0.00000E+00         0.81185E-07
 
    0.45188E+06         0.57758E+06         0.00000E+00
    0.57758E+06        -0.49035E+08         0.00000E+00
    0.00000E+00         0.00000E+00         0.15222E-07
 
    0.47143E+06         0.60610E+06         0.00000E+00
    0.60610E+06        -0.49120E+08         0.00000E+00
    0.00000E+00         0.00000E+00         0.50741E-08
 
    0.49120E+06         0.63563E+06         0.00000E+00
    0.63563E+06        -0.49209E+08         0.00000E+00
    0.00000E+00         0.00000E+00         0.15222E-07
 
    0.51107E+06         0.66613E+06         0.00000E+00
    0.66613E+06        -0.49304E+08         0.00000E+00
    0.00000E+00         0.00000E+00         0.10148E-07
 
    0.53092E+06         0.69755E+06         0.00000E+00
    0.69755E+06        -0.49405E+08         0.00000E+00
    0.00000E+00         0.00000E+00        -0.20296E-07
 
    0.55058E+06         0.72981E+06         0.00000E+00
    0.72981E+06        -0.49512E+08         0.00000E+00
    0.00000E+00         0.00000E+00         0.50741E-08
 
    0.56985E+06         0.76285E+06         0.00000E+00
    0.76285E+06        -0.49626E+08         0.00000E+00
    0.00000E+00         0.00000E+00        -0.25370E-07
 
    0.58850E+06         0.79652E+06         0.00000E+00
    0.79652E+06        -0.49747E+08         0.00000E+00
    0.00000E+00         0.00000E+00        -0.15222E-07
 
    0.60627E+06         0.83070E+06         0.00000E+00
    0.83070E+06        -0.49876E+08         0.00000E+00
    0.00000E+00         0.00000E+00         0.00000E+00
 
    0.62283E+06         0.86519E+06         0.00000E+00
    0.86519E+06        -0.50013E+08         0.00000E+00
    0.00000E+00         0.00000E+00         0.25370E-07
 
    0.63782E+06         0.89978E+06         0.00000E+00
    0.89978E+06        -0.50159E+08         0.00000E+00
    0.00000E+00         0.00000E+00        -0.30444E-07
 
    0.65083E+06         0.93419E+06         0.00000E+00
    0.93419E+06        -0.50314E+08         0.00000E+00
    0.00000E+00         0.00000E+00         0.71037E-07
 
    0.66135E+06         0.96810E+06         0.00000E+00
    0.96810E+06        -0.50480E+08         0.00000E+00
    0.00000E+00         0.00000E+00         0.00000E+00
 
    0.66885E+06         0.10011E+07         0.00000E+00
    0.10011E+07        -0.50657E+08         0.00000E+00
    0.00000E+00         0.00000E+00        -0.25370E-07
 
    0.67268E+06         0.10328E+07         0.00000E+00
    0.10328E+07        -0.50845E+08         0.00000E+00
    0.00000E+00         0.00000E+00        -0.20296E-07
 
    0.67216E+06         0.10626E+07         0.00000E+00
    0.10626E+07        -0.51047E+08         0.00000E+00
    0.00000E+00         0.00000E+00         0.10148E-07
 
    0.66646E+06         0.10898E+07         0.00000E+00
    0.10898E+07        -0.51262E+08         0.00000E+00
    0.00000E+00         0.00000E+00         0.15222E-07
 
    0.65472E+06         0.11138E+07         0.00000E+00
    0.11138E+07        -0.51493E+08         0.00000E+00
    0.00000E+00         0.00000E+00        -0.50741E-08
 
    0.63596E+06         0.11337E+07         0.00000E+00
    0.11337E+07        -0.51740E+08         0.00000E+00
    0.00000E+00         0.00000E+00         0.00000E+00
 
    0.60908E+06         0.11486E+07         0.00000E+00
    0.11486E+07        -0.52004E+08         0.00000E+00
    0.00000E+00         0.00000E+00         0.15222E-07
 
    0.57293E+06         0.11574E+07         0.00000E+00
    0.11574E+07        -0.52287E+08         0.00000E+00
    0.00000E+00         0.00000E+00        -0.15222E-07
 
    0.52622E+06         0.11589E+07         0.00000E+00
    0.11589E+07        -0.52591E+08         0.00000E+00
    0.00000E+00         0.00000E+00        -0.20296E-07
 
    0.46759E+06         0.11519E+07         0.00000E+00
    0.11519E+07        -0.52917E+08         0.00000E+00
    0.00000E+00         0.00000E+00        -0.25371E-07
 
    0.39559E+06         0.11349E+07         0.00000E+00
    0.11349E+07        -0.53267E+08         0.00000E+00
    0.00000E+00         0.00000E+00        -0.50732E-08
 
    0.30868E+06         0.11066E+07         0.00000E+00
    0.11066E+07        -0.53642E+08         0.00000E+00
    0.00000E+00         0.00000E+00        -0.50750E-08
 
    0.20525E+06         0.10656E+07         0.00000E+00
    0.10656E+07        -0.54043E+08         0.00000E+00
    0.00000E+00         0.00000E+00        -0.91331E-07
 
    0.83605E+05         0.10105E+07         0.00000E+00
    0.10105E+07        -0.54472E+08         0.00000E+00
    0.00000E+00         0.00000E+00         0.15221E-07
 
   -0.58028E+05         0.94017E+06         0.00000E+00
    0.94017E+06        -0.54930E+08         0.00000E+00
    0.00000E+00         0.00000E+00         0.00000E+00
 
   -0.22152E+06         0.85393E+06         0.00000E+00
    0.85393E+06        -0.55417E+08         0.00000E+00
    0.00000E+00         0.00000E+00         0.50732E-08
 
   -0.40887E+06         0.75158E+06         0.00000E+00
    0.75158E+06        -0.55933E+08         0.00000E+00
    0.00000E+00         0.00000E+00         0.20296E-07
 
   -0.62232E+06         0.63390E+06         0.00000E+00
    0.63390E+06        -0.56476E+08         0.00000E+00
    0.00000E+00         0.00000E+00         0.60887E-07
 
   -0.86444E+06         0.50299E+06         0.00000E+00
    0.50299E+06        -0.57042E+08         0.00000E+00
    0.00000E+00         0.00000E+00        -0.15221E-07
 
   -0.11384E+07         0.36286E+06         0.00000E+00
    0.36286E+06        -0.57627E+08         0.00000E+00
    0.00000E+00         0.00000E+00        -0.10148E-07
 
   -0.14485E+07         0.22010E+06         0.00000E+00
    0.22010E+06        -0.58223E+08         0.00000E+00
    0.00000E+00         0.00000E+00         0.30444E-07
 
   -0.18006E+07         0.84515E+05         0.00000E+00
    0.84515E+05        -0.58815E+08         0.00000E+00
    0.00000E+00         0.00000E+00        -0.20296E-07
 
   -0.22035E+07        -0.30621E+05         0.00000E+00
   -0.30621E+05        -0.59388E+08         0.00000E+00
    0.00000E+00         0.00000E+00         0.45668E-07
 
   -0.26706E+07        -0.10972E+06         0.00000E+00
   -0.10972E+06        -0.59914E+08         0.00000E+00
    0.00000E+00         0.00000E+00        -0.30444E-07
 
   -0.32202E+07        -0.13882E+06         0.00000E+00
   -0.13882E+06        -0.60361E+08         0.00000E+00
    0.00000E+00         0.00000E+00         0.30445E-07
 
   -0.38757E+07        -0.11286E+06         0.00000E+00
   -0.11286E+06        -0.60690E+08         0.00000E+00
    0.00000E+00         0.00000E+00         0.10148E-07
 
   -0.46603E+07        -0.43046E+05         0.00000E+00
   -0.43046E+05        -0.60866E+08         0.00000E+00
    0.00000E+00         0.00000E+00         0.30445E-07
 
    0.70929E+05         0.81698E+03         0.00000E+00
    0.81698E+03        -0.47606E+08         0.00000E+00
    0.00000E+00         0.00000E+00        -0.15222E-07
 
    0.65592E+05         0.25690E+04         0.00000E+00
    0.25690E+04        -0.47608E+08         0.00000E+00
    0.00000E+00         0.00000E+00         0.30444E-07
 
    0.61250E+05         0.46534E+04         0.00000E+00
    0.46534E+04        -0.47611E+08         0.00000E+00
    0.00000E+00         0.00000E+00        -0.50741E-08
 
    0.57734E+05         0.71634E+04         0.00000E+00
    0.71634E+04        -0.47615E+08         0.00000E+00
    0.00000E+00         0.00000E+00        -0.10148E-06
 
    0.54885E+05         0.10068E+05         0.00000E+00
    0.10068E+05        -0.47620E+08         0.00000E+00
    0.00000E+00         0.00000E+00         0.15222E-07
 
    0.52583E+05         0.13271E+05         0.00000E+00
    0.13271E+05        -0.47625E+08         0.00000E+00
    0.00000E+00         0.00000E+00         0.15222E-07
 
    0.50748E+05         0.16666E+05         0.00000E+00
    0.16666E+05        -0.47631E+08         0.00000E+00
    0.00000E+00         0.00000E+00        -0.20296E-07
 
    0.49328E+05         0.20163E+05         0.00000E+00
    0.20163E+05        -0.47638E+08         0.00000E+00
    0.00000E+00         0.00000E+00        -0.50741E-07
 
    0.48289E+05         0.23700E+05         0.00000E+00
    0.23700E+05        -0.47644E+08         0.00000E+00
    0.00000E+00         0.00000E+00        -0.30444E-07
 
    0.47609E+05         0.27237E+05         0.00000E+00
    0.27237E+05        -0.47651E+08         0.00000E+00
    0.00000E+00         0.00000E+00        -0.35518E-07
 
    0.47271E+05         0.30754E+05         0.00000E+00
    0.30754E+05        -0.47658E+08         0.00000E+00
    0.00000E+00         0.00000E+00        -0.10148E-07
 
    0.47259E+05         0.34245E+05         0.00000E+00
    0.34245E+05        -0.47665E+08         0.00000E+00
    0.00000E+00         0.00000E+00         0.15222E-07
 
    0.47562E+05         0.37713E+05         0.00000E+00
    0.37713E+05        -0.47672E+08         0.00000E+00
    0.00000E+00         0.00000E+00        -0.10148E-07
 
    0.48170E+05         0.41166E+05         0.00000E+00
    0.41166E+05        -0.47680E+08         0.00000E+00
    0.00000E+00         0.00000E+00         0.25370E-07
 
    0.49073E+05         0.44620E+05         0.00000E+00
    0.44620E+05        -0.47687E+08         0.00000E+00
    0.00000E+00         0.00000E+00         0.00000E+00
 
    0.50263E+05         0.48091E+05         0.00000E+00
    0.48091E+05        -0.47695E+08         0.00000E+00
    0.00000E+00         0.00000E+00        -0.20296E-07
 
    0.51734E+05         0.51599E+05         0.00000E+00
    0.51599E+05        -0.47703E+08         0.00000E+00
    0.00000E+00         0.00000E+00        -0.25370E-07
 
    0.53479E+05         0.55162E+05         0.00000E+00
    0.55162E+05        -0.47712E+08         0.00000E+00
    0.00000E+00         0.00000E+00        -0.15222E-07
 
    0.55493E+05         0.58802E+05         0.00000E+00
    0.58802E+05        -0.47720E+08         0.00000E+00
    0.00000E+00         0.00000E+00         0.00000E+00
 
    0.57772E+05         0.62538E+05         0.00000E+00
    0.62538E+05        -0.47729E+08         0.00000E+00
    0.00000E+00         0.00000E+00        -0.50741E-07
 
    0.60314E+05         0.66390E+05         0.00000E+00
    0.66390E+05        -0.47739E+08         0.00000E+00
    0.00000E+00         0.00000E+00         0.50741E-07
 
    0.63118E+05         0.70378E+05         0.00000E+00
    0.70378E+05        -0.47748E+08         0.00000E+00
    0.00000E+00         0.00000E+00         0.35518E-07
 
    0.66182E+05         0.74522E+05         0.00000E+00
    0.74522E+05        -0.47759E+08         0.00000E+00
    0.00000E+00         0.00000E+00        -0.25370E-07
 
    0.69508E+05         0.78840E+05         0.00000E+00
    0.78840E+05        -0.47769E+08         0.00000E+00
    0.00000E+00         0.00000E+00        -0.20296E-07
 
    0.73099E+05         0.83351E+05         0.00000E+00
    0.83351E+05        -0.47780E+08         0.00000E+00
    0.00000E+00         0.00000E+00         0.00000E+00
 
    0.76958E+05         0.88074E+05         0.00000E+00
    0.88074E+05        -0.47792E+08         0.00000E+00
    0.00000E+00         0.00000E+00        -0.10148E-07
 
    0.81090E+05         0.93028E+05         0.00000E+00
    0.93028E+05        -0.47804E+08         0.00000E+00
    0.00000E+00         0.00000E+00         0.35518E-07
 
    0.85500E+05         0.98231E+05         0.00000E+00
    0.98231E+05        -0.47817E+08         0.00000E+00
    0.00000E+00         0.00000E+00         0.30444E-07
 
    0.90197E+05         0.10370E+06         0.00000E+00
    0.10370E+06        -0.47831E+08         0.00000E+00
    0.00000E+00         0.00000E+00         0.10148E-07
 
    0.95188E+05         0.10946E+06         0.00000E+00
    0.10946E+06        -0.47845E+08         0.00000E+00
    0.00000E+00         0.00000E+00         0.50741E-08
 
    0.10048E+06         0.11552E+06         0.00000E+00
    0.11552E+06        -0.47860E+08         0.00000E+00
    0.00000E+00         0.00000E+00        -0.50740E-08
 
    0.10609E+06         0.12191E+06         0.00000E+00
    0.12191E+06        -0.47876E+08         0.00000E+00
    0.00000E+00         0.00000E+00        -0.15222E-07
 
    0.11203E+06         0.12865E+06         0.00000E+00
    0.12865E+06        -0.47893E+08         0.00000E+00
    0.00000E+00         0.00000E+00         0.50741E-08
 
    0.11830E+06         0.13575E+06         0.00000E+00
    0.13575E+06        -0.47910E+08         0.00000E+00
    0.00000E+00         0.00000E+00        -0.45667E-07
 
    0.12492E+06         0.14324E+06         0.00000E+00
    0.14324E+06        -0.47929E+08         0.00000E+00
    0.00000E+00         0.00000E+00         0.30444E-07
 
    0.13191E+06         0.15113E+06         0.00000E+00
    0.15113E+06        -0.47948E+08         0.00000E+00
    0.00000E+00         0.00000E+00         0.35518E-07
 
    0.13927E+06         0.15946E+06         0.00000E+00
    0.15946E+06        -0.47969E+08         0.00000E+00
    0.00000E+00         0.00000E+00         0.30444E-07
 
    0.14704E+06         0.16824E+06         0.00000E+00
    0.16824E+06        -0.47991E+08         0.00000E+00
    0.00000E+00         0.00000E+00        -0.50741E-08
 
    0.15521E+06         0.17750E+06         0.00000E+00
    0.17750E+06        -0.48014E+08         0.00000E+00
    0.00000E+00         0.00000E+00        -0.55815E-07
 
    0.16381E+06         0.18727E+06         0.00000E+00
    0.18727E+06        -0.48038E+08         0.00000E+00
    0.00000E+00         0.00000E+00         0.50741E-08
 
    0.17285E+06         0.19756E+06         0.00000E+00
    0.19756E+06        -0.48064E+08         0.00000E+00
    0.00000E+00         0.00000E+00        -0.35518E-07
 
    0.18236E+06         0.20840E+06         0.00000E+00
    0.20840E+06        -0.48091E+08         0.00000E+00
    0.00000E+00         0.00000E+00        -0.55815E-07
 
    0.19234E+06         0.21982E+06         0.00000E+00
    0.21982E+06        -0.48119E+08         0.00000E+00
    0.00000E+00         0.00000E+00        -0.50741E-08
 
    0.20283E+06         0.23186E+06         0.00000E+00
    0.23186E+06        -0.48150E+08         0.00000E+00
    0.00000E+00         0.00000E+00         0.65963E-07
 
    0.21382E+06         0.24452E+06         0.00000E+00
    0.24452E+06        -0.48182E+08         0.00000E+00
    0.00000E+00         0.00000E+00         0.10148E-07
 
    0.22535E+06         0.25786E+06         0.00000E+00
    0.25786E+06        -0.48216E+08         0.00000E+00
    0.00000E+00         0.00000E+00        -0.15222E-07
 
    0.23742E+06         0.27188E+06         0.00000E+00
    0.27188E+06        -0.48252E+08         0.00000E+00
    0.00000E+00         0.00000E+00        -0.10148E-07
 
    0.25005E+06         0.28663E+06         0.00000E+00
    0.28663E+06        -0.48290E+08         0.00000E+00
    0.00000E+00         0.00000E+00        -0.50741E-08
 
    0.26326E+06         0.30213E+06         0.00000E+00
    0.30213E+06        -0.48330E+08         0.00000E+00
    0.00000E+00         0.00000E+00         0.00000E+00
 
    0.27706E+06         0.31842E+06         0.00000E+00
    0.31842E+06        -0.48372E+08         0.00000E+00
    0.00000E+00         0.00000E+00         0.45667E-07
 
    0.29146E+06         0.33551E+06         0.00000E+00
    0.33551E+06        -0.48417E+08         0.00000E+00
    0.00000E+00         0.00000E+00         0.20296E-07
 
    0.30646E+06         0.35345E+06         0.00000E+00
    0.35345E+06        -0.48465E+08         0.00000E+00
    0.00000E+00         0.00000E+00         0.00000E+00
 
    0.32208E+06         0.37225E+06         0.00000E+00
    0.37225E+06        -0.48515E+08         0.00000E+00
    0.00000E+00         0.00000E+00         0.10148E-07
 
    0.33830E+06         0.39196E+06         0.00000E+00
    0.39196E+06        -0.48568E+08         0.00000E+00
    0.00000E+00         0.00000E+00         0.00000E+00
 
    0.35513E+06         0.41258E+06         0.00000E+00
    0.41258E+06        -0.48625E+08         0.00000E+00
    0.00000E+00         0.00000E+00         0.00000E+00
 
    0.37256E+06         0.43415E+06         0.00000E+00
    0.43415E+06        -0.48684E+08         0.00000E+00
    0.00000E+00         0.00000E+00        -0.10148E-07
 
    0.39057E+06         0.45668E+06         0.00000E+00
    0.45668E+06        -0.48748E+08         0.00000E+00
    0.00000E+00         0.00000E+00        -0.15222E-07
 
    0.40913E+06         0.48019E+06         0.00000E+00
    0.48019E+06        -0.48815E+08         0.00000E+00
    0.00000E+00         0.00000E+00         0.25370E-07
 
    0.42821E+06         0.50469E+06         0.00000E+00
    0.50469E+06        -0.48886E+08         0.00000E+00
    0.00000E+00         0.00000E+00         0.00000E+00
 
    0.44776E+06         0.53019E+06         0.00000E+00
    0.53019E+06        -0.48961E+08         0.00000E+00
    0.00000E+00         0.00000E+00         0.25370E-07
 
    0.46772E+06         0.55669E+06         0.00000E+00
    0.55669E+06        -0.49041E+08         0.00000E+00
    0.00000E+00         0.00000E+00         0.00000E+00
 
    0.48802E+06         0.58417E+06         0.00000E+00
    0.58417E+06        -0.49125E+08         0.00000E+00
    0.00000E+00         0.00000E+00        -0.40593E-07
 
    0.50856E+06         0.61262E+06         0.00000E+00
    0.61262E+06        -0.49215E+08         0.00000E+00
    0.00000E+00         0.00000E+00         0.35518E-07
 
    0.52923E+06         0.64200E+06         0.00000E+00
    0.64200E+06        -0.49311E+08         0.00000E+00
    0.00000E+00         0.00000E+00        -0.35518E-07
 
    0.54988E+06         0.67226E+06         0.00000E+00
    0.67226E+06        -0.49412E+08         0.00000E+00
    0.00000E+00         0.00000E+00         0.50741E-08
 
    0.57035E+06         0.70334E+06         0.00000E+00
    0.70334E+06        -0.49519E+08         0.00000E+00
    0.00000E+00         0.00000E+00        -0.35518E-07
 
    0.59044E+06         0.73515E+06         0.00000E+00
    0.73515E+06        -0.49633E+08         0.00000E+00
    0.00000E+00         0.00000E+00        -0.40593E-07
 
    0.60992E+06         0.76757E+06         0.00000E+00
    0.76757E+06        -0.49754E+08         0.00000E+00
    0.00000E+00         0.00000E+00        -0.35518E-07
 
    0.62850E+06         0.80046E+06         0.00000E+00
    0.80046E+06        -0.49883E+08         0.00000E+00
    0.00000E+00         0.00000E+00         0.50741E-07
 
    0.64587E+06         0.83365E+06         0.00000E+00
    0.83365E+06        -0.50020E+08         0.00000E+00
    0.00000E+00         0.00000E+00         0.00000E+00
 
    0.66164E+06         0.86692E+06         0.00000E+00
    0.86692E+06        -0.50166E+08         0.00000E+00
    0.00000E+00         0.00000E+00        -0.50741E-08
 
    0.67539E+06         0.90000E+06         0.00000E+00
    0.90000E+06        -0.50321E+08         0.00000E+00
    0.00000E+00         0.00000E+00         0.10148E-07
 
    0.68660E+06         0.93257E+06         0.00000E+00
    0.93257E+06        -0.50487E+08         0.00000E+00
    0.00000E+00         0.00000E+00        -0.35518E-07
 
    0.69471E+06         0.96424E+06         0.00000E+00
    0.96424E+06        -0.50664E+08         0.00000E+00
    0.00000E+00         0.00000E+00        -0.35518E-07
 
    0.69906E+06         0.99458E+06         0.00000E+00
    0.99458E+06        -0.50852E+08         0.00000E+00
    0.00000E+00         0.00000E+00         0.50741E-07
 
    0.69891E+06         0.10230E+07         0.00000E+00
    0.10230E+07        -0.51053E+08         0.00000E+00
    0.00000E+00         0.00000E+00        -0.50741E-08
 
    0.69345E+06         0.10490E+07         0.00000E+00
    0.10490E+07        -0.51268E+08         0.00000E+00
    0.00000E+00         0.00000E+00        -0.76111E-07
 
    0.68173E+06         0.10717E+07         0.00000E+00
    0.10717E+07        -0.51498E+08         0.00000E+00
    0.00000E+00         0.00000E+00        -0.60889E-07
 
    0.66272E+06         0.10904E+07         0.00000E+00
    0.10904E+07        -0.51743E+08         0.00000E+00
    0.00000E+00         0.00000E+00         0.00000E+00
 
    0.63530E+06         0.11041E+07         0.00000E+00
    0.11041E+07        -0.52007E+08         0.00000E+00
    0.00000E+00         0.00000E+00         0.00000E+00
 
    0.59822E+06         0.11118E+07         0.00000E+00
    0.11118E+07        -0.52289E+08         0.00000E+00
    0.00000E+00         0.00000E+00         0.76111E-07
 
    0.55012E+06         0.11122E+07         0.00000E+00
    0.11122E+07        -0.52591E+08         0.00000E+00
    0.00000E+00         0.00000E+00         0.81185E-07
 
    0.48954E+06         0.11042E+07         0.00000E+00
    0.11042E+07        -0.52915E+08         0.00000E+00
    0.00000E+00         0.00000E+00        -0.20298E-07
 
    0.41493E+06         0.10863E+07         0.00000E+00
    0.10863E+07        -0.53263E+08         0.00000E+00
    0.00000E+00         0.00000E+00        -0.10146E-07
 
    0.32462E+06         0.10571E+07         0.00000E+00
    0.10571E+07        -0.53635E+08         0.00000E+00
    0.00000E+00         0.00000E+00         0.00000E+00
 
    0.21688E+06         0.10152E+07         0.00000E+00
    0.10152E+07        -0.54034E+08         0.00000E+00
    0.00000E+00         0.00000E+00         0.10148E-07
 
    0.89853E+05         0.95937E+06         0.00000E+00
    0.95937E+06        -0.54460E+08         0.00000E+00
    0.00000E+00         0.00000E+00         0.71037E-07
 
   -0.58361E+05         0.88834E+06         0.00000E+00
    0.88834E+06        -0.54915E+08         0.00000E+00
    0.00000E+00         0.00000E+00         0.30444E-07
 
   -0.22978E+06         0.80139E+06         0.00000E+00
    0.80139E+06        -0.55398E+08         0.00000E+00
    0.00000E+00         0.00000E+00         0.15223E-07
 
   -0.42652E+06         0.69838E+06         0.00000E+00
    0.69838E+06        -0.55911E+08         0.00000E+00
    0.00000E+00         0.00000E+00        -0.30444E-07
 
   -0.65087E+06         0.58009E+06         0.00000E+00
    0.58009E+06        -0.56450E+08         0.00000E+00
    0.00000E+00         0.00000E+00        -0.40593E-07
 
   -0.90540E+06         0.44867E+06         0.00000E+00
    0.44867E+06        -0.57015E+08         0.00000E+00
    0.00000E+00         0.00000E+00         0.50750E-08
 
   -0.11931E+07         0.30824E+06         0.00000E+00
    0.30824E+06        -0.57598E+08         0.00000E+00
    0.00000E+00         0.00000E+00        -0.15223E-07
 
   -0.15178E+07         0.16558E+06         0.00000E+00
    0.16558E+06        -0.58194E+08         0.00000E+00
    0.00000E+00         0.00000E+00         0.00000E+00
 
   -0.18847E+07         0.30880E+05         0.00000E+00
    0.30880E+05        -0.58789E+08         0.00000E+00
    0.00000E+00         0.00000E+00        -0.40593E-07
 
   -0.23014E+07        -0.81938E+05         0.00000E+00
   -0.81938E+05        -0.59367E+08         0.00000E+00
    0.00000E+00         0.00000E+00         0.25371E-07
 
   -0.27800E+07        -0.15629E+06         0.00000E+00
   -0.15629E+06        -0.59903E+08         0.00000E+00
    0.00000E+00         0.00000E+00        -0.15221E-07
 
   -0.33378E+07        -0.17705E+06         0.00000E+00
   -0.17705E+06        -0.60361E+08         0.00000E+00
    0.00000E+00         0.00000E+00         0.10147E-07
 
   -0.39980E+07        -0.13838E+06         0.00000E+00
   -0.13838E+06        -0.60701E+08         0.00000E+00
    0.00000E+00         0.00000E+00         0.10149E-07
 
   -0.47847E+07        -0.52058E+05         0.00000E+00
   -0.52058E+05        -0.60884E+08         0.00000E+00
    0.00000E+00         0.00000E+00         0.76111E-07
 
    0.73005E+05         0.71126E+03         0.00000E+00
    0.71126E+03        -0.47606E+08         0.00000E+00
    0.00000E+00         0.00000E+00         0.76111E-07
 
    0.67656E+05         0.22634E+04         0.00000E+00
    0.22634E+04        -0.47608E+08         0.00000E+00
    0.00000E+00         0.00000E+00        -0.40593E-07
 
    0.63288E+05         0.41760E+04         0.00000E+00
    0.41760E+04        -0.47611E+08         0.00000E+00
    0.00000E+00         0.00000E+00        -0.45667E-07
 
    0.59726E+05         0.65446E+04         0.00000E+00
    0.65446E+04        -0.47615E+08         0.00000E+00
    0.00000E+00         0.00000E+00         0.20296E-07
 
    0.56811E+05         0.93311E+04         0.00000E+00
    0.93311E+04        -0.47620E+08         0.00000E+00
    0.00000E+00         0.00000E+00         0.30444E-07
 
    0.54429E+05         0.12430E+05         0.00000E+00
    0.12430E+05        -0.47626E+08         0.00000E+00
    0.00000E+00         0.00000E+00        -0.50741E-08
 
    0.52512E+05         0.15726E+05         0.00000E+00
    0.15726E+05        -0.47632E+08         0.00000E+00
    0.00000E+00         0.00000E+00         0.25370E-07
 
    0.51015E+05         0.19127E+05         0.00000E+00
    0.19127E+05        -0.47638E+08         0.00000E+00
    0.00000E+00         0.00000E+00         0.50741E-07
 
    0.49911E+05         0.22567E+05         0.00000E+00
    0.22567E+05        -0.47645E+08         0.00000E+00
    0.00000E+00         0.00000E+00         0.40593E-07
 
    0.49179E+05         0.26007E+05         0.00000E+00
    0.26007E+05        -0.47652E+08         0.00000E+00
    0.00000E+00         0.00000E+00        -0.10148E-07
 
    0.48803E+05         0.29425E+05         0.00000E+00
    0.29425E+05        -0.47658E+08         0.00000E+00
    0.00000E+00         0.00000E+00        -0.10148E-07
 
    0.48769E+05         0.32814E+05         0.00000E+00
    0.32814E+05        -0.47666E+08         0.00000E+00
    0.00000E+00         0.00000E+00        -0.35518E-07
 
    0.49065E+05         0.36176E+05         0.00000E+00
    0.36176E+05        -0.47673E+08         0.00000E+00
    0.00000E+00         0.00000E+00         0.40593E-07
 
    0.49680E+05         0.39521E+05         0.00000E+00
    0.39521E+05        -0.47680E+08         0.00000E+00
    0.00000E+00         0.00000E+00         0.20296E-07
 
    0.50604E+05         0.42863E+05         0.00000E+00
    0.42863E+05        -0.47688E+08         0.00000E+00
    0.00000E+00         0.00000E+00         0.71037E-07
 
    0.51827E+05         0.46219E+05         0.00000E+00
    0.46219E+05        -0.47696E+08         0.00000E+00
    0.00000E+00         0.00000E+00        -0.50741E-08
 
    0.53342E+05         0.49607E+05         0.00000E+00
    0.49607E+05        -0.47704E+08         0.00000E+00
    0.00000E+00         0.00000E+00         0.50741E-08
 
    0.55142E+05         0.53047E+05         0.00000E+00
    0.53047E+05        -0.47712E+08         0.00000E+00
    0.00000E+00         0.00000E+00        -0.55815E-07
 
    0.57221E+05         0.56558E+05         0.00000E+00
    0.56558E+05        -0.47721E+08         0.00000E+00
    0.00000E+00         0.00000E+00        -0.55815E-07
 
    0.59576E+05         0.60159E+05         0.00000E+00
    0.60159E+05        -0.47730E+08         0.00000E+00
    0.00000E+00         0.00000E+00         0.25370E-07
 
    0.62202E+05         0.63872E+05         0.00000E+00
    0.63872E+05        -0.47739E+08         0.00000E+00
    0.00000E+00         0.00000E+00        -0.50741E-07
 
    0.65098E+05         0.67714E+05         0.00000E+00
    0.67714E+05        -0.47749E+08         0.00000E+00
    0.00000E+00         0.00000E+00         0.10148E-07
 
    0.68264E+05         0.71704E+05         0.00000E+00
    0.71704E+05        -0.47759E+08         0.00000E+00
    0.00000E+00         0.00000E+00         0.50741E-08
 
    0.71700E+05         0.75862E+05         0.00000E+00
    0.75862E+05        -0.47770E+08         0.00000E+00
    0.00000E+00         0.00000E+00         0.30444E-07
 
    0.75409E+05         0.80205E+05         0.00000E+00
    0.80205E+05        -0.47781E+08         0.00000E+00
    0.00000E+00         0.00000E+00         0.50741E-08
 
    0.79396E+05         0.84752E+05         0.00000E+00
    0.84752E+05        -0.47793E+08         0.00000E+00
    0.00000E+00         0.00000E+00         0.35518E-07
 
    0.83663E+05         0.89521E+05         0.00000E+00
    0.89521E+05        -0.47805E+08         0.00000E+00
    0.00000E+00         0.00000E+00         0.00000E+00
 
    0.88218E+05         0.94529E+05         0.00000E+00
    0.94529E+05        -0.47818E+08         0.00000E+00
    0.00000E+00         0.00000E+00         0.00000E+00
 
    0.93069E+05         0.99794E+05         0.00000E+00
    0.99794E+05        -0.47832E+08         0.00000E+00
    0.00000E+00         0.00000E+00         0.40593E-07
 
    0.98223E+05         0.10534E+06         0.00000E+00
    0.10534E+06        -0.47846E+08         0.00000E+00
    0.00000E+00         0.00000E+00         0.25370E-07
 
    0.10369E+06         0.11117E+06         0.00000E+00
    0.11117E+06        -0.47861E+08         0.00000E+00
    0.00000E+00         0.00000E+00        -0.30444E-07
 
    0.10948E+06         0.11732E+06         0.00000E+00
    0.11732E+06        -0.47877E+08         0.00000E+00
    0.00000E+00         0.00000E+00        -0.10148E-07
 
    0.11561E+06         0.12380E+06         0.00000E+00
    0.12380E+06        -0.47894E+08         0.00000E+00
    0.00000E+00         0.00000E+00         0.10148E-07
 
    0.12209E+06         0.13064E+06         0.00000E+00
    0.13064E+06        -0.47912E+08         0.00000E+00
    0.00000E+00         0.00000E+00         0.30444E-07
 
    0.12892E+06         0.13784E+06         0.00000E+00
    0.13784E+06        -0.47930E+08         0.00000E+00
    0.00000E+00         0.00000E+00        -0.10148E-07
 
    0.13614E+06         0.14544E+06         0.00000E+00
    0.14544E+06        -0.47950E+08         0.00000E+00
    0.00000E+00         0.00000E+00        -0.15222E-07
 
    0.14375E+06         0.15345E+06         0.00000E+00
    0.15345E+06        -0.47971E+08         0.00000E+00
    0.00000E+00         0.00000E+00         0.35518E-07
 
    0.15176E+06         0.16191E+06         0.00000E+00
    0.16191E+06        -0.47992E+08         0.00000E+00
    0.00000E+00         0.00000E+00        -0.45667E-07
 
    0.16020E+06         0.17082E+06         0.00000E+00
    0.17082E+06        -0.48016E+08         0.00000E+00
    0.00000E+00         0.00000E+00        -0.50741E-07
 
    0.16908E+06         0.18021E+06         0.00000E+00
    0.18021E+06        -0.48040E+08         0.00000E+00
    0.00000E+00         0.00000E+00         0.25370E-07
 
    0.17842E+06         0.19011E+06         0.00000E+00
    0.19011E+06        -0.48066E+08         0.00000E+00
    0.00000E+00         0.00000E+00         0.30444E-07
 
    0.18824E+06         0.20055E+06         0.00000E+00
    0.20055E+06        -0.48093E+08         0.00000E+00
    0.00000E+00         0.00000E+00        -0.45667E-07
 
    0.19855E+06         0.21154E+06         0.00000E+00
    0.21154E+06        -0.48122E+08         0.00000E+00
    0.00000E+00         0.00000E+00         0.15222E-07
 
    0.20937E+06         0.22312E+06         0.00000E+00
    0.22312E+06        -0.48152E+08         0.00000E+00
    0.00000E+00         0.00000E+00         0.15222E-07
 
    0.22073E+06         0.23531E+06         0.00000E+00
    0.23531E+06        -0.48184E+08         0.00000E+00
    0.00000E+00         0.00000E+00        -0.10148E-07
 
    0.23264E+06         0.24814E+06         0.00000E+00
    0.24814E+06        -0.48218E+08         0.00000E+00
    0.00000E+00         0.00000E+00         0.50741E-08
 
    0.24511E+06         0.26163E+06         0.00000E+00
    0.26163E+06        -0.48254E+08         0.00000E+00
    0.00000E+00         0.00000E+00         0.20296E-07
 
    0.25816E+06         0.27583E+06         0.00000E+00
    0.27583E+06        -0.48293E+08         0.00000E+00
    0.00000E+00         0.00000E+00        -0.10148E-07
 
    0.27181E+06         0.29074E+06         0.00000E+00
    0.29074E+06        -0.48333E+08         0.00000E+00
    0.00000E+00         0.00000E+00         0.50741E-08
 
    0.28607E+06         0.30641E+06         0.00000E+00
    0.30641E+06        -0.48375E+08         0.00000E+00
    0.00000E+00         0.00000E+00         0.50741E-08
 
    0.30095E+06         0.32286E+06         0.00000E+00
    0.32286E+06        -0.48421E+08         0.00000E+00
    0.00000E+00         0.00000E+00        -0.25370E-07
 
    0.31646E+06         0.34012E+06         0.00000E+00
    0.34012E+06        -0.48468E+08         0.00000E+00
    0.00000E+00         0.00000E+00         0.15222E-07
 
    0.33260E+06         0.35821E+06         0.00000E+00
    0.35821E+06        -0.48519E+08         0.00000E+00
    0.00000E+00         0.00000E+00         0.00000E+00
 
    0.34938E+06         0.37717E+06         0.00000E+00
    0.37717E+06        -0.48572E+08         0.00000E+00
    0.00000E+00         0.00000E+00         0.35518E-07
 
    0.36678E+06         0.39701E+06         0.00000E+00
    0.39701E+06        -0.48629E+08         0.00000E+00
    0.00000E+00         0.00000E+00        -0.10148E-07
 
    0.38481E+06         0.41776E+06         0.00000E+00
    0.41776E+06        -0.48689E+08         0.00000E+00
    0.00000E+00         0.00000E+00         0.10148E-07
 
    0.40345E+06         0.43943E+06         0.00000E+00
    0.43943E+06        -0.48752E+08         0.00000E+00
    0.00000E+00         0.00000E+00         0.15222E-07
 
    0.42266E+06         0.46205E+06         0.00000E+00
    0.46205E+06        -0.48819E+08         0.00000E+00
    0.00000E+00         0.00000E+00        -0.55815E-07
 
    0.44241E+06         0.48563E+06         0.00000E+00
    0.48563E+06        -0.48891E+08         0.00000E+00
    0.00000E+00         0.00000E+00        -0.45667E-07
 
    0.46266E+06         0.51016E+06         0.00000E+00
    0.51016E+06        -0.48966E+08         0.00000E+00
    0.00000E+00         0.00000E+00         0.00000E+00
 
    0.48335E+06         0.53565E+06         0.00000E+00
    0.53565E+06        -0.49046E+08         0.00000E+00
    0.00000E+00         0.00000E+00        -0.60889E-07
 
    0.50439E+06         0.56208E+06         0.00000E+00
    0.56208E+06        -0.49131E+08         0.00000E+00
    0.00000E+00         0.00000E+00         0.20296E-07
 
    0.52570E+06         0.58945E+06         0.00000E+00
    0.58945E+06        -0.49221E+08         0.00000E+00
    0.00000E+00         0.00000E+00         0.25370E-07
 
    0.54716E+06         0.61770E+06         0.00000E+00
    0.61770E+06        -0.49317E+08         0.00000E+00
    0.00000E+00         0.00000E+00         0.50741E-08
 
    0.56861E+06         0.64681E+06         0.00000E+00
    0.64681E+06        -0.49418E+08         0.00000E+00
    0.00000E+00         0.00000E+00         0.50741E-08
 
    0.58990E+06         0.67670E+06         0.00000E+00
    0.67670E+06        -0.49525E+08         0.00000E+00
    0.00000E+00         0.00000E+00         0.15222E-07
 
    0.61083E+06         0.70728E+06         0.00000E+00
    0.70728E+06        -0.49640E+08         0.00000E+00
    0.00000E+00         0.00000E+00         0.50741E-08
 
    0.63114E+06         0.73845E+06         0.00000E+00
    0.73845E+06        -0.49761E+08         0.00000E+00
    0.00000E+00         0.00000E+00         0.30444E-07
 
    0.65055E+06         0.77006E+06         0.00000E+00
    0.77006E+06        -0.49890E+08         0.00000E+00
    0.00000E+00         0.00000E+00        -0.20296E-07
 
    0.66874E+06         0.80195E+06         0.00000E+00
    0.80195E+06        -0.50027E+08         0.00000E+00
    0.00000E+00         0.00000E+00         0.60889E-07
 
    0.68531E+06         0.83390E+06         0.00000E+00
    0.83390E+06        -0.50173E+08         0.00000E+00
    0.00000E+00         0.00000E+00        -0.50741E-08
 
    0.69982E+06         0.86566E+06         0.00000E+00
    0.86566E+06        -0.50328E+08         0.00000E+00
    0.00000E+00         0.00000E+00        -0.50741E-08
 
    0.71175E+06         0.89689E+06         0.00000E+00
    0.89689E+06        -0.50494E+08         0.00000E+00
    0.00000E+00         0.00000E+00         0.35518E-07
 
    0.72050E+06         0.92725E+06         0.00000E+00
    0.92725E+06        -0.50670E+08         0.00000E+00
    0.00000E+00         0.00000E+00         0.20297E-07
 
    0.72541E+06         0.95627E+06         0.00000E+00
    0.95627E+06        -0.50858E+08         0.00000E+00
    0.00000E+00         0.00000E+00         0.45667E-07
 
    0.72570E+06         0.98343E+06         0.00000E+00
    0.98343E+06        -0.51059E+08         0.00000E+00
    0.00000E+00         0.00000E+00         0.10148E-07
 
    0.72052E+06         0.10081E+07         0.00000E+00
    0.10081E+07        -0.51273E+08         0.00000E+00
    0.00000E+00         0.00000E+00         0.45667E-07
 
    0.70888E+06         0.10296E+07         0.00000E+00
    0.10296E+07        -0.51502E+08         0.00000E+00
    0.00000E+00         0.00000E+00        -0.15222E-07
 
    0.68972E+06         0.10472E+07         0.00000E+00
    0.10472E+07        -0.51747E+08         0.00000E+00
    0.00000E+00         0.00000E+00         0.10148E-07
 
    0.66183E+06         0.10598E+07         0.00000E+00
    0.10598E+07        -0.52009E+08         0.00000E+00
    0.00000E+00         0.00000E+00         0.10148E-07
 
    0.62390E+06         0.10664E+07         0.00000E+00
    0.10664E+07        -0.52290E+08         0.00000E+00
    0.00000E+00         0.00000E+00        -0.45667E-07
 
    0.57450E+06         0.10659E+07         0.00000E+00
    0.10659E+07        -0.52591E+08         0.00000E+00
    0.00000E+00         0.00000E+00         0.15222E-07
 
    0.51207E+06         0.10569E+07         0.00000E+00
    0.10569E+07        -0.52913E+08         0.00000E+00
    0.00000E+00         0.00000E+00        -0.65962E-07
 
    0.43493E+06         0.10383E+07         0.00000E+00
    0.10383E+07        -0.53258E+08         0.00000E+00
    0.00000E+00         0.00000E+00        -0.15221E-07
 
    0.34131E+06         0.10084E+07         0.00000E+00
    0.10084E+07        -0.53628E+08         0.00000E+00
    0.00000E+00         0.00000E+00        -0.20296E-07
 
    0.22933E+06         0.96589E+06         0.00000E+00
    0.96589E+06        -0.54024E+08         0.00000E+00
    0.00000E+00         0.00000E+00         0.00000E+00
 
    0.96995E+05         0.90947E+06         0.00000E+00
    0.90947E+06        -0.54447E+08         0.00000E+00
    0.00000E+00         0.00000E+00         0.20296E-07
 
   -0.57760E+05         0.83796E+06         0.00000E+00
    0.83796E+06        -0.54899E+08         0.00000E+00
    0.00000E+00         0.00000E+00        -0.50732E-08
 
   -0.23709E+06         0.75061E+06         0.00000E+00
    0.75061E+06        -0.55379E+08         0.00000E+00
    0.00000E+00         0.00000E+00        -0.40593E-07
 
   -0.44325E+06         0.64724E+06         0.00000E+00
    0.64724E+06        -0.55888E+08         0.00000E+00
    0.00000E+00         0.00000E+00        -0.35518E-07
 
   -0.67860E+06         0.52865E+06         0.00000E+00
    0.52865E+06        -0.56425E+08         0.00000E+00
    0.00000E+00         0.00000E+00         0.25371E-07
 
   -0.94567E+06         0.39702E+06         0.00000E+00
    0.39702E+06        -0.56987E+08         0.00000E+00
    0.00000E+00         0.00000E+00         0.50732E-08
 
   -0.12473E+07         0.25653E+06         0.00000E+00
    0.25653E+06        -0.57569E+08         0.00000E+00
    0.00000E+00         0.00000E+00        -0.20294E-07
 
   -0.15869E+07         0.11409E+06         0.00000E+00
    0.11409E+06        -0.58165E+08         0.00000E+00
    0.00000E+00         0.00000E+00         0.00000E+00
 
   -0.19689E+07        -0.19792E+05         0.00000E+00
   -0.19792E+05        -0.58763E+08         0.00000E+00
    0.00000E+00         0.00000E+00        -0.35519E-07
 
   -0.23998E+07        -0.13064E+06         0.00000E+00
   -0.13064E+06        -0.59347E+08         0.00000E+00
    0.00000E+00         0.00000E+00         0.25369E-07
 
   -0.28900E+07        -0.20088E+06         0.00000E+00
   -0.20088E+06        -0.59892E+08         0.00000E+00
    0.00000E+00         0.00000E+00        -0.20294E-07
 
   -0.34561E+07        -0.21407E+06         0.00000E+00
   -0.21407E+06        -0.60363E+08         0.00000E+00
    0.00000E+00         0.00000E+00        -0.81185E-07
 
   -0.41208E+07        -0.16336E+06         0.00000E+00
   -0.16336E+06        -0.60715E+08         0.00000E+00
    0.00000E+00         0.00000E+00        -0.13642E-11
 
   -0.49095E+07        -0.60944E+05         0.00000E+00
   -0.60944E+05        -0.60906E+08         0.00000E+00
    0.00000E+00         0.00000E+00         0.71037E-07
 
    0.75064E+05         0.60586E+03         0.00000E+00
    0.60586E+03        -0.47607E+08         0.00000E+00
    0.00000E+00         0.00000E+00         0.10148E-07
 
    0.69704E+05         0.19601E+04         0.00000E+00
    0.19601E+04        -0.47608E+08         0.00000E+00
    0.00000E+00         0.00000E+00        -0.20296E-07
 
    0.65310E+05         0.37049E+04         0.00000E+00
    0.37049E+04        -0.47612E+08         0.00000E+00
    0.00000E+00         0.00000E+00         0.50741E-08
 
    0.61700E+05         0.59372E+04         0.00000E+00
    0.59372E+04        -0.47616E+08         0.00000E+00
    0.00000E+00         0.00000E+00         0.20296E-07
 
    0.58715E+05         0.86092E+04         0.00000E+00
    0.86092E+04        -0.47621E+08         0.00000E+00
    0.00000E+00         0.00000E+00         0.25370E-07
 
    0.56251E+05         0.11605E+05         0.00000E+00
    0.11605E+05        -0.47627E+08         0.00000E+00
    0.00000E+00         0.00000E+00         0.10148E-07
 
    0.54249E+05         0.14802E+05         0.00000E+00
    0.14802E+05        -0.47633E+08         0.00000E+00
    0.00000E+00         0.00000E+00         0.25370E-07
 
    0.52672E+05         0.18106E+05         0.00000E+00
    0.18106E+05        -0.47639E+08         0.00000E+00
    0.00000E+00         0.00000E+00        -0.25370E-07
 
    0.51500E+05         0.21447E+05         0.00000E+00
    0.21447E+05        -0.47645E+08         0.00000E+00
    0.00000E+00         0.00000E+00        -0.25370E-07
 
    0.50715E+05         0.24787E+05         0.00000E+00
    0.24787E+05        -0.47652E+08         0.00000E+00
    0.00000E+00         0.00000E+00         0.81185E-07
 
    0.50301E+05         0.28102E+05         0.00000E+00
    0.28102E+05        -0.47659E+08         0.00000E+00
    0.00000E+00         0.00000E+00        -0.15222E-07
 
    0.50244E+05         0.31385E+05         0.00000E+00
    0.31385E+05        -0.47666E+08         0.00000E+00
    0.00000E+00         0.00000E+00         0.20296E-07
 
    0.50532E+05         0.34640E+05         0.00000E+00
    0.34640E+05        -0.47674E+08         0.00000E+00
    0.00000E+00         0.00000E+00        -0.20296E-07
 
    0.51154E+05         0.37874E+05         0.00000E+00
    0.37874E+05        -0.47681E+08         0.00000E+00
    0.00000E+00         0.00000E+00        -0.50740E-08
 
    0.52097E+05         0.41102E+05         0.00000E+00
    0.41102E+05        -0.47689E+08         0.00000E+00
    0.00000E+00         0.00000E+00        -0.28422E-13
 
    0.53353E+05         0.44339E+05         0.00000E+00
    0.44339E+05        -0.47696E+08         0.00000E+00
    0.00000E+00         0.00000E+00        -0.15222E-07
 
    0.54912E+05         0.47606E+05         0.00000E+00
    0.47606E+05        -0.47705E+08         0.00000E+00
    0.00000E+00         0.00000E+00         0.10148E-07
 
    0.56766E+05         0.50919E+05         0.00000E+00
    0.50919E+05        -0.47713E+08         0.00000E+00
    0.00000E+00         0.00000E+00        -0.20296E-07
 
    0.58910E+05         0.54299E+05         0.00000E+00
    0.54299E+05        -0.47722E+08         0.00000E+00
    0.00000E+00         0.00000E+00         0.20296E-07
 
    0.61338E+05         0.57765E+05         0.00000E+00
    0.57765E+05        -0.47731E+08         0.00000E+00
    0.00000E+00         0.00000E+00         0.35518E-07
 
    0.64047E+05         0.61335E+05         0.00000E+00
    0.61335E+05        -0.47740E+08         0.00000E+00
    0.00000E+00         0.00000E+00         0.10148E-07
 
    0.67035E+05         0.65030E+05         0.00000E+00
    0.65030E+05        -0.47750E+08         0.00000E+00
    0.00000E+00         0.00000E+00         0.00000E+00
 
    0.70301E+05         0.68866E+05         0.00000E+00
    0.68866E+05        -0.47760E+08         0.00000E+00
    0.00000E+00         0.00000E+00         0.10148E-07
 
    0.73846E+05         0.72862E+05         0.00000E+00
    0.72862E+05        -0.47771E+08         0.00000E+00
    0.00000E+00         0.00000E+00        -0.45667E-07
 
    0.77672E+05         0.77035E+05         0.00000E+00
    0.77035E+05        -0.47782E+08         0.00000E+00
    0.00000E+00         0.00000E+00         0.35518E-07
 
    0.81784E+05         0.81404E+05         0.00000E+00
    0.81404E+05        -0.47794E+08         0.00000E+00
    0.00000E+00         0.00000E+00        -0.45667E-07
 
    0.86185E+05         0.85985E+05         0.00000E+00
    0.85985E+05        -0.47806E+08         0.00000E+00
    0.00000E+00         0.00000E+00         0.00000E+00
 
    0.90883E+05         0.90796E+05         0.00000E+00
    0.90796E+05        -0.47819E+08         0.00000E+00
    0.00000E+00         0.00000E+00        -0.10148E-07
 
    0.95884E+05         0.95855E+05         0.00000E+00
    0.95855E+05        -0.47833E+08         0.00000E+00
    0.00000E+00         0.00000E+00        -0.30444E-07
 
    0.10120E+06         0.10118E+06         0.00000E+00
    0.10118E+06        -0.47847E+08         0.00000E+00
    0.00000E+00         0.00000E+00         0.10148E-07
 
    0.10684E+06         0.10678E+06         0.00000E+00
    0.10678E+06        -0.47862E+08         0.00000E+00
    0.00000E+00         0.00000E+00        -0.25370E-07
 
    0.11281E+06         0.11269E+06         0.00000E+00
    0.11269E+06        -0.47878E+08         0.00000E+00
    0.00000E+00         0.00000E+00         0.00000E+00
 
    0.11912E+06         0.11892E+06         0.00000E+00
    0.11892E+06        -0.47895E+08         0.00000E+00
    0.00000E+00         0.00000E+00        -0.76111E-07
 
    0.12580E+06         0.12548E+06         0.00000E+00
    0.12548E+06        -0.47913E+08         0.00000E+00
    0.00000E+00         0.00000E+00         0.10148E-07
 
    0.13285E+06         0.13240E+06         0.00000E+00
    0.13240E+06        -0.47932E+08         0.00000E+00
    0.00000E+00         0.00000E+00         0.35518E-07
 
    0.14029E+06         0.13970E+06         0.00000E+00
    0.13970E+06        -0.47951E+08         0.00000E+00
    0.00000E+00         0.00000E+00        -0.50741E-08
 
    0.14813E+06         0.14740E+06         0.00000E+00
    0.14740E+06        -0.47972E+08         0.00000E+00
    0.00000E+00         0.00000E+00        -0.20296E-07
 
    0.15640E+06         0.15552E+06         0.00000E+00
    0.15552E+06        -0.47994E+08         0.00000E+00
    0.00000E+00         0.00000E+00        -0.20296E-07
 
    0.16510E+06         0.16408E+06         0.00000E+00
    0.16408E+06        -0.48017E+08         0.00000E+00
    0.00000E+00         0.00000E+00        -0.71037E-07
 
    0.17425E+06         0.17310E+06         0.00000E+00
    0.17310E+06        -0.48042E+08         0.00000E+00
    0.00000E+00         0.00000E+00        -0.30444E-07
 
    0.18388E+06         0.18261E+06         0.00000E+00
    0.18261E+06        -0.48068E+08         0.00000E+00
    0.00000E+00         0.00000E+00        -0.20296E-07
 
    0.19401E+06         0.19263E+06         0.00000E+00
    0.19263E+06        -0.48095E+08         0.00000E+00
    0.00000E+00         0.00000E+00         0.00000E+00
 
    0.20464E+06         0.20319E+06         0.00000E+00
    0.20319E+06        -0.48124E+08         0.00000E+00
    0.00000E+00         0.00000E+00         0.20296E-07
 
    0.21580E+06         0.21431E+06         0.00000E+00
    0.21431E+06        -0.48155E+08         0.00000E+00
    0.00000E+00         0.00000E+00        -0.10148E-07
 
    0.22752E+06         0.22602E+06         0.00000E+00
    0.22602E+06        -0.48187E+08         0.00000E+00
    0.00000E+00         0.00000E+00        -0.35518E-07
 
    0.23980E+06         0.23834E+06         0.00000E+00
    0.23834E+06        -0.48221E+08         0.00000E+00
    0.00000E+00         0.00000E+00         0.00000E+00
 
    0.25266E+06         0.25130E+06         0.00000E+00
    0.25130E+06        -0.48257E+08         0.00000E+00
    0.00000E+00         0.00000E+00         0.00000E+00
 
    0.26613E+06         0.26493E+06         0.00000E+00
    0.26493E+06        -0.48295E+08         0.00000E+00
    0.00000E+00         0.00000E+00         0.10148E-07
 
    0.28021E+06         0.27926E+06         0.00000E+00
    0.27926E+06        -0.48336E+08         0.00000E+00
    0.00000E+00         0.00000E+00        -0.10148E-07
 
    0.29492E+06         0.29431E+06         0.00000E+00
    0.29431E+06        -0.48379E+08         0.00000E+00
    0.00000E+00         0.00000E+00         0.15222E-07
 
    0.31028E+06         0.31011E+06         0.00000E+00
    0.31011E+06        -0.48424E+08         0.00000E+00
    0.00000E+00         0.00000E+00        -0.10148E-07
 
    0.32628E+06         0.32668E+06         0.00000E+00
    0.32668E+06        -0.48472E+08         0.00000E+00
    0.00000E+00         0.00000E+00        -0.40593E-07
 
    0.34295E+06         0.34406E+06         0.00000E+00
    0.34406E+06        -0.48522E+08         0.00000E+00
    0.00000E+00         0.00000E+00         0.00000E+00
 
    0.36027E+06         0.36226E+06         0.00000E+00
    0.36226E+06        -0.48576E+08         0.00000E+00
    0.00000E+00         0.00000E+00         0.30444E-07
 
    0.37825E+06         0.38132E+06         0.00000E+00
    0.38132E+06        -0.48633E+08         0.00000E+00
    0.00000E+00         0.00000E+00        -0.10148E-07
 
    0.39687E+06         0.40125E+06         0.00000E+00
    0.40125E+06        -0.48693E+08         0.00000E+00
    0.00000E+00         0.00000E+00         0.40593E-07
 
    0.41613E+06         0.42206E+06         0.00000E+00
    0.42206E+06        -0.48757E+08         0.00000E+00
    0.00000E+00         0.00000E+00        -0.30444E-07
 
    0.43598E+06         0.44379E+06         0.00000E+00
    0.44379E+06        -0.48824E+08         0.00000E+00
    0.00000E+00         0.00000E+00         0.10148E-07
 
    0.45641E+06         0.46642E+06         0.00000E+00
    0.46642E+06        -0.48896E+08         0.00000E+00
    0.00000E+00         0.00000E+00        -0.50741E-08
 
    0.47735E+06         0.48998E+06         0.00000E+00
    0.48998E+06        -0.48971E+08         0.00000E+00
    0.00000E+00         0.00000E+00         0.40593E-07
 
    0.49876E+06         0.51446E+06         0.00000E+00
    0.51446E+06        -0.49052E+08         0.00000E+00
    0.00000E+00         0.00000E+00        -0.35518E-07
 
    0.52055E+06         0.53984E+06         0.00000E+00
    0.53984E+06        -0.49137E+08         0.00000E+00
    0.00000E+00         0.00000E+00         0.25370E-07
 
    0.54262E+06         0.56612E+06         0.00000E+00
    0.56612E+06        -0.49227E+08         0.00000E+00
    0.00000E+00         0.00000E+00        -0.15222E-07
 
    0.56486E+06         0.59325E+06         0.00000E+00
    0.59325E+06        -0.49322E+08         0.00000E+00
    0.00000E+00         0.00000E+00        -0.20296E-07
 
    0.58713E+06         0.62119E+06         0.00000E+00
    0.62119E+06        -0.49424E+08         0.00000E+00
    0.00000E+00         0.00000E+00         0.00000E+00
 
    0.60924E+06         0.64988E+06         0.00000E+00
    0.64988E+06        -0.49532E+08         0.00000E+00
    0.00000E+00         0.00000E+00         0.20296E-07
 
    0.63100E+06         0.67924E+06         0.00000E+00
    0.67924E+06        -0.49646E+08         0.00000E+00
    0.00000E+00         0.00000E+00        -0.25370E-07
 
    0.65215E+06         0.70916E+06         0.00000E+00
    0.70916E+06        -0.49767E+08         0.00000E+00
    0.00000E+00         0.00000E+00         0.00000E+00
 
    0.67241E+06         0.73950E+06         0.00000E+00
    0.73950E+06        -0.49896E+08         0.00000E+00
    0.00000E+00         0.00000E+00        -0.10148E-07
 
    0.69143E+06         0.77009E+06         0.00000E+00
    0.77009E+06        -0.50034E+08         0.00000E+00
    0.00000E+00         0.00000E+00         0.50741E-08
 
    0.70883E+06         0.80073E+06         0.00000E+00
    0.80073E+06        -0.50179E+08         0.00000E+00
    0.00000E+00         0.00000E+00        -0.20296E-07
 
    0.72413E+06         0.83116E+06         0.00000E+00
    0.83116E+06        -0.50335E+08         0.00000E+00
    0.00000E+00         0.00000E+00         0.25370E-07
 
    0.73680E+06         0.86108E+06         0.00000E+00
    0.86108E+06        -0.50500E+08         0.00000E+00
    0.00000E+00         0.00000E+00        -0.50741E-08
 
    0.74624E+06         0.89012E+06         0.00000E+00
    0.89012E+06        -0.50676E+08         0.00000E+00
    0.00000E+00         0.00000E+00        -0.35518E-07
 
    0.75175E+06         0.91785E+06         0.00000E+00
    0.91785E+06        -0.50864E+08         0.00000E+00
    0.00000E+00         0.00000E+00        -0.20296E-07
 
    0.75253E+06         0.94375E+06         0.00000E+00
    0.94375E+06        -0.51064E+08         0.00000E+00
    0.00000E+00         0.00000E+00        -0.50741E-08
 
    0.74769E+06         0.96722E+06         0.00000E+00
    0.96722E+06        -0.51278E+08         0.00000E+00
    0.00000E+00         0.00000E+00        -0.45666E-07
 
    0.73621E+06         0.98756E+06         0.00000E+00
    0.98756E+06        -0.51506E+08         0.00000E+00
    0.00000E+00         0.00000E+00         0.00000E+00
 
    0.71696E+06         0.10040E+07         0.00000E+00
    0.10040E+07        -0.51750E+08         0.00000E+00
    0.00000E+00         0.00000E+00        -0.15222E-07
 
    0.68868E+06         0.10155E+07         0.00000E+00
    0.10155E+07        -0.52011E+08         0.00000E+00
    0.00000E+00         0.00000E+00        -0.50741E-08
 
    0.65000E+06         0.10212E+07         0.00000E+00
    0.10212E+07        -0.52291E+08         0.00000E+00
    0.00000E+00         0.00000E+00         0.20296E-07
 
    0.59939E+06         0.10198E+07         0.00000E+00
    0.10198E+07        -0.52590E+08         0.00000E+00
    0.00000E+00         0.00000E+00        -0.20296E-07
 
    0.53520E+06         0.10101E+07         0.00000E+00
    0.10101E+07        -0.52911E+08         0.00000E+00
    0.00000E+00         0.00000E+00         0.20296E-07
 
    0.45565E+06         0.99080E+06         0.00000E+00
    0.99080E+06        -0.53254E+08         0.00000E+00
    0.00000E+00         0.00000E+00        -0.10146E-07
 
    0.35882E+06         0.96039E+06         0.00000E+00
    0.96039E+06        -0.53621E+08         0.00000E+00
    0.00000E+00         0.00000E+00         0.55816E-07
 
    0.24269E+06         0.91749E+06         0.00000E+00
    0.91749E+06        -0.54015E+08         0.00000E+00
    0.00000E+00         0.00000E+00         0.10148E-07
 
    0.10512E+06         0.86076E+06         0.00000E+00
    0.86076E+06        -0.54435E+08         0.00000E+00
    0.00000E+00         0.00000E+00         0.15221E-07
 
   -0.56119E+05         0.78904E+06         0.00000E+00
    0.78904E+06        -0.54883E+08         0.00000E+00
    0.00000E+00         0.00000E+00        -0.10148E-07
 
   -0.24334E+06         0.70157E+06         0.00000E+00
    0.70157E+06        -0.55360E+08         0.00000E+00
    0.00000E+00         0.00000E+00        -0.55816E-07
 
   -0.45893E+06         0.59816E+06         0.00000E+00
    0.59816E+06        -0.55866E+08         0.00000E+00
    0.00000E+00         0.00000E+00        -0.35518E-07
 
   -0.70534E+06         0.47961E+06         0.00000E+00
    0.47961E+06        -0.56400E+08         0.00000E+00
    0.00000E+00         0.00000E+00         0.35519E-07
 
   -0.98510E+06         0.34808E+06         0.00000E+00
    0.34808E+06        -0.56959E+08         0.00000E+00
    0.00000E+00         0.00000E+00         0.15221E-07
 
   -0.13009E+07         0.20777E+06         0.00000E+00
    0.20777E+06        -0.57540E+08         0.00000E+00
    0.00000E+00         0.00000E+00         0.76110E-07
 
   -0.16557E+07         0.65709E+05         0.00000E+00
    0.65709E+05        -0.58137E+08         0.00000E+00
    0.00000E+00         0.00000E+00        -0.50743E-07
 
   -0.20531E+07        -0.67427E+05         0.00000E+00
   -0.67427E+05        -0.58738E+08         0.00000E+00
    0.00000E+00         0.00000E+00        -0.25369E-07
 
   -0.24986E+07        -0.17665E+06         0.00000E+00
   -0.17665E+06        -0.59328E+08         0.00000E+00
    0.00000E+00         0.00000E+00         0.20296E-07
 
   -0.30009E+07        -0.24343E+06         0.00000E+00
   -0.24343E+06        -0.59883E+08         0.00000E+00
    0.00000E+00         0.00000E+00         0.50741E-07
 
   -0.35754E+07        -0.24988E+06         0.00000E+00
   -0.24988E+06        -0.60367E+08         0.00000E+00
    0.00000E+00         0.00000E+00        -0.81186E-07
 
   -0.42446E+07        -0.18785E+06         0.00000E+00
   -0.18785E+06        -0.60733E+08         0.00000E+00
    0.00000E+00         0.00000E+00        -0.86260E-07
 
   -0.50352E+07        -0.69720E+05         0.00000E+00
   -0.69720E+05        -0.60931E+08         0.00000E+00
    0.00000E+00         0.00000E+00        -0.25370E-07
 
    0.77110E+05         0.50069E+03         0.00000E+00
    0.50069E+03        -0.47607E+08         0.00000E+00
    0.00000E+00         0.00000E+00        -0.14211E-13
 
    0.71738E+05         0.16588E+04         0.00000E+00
    0.16588E+04        -0.47609E+08         0.00000E+00
    0.00000E+00         0.00000E+00         0.60889E-07
 
    0.67318E+05         0.32404E+04         0.00000E+00
    0.32404E+04        -0.47612E+08         0.00000E+00
    0.00000E+00         0.00000E+00         0.00000E+00
 
    0.63657E+05         0.53417E+04         0.00000E+00
    0.53417E+04        -0.47616E+08         0.00000E+00
    0.00000E+00         0.00000E+00         0.50740E-08
 
    0.60599E+05         0.79031E+04         0.00000E+00
    0.79031E+04        -0.47621E+08         0.00000E+00
    0.00000E+00         0.00000E+00         0.30444E-07
 
    0.58049E+05         0.10797E+05         0.00000E+00
    0.10797E+05        -0.47627E+08         0.00000E+00
    0.00000E+00         0.00000E+00        -0.60889E-07
 
    0.55957E+05         0.13896E+05         0.00000E+00
    0.13896E+05        -0.47633E+08         0.00000E+00
    0.00000E+00         0.00000E+00         0.35518E-07
 
    0.54299E+05         0.17099E+05         0.00000E+00
    0.17099E+05        -0.47640E+08         0.00000E+00
    0.00000E+00         0.00000E+00        -0.30444E-07
 
    0.53057E+05         0.20340E+05         0.00000E+00
    0.20340E+05        -0.47646E+08         0.00000E+00
    0.00000E+00         0.00000E+00         0.20296E-07
 
    0.52216E+05         0.23576E+05         0.00000E+00
    0.23576E+05        -0.47653E+08         0.00000E+00
    0.00000E+00         0.00000E+00         0.00000E+00
 
    0.51763E+05         0.26785E+05         0.00000E+00
    0.26785E+05        -0.47660E+08         0.00000E+00
    0.00000E+00         0.00000E+00        -0.50741E-08
 
    0.51683E+05         0.29960E+05         0.00000E+00
    0.29960E+05        -0.47667E+08         0.00000E+00
    0.00000E+00         0.00000E+00        -0.50741E-08
 
    0.51963E+05         0.33103E+05         0.00000E+00
    0.33103E+05        -0.47674E+08         0.00000E+00
    0.00000E+00         0.00000E+00         0.55815E-07
 
    0.52590E+05         0.36224E+05         0.00000E+00
    0.36224E+05        -0.47682E+08         0.00000E+00
    0.00000E+00         0.00000E+00         0.50741E-08
 
    0.53553E+05         0.39334E+05         0.00000E+00
    0.39334E+05        -0.47689E+08         0.00000E+00
    0.00000E+00         0.00000E+00         0.20296E-07
 
    0.54841E+05         0.42452E+05         0.00000E+00
    0.42452E+05        -0.47697E+08         0.00000E+00
    0.00000E+00         0.00000E+00        -0.35518E-07
 
    0.56443E+05         0.45594E+05         0.00000E+00
    0.45594E+05        -0.47705E+08         0.00000E+00
    0.00000E+00         0.00000E+00        -0.25370E-07
 
    0.58351E+05         0.48779E+05         0.00000E+00
    0.48779E+05        -0.47714E+08         0.00000E+00
    0.00000E+00         0.00000E+00         0.00000E+00
 
    0.60558E+05         0.52027E+05         0.00000E+00
    0.52027E+05        -0.47722E+08         0.00000E+00
    0.00000E+00         0.00000E+00         0.50740E-08
 
    0.63060E+05         0.55354E+05         0.00000E+00
    0.55354E+05        -0.47731E+08         0.00000E+00
    0.00000E+00         0.00000E+00         0.50741E-07
 
    0.65851E+05         0.58782E+05         0.00000E+00
    0.58782E+05        -0.47741E+08         0.00000E+00
    0.00000E+00         0.00000E+00         0.10148E-07
 
    0.68929E+05         0.62326E+05         0.00000E+00
    0.62326E+05        -0.47751E+08         0.00000E+00
    0.00000E+00         0.00000E+00         0.00000E+00
 
    0.72294E+05         0.66006E+05         0.00000E+00
    0.66006E+05        -0.47761E+08         0.00000E+00
    0.00000E+00         0.00000E+00        -0.50741E-08
 
    0.75946E+05         0.69839E+05         0.00000E+00
    0.69839E+05        -0.47772E+08         0.00000E+00
    0.00000E+00         0.00000E+00        -0.50741E-08
 
    0.79887E+05         0.73841E+05         0.00000E+00
    0.73841E+05        -0.47783E+08         0.00000E+00
    0.00000E+00         0.00000E+00         0.50741E-08
 
    0.84122E+05         0.78030E+05         0.00000E+00
    0.78030E+05        -0.47795E+08         0.00000E+00
    0.00000E+00         0.00000E+00         0.00000E+00
 
    0.88655E+05         0.82423E+05         0.00000E+00
    0.82423E+05        -0.47807E+08         0.00000E+00
    0.00000E+00         0.00000E+00         0.15222E-07
 
    0.93492E+05         0.87035E+05         0.00000E+00
    0.87035E+05        -0.47820E+08         0.00000E+00
    0.00000E+00         0.00000E+00        -0.50741E-08
 
    0.98643E+05         0.91884E+05         0.00000E+00
    0.91884E+05        -0.47834E+08         0.00000E+00
    0.00000E+00         0.00000E+00         0.45667E-07
 
    0.10411E+06         0.96987E+05         0.00000E+00
    0.96987E+05        -0.47848E+08         0.00000E+00
    0.00000E+00         0.00000E+00         0.10148E-07
 
    0.10992E+06         0.10236E+06         0.00000E+00
    0.10236E+06        -0.47864E+08         0.00000E+00
    0.00000E+00         0.00000E+00        -0.50741E-08
 
    0.11607E+06         0.10802E+06         0.00000E+00
    0.10802E+06        -0.47880E+08         0.00000E+00
    0.00000E+00         0.00000E+00         0.50741E-07
 
    0.12257E+06         0.11399E+06         0.00000E+00
    0.11399E+06        -0.47897E+08         0.00000E+00
    0.00000E+00         0.00000E+00         0.60889E-07
 
    0.12945E+06         0.12028E+06         0.00000E+00
    0.12028E+06        -0.47914E+08         0.00000E+00
    0.00000E+00         0.00000E+00        -0.10148E-07
 
    0.13670E+06         0.12692E+06         0.00000E+00
    0.12692E+06        -0.47933E+08         0.00000E+00
    0.00000E+00         0.00000E+00         0.20296E-07
 
    0.14436E+06         0.13392E+06         0.00000E+00
    0.13392E+06        -0.47953E+08         0.00000E+00
    0.00000E+00         0.00000E+00        -0.20296E-07
 
    0.15244E+06         0.14129E+06         0.00000E+00
    0.14129E+06        -0.47974E+08         0.00000E+00
    0.00000E+00         0.00000E+00        -0.50741E-07
 
    0.16094E+06         0.14908E+06         0.00000E+00
    0.14908E+06        -0.47996E+08         0.00000E+00
    0.00000E+00         0.00000E+00         0.10148E-07
 
    0.16990E+06         0.15728E+06         0.00000E+00
    0.15728E+06        -0.48019E+08         0.00000E+00
    0.00000E+00         0.00000E+00         0.60889E-07
 
    0.17933E+06         0.16593E+06         0.00000E+00
    0.16593E+06        -0.48044E+08         0.00000E+00
    0.00000E+00         0.00000E+00        -0.60889E-07
 
    0.18925E+06         0.17505E+06         0.00000E+00
    0.17505E+06        -0.48070E+08         0.00000E+00
    0.00000E+00         0.00000E+00         0.00000E+00
 
    0.19967E+06         0.18465E+06         0.00000E+00
    0.18465E+06        -0.48097E+08         0.00000E+00
    0.00000E+00         0.00000E+00         0.50741E-07
 
    0.21062E+06         0.19477E+06         0.00000E+00
    0.19477E+06        -0.48126E+08         0.00000E+00
    0.00000E+00         0.00000E+00         0.15222E-07
 
    0.22212E+06         0.20543E+06         0.00000E+00
    0.20543E+06        -0.48157E+08         0.00000E+00
    0.00000E+00         0.00000E+00         0.50741E-08
 
    0.23418E+06         0.21666E+06         0.00000E+00
    0.21666E+06        -0.48189E+08         0.00000E+00
    0.00000E+00         0.00000E+00        -0.25370E-07
 
    0.24683E+06         0.22847E+06         0.00000E+00
    0.22847E+06        -0.48224E+08         0.00000E+00
    0.00000E+00         0.00000E+00        -0.10148E-07
 
    0.26008E+06         0.24089E+06         0.00000E+00
    0.24089E+06        -0.48260E+08         0.00000E+00
    0.00000E+00         0.00000E+00         0.30444E-07
 
    0.27395E+06         0.25396E+06         0.00000E+00
    0.25396E+06        -0.48298E+08         0.00000E+00
    0.00000E+00         0.00000E+00        -0.40593E-07
 
    0.28846E+06         0.26769E+06         0.00000E+00
    0.26769E+06        -0.48339E+08         0.00000E+00
    0.00000E+00         0.00000E+00        -0.15222E-07
 
    0.30362E+06         0.28211E+06         0.00000E+00
    0.28211E+06        -0.48382E+08         0.00000E+00
    0.00000E+00         0.00000E+00        -0.60889E-07
 
    0.31944E+06         0.29726E+06         0.00000E+00
    0.29726E+06        -0.48427E+08         0.00000E+00
    0.00000E+00         0.00000E+00        -0.50741E-08
 
    0.33594E+06         0.31314E+06         0.00000E+00
    0.31314E+06        -0.48475E+08         0.00000E+00
    0.00000E+00         0.00000E+00         0.55815E-07
 
    0.35312E+06         0.32980E+06         0.00000E+00
    0.32980E+06        -0.48526E+08         0.00000E+00
    0.00000E+00         0.00000E+00         0.00000E+00
 
    0.37098E+06         0.34725E+06         0.00000E+00
    0.34725E+06        -0.48580E+08         0.00000E+00
    0.00000E+00         0.00000E+00         0.40593E-07
 
    0.38952E+06         0.36551E+06         0.00000E+00
    0.36551E+06        -0.48637E+08         0.00000E+00
    0.00000E+00         0.00000E+00        -0.10148E-07
 
    0.40874E+06         0.38461E+06         0.00000E+00
    0.38461E+06        -0.48697E+08         0.00000E+00
    0.00000E+00         0.00000E+00         0.25370E-07
 
    0.42860E+06         0.40457E+06         0.00000E+00
    0.40457E+06        -0.48761E+08         0.00000E+00
    0.00000E+00         0.00000E+00        -0.50741E-08
 
    0.44910E+06         0.42539E+06         0.00000E+00
    0.42539E+06        -0.48829E+08         0.00000E+00
    0.00000E+00         0.00000E+00         0.25370E-07
 
    0.47019E+06         0.44708E+06         0.00000E+00
    0.44708E+06        -0.48900E+08         0.00000E+00
    0.00000E+00         0.00000E+00         0.20296E-07
 
    0.49182E+06         0.46966E+06         0.00000E+00
    0.46966E+06        -0.48976E+08         0.00000E+00
    0.00000E+00         0.00000E+00         0.50740E-07
 
    0.51395E+06         0.49312E+06         0.00000E+00
    0.49312E+06        -0.49057E+08         0.00000E+00
    0.00000E+00         0.00000E+00         0.50740E-07
 
    0.53647E+06         0.51745E+06         0.00000E+00
    0.51745E+06        -0.49142E+08         0.00000E+00
    0.00000E+00         0.00000E+00         0.10148E-07
 
    0.55931E+06         0.54263E+06         0.00000E+00
    0.54263E+06        -0.49232E+08         0.00000E+00
    0.00000E+00         0.00000E+00        -0.10148E-07
 
    0.58234E+06         0.56863E+06         0.00000E+00
    0.56863E+06        -0.49328E+08         0.00000E+00
    0.00000E+00         0.00000E+00        -0.15222E-07
 
    0.60542E+06         0.59541E+06         0.00000E+00
    0.59541E+06        -0.49430E+08         0.00000E+00
    0.00000E+00         0.00000E+00        -0.25370E-07
 
    0.62836E+06         0.62290E+06         0.00000E+00
    0.62290E+06        -0.49538E+08         0.00000E+00
    0.00000E+00         0.00000E+00        -0.50741E-08
 
    0.65096E+06         0.65103E+06         0.00000E+00
    0.65103E+06        -0.49652E+08         0.00000E+00
    0.00000E+00         0.00000E+00         0.50741E-08
 
    0.67296E+06         0.67969E+06         0.00000E+00
    0.67969E+06        -0.49774E+08         0.00000E+00
    0.00000E+00         0.00000E+00        -0.30444E-07
 
    0.69408E+06         0.70875E+06         0.00000E+00
    0.70875E+06        -0.49903E+08         0.00000E+00
    0.00000E+00         0.00000E+00         0.00000E+00
 
    0.71395E+06         0.73805E+06         0.00000E+00
    0.73805E+06        -0.50040E+08         0.00000E+00
    0.00000E+00         0.00000E+00         0.20296E-07
 
    0.73219E+06         0.76738E+06         0.00000E+00
    0.76738E+06        -0.50186E+08         0.00000E+00
    0.00000E+00         0.00000E+00        -0.10148E-07
 
    0.74831E+06         0.79650E+06         0.00000E+00
    0.79650E+06        -0.50341E+08         0.00000E+00
    0.00000E+00         0.00000E+00         0.30444E-07
 
    0.76177E+06         0.82511E+06         0.00000E+00
    0.82511E+06        -0.50506E+08         0.00000E+00
    0.00000E+00         0.00000E+00         0.20296E-07
 
    0.77193E+06         0.85286E+06         0.00000E+00
    0.85286E+06        -0.50682E+08         0.00000E+00
    0.00000E+00         0.00000E+00        -0.10148E-07
 
    0.77809E+06         0.87931E+06         0.00000E+00
    0.87931E+06        -0.50869E+08         0.00000E+00
    0.00000E+00         0.00000E+00        -0.86259E-07
 
    0.77941E+06         0.90397E+06         0.00000E+00
    0.90397E+06        -0.51069E+08         0.00000E+00
    0.00000E+00         0.00000E+00         0.20296E-07
 
    0.77497E+06         0.92625E+06         0.00000E+00
    0.92625E+06        -0.51282E+08         0.00000E+00
    0.00000E+00         0.00000E+00        -0.35518E-07
 
    0.76371E+06         0.94546E+06         0.00000E+00
    0.94546E+06        -0.51510E+08         0.00000E+00
    0.00000E+00         0.00000E+00         0.10148E-07
 
    0.74445E+06         0.96081E+06         0.00000E+00
    0.96081E+06        -0.51753E+08         0.00000E+00
    0.00000E+00         0.00000E+00         0.00000E+00
 
    0.71589E+06         0.97139E+06         0.00000E+00
    0.97139E+06        -0.52013E+08         0.00000E+00
    0.00000E+00         0.00000E+00         0.10148E-07
 
    0.67655E+06         0.97618E+06         0.00000E+00
    0.97618E+06        -0.52292E+08         0.00000E+00
    0.00000E+00         0.00000E+00        -0.15222E-07
 
    0.62484E+06         0.97405E+06         0.00000E+00
    0.97405E+06        -0.52589E+08         0.00000E+00
    0.00000E+00         0.00000E+00        -0.15222E-07
 
    0.55900E+06         0.96374E+06         0.00000E+00
    0.96374E+06        -0.52908E+08         0.00000E+00
    0.00000E+00         0.00000E+00        -0.20296E-07
 
    0.47714E+06         0.94390E+06         0.00000E+00
    0.94390E+06        -0.53249E+08         0.00000E+00
    0.00000E+00         0.00000E+00        -0.15223E-07
 
    0.37721E+06         0.91313E+06         0.00000E+00
    0.91313E+06        -0.53614E+08         0.00000E+00
    0.00000E+00         0.00000E+00        -0.30444E-07
 
    0.25703E+06         0.87002E+06         0.00000E+00
    0.87002E+06        -0.54005E+08         0.00000E+00
    0.00000E+00         0.00000E+00         0.45666E-07
 
    0.11432E+06         0.81321E+06         0.00000E+00
    0.81321E+06        -0.54422E+08         0.00000E+00
    0.00000E+00         0.00000E+00        -0.10148E-07
 
   -0.53330E+05         0.74156E+06         0.00000E+00
    0.74156E+06        -0.54868E+08         0.00000E+00
    0.00000E+00         0.00000E+00         0.30444E-07
 
   -0.24840E+06         0.65427E+06         0.00000E+00
    0.65427E+06        -0.55341E+08         0.00000E+00
    0.00000E+00         0.00000E+00        -0.30444E-07
 
   -0.47342E+06         0.55116E+06         0.00000E+00
    0.55116E+06        -0.55844E+08         0.00000E+00
    0.00000E+00         0.00000E+00         0.10148E-07
 
   -0.73094E+06         0.43297E+06         0.00000E+00
    0.43297E+06        -0.56375E+08         0.00000E+00
    0.00000E+00         0.00000E+00        -0.45668E-07
 
   -0.10235E+07         0.30187E+06         0.00000E+00
    0.30187E+06        -0.56932E+08         0.00000E+00
    0.00000E+00         0.00000E+00         0.10148E-07
 
   -0.13537E+07         0.16204E+06         0.00000E+00
    0.16204E+06        -0.57511E+08         0.00000E+00
    0.00000E+00         0.00000E+00        -0.15221E-07
 
   -0.17240E+07         0.20496E+05         0.00000E+00
    0.20496E+05        -0.58108E+08         0.00000E+00
    0.00000E+00         0.00000E+00         0.50732E-08
 
   -0.21373E+07        -0.11193E+06         0.00000E+00
   -0.11193E+06        -0.58712E+08         0.00000E+00
    0.00000E+00         0.00000E+00        -0.15223E-07
 
   -0.25978E+07        -0.21987E+06         0.00000E+00
   -0.21987E+06        -0.59309E+08         0.00000E+00
    0.00000E+00         0.00000E+00         0.30441E-07
 
   -0.31128E+07        -0.28387E+06         0.00000E+00
   -0.28387E+06        -0.59875E+08         0.00000E+00
    0.00000E+00         0.00000E+00         0.20296E-07
 
   -0.36960E+07        -0.28445E+06         0.00000E+00
   -0.28445E+06        -0.60373E+08         0.00000E+00
    0.00000E+00         0.00000E+00        -0.10149E-07
 
   -0.43699E+07        -0.21185E+06         0.00000E+00
   -0.21185E+06        -0.60752E+08         0.00000E+00
    0.00000E+00         0.00000E+00         0.00000E+00
 
   -0.51622E+07        -0.78403E+05         0.00000E+00
   -0.78403E+05        -0.60960E+08         0.00000E+00
    0.00000E+00         0.00000E+00         0.30444E-07
 
    0.79145E+05         0.39567E+03         0.00000E+00
    0.39567E+03        -0.47607E+08         0.00000E+00
    0.00000E+00         0.00000E+00         0.00000E+00
 
    0.73761E+05         0.13597E+04         0.00000E+00
    0.13597E+04        -0.47609E+08         0.00000E+00
    0.00000E+00         0.00000E+00         0.30444E-07
 
    0.69314E+05         0.27829E+04         0.00000E+00
    0.27829E+04        -0.47612E+08         0.00000E+00
    0.00000E+00         0.00000E+00         0.11670E-06
 
    0.65599E+05         0.47588E+04         0.00000E+00
    0.47588E+04        -0.47617E+08         0.00000E+00
    0.00000E+00         0.00000E+00         0.35518E-07
 
    0.62462E+05         0.72138E+04         0.00000E+00
    0.72138E+04        -0.47622E+08         0.00000E+00
    0.00000E+00         0.00000E+00         0.30444E-07
 
    0.59821E+05         0.10008E+05         0.00000E+00
    0.10008E+05        -0.47628E+08         0.00000E+00
    0.00000E+00         0.00000E+00        -0.35518E-07
 
    0.57637E+05         0.13007E+05         0.00000E+00
    0.13007E+05        -0.47634E+08         0.00000E+00
    0.00000E+00         0.00000E+00         0.30444E-07
 
    0.55894E+05         0.16109E+05         0.00000E+00
    0.16109E+05        -0.47640E+08         0.00000E+00
    0.00000E+00         0.00000E+00        -0.10148E-07
 
    0.54580E+05         0.19245E+05         0.00000E+00
    0.19245E+05        -0.47647E+08         0.00000E+00
    0.00000E+00         0.00000E+00         0.13700E-06
 
    0.53682E+05         0.22374E+05         0.00000E+00
    0.22374E+05        -0.47654E+08         0.00000E+00
    0.00000E+00         0.00000E+00        -0.15222E-07
 
    0.53188E+05         0.25474E+05         0.00000E+00
    0.25474E+05        -0.47660E+08         0.00000E+00
    0.00000E+00         0.00000E+00         0.45667E-07
 
    0.53084E+05         0.28538E+05         0.00000E+00
    0.28538E+05        -0.47668E+08         0.00000E+00
    0.00000E+00         0.00000E+00         0.30444E-07
 
    0.53355E+05         0.31567E+05         0.00000E+00
    0.31567E+05        -0.47675E+08         0.00000E+00
    0.00000E+00         0.00000E+00        -0.35518E-07
 
    0.53988E+05         0.34571E+05         0.00000E+00
    0.34571E+05        -0.47682E+08         0.00000E+00
    0.00000E+00         0.00000E+00         0.50741E-08
 
    0.54970E+05         0.37562E+05         0.00000E+00
    0.37562E+05        -0.47690E+08         0.00000E+00
    0.00000E+00         0.00000E+00         0.25370E-07
 
    0.56289E+05         0.40557E+05         0.00000E+00
    0.40557E+05        -0.47698E+08         0.00000E+00
    0.00000E+00         0.00000E+00        -0.15222E-07
 
    0.57934E+05         0.43573E+05         0.00000E+00
    0.43573E+05        -0.47706E+08         0.00000E+00
    0.00000E+00         0.00000E+00         0.50741E-07
 
    0.59896E+05         0.46628E+05         0.00000E+00
    0.46628E+05        -0.47714E+08         0.00000E+00
    0.00000E+00         0.00000E+00        -0.35518E-07
 
    0.62166E+05         0.49740E+05         0.00000E+00
    0.49740E+05        -0.47723E+08         0.00000E+00
    0.00000E+00         0.00000E+00         0.50741E-07
 
    0.64740E+05         0.52928E+05         0.00000E+00
    0.52928E+05        -0.47732E+08         0.00000E+00
    0.00000E+00         0.00000E+00         0.40593E-07
 
    0.67612E+05         0.56211E+05         0.00000E+00
    0.56211E+05        -0.47742E+08         0.00000E+00
    0.00000E+00         0.00000E+00         0.35518E-07
 
    0.70779E+05         0.59604E+05         0.00000E+00
    0.59604E+05        -0.47751E+08         0.00000E+00
    0.00000E+00         0.00000E+00        -0.50741E-08
 
    0.74241E+05         0.63126E+05         0.00000E+00
    0.63126E+05        -0.47762E+08         0.00000E+00
    0.00000E+00         0.00000E+00         0.30444E-07
 
    0.77999E+05         0.66794E+05         0.00000E+00
    0.66794E+05        -0.47773E+08         0.00000E+00
    0.00000E+00         0.00000E+00         0.76111E-07
 
    0.82054E+05         0.70623E+05         0.00000E+00
    0.70623E+05        -0.47784E+08         0.00000E+00
    0.00000E+00         0.00000E+00        -0.15222E-07
 
    0.86409E+05         0.74631E+05         0.00000E+00
    0.74631E+05        -0.47796E+08         0.00000E+00
    0.00000E+00         0.00000E+00         0.10148E-07
 
    0.91072E+05         0.78832E+05         0.00000E+00
    0.78832E+05        -0.47808E+08         0.00000E+00
    0.00000E+00         0.00000E+00        -0.15222E-07
 
    0.96047E+05         0.83245E+05         0.00000E+00
    0.83245E+05        -0.47821E+08         0.00000E+00
    0.00000E+00         0.00000E+00         0.45667E-07
 
    0.10134E+06         0.87883E+05         0.00000E+00
    0.87883E+05        -0.47835E+08         0.00000E+00
    0.00000E+00         0.00000E+00         0.00000E+00
 
    0.10697E+06         0.92764E+05         0.00000E+00
    0.92764E+05        -0.47850E+08         0.00000E+00
    0.00000E+00         0.00000E+00        -0.55815E-07
 
    0.11294E+06         0.97904E+05         0.00000E+00
    0.97904E+05        -0.47865E+08         0.00000E+00
    0.00000E+00         0.00000E+00         0.25370E-07
 
    0.11926E+06         0.10332E+06         0.00000E+00
    0.10332E+06        -0.47881E+08         0.00000E+00
    0.00000E+00         0.00000E+00         0.71037E-07
 
    0.12595E+06         0.10903E+06         0.00000E+00
    0.10903E+06        -0.47898E+08         0.00000E+00
    0.00000E+00         0.00000E+00        -0.76111E-07
 
    0.13302E+06         0.11505E+06         0.00000E+00
    0.11505E+06        -0.47916E+08         0.00000E+00
    0.00000E+00         0.00000E+00        -0.10148E-07
 
    0.14048E+06         0.12139E+06         0.00000E+00
    0.12139E+06        -0.47934E+08         0.00000E+00
    0.00000E+00         0.00000E+00         0.50741E-08
 
    0.14835E+06         0.12809E+06         0.00000E+00
    0.12809E+06        -0.47954E+08         0.00000E+00
    0.00000E+00         0.00000E+00        -0.10148E-07
 
    0.15665E+06         0.13514E+06         0.00000E+00
    0.13514E+06        -0.47975E+08         0.00000E+00
    0.00000E+00         0.00000E+00        -0.20296E-07
 
    0.16540E+06         0.14259E+06         0.00000E+00
    0.14259E+06        -0.47997E+08         0.00000E+00
    0.00000E+00         0.00000E+00         0.10148E-07
 
    0.17461E+06         0.15043E+06         0.00000E+00
    0.15043E+06        -0.48021E+08         0.00000E+00
    0.00000E+00         0.00000E+00         0.40593E-07
 
    0.18431E+06         0.15870E+06         0.00000E+00
    0.15870E+06        -0.48046E+08         0.00000E+00
    0.00000E+00         0.00000E+00         0.00000E+00
 
    0.19450E+06         0.16742E+06         0.00000E+00
    0.16742E+06        -0.48072E+08         0.00000E+00
    0.00000E+00         0.00000E+00         0.60889E-07
 
    0.20522E+06         0.17661E+06         0.00000E+00
    0.17661E+06        -0.48099E+08         0.00000E+00
    0.00000E+00         0.00000E+00        -0.10148E-07
 
    0.21649E+06         0.18629E+06         0.00000E+00
    0.18629E+06        -0.48128E+08         0.00000E+00
    0.00000E+00         0.00000E+00        -0.15222E-07
 
    0.22831E+06         0.19649E+06         0.00000E+00
    0.19649E+06        -0.48159E+08         0.00000E+00
    0.00000E+00         0.00000E+00         0.25370E-07
 
    0.24072E+06         0.20722E+06         0.00000E+00
    0.20722E+06        -0.48192E+08         0.00000E+00
    0.00000E+00         0.00000E+00        -0.15222E-07
 
    0.25373E+06         0.21852E+06         0.00000E+00
    0.21852E+06        -0.48226E+08         0.00000E+00
    0.00000E+00         0.00000E+00        -0.60889E-07
 
    0.26736E+06         0.23040E+06         0.00000E+00
    0.23040E+06        -0.48263E+08         0.00000E+00
    0.00000E+00         0.00000E+00        -0.25370E-07
 
    0.28163E+06         0.24290E+06         0.00000E+00
    0.24290E+06        -0.48301E+08         0.00000E+00
    0.00000E+00         0.00000E+00         0.50741E-08
 
    0.29656E+06         0.25603E+06         0.00000E+00
    0.25603E+06        -0.48342E+08         0.00000E+00
    0.00000E+00         0.00000E+00         0.20296E-07
 
    0.31216E+06         0.26983E+06         0.00000E+00
    0.26983E+06        -0.48385E+08         0.00000E+00
    0.00000E+00         0.00000E+00         0.50741E-08
 
    0.32845E+06         0.28431E+06         0.00000E+00
    0.28431E+06        -0.48430E+08         0.00000E+00
    0.00000E+00         0.00000E+00        -0.50741E-08
 
    0.34543E+06         0.29950E+06         0.00000E+00
    0.29950E+06        -0.48479E+08         0.00000E+00
    0.00000E+00         0.00000E+00        -0.50741E-08
 
    0.36312E+06         0.31543E+06         0.00000E+00
    0.31543E+06        -0.48530E+08         0.00000E+00
    0.00000E+00         0.00000E+00         0.00000E+00
 
    0.38151E+06         0.33212E+06         0.00000E+00
    0.33212E+06        -0.48583E+08         0.00000E+00
    0.00000E+00         0.00000E+00         0.15222E-07
 
    0.40061E+06         0.34959E+06         0.00000E+00
    0.34959E+06        -0.48641E+08         0.00000E+00
    0.00000E+00         0.00000E+00         0.10148E-07
 
    0.42040E+06         0.36786E+06         0.00000E+00
    0.36786E+06        -0.48701E+08         0.00000E+00
    0.00000E+00         0.00000E+00         0.55815E-07
 
    0.44087E+06         0.38694E+06         0.00000E+00
    0.38694E+06        -0.48765E+08         0.00000E+00
    0.00000E+00         0.00000E+00         0.25370E-07
 
    0.46200E+06         0.40685E+06         0.00000E+00
    0.40685E+06        -0.48833E+08         0.00000E+00
    0.00000E+00         0.00000E+00         0.30444E-07
 
    0.48375E+06         0.42761E+06         0.00000E+00
    0.42761E+06        -0.48905E+08         0.00000E+00
    0.00000E+00         0.00000E+00         0.65963E-07
 
    0.50607E+06         0.44920E+06         0.00000E+00
    0.44920E+06        -0.48981E+08         0.00000E+00
    0.00000E+00         0.00000E+00         0.20296E-07
 
    0.52891E+06         0.47164E+06         0.00000E+00
    0.47164E+06        -0.49061E+08         0.00000E+00
    0.00000E+00         0.00000E+00        -0.45666E-07
 
    0.55218E+06         0.49491E+06         0.00000E+00
    0.49491E+06        -0.49147E+08         0.00000E+00
    0.00000E+00         0.00000E+00         0.10148E-07
 
    0.57578E+06         0.51899E+06         0.00000E+00
    0.51899E+06        -0.49237E+08         0.00000E+00
    0.00000E+00         0.00000E+00        -0.50741E-08
 
    0.59960E+06         0.54385E+06         0.00000E+00
    0.54385E+06        -0.49333E+08         0.00000E+00
    0.00000E+00         0.00000E+00         0.40593E-07
 
    0.62348E+06         0.56946E+06         0.00000E+00
    0.56946E+06        -0.49435E+08         0.00000E+00
    0.00000E+00         0.00000E+00        -0.15222E-07
 
    0.64725E+06         0.59576E+06         0.00000E+00
    0.59576E+06        -0.49543E+08         0.00000E+00
    0.00000E+00         0.00000E+00         0.15222E-07
 
    0.67070E+06         0.62265E+06         0.00000E+00
    0.62265E+06        -0.49658E+08         0.00000E+00
    0.00000E+00         0.00000E+00         0.10148E-07
 
    0.69357E+06         0.65006E+06         0.00000E+00
    0.65006E+06        -0.49779E+08         0.00000E+00
    0.00000E+00         0.00000E+00        -0.35518E-07
 
    0.71555E+06         0.67784E+06         0.00000E+00
    0.67784E+06        -0.49909E+08         0.00000E+00
    0.00000E+00         0.00000E+00         0.30444E-07
 
    0.73630E+06         0.70584E+06         0.00000E+00
    0.70584E+06        -0.50046E+08         0.00000E+00
    0.00000E+00         0.00000E+00         0.10148E-07
 
    0.75540E+06         0.73387E+06         0.00000E+00
    0.73387E+06        -0.50192E+08         0.00000E+00
    0.00000E+00         0.00000E+00         0.00000E+00
 
    0.77236E+06         0.76168E+06         0.00000E+00
    0.76168E+06        -0.50347E+08         0.00000E+00
    0.00000E+00         0.00000E+00         0.10148E-07
 
    0.78664E+06         0.78899E+06         0.00000E+00
    0.78899E+06        -0.50512E+08         0.00000E+00
    0.00000E+00         0.00000E+00        -0.50741E-08
 
    0.79757E+06         0.81545E+06         0.00000E+00
    0.81545E+06        -0.50688E+08         0.00000E+00
    0.00000E+00         0.00000E+00         0.00000E+00
 
    0.80442E+06         0.84065E+06         0.00000E+00
    0.84065E+06        -0.50875E+08         0.00000E+00
    0.00000E+00         0.00000E+00         0.20296E-07
 
    0.80634E+06         0.86409E+06         0.00000E+00
    0.86409E+06        -0.51074E+08         0.00000E+00
    0.00000E+00         0.00000E+00         0.50741E-08
 
    0.80237E+06         0.88521E+06         0.00000E+00
    0.88521E+06        -0.51287E+08         0.00000E+00
    0.00000E+00         0.00000E+00         0.00000E+00
 
    0.79140E+06         0.90332E+06         0.00000E+00
    0.90332E+06        -0.51514E+08         0.00000E+00
    0.00000E+00         0.00000E+00        -0.15222E-07
 
    0.77223E+06         0.91766E+06         0.00000E+00
    0.91766E+06        -0.51756E+08         0.00000E+00
    0.00000E+00         0.00000E+00        -0.10148E-07
 
    0.74346E+06         0.92734E+06         0.00000E+00
    0.92734E+06        -0.52015E+08         0.00000E+00
    0.00000E+00         0.00000E+00         0.30444E-07
 
    0.70356E+06         0.93134E+06         0.00000E+00
    0.93134E+06        -0.52292E+08         0.00000E+00
    0.00000E+00         0.00000E+00         0.86259E-07
 
    0.65086E+06         0.92855E+06         0.00000E+00
    0.92855E+06        -0.52588E+08         0.00000E+00
    0.00000E+00         0.00000E+00         0.20296E-07
 
    0.58349E+06         0.91772E+06         0.00000E+00
    0.91772E+06        -0.52905E+08         0.00000E+00
    0.00000E+00         0.00000E+00        -0.40593E-07
 
    0.49944E+06         0.89753E+06         0.00000E+00
    0.89753E+06        -0.53244E+08         0.00000E+00
    0.00000E+00         0.00000E+00        -0.15223E-07
 
    0.39654E+06         0.86658E+06         0.00000E+00
    0.86658E+06        -0.53607E+08         0.00000E+00
    0.00000E+00         0.00000E+00        -0.11163E-06
 
    0.27244E+06         0.82346E+06         0.00000E+00
    0.82346E+06        -0.53995E+08         0.00000E+00
    0.00000E+00         0.00000E+00         0.50750E-08
 
    0.12469E+06         0.76682E+06         0.00000E+00
    0.76682E+06        -0.54410E+08         0.00000E+00
    0.00000E+00         0.00000E+00         0.25371E-07
 
   -0.49280E+05         0.69551E+06         0.00000E+00
    0.69551E+06        -0.54852E+08         0.00000E+00
    0.00000E+00         0.00000E+00         0.10148E-07
 
   -0.25214E+06         0.60872E+06         0.00000E+00
    0.60872E+06        -0.55322E+08         0.00000E+00
    0.00000E+00         0.00000E+00        -0.15221E-07
 
   -0.48657E+06         0.50623E+06         0.00000E+00
    0.50623E+06        -0.55822E+08         0.00000E+00
    0.00000E+00         0.00000E+00         0.20296E-07
 
   -0.75524E+06         0.38877E+06         0.00000E+00
    0.38877E+06        -0.56350E+08         0.00000E+00
    0.00000E+00         0.00000E+00        -0.25371E-07
 
   -0.10607E+07         0.25844E+06         0.00000E+00
    0.25844E+06        -0.56904E+08         0.00000E+00
    0.00000E+00         0.00000E+00        -0.10148E-07
 
   -0.14055E+07         0.11937E+06         0.00000E+00
    0.11937E+06        -0.57483E+08         0.00000E+00
    0.00000E+00         0.00000E+00        -0.10148E-07
 
   -0.17917E+07        -0.21462E+05         0.00000E+00
   -0.21462E+05        -0.58080E+08         0.00000E+00
    0.00000E+00         0.00000E+00         0.50739E-07
 
   -0.22214E+07        -0.15320E+06         0.00000E+00
   -0.15320E+06        -0.58687E+08         0.00000E+00
    0.00000E+00         0.00000E+00        -0.20294E-07
 
   -0.26977E+07        -0.26019E+06         0.00000E+00
   -0.26019E+06        -0.59291E+08         0.00000E+00
    0.00000E+00         0.00000E+00        -0.40593E-07
 
   -0.32259E+07        -0.32210E+06         0.00000E+00
   -0.32210E+06        -0.59867E+08         0.00000E+00
    0.00000E+00         0.00000E+00         0.50732E-08
 
   -0.38183E+07        -0.31774E+06         0.00000E+00
   -0.31774E+06        -0.60380E+08         0.00000E+00
    0.00000E+00         0.00000E+00        -0.40593E-07
 
   -0.44970E+07        -0.23536E+06         0.00000E+00
   -0.23536E+06        -0.60775E+08         0.00000E+00
    0.00000E+00         0.00000E+00        -0.25371E-07
 
   -0.52911E+07        -0.87004E+05         0.00000E+00
   -0.87004E+05        -0.60993E+08         0.00000E+00
    0.00000E+00         0.00000E+00        -0.25370E-07
 
    0.81172E+05         0.29073E+03         0.00000E+00
    0.29073E+03        -0.47607E+08         0.00000E+00
    0.00000E+00         0.00000E+00         0.14211E-13
 
    0.75777E+05         0.10628E+04         0.00000E+00
    0.10628E+04        -0.47609E+08         0.00000E+00
    0.00000E+00         0.00000E+00        -0.50741E-07
 
    0.71300E+05         0.23330E+04         0.00000E+00
    0.23330E+04        -0.47613E+08         0.00000E+00
    0.00000E+00         0.00000E+00         0.20296E-07
 
    0.67526E+05         0.41896E+04         0.00000E+00
    0.41896E+04        -0.47617E+08         0.00000E+00
    0.00000E+00         0.00000E+00         0.20296E-07
 
    0.64305E+05         0.65424E+04         0.00000E+00
    0.65424E+04        -0.47623E+08         0.00000E+00
    0.00000E+00         0.00000E+00         0.20296E-07
 
    0.61566E+05         0.92381E+04         0.00000E+00
    0.92381E+04        -0.47628E+08         0.00000E+00
    0.00000E+00         0.00000E+00        -0.20296E-07
 
    0.59286E+05         0.12137E+05         0.00000E+00
    0.12137E+05        -0.47634E+08         0.00000E+00
    0.00000E+00         0.00000E+00        -0.30444E-07
 
    0.57455E+05         0.15135E+05         0.00000E+00
    0.15135E+05        -0.47641E+08         0.00000E+00
    0.00000E+00         0.00000E+00        -0.25370E-07
 
    0.56066E+05         0.18164E+05         0.00000E+00
    0.18164E+05        -0.47647E+08         0.00000E+00
    0.00000E+00         0.00000E+00        -0.10148E-07
 
    0.55110E+05         0.21183E+05         0.00000E+00
    0.21183E+05        -0.47654E+08         0.00000E+00
    0.00000E+00         0.00000E+00        -0.40593E-07
 
    0.54575E+05         0.24170E+05         0.00000E+00
    0.24170E+05        -0.47661E+08         0.00000E+00
    0.00000E+00         0.00000E+00        -0.10148E-07
 
    0.54446E+05         0.27119E+05         0.00000E+00
    0.27119E+05        -0.47668E+08         0.00000E+00
    0.00000E+00         0.00000E+00         0.10148E-07
 
    0.54708E+05         0.30031E+05         0.00000E+00
    0.30031E+05        -0.47675E+08         0.00000E+00
    0.00000E+00         0.00000E+00        -0.10148E-07
 
    0.55347E+05         0.32916E+05         0.00000E+00
    0.32916E+05        -0.47683E+08         0.00000E+00
    0.00000E+00         0.00000E+00         0.25370E-07
 
    0.56347E+05         0.35785E+05         0.00000E+00
    0.35785E+05        -0.47690E+08         0.00000E+00
    0.00000E+00         0.00000E+00         0.10148E-07
 
    0.57697E+05         0.38654E+05         0.00000E+00
    0.38654E+05        -0.47698E+08         0.00000E+00
    0.00000E+00         0.00000E+00         0.15222E-07
 
    0.59385E+05         0.41542E+05         0.00000E+00
    0.41542E+05        -0.47706E+08         0.00000E+00
    0.00000E+00         0.00000E+00        -0.50741E-08
 
    0.61399E+05         0.44464E+05         0.00000E+00
    0.44464E+05        -0.47715E+08         0.00000E+00
    0.00000E+00         0.00000E+00        -0.20296E-07
 
    0.63732E+05         0.47440E+05         0.00000E+00
    0.47440E+05        -0.47724E+08         0.00000E+00
    0.00000E+00         0.00000E+00        -0.15222E-07
 
    0.66377E+05         0.50487E+05         0.00000E+00
    0.50487E+05        -0.47733E+08         0.00000E+00
    0.00000E+00         0.00000E+00         0.50741E-08
 
    0.69329E+05         0.53622E+05         0.00000E+00
    0.53622E+05        -0.47742E+08         0.00000E+00
    0.00000E+00         0.00000E+00        -0.10148E-07
 
    0.72585E+05         0.56863E+05         0.00000E+00
    0.56863E+05        -0.47752E+08         0.00000E+00
    0.00000E+00         0.00000E+00         0.40593E-07
 
    0.76143E+05         0.60225E+05         0.00000E+00
    0.60225E+05        -0.47762E+08         0.00000E+00
    0.00000E+00         0.00000E+00        -0.10148E-07
 
    0.80004E+05         0.63726E+05         0.00000E+00
    0.63726E+05        -0.47773E+08         0.00000E+00
    0.00000E+00         0.00000E+00        -0.25370E-07
 
    0.84171E+05         0.67381E+05         0.00000E+00
    0.67381E+05        -0.47785E+08         0.00000E+00
    0.00000E+00         0.00000E+00         0.10148E-07
 
    0.88646E+05         0.71206E+05         0.00000E+00
    0.71206E+05        -0.47797E+08         0.00000E+00
    0.00000E+00         0.00000E+00         0.00000E+00
 
    0.93436E+05         0.75215E+05         0.00000E+00
    0.75215E+05        -0.47809E+08         0.00000E+00
    0.00000E+00         0.00000E+00         0.25370E-07
 
    0.98547E+05         0.79426E+05         0.00000E+00
    0.79426E+05        -0.47822E+08         0.00000E+00
    0.00000E+00         0.00000E+00         0.50741E-08
 
    0.10399E+06         0.83852E+05         0.00000E+00
    0.83852E+05        -0.47836E+08         0.00000E+00
    0.00000E+00         0.00000E+00        -0.50740E-08
 
    0.10977E+06         0.88509E+05         0.00000E+00
    0.88509E+05        -0.47851E+08         0.00000E+00
    0.00000E+00         0.00000E+00        -0.10148E-07
 
    0.11590E+06         0.93414E+05         0.00000E+00
    0.93414E+05        -0.47866E+08         0.00000E+00
    0.00000E+00         0.00000E+00         0.40593E-07
 
    0.12239E+06         0.98581E+05         0.00000E+00
    0.98581E+05        -0.47882E+08         0.00000E+00
    0.00000E+00         0.00000E+00        -0.35518E-07
 
    0.12926E+06         0.10403E+06         0.00000E+00
    0.10403E+06        -0.47899E+08         0.00000E+00
    0.00000E+00         0.00000E+00         0.25370E-07
 
    0.13651E+06         0.10977E+06         0.00000E+00
    0.10977E+06        -0.47917E+08         0.00000E+00
    0.00000E+00         0.00000E+00        -0.25370E-07
 
    0.14418E+06         0.11582E+06         0.00000E+00
    0.11582E+06        -0.47936E+08         0.00000E+00
    0.00000E+00         0.00000E+00         0.00000E+00
 
    0.15226E+06         0.12221E+06         0.00000E+00
    0.12221E+06        -0.47956E+08         0.00000E+00
    0.00000E+00         0.00000E+00        -0.40593E-07
 
    0.16079E+06         0.12894E+06         0.00000E+00
    0.12894E+06        -0.47977E+08         0.00000E+00
    0.00000E+00         0.00000E+00         0.55815E-07
 
    0.16977E+06         0.13604E+06         0.00000E+00
    0.13604E+06        -0.47999E+08         0.00000E+00
    0.00000E+00         0.00000E+00         0.50741E-08
 
    0.17923E+06         0.14353E+06         0.00000E+00
    0.14353E+06        -0.48022E+08         0.00000E+00
    0.00000E+00         0.00000E+00        -0.60889E-07
 
    0.18919E+06         0.15143E+06         0.00000E+00
    0.15143E+06        -0.48047E+08         0.00000E+00
    0.00000E+00         0.00000E+00         0.10148E-07
 
    0.19966E+06         0.15974E+06         0.00000E+00
    0.15974E+06        -0.48073E+08         0.00000E+00
    0.00000E+00         0.00000E+00         0.35518E-07
 
    0.21067E+06         0.16851E+06         0.00000E+00
    0.16851E+06        -0.48101E+08         0.00000E+00
    0.00000E+00         0.00000E+00         0.50741E-08
 
    0.22224E+06         0.17775E+06         0.00000E+00
    0.17775E+06        -0.48130E+08         0.00000E+00
    0.00000E+00         0.00000E+00         0.15222E-07
 
    0.23438E+06         0.18748E+06         0.00000E+00
    0.18748E+06        -0.48161E+08         0.00000E+00
    0.00000E+00         0.00000E+00         0.25370E-07
 
    0.24713E+06         0.19772E+06         0.00000E+00
    0.19772E+06        -0.48194E+08         0.00000E+00
    0.00000E+00         0.00000E+00        -0.40592E-07
 
    0.26049E+06         0.20849E+06         0.00000E+00
    0.20849E+06        -0.48228E+08         0.00000E+00
    0.00000E+00         0.00000E+00        -0.25370E-07
 
    0.27450E+06         0.21983E+06         0.00000E+00
    0.21983E+06        -0.48265E+08         0.00000E+00
    0.00000E+00         0.00000E+00        -0.45667E-07
 
    0.28916E+06         0.23176E+06         0.00000E+00
    0.23176E+06        -0.48304E+08         0.00000E+00
    0.00000E+00         0.00000E+00         0.00000E+00
 
    0.30451E+06         0.24429E+06         0.00000E+00
    0.24429E+06        -0.48344E+08         0.00000E+00
    0.00000E+00         0.00000E+00         0.30444E-07
 
    0.32054E+06         0.25745E+06         0.00000E+00
    0.25745E+06        -0.48388E+08         0.00000E+00
    0.00000E+00         0.00000E+00         0.10148E-07
 
    0.33728E+06         0.27127E+06         0.00000E+00
    0.27127E+06        -0.48433E+08         0.00000E+00
    0.00000E+00         0.00000E+00        -0.50741E-08
 
    0.35475E+06         0.28576E+06         0.00000E+00
    0.28576E+06        -0.48482E+08         0.00000E+00
    0.00000E+00         0.00000E+00         0.15222E-07
 
    0.37293E+06         0.30096E+06         0.00000E+00
    0.30096E+06        -0.48533E+08         0.00000E+00
    0.00000E+00         0.00000E+00        -0.35518E-07
 
    0.39185E+06         0.31689E+06         0.00000E+00
    0.31689E+06        -0.48587E+08         0.00000E+00
    0.00000E+00         0.00000E+00         0.15222E-07
 
    0.41150E+06         0.33356E+06         0.00000E+00
    0.33356E+06        -0.48644E+08         0.00000E+00
    0.00000E+00         0.00000E+00         0.50741E-08
 
    0.43187E+06         0.35098E+06         0.00000E+00
    0.35098E+06        -0.48705E+08         0.00000E+00
    0.00000E+00         0.00000E+00        -0.40592E-07
 
    0.45294E+06         0.36919E+06         0.00000E+00
    0.36919E+06        -0.48769E+08         0.00000E+00
    0.00000E+00         0.00000E+00        -0.50741E-07
 
    0.47470E+06         0.38819E+06         0.00000E+00
    0.38819E+06        -0.48837E+08         0.00000E+00
    0.00000E+00         0.00000E+00         0.15222E-07
 
    0.49710E+06         0.40799E+06         0.00000E+00
    0.40799E+06        -0.48909E+08         0.00000E+00
    0.00000E+00         0.00000E+00        -0.10148E-07
 
    0.52010E+06         0.42860E+06         0.00000E+00
    0.42860E+06        -0.48985E+08         0.00000E+00
    0.00000E+00         0.00000E+00         0.20296E-07
 
    0.54365E+06         0.45001E+06         0.00000E+00
    0.45001E+06        -0.49066E+08         0.00000E+00
    0.00000E+00         0.00000E+00         0.15222E-07
 
    0.56765E+06         0.47221E+06         0.00000E+00
    0.47221E+06        -0.49152E+08         0.00000E+00
    0.00000E+00         0.00000E+00         0.00000E+00
 
    0.59202E+06         0.49519E+06         0.00000E+00
    0.49519E+06        -0.49242E+08         0.00000E+00
    0.00000E+00         0.00000E+00         0.00000E+00
 
    0.61662E+06         0.51891E+06         0.00000E+00
    0.51891E+06        -0.49339E+08         0.00000E+00
    0.00000E+00         0.00000E+00         0.15222E-07
 
    0.64132E+06         0.54335E+06         0.00000E+00
    0.54335E+06        -0.49440E+08         0.00000E+00
    0.00000E+00         0.00000E+00         0.00000E+00
 
    0.66592E+06         0.56844E+06         0.00000E+00
    0.56844E+06        -0.49549E+08         0.00000E+00
    0.00000E+00         0.00000E+00        -0.45666E-07
 
    0.69023E+06         0.59410E+06         0.00000E+00
    0.59410E+06        -0.49663E+08         0.00000E+00
    0.00000E+00         0.00000E+00        -0.55815E-07
 
    0.71396E+06         0.62024E+06         0.00000E+00
    0.62024E+06        -0.49785E+08         0.00000E+00
    0.00000E+00         0.00000E+00         0.50741E-08
 
    0.73683E+06         0.64674E+06         0.00000E+00
    0.64674E+06        -0.49914E+08         0.00000E+00
    0.00000E+00         0.00000E+00        -0.35518E-07
 
    0.75847E+06         0.67345E+06         0.00000E+00
    0.67345E+06        -0.50052E+08         0.00000E+00
    0.00000E+00         0.00000E+00         0.15222E-07
 
    0.77846E+06         0.70017E+06         0.00000E+00
    0.70017E+06        -0.50197E+08         0.00000E+00
    0.00000E+00         0.00000E+00         0.20295E-07
 
    0.79630E+06         0.72668E+06         0.00000E+00
    0.72668E+06        -0.50353E+08         0.00000E+00
    0.00000E+00         0.00000E+00        -0.10148E-07
 
    0.81142E+06         0.75270E+06         0.00000E+00
    0.75270E+06        -0.50517E+08         0.00000E+00
    0.00000E+00         0.00000E+00        -0.20296E-07
 
    0.82316E+06         0.77789E+06         0.00000E+00
    0.77789E+06        -0.50693E+08         0.00000E+00
    0.00000E+00         0.00000E+00        -0.65963E-07
 
    0.83075E+06         0.80185E+06         0.00000E+00
    0.80185E+06        -0.50880E+08         0.00000E+00
    0.00000E+00         0.00000E+00        -0.50741E-08
 
    0.83333E+06         0.82410E+06         0.00000E+00
    0.82410E+06        -0.51079E+08         0.00000E+00
    0.00000E+00         0.00000E+00        -0.91333E-07
 
    0.82989E+06         0.84408E+06         0.00000E+00
    0.84408E+06        -0.51291E+08         0.00000E+00
    0.00000E+00         0.00000E+00         0.00000E+00
 
    0.81930E+06         0.86114E+06         0.00000E+00
    0.86114E+06        -0.51517E+08         0.00000E+00
    0.00000E+00         0.00000E+00         0.15222E-07
 
    0.80029E+06         0.87452E+06         0.00000E+00
    0.87452E+06        -0.51759E+08         0.00000E+00
    0.00000E+00         0.00000E+00         0.00000E+00
 
    0.77141E+06         0.88335E+06         0.00000E+00
    0.88335E+06        -0.52017E+08         0.00000E+00
    0.00000E+00         0.00000E+00        -0.20296E-07
 
    0.73108E+06         0.88663E+06         0.00000E+00
    0.88663E+06        -0.52293E+08         0.00000E+00
    0.00000E+00         0.00000E+00         0.35518E-07
 
    0.67750E+06         0.88328E+06         0.00000E+00
    0.88328E+06        -0.52587E+08         0.00000E+00
    0.00000E+00         0.00000E+00        -0.65963E-07
 
    0.60873E+06         0.87206E+06         0.00000E+00
    0.87206E+06        -0.52903E+08         0.00000E+00
    0.00000E+00         0.00000E+00        -0.30444E-07
 
    0.52262E+06         0.85166E+06         0.00000E+00
    0.85166E+06        -0.53240E+08         0.00000E+00
    0.00000E+00         0.00000E+00        -0.40593E-07
 
    0.41687E+06         0.82070E+06         0.00000E+00
    0.82070E+06        -0.53600E+08         0.00000E+00
    0.00000E+00         0.00000E+00        -0.65964E-07
 
    0.28899E+06         0.77778E+06         0.00000E+00
    0.77778E+06        -0.53986E+08         0.00000E+00
    0.00000E+00         0.00000E+00        -0.10148E-07
 
    0.13633E+06         0.72156E+06         0.00000E+00
    0.72156E+06        -0.54397E+08         0.00000E+00
    0.00000E+00         0.00000E+00        -0.55814E-07
 
   -0.43858E+05         0.65087E+06         0.00000E+00
    0.65087E+06        -0.54836E+08         0.00000E+00
    0.00000E+00         0.00000E+00         0.50739E-07
 
   -0.25442E+06         0.56489E+06         0.00000E+00
    0.56489E+06        -0.55304E+08         0.00000E+00
    0.00000E+00         0.00000E+00         0.00000E+00
 
   -0.49822E+06         0.46338E+06         0.00000E+00
    0.46338E+06        -0.55800E+08         0.00000E+00
    0.00000E+00         0.00000E+00        -0.10656E-06
 
   -0.77808E+06         0.34701E+06         0.00000E+00
    0.34701E+06        -0.56325E+08         0.00000E+00
    0.00000E+00         0.00000E+00        -0.60889E-07
 
   -0.10966E+07         0.21782E+06         0.00000E+00
    0.21782E+06        -0.56877E+08         0.00000E+00
    0.00000E+00         0.00000E+00         0.00000E+00
 
   -0.14562E+07         0.79830E+05         0.00000E+00
    0.79830E+05        -0.57454E+08         0.00000E+00
    0.00000E+00         0.00000E+00         0.65962E-07
 
   -0.18586E+07        -0.60075E+05         0.00000E+00
   -0.60075E+05        -0.58052E+08         0.00000E+00
    0.00000E+00         0.00000E+00         0.76112E-07
 
   -0.23054E+07        -0.19111E+06         0.00000E+00
   -0.19111E+06        -0.58662E+08         0.00000E+00
    0.00000E+00         0.00000E+00        -0.35521E-07
 
   -0.27980E+07        -0.29745E+06         0.00000E+00
   -0.29745E+06        -0.59272E+08         0.00000E+00
    0.00000E+00         0.00000E+00        -0.10145E-07
 
   -0.33403E+07        -0.35797E+06         0.00000E+00
   -0.35797E+06        -0.59860E+08         0.00000E+00
    0.00000E+00         0.00000E+00         0.50750E-08
 
   -0.39426E+07        -0.34965E+06         0.00000E+00
   -0.34965E+06        -0.60388E+08         0.00000E+00
    0.00000E+00         0.00000E+00        -0.15221E-07
 
   -0.46264E+07        -0.25839E+06         0.00000E+00
   -0.25839E+06        -0.60799E+08         0.00000E+00
    0.00000E+00         0.00000E+00        -0.16237E-06
 
   -0.54224E+07        -0.95534E+05         0.00000E+00
   -0.95534E+05        -0.61028E+08         0.00000E+00
    0.00000E+00         0.00000E+00         0.20297E-07
 
    0.83196E+05         0.18583E+03         0.00000E+00
    0.18583E+03        -0.47607E+08         0.00000E+00
    0.00000E+00         0.00000E+00        -0.10148E-07
 
    0.77789E+05         0.76833E+03         0.00000E+00
    0.76833E+03        -0.47609E+08         0.00000E+00
    0.00000E+00         0.00000E+00        -0.50741E-08
 
    0.73278E+05         0.18915E+04         0.00000E+00
    0.18915E+04        -0.47613E+08         0.00000E+00
    0.00000E+00         0.00000E+00         0.00000E+00
 
    0.69439E+05         0.36355E+04         0.00000E+00
    0.36355E+04        -0.47618E+08         0.00000E+00
    0.00000E+00         0.00000E+00        -0.35518E-07
 
    0.66127E+05         0.58902E+04         0.00000E+00
    0.58902E+04        -0.47623E+08         0.00000E+00
    0.00000E+00         0.00000E+00         0.10148E-07
 
    0.63285E+05         0.84886E+04         0.00000E+00
    0.84886E+04        -0.47629E+08         0.00000E+00
    0.00000E+00         0.00000E+00         0.35518E-07
 
    0.60903E+05         0.11286E+05         0.00000E+00
    0.11286E+05        -0.47635E+08         0.00000E+00
    0.00000E+00         0.00000E+00         0.81185E-07
 
    0.58980E+05         0.14177E+05         0.00000E+00
    0.14177E+05        -0.47641E+08         0.00000E+00
    0.00000E+00         0.00000E+00         0.60889E-07
 
    0.57515E+05         0.17096E+05         0.00000E+00
    0.17096E+05        -0.47648E+08         0.00000E+00
    0.00000E+00         0.00000E+00        -0.50741E-08
 
    0.56500E+05         0.20002E+05         0.00000E+00
    0.20002E+05        -0.47655E+08         0.00000E+00
    0.00000E+00         0.00000E+00         0.00000E+00
 
    0.55922E+05         0.22873E+05         0.00000E+00
    0.22873E+05        -0.47662E+08         0.00000E+00
    0.00000E+00         0.00000E+00        -0.50741E-08
 
    0.55768E+05         0.25704E+05         0.00000E+00
    0.25704E+05        -0.47669E+08         0.00000E+00
    0.00000E+00         0.00000E+00        -0.35518E-07
 
    0.56021E+05         0.28496E+05         0.00000E+00
    0.28496E+05        -0.47676E+08         0.00000E+00
    0.00000E+00         0.00000E+00        -0.25370E-07
 
    0.56665E+05         0.31258E+05         0.00000E+00
    0.31258E+05        -0.47683E+08         0.00000E+00
    0.00000E+00         0.00000E+00         0.55815E-07
 
    0.57684E+05         0.34002E+05         0.00000E+00
    0.34002E+05        -0.47691E+08         0.00000E+00
    0.00000E+00         0.00000E+00         0.15222E-07
 
    0.59065E+05         0.36744E+05         0.00000E+00
    0.36744E+05        -0.47699E+08         0.00000E+00
    0.00000E+00         0.00000E+00         0.91333E-07
 
    0.60795E+05         0.39501E+05         0.00000E+00
    0.39501E+05        -0.47707E+08         0.00000E+00
    0.00000E+00         0.00000E+00         0.15222E-07
 
    0.62862E+05         0.42290E+05         0.00000E+00
    0.42290E+05        -0.47716E+08         0.00000E+00
    0.00000E+00         0.00000E+00        -0.10148E-07
 
    0.65257E+05         0.45127E+05         0.00000E+00
    0.45127E+05        -0.47724E+08         0.00000E+00
    0.00000E+00         0.00000E+00        -0.50740E-08
 
    0.67972E+05         0.48030E+05         0.00000E+00
    0.48030E+05        -0.47733E+08         0.00000E+00
    0.00000E+00         0.00000E+00        -0.50741E-08
 
    0.71003E+05         0.51017E+05         0.00000E+00
    0.51017E+05        -0.47743E+08         0.00000E+00
    0.00000E+00         0.00000E+00        -0.30444E-07
 
    0.74346E+05         0.54103E+05         0.00000E+00
    0.54103E+05        -0.47753E+08         0.00000E+00
    0.00000E+00         0.00000E+00         0.00000E+00
 
    0.77999E+05         0.57305E+05         0.00000E+00
    0.57305E+05        -0.47763E+08         0.00000E+00
    0.00000E+00         0.00000E+00         0.25370E-07
 
    0.81962E+05         0.60637E+05         0.00000E+00
    0.60637E+05        -0.47774E+08         0.00000E+00
    0.00000E+00         0.00000E+00         0.10148E-07
 
    0.86239E+05         0.64116E+05         0.00000E+00
    0.64116E+05        -0.47785E+08         0.00000E+00
    0.00000E+00         0.00000E+00        -0.25370E-07
 
    0.90832E+05         0.67756E+05         0.00000E+00
    0.67756E+05        -0.47797E+08         0.00000E+00
    0.00000E+00         0.00000E+00        -0.10148E-07
 
    0.95746E+05         0.71572E+05         0.00000E+00
    0.71572E+05        -0.47810E+08         0.00000E+00
    0.00000E+00         0.00000E+00         0.45667E-07
 
    0.10099E+06         0.75579E+05         0.00000E+00
    0.75579E+05        -0.47823E+08         0.00000E+00
    0.00000E+00         0.00000E+00         0.30444E-07
 
    0.10657E+06         0.79791E+05         0.00000E+00
    0.79791E+05        -0.47837E+08         0.00000E+00
    0.00000E+00         0.00000E+00        -0.30444E-07
 
    0.11250E+06         0.84223E+05         0.00000E+00
    0.84223E+05        -0.47851E+08         0.00000E+00
    0.00000E+00         0.00000E+00        -0.25370E-07
 
    0.11879E+06         0.88890E+05         0.00000E+00
    0.88890E+05        -0.47867E+08         0.00000E+00
    0.00000E+00         0.00000E+00        -0.45667E-07
 
    0.12545E+06         0.93807E+05         0.00000E+00
    0.93807E+05        -0.47883E+08         0.00000E+00
    0.00000E+00         0.00000E+00         0.96407E-07
 
    0.13249E+06         0.98989E+05         0.00000E+00
    0.98989E+05        -0.47900E+08         0.00000E+00
    0.00000E+00         0.00000E+00        -0.60889E-07
 
    0.13994E+06         0.10445E+06         0.00000E+00
    0.10445E+06        -0.47918E+08         0.00000E+00
    0.00000E+00         0.00000E+00        -0.30444E-07
 
    0.14780E+06         0.11022E+06         0.00000E+00
    0.11022E+06        -0.47937E+08         0.00000E+00
    0.00000E+00         0.00000E+00        -0.60889E-07
 
    0.15609E+06         0.11629E+06         0.00000E+00
    0.11629E+06        -0.47957E+08         0.00000E+00
    0.00000E+00         0.00000E+00         0.45667E-07
 
    0.16483E+06         0.12270E+06         0.00000E+00
    0.12270E+06        -0.47978E+08         0.00000E+00
    0.00000E+00         0.00000E+00        -0.50740E-08
 
    0.17405E+06         0.12946E+06         0.00000E+00
    0.12946E+06        -0.48000E+08         0.00000E+00
    0.00000E+00         0.00000E+00        -0.10148E-07
 
    0.18375E+06         0.13658E+06         0.00000E+00
    0.13658E+06        -0.48024E+08         0.00000E+00
    0.00000E+00         0.00000E+00         0.00000E+00
 
    0.19396E+06         0.14409E+06         0.00000E+00
    0.14409E+06        -0.48049E+08         0.00000E+00
    0.00000E+00         0.00000E+00        -0.71037E-07
 
    0.20471E+06         0.15201E+06         0.00000E+00
    0.15201E+06        -0.48075E+08         0.00000E+00
    0.00000E+00         0.00000E+00         0.10148E-07
 
    0.21600E+06         0.16035E+06         0.00000E+00
    0.16035E+06        -0.48103E+08         0.00000E+00
    0.00000E+00         0.00000E+00         0.60889E-07
 
    0.22787E+06         0.16914E+06         0.00000E+00
    0.16914E+06        -0.48132E+08         0.00000E+00
    0.00000E+00         0.00000E+00         0.40593E-07
 
    0.24033E+06         0.17840E+06         0.00000E+00
    0.17840E+06        -0.48163E+08         0.00000E+00
    0.00000E+00         0.00000E+00         0.25370E-07
 
    0.25341E+06         0.18814E+06         0.00000E+00
    0.18814E+06        -0.48196E+08         0.00000E+00
    0.00000E+00         0.00000E+00         0.10148E-07
 
    0.26712E+06         0.19840E+06         0.00000E+00
    0.19840E+06        -0.48231E+08         0.00000E+00
    0.00000E+00         0.00000E+00        -0.30444E-07
 
    0.28150E+06         0.20919E+06         0.00000E+00
    0.20919E+06        -0.48267E+08         0.00000E+00
    0.00000E+00         0.00000E+00         0.15222E-07
 
    0.29655E+06         0.22053E+06         0.00000E+00
    0.22053E+06        -0.48306E+08         0.00000E+00
    0.00000E+00         0.00000E+00        -0.25370E-07
 
    0.31230E+06         0.23246E+06         0.00000E+00
    0.23246E+06        -0.48347E+08         0.00000E+00
    0.00000E+00         0.00000E+00         0.55815E-07
 
    0.32876E+06         0.24498E+06         0.00000E+00
    0.24498E+06        -0.48390E+08         0.00000E+00
    0.00000E+00         0.00000E+00         0.25370E-07
 
    0.34595E+06         0.25813E+06         0.00000E+00
    0.25813E+06        -0.48436E+08         0.00000E+00
    0.00000E+00         0.00000E+00        -0.50741E-08
 
    0.36389E+06         0.27193E+06         0.00000E+00
    0.27193E+06        -0.48485E+08         0.00000E+00
    0.00000E+00         0.00000E+00        -0.25370E-07
 
    0.38257E+06         0.28639E+06         0.00000E+00
    0.28639E+06        -0.48536E+08         0.00000E+00
    0.00000E+00         0.00000E+00         0.35518E-07
 
    0.40201E+06         0.30154E+06         0.00000E+00
    0.30154E+06        -0.48590E+08         0.00000E+00
    0.00000E+00         0.00000E+00         0.35518E-07
 
    0.42220E+06         0.31741E+06         0.00000E+00
    0.31741E+06        -0.48648E+08         0.00000E+00
    0.00000E+00         0.00000E+00        -0.15222E-07
 
    0.44313E+06         0.33399E+06         0.00000E+00
    0.33399E+06        -0.48708E+08         0.00000E+00
    0.00000E+00         0.00000E+00        -0.11670E-06
 
    0.46480E+06         0.35132E+06         0.00000E+00
    0.35132E+06        -0.48773E+08         0.00000E+00
    0.00000E+00         0.00000E+00         0.00000E+00
 
    0.48718E+06         0.36940E+06         0.00000E+00
    0.36940E+06        -0.48841E+08         0.00000E+00
    0.00000E+00         0.00000E+00         0.65963E-07
 
    0.51023E+06         0.38825E+06         0.00000E+00
    0.38825E+06        -0.48913E+08         0.00000E+00
    0.00000E+00         0.00000E+00        -0.45667E-07
 
    0.53391E+06         0.40786E+06         0.00000E+00
    0.40786E+06        -0.48990E+08         0.00000E+00
    0.00000E+00         0.00000E+00         0.20296E-07
 
    0.55816E+06         0.42823E+06         0.00000E+00
    0.42823E+06        -0.49070E+08         0.00000E+00
    0.00000E+00         0.00000E+00         0.00000E+00
 
    0.58289E+06         0.44936E+06         0.00000E+00
    0.44936E+06        -0.49156E+08         0.00000E+00
    0.00000E+00         0.00000E+00         0.00000E+00
 
    0.60802E+06         0.47123E+06         0.00000E+00
    0.47123E+06        -0.49247E+08         0.00000E+00
    0.00000E+00         0.00000E+00        -0.50741E-08
 
    0.63341E+06         0.49381E+06         0.00000E+00
    0.49381E+06        -0.49343E+08         0.00000E+00
    0.00000E+00         0.00000E+00        -0.50741E-07
 
    0.65892E+06         0.51707E+06         0.00000E+00
    0.51707E+06        -0.49445E+08         0.00000E+00
    0.00000E+00         0.00000E+00        -0.35518E-07
 
    0.68437E+06         0.54094E+06         0.00000E+00
    0.54094E+06        -0.49554E+08         0.00000E+00
    0.00000E+00         0.00000E+00         0.25370E-07
 
    0.70953E+06         0.56537E+06         0.00000E+00
    0.56537E+06        -0.49669E+08         0.00000E+00
    0.00000E+00         0.00000E+00         0.55815E-07
 
    0.73415E+06         0.59025E+06         0.00000E+00
    0.59025E+06        -0.49790E+08         0.00000E+00
    0.00000E+00         0.00000E+00         0.00000E+00
 
    0.75792E+06         0.61547E+06         0.00000E+00
    0.61547E+06        -0.49920E+08         0.00000E+00
    0.00000E+00         0.00000E+00         0.35518E-07
 
    0.78046E+06         0.64088E+06         0.00000E+00
    0.64088E+06        -0.50057E+08         0.00000E+00
    0.00000E+00         0.00000E+00         0.45667E-07
 
    0.80136E+06         0.66630E+06         0.00000E+00
    0.66630E+06        -0.50203E+08         0.00000E+00
    0.00000E+00         0.00000E+00         0.60889E-07
 
    0.82010E+06         0.69151E+06         0.00000E+00
    0.69151E+06        -0.50358E+08         0.00000E+00
    0.00000E+00         0.00000E+00        -0.50741E-08
 
    0.83611E+06         0.71624E+06         0.00000E+00
    0.71624E+06        -0.50523E+08         0.00000E+00
    0.00000E+00         0.00000E+00        -0.60889E-07
 
    0.84870E+06         0.74016E+06         0.00000E+00
    0.74016E+06        -0.50698E+08         0.00000E+00
    0.00000E+00         0.00000E+00        -0.71037E-07
 
    0.85709E+06         0.76290E+06         0.00000E+00
    0.76290E+06        -0.50885E+08         0.00000E+00
    0.00000E+00         0.00000E+00         0.20296E-07
 
    0.86038E+06         0.78397E+06         0.00000E+00
    0.78397E+06        -0.51083E+08         0.00000E+00
    0.00000E+00         0.00000E+00        -0.65963E-07
 
    0.85754E+06         0.80285E+06         0.00000E+00
    0.80285E+06        -0.51295E+08         0.00000E+00
    0.00000E+00         0.00000E+00        -0.20296E-07
 
    0.84741E+06         0.81889E+06         0.00000E+00
    0.81889E+06        -0.51521E+08         0.00000E+00
    0.00000E+00         0.00000E+00        -0.40593E-07
 
    0.82865E+06         0.83136E+06         0.00000E+00
    0.83136E+06        -0.51762E+08         0.00000E+00
    0.00000E+00         0.00000E+00         0.00000E+00
 
    0.79978E+06         0.83940E+06         0.00000E+00
    0.83940E+06        -0.52019E+08         0.00000E+00
    0.00000E+00         0.00000E+00         0.00000E+00
 
    0.75911E+06         0.84205E+06         0.00000E+00
    0.84205E+06        -0.52293E+08         0.00000E+00
    0.00000E+00         0.00000E+00        -0.50741E-07
 
    0.70478E+06         0.83822E+06         0.00000E+00
    0.83822E+06        -0.52586E+08         0.00000E+00
    0.00000E+00         0.00000E+00        -0.15221E-07
 
    0.63474E+06         0.82673E+06         0.00000E+00
    0.82673E+06        -0.52900E+08         0.00000E+00
    0.00000E+00         0.00000E+00        -0.65962E-07
 
    0.54673E+06         0.80627E+06         0.00000E+00
    0.80627E+06        -0.53235E+08         0.00000E+00
    0.00000E+00         0.00000E+00         0.50741E-07
 
    0.43828E+06         0.77547E+06         0.00000E+00
    0.77547E+06        -0.53593E+08         0.00000E+00
    0.00000E+00         0.00000E+00        -0.50743E-07
 
    0.30675E+06         0.73296E+06         0.00000E+00
    0.73296E+06        -0.53976E+08         0.00000E+00
    0.00000E+00         0.00000E+00        -0.50750E-08
 
    0.14933E+06         0.67740E+06         0.00000E+00
    0.67740E+06        -0.54385E+08         0.00000E+00
    0.00000E+00         0.00000E+00         0.15221E-07
 
   -0.36948E+05         0.60761E+06         0.00000E+00
    0.60761E+06        -0.54821E+08         0.00000E+00
    0.00000E+00         0.00000E+00        -0.65962E-07
 
   -0.25512E+06         0.52277E+06         0.00000E+00
    0.52277E+06        -0.55285E+08         0.00000E+00
    0.00000E+00         0.00000E+00         0.00000E+00
 
   -0.50824E+06         0.42260E+06         0.00000E+00
    0.42260E+06        -0.55778E+08         0.00000E+00
    0.00000E+00         0.00000E+00         0.20296E-07
 
   -0.79927E+06         0.30770E+06         0.00000E+00
    0.30770E+06        -0.56300E+08         0.00000E+00
    0.00000E+00         0.00000E+00        -0.50741E-07
 
   -0.11309E+07         0.18003E+06         0.00000E+00
    0.18003E+06        -0.56850E+08         0.00000E+00
    0.00000E+00         0.00000E+00         0.00000E+00
 
   -0.15055E+07         0.43478E+05         0.00000E+00
    0.43478E+05        -0.57426E+08         0.00000E+00
    0.00000E+00         0.00000E+00        -0.81185E-07
 
   -0.19246E+07        -0.95246E+05         0.00000E+00
   -0.95246E+05        -0.58024E+08         0.00000E+00
    0.00000E+00         0.00000E+00         0.25371E-07
 
   -0.23890E+07        -0.22551E+06         0.00000E+00
   -0.22551E+06        -0.58637E+08         0.00000E+00
    0.00000E+00         0.00000E+00        -0.30444E-07
 
   -0.28989E+07        -0.33147E+06         0.00000E+00
   -0.33147E+06        -0.59254E+08         0.00000E+00
    0.00000E+00         0.00000E+00        -0.10148E-07
 
   -0.34563E+07        -0.39131E+06         0.00000E+00
   -0.39131E+06        -0.59853E+08         0.00000E+00
    0.00000E+00         0.00000E+00        -0.55818E-07
 
   -0.40693E+07        -0.38009E+06         0.00000E+00
   -0.38009E+06        -0.60398E+08         0.00000E+00
    0.00000E+00         0.00000E+00         0.30444E-07
 
   -0.47587E+07        -0.28090E+06         0.00000E+00
   -0.28090E+06        -0.60826E+08         0.00000E+00
    0.00000E+00         0.00000E+00         0.10148E-07
 
   -0.55566E+07        -0.10400E+06         0.00000E+00
   -0.10400E+06        -0.61067E+08         0.00000E+00
    0.00000E+00         0.00000E+00        -0.30444E-07
 
    0.85220E+05         0.80968E+02         0.00000E+00
    0.80968E+02        -0.47607E+08         0.00000E+00
    0.00000E+00         0.00000E+00         0.00000E+00
 
    0.79799E+05         0.47661E+03         0.00000E+00
    0.47661E+03        -0.47609E+08         0.00000E+00
    0.00000E+00         0.00000E+00        -0.50741E-08
 
    0.75251E+05         0.14595E+04         0.00000E+00
    0.14595E+04        -0.47613E+08         0.00000E+00
    0.00000E+00         0.00000E+00        -0.45667E-07
 
    0.71339E+05         0.30980E+04         0.00000E+00
    0.30980E+04        -0.47618E+08         0.00000E+00
    0.00000E+00         0.00000E+00        -0.15222E-07
 
    0.67927E+05         0.52588E+04         0.00000E+00
    0.52588E+04        -0.47624E+08         0.00000E+00
    0.00000E+00         0.00000E+00        -0.10148E-07
 
    0.64975E+05         0.77607E+04         0.00000E+00
    0.77607E+04        -0.47629E+08         0.00000E+00
    0.00000E+00         0.00000E+00         0.20296E-07
 
    0.62486E+05         0.10455E+05         0.00000E+00
    0.10455E+05        -0.47636E+08         0.00000E+00
    0.00000E+00         0.00000E+00        -0.60889E-07
 
    0.60469E+05         0.13237E+05         0.00000E+00
    0.13237E+05        -0.47642E+08         0.00000E+00
    0.00000E+00         0.00000E+00        -0.60889E-07
 
    0.58925E+05         0.16042E+05         0.00000E+00
    0.16042E+05        -0.47649E+08         0.00000E+00
    0.00000E+00         0.00000E+00        -0.10148E-07
 
    0.57849E+05         0.18830E+05         0.00000E+00
    0.18830E+05        -0.47655E+08         0.00000E+00
    0.00000E+00         0.00000E+00        -0.10148E-07
 
    0.57229E+05         0.21583E+05         0.00000E+00
    0.21583E+05        -0.47662E+08         0.00000E+00
    0.00000E+00         0.00000E+00        -0.65963E-07
 
    0.57049E+05         0.24292E+05         0.00000E+00
    0.24292E+05        -0.47669E+08         0.00000E+00
    0.00000E+00         0.00000E+00        -0.50740E-08
 
    0.57292E+05         0.26961E+05         0.00000E+00
    0.26961E+05        -0.47677E+08         0.00000E+00
    0.00000E+00         0.00000E+00         0.00000E+00
 
    0.57941E+05         0.29597E+05         0.00000E+00
    0.29597E+05        -0.47684E+08         0.00000E+00
    0.00000E+00         0.00000E+00         0.15222E-07
 
    0.58980E+05         0.32215E+05         0.00000E+00
    0.32215E+05        -0.47692E+08         0.00000E+00
    0.00000E+00         0.00000E+00         0.25370E-07
 
    0.60392E+05         0.34827E+05         0.00000E+00
    0.34827E+05        -0.47699E+08         0.00000E+00
    0.00000E+00         0.00000E+00        -0.25370E-07
 
    0.62163E+05         0.37451E+05         0.00000E+00
    0.37451E+05        -0.47708E+08         0.00000E+00
    0.00000E+00         0.00000E+00         0.25370E-07
 
    0.64282E+05         0.40103E+05         0.00000E+00
    0.40103E+05        -0.47716E+08         0.00000E+00
    0.00000E+00         0.00000E+00         0.35518E-07
 
    0.66738E+05         0.42800E+05         0.00000E+00
    0.42800E+05        -0.47725E+08         0.00000E+00
    0.00000E+00         0.00000E+00         0.40593E-07
 
    0.69524E+05         0.45559E+05         0.00000E+00
    0.45559E+05        -0.47734E+08         0.00000E+00
    0.00000E+00         0.00000E+00         0.25370E-07
 
    0.72633E+05         0.48395E+05         0.00000E+00
    0.48395E+05        -0.47744E+08         0.00000E+00
    0.00000E+00         0.00000E+00        -0.20296E-07
 
    0.76061E+05         0.51325E+05         0.00000E+00
    0.51325E+05        -0.47753E+08         0.00000E+00
    0.00000E+00         0.00000E+00         0.00000E+00
 
    0.79808E+05         0.54364E+05         0.00000E+00
    0.54364E+05        -0.47764E+08         0.00000E+00
    0.00000E+00         0.00000E+00        -0.10148E-07
 
    0.83872E+05         0.57527E+05         0.00000E+00
    0.57527E+05        -0.47775E+08         0.00000E+00
    0.00000E+00         0.00000E+00         0.10148E-07
 
    0.88257E+05         0.60829E+05         0.00000E+00
    0.60829E+05        -0.47786E+08         0.00000E+00
    0.00000E+00         0.00000E+00         0.50741E-08
 
    0.92965E+05         0.64282E+05         0.00000E+00
    0.64282E+05        -0.47798E+08         0.00000E+00
    0.00000E+00         0.00000E+00        -0.25370E-07
 
    0.98003E+05         0.67903E+05         0.00000E+00
    0.67903E+05        -0.47811E+08         0.00000E+00
    0.00000E+00         0.00000E+00        -0.10148E-07
 
    0.10338E+06         0.71705E+05         0.00000E+00
    0.71705E+05        -0.47824E+08         0.00000E+00
    0.00000E+00         0.00000E+00         0.10148E-07
 
    0.10910E+06         0.75701E+05         0.00000E+00
    0.75701E+05        -0.47838E+08         0.00000E+00
    0.00000E+00         0.00000E+00         0.20296E-07
 
    0.11517E+06         0.79905E+05         0.00000E+00
    0.79905E+05        -0.47852E+08         0.00000E+00
    0.00000E+00         0.00000E+00        -0.55815E-07
 
    0.12162E+06         0.84333E+05         0.00000E+00
    0.84333E+05        -0.47868E+08         0.00000E+00
    0.00000E+00         0.00000E+00        -0.30444E-07
 
    0.12844E+06         0.88998E+05         0.00000E+00
    0.88998E+05        -0.47884E+08         0.00000E+00
    0.00000E+00         0.00000E+00         0.50741E-08
 
    0.13566E+06         0.93915E+05         0.00000E+00
    0.93915E+05        -0.47901E+08         0.00000E+00
    0.00000E+00         0.00000E+00         0.81185E-07
 
    0.14328E+06         0.99099E+05         0.00000E+00
    0.99099E+05        -0.47919E+08         0.00000E+00
    0.00000E+00         0.00000E+00        -0.10148E-07
 
    0.15134E+06         0.10457E+06         0.00000E+00
    0.10457E+06        -0.47938E+08         0.00000E+00
    0.00000E+00         0.00000E+00         0.76111E-07
 
    0.15983E+06         0.11033E+06         0.00000E+00
    0.11033E+06        -0.47958E+08         0.00000E+00
    0.00000E+00         0.00000E+00        -0.55815E-07
 
    0.16879E+06         0.11641E+06         0.00000E+00
    0.11641E+06        -0.47980E+08         0.00000E+00
    0.00000E+00         0.00000E+00        -0.45667E-07
 
    0.17823E+06         0.12282E+06         0.00000E+00
    0.12282E+06        -0.48002E+08         0.00000E+00
    0.00000E+00         0.00000E+00         0.00000E+00
 
    0.18818E+06         0.12958E+06         0.00000E+00
    0.12958E+06        -0.48026E+08         0.00000E+00
    0.00000E+00         0.00000E+00        -0.50741E-08
 
    0.19864E+06         0.13671E+06         0.00000E+00
    0.13671E+06        -0.48050E+08         0.00000E+00
    0.00000E+00         0.00000E+00        -0.15222E-07
 
    0.20965E+06         0.14422E+06         0.00000E+00
    0.14422E+06        -0.48077E+08         0.00000E+00
    0.00000E+00         0.00000E+00        -0.25370E-07
 
    0.22122E+06         0.15213E+06         0.00000E+00
    0.15213E+06        -0.48105E+08         0.00000E+00
    0.00000E+00         0.00000E+00         0.10148E-07
 
    0.23338E+06         0.16047E+06         0.00000E+00
    0.16047E+06        -0.48134E+08         0.00000E+00
    0.00000E+00         0.00000E+00         0.55815E-07
 
    0.24616E+06         0.16925E+06         0.00000E+00
    0.16925E+06        -0.48165E+08         0.00000E+00
    0.00000E+00         0.00000E+00         0.50741E-07
 
    0.25956E+06         0.17850E+06         0.00000E+00
    0.17850E+06        -0.48198E+08         0.00000E+00
    0.00000E+00         0.00000E+00         0.10148E-07
 
    0.27362E+06         0.18823E+06         0.00000E+00
    0.18823E+06        -0.48233E+08         0.00000E+00
    0.00000E+00         0.00000E+00        -0.20296E-07
 
    0.28836E+06         0.19847E+06         0.00000E+00
    0.19847E+06        -0.48270E+08         0.00000E+00
    0.00000E+00         0.00000E+00        -0.50741E-08
 
    0.30379E+06         0.20923E+06         0.00000E+00
    0.20923E+06        -0.48308E+08         0.00000E+00
    0.00000E+00         0.00000E+00         0.50741E-08
 
    0.31994E+06         0.22054E+06         0.00000E+00
    0.22054E+06        -0.48350E+08         0.00000E+00
    0.00000E+00         0.00000E+00         0.30444E-07
 
    0.33682E+06         0.23243E+06         0.00000E+00
    0.23243E+06        -0.48393E+08         0.00000E+00
    0.00000E+00         0.00000E+00        -0.50741E-08
 
    0.35446E+06         0.24490E+06         0.00000E+00
    0.24490E+06        -0.48439E+08         0.00000E+00
    0.00000E+00         0.00000E+00         0.00000E+00
 
    0.37285E+06         0.25799E+06         0.00000E+00
    0.25799E+06        -0.48488E+08         0.00000E+00
    0.00000E+00         0.00000E+00         0.45666E-07
 
    0.39202E+06         0.27172E+06         0.00000E+00
    0.27172E+06        -0.48539E+08         0.00000E+00
    0.00000E+00         0.00000E+00         0.45667E-07
 
    0.41197E+06         0.28610E+06         0.00000E+00
    0.28610E+06        -0.48593E+08         0.00000E+00
    0.00000E+00         0.00000E+00        -0.15222E-07
 
    0.43270E+06         0.30115E+06         0.00000E+00
    0.30115E+06        -0.48651E+08         0.00000E+00
    0.00000E+00         0.00000E+00         0.00000E+00
 
    0.45419E+06         0.31688E+06         0.00000E+00
    0.31688E+06        -0.48712E+08         0.00000E+00
    0.00000E+00         0.00000E+00        -0.50741E-07
 
    0.47645E+06         0.33333E+06         0.00000E+00
    0.33333E+06        -0.48776E+08         0.00000E+00
    0.00000E+00         0.00000E+00        -0.15222E-07
 
    0.49944E+06         0.35048E+06         0.00000E+00
    0.35048E+06        -0.48845E+08         0.00000E+00
    0.00000E+00         0.00000E+00         0.65963E-07
 
    0.52314E+06         0.36836E+06         0.00000E+00
    0.36836E+06        -0.48917E+08         0.00000E+00
    0.00000E+00         0.00000E+00         0.50740E-07
 
    0.54749E+06         0.38697E+06         0.00000E+00
    0.38697E+06        -0.48994E+08         0.00000E+00
    0.00000E+00         0.00000E+00        -0.12685E-06
 
    0.57244E+06         0.40631E+06         0.00000E+00
    0.40631E+06        -0.49075E+08         0.00000E+00
    0.00000E+00         0.00000E+00        -0.76111E-07
 
    0.59790E+06         0.42636E+06         0.00000E+00
    0.42636E+06        -0.49161E+08         0.00000E+00
    0.00000E+00         0.00000E+00        -0.10148E-07
 
    0.62379E+06         0.44712E+06         0.00000E+00
    0.44712E+06        -0.49252E+08         0.00000E+00
    0.00000E+00         0.00000E+00        -0.50741E-08
 
    0.64997E+06         0.46855E+06         0.00000E+00
    0.46855E+06        -0.49348E+08         0.00000E+00
    0.00000E+00         0.00000E+00         0.30444E-07
 
    0.67630E+06         0.49062E+06         0.00000E+00
    0.49062E+06        -0.49450E+08         0.00000E+00
    0.00000E+00         0.00000E+00        -0.10148E-07
 
    0.70259E+06         0.51328E+06         0.00000E+00
    0.51328E+06        -0.49559E+08         0.00000E+00
    0.00000E+00         0.00000E+00         0.15222E-07
 
    0.72862E+06         0.53646E+06         0.00000E+00
    0.53646E+06        -0.49674E+08         0.00000E+00
    0.00000E+00         0.00000E+00         0.45667E-07
 
    0.75413E+06         0.56007E+06         0.00000E+00
    0.56007E+06        -0.49796E+08         0.00000E+00
    0.00000E+00         0.00000E+00         0.40593E-07
 
    0.77881E+06         0.58400E+06         0.00000E+00
    0.58400E+06        -0.49925E+08         0.00000E+00
    0.00000E+00         0.00000E+00         0.10148E-07
 
    0.80228E+06         0.60812E+06         0.00000E+00
    0.60812E+06        -0.50062E+08         0.00000E+00
    0.00000E+00         0.00000E+00        -0.20296E-07
 
    0.82411E+06         0.63224E+06         0.00000E+00
    0.63224E+06        -0.50208E+08         0.00000E+00
    0.00000E+00         0.00000E+00         0.50741E-08
 
    0.84378E+06         0.65615E+06         0.00000E+00
    0.65615E+06        -0.50363E+08         0.00000E+00
    0.00000E+00         0.00000E+00         0.40593E-07
 
    0.86071E+06         0.67960E+06         0.00000E+00
    0.67960E+06        -0.50528E+08         0.00000E+00
    0.00000E+00         0.00000E+00        -0.45667E-07
 
    0.87419E+06         0.70227E+06         0.00000E+00
    0.70227E+06        -0.50703E+08         0.00000E+00
    0.00000E+00         0.00000E+00         0.50741E-08
 
    0.88342E+06         0.72379E+06         0.00000E+00
    0.72379E+06        -0.50889E+08         0.00000E+00
    0.00000E+00         0.00000E+00         0.81185E-07
 
    0.88749E+06         0.74371E+06         0.00000E+00
    0.74371E+06        -0.51088E+08         0.00000E+00
    0.00000E+00         0.00000E+00        -0.65962E-07
 
    0.88533E+06         0.76150E+06         0.00000E+00
    0.76150E+06        -0.51299E+08         0.00000E+00
    0.00000E+00         0.00000E+00        -0.10148E-07
 
    0.87574E+06         0.77656E+06         0.00000E+00
    0.77656E+06        -0.51524E+08         0.00000E+00
    0.00000E+00         0.00000E+00        -0.35518E-07
 
    0.85733E+06         0.78815E+06         0.00000E+00
    0.78815E+06        -0.51764E+08         0.00000E+00
    0.00000E+00         0.00000E+00         0.00000E+00
 
    0.82856E+06         0.79546E+06         0.00000E+00
    0.79546E+06        -0.52020E+08         0.00000E+00
    0.00000E+00         0.00000E+00        -0.15222E-07
 
    0.78768E+06         0.79755E+06         0.00000E+00
    0.79755E+06        -0.52293E+08         0.00000E+00
    0.00000E+00         0.00000E+00         0.15222E-07
 
    0.73274E+06         0.79335E+06         0.00000E+00
    0.79335E+06        -0.52585E+08         0.00000E+00
    0.00000E+00         0.00000E+00        -0.50740E-07
 
    0.66158E+06         0.78170E+06         0.00000E+00
    0.78170E+06        -0.52897E+08         0.00000E+00
    0.00000E+00         0.00000E+00         0.20294E-07
 
    0.57181E+06         0.76132E+06         0.00000E+00
    0.76132E+06        -0.53230E+08         0.00000E+00
    0.00000E+00         0.00000E+00        -0.40593E-07
 
    0.46082E+06         0.73086E+06         0.00000E+00
    0.73086E+06        -0.53586E+08         0.00000E+00
    0.00000E+00         0.00000E+00        -0.10148E-07
 
    0.32582E+06         0.68897E+06         0.00000E+00
    0.68897E+06        -0.53967E+08         0.00000E+00
    0.00000E+00         0.00000E+00         0.20294E-07
 
    0.16378E+06         0.63431E+06         0.00000E+00
    0.63431E+06        -0.54373E+08         0.00000E+00
    0.00000E+00         0.00000E+00         0.25371E-07
 
   -0.28433E+05         0.56572E+06         0.00000E+00
    0.56572E+06        -0.54806E+08         0.00000E+00
    0.00000E+00         0.00000E+00        -0.35518E-07
 
   -0.25409E+06         0.48235E+06         0.00000E+00
    0.48235E+06        -0.55267E+08         0.00000E+00
    0.00000E+00         0.00000E+00         0.65964E-07
 
   -0.51644E+06         0.38388E+06         0.00000E+00
    0.38388E+06        -0.55757E+08         0.00000E+00
    0.00000E+00         0.00000E+00        -0.30444E-07
 
   -0.81864E+06         0.27085E+06         0.00000E+00
    0.27085E+06        -0.56276E+08         0.00000E+00
    0.00000E+00         0.00000E+00         0.00000E+00
 
   -0.11635E+07         0.14511E+06         0.00000E+00
    0.14511E+06        -0.56823E+08         0.00000E+00
    0.00000E+00         0.00000E+00         0.00000E+00
 
   -0.15534E+07         0.10373E+05         0.00000E+00
    0.10373E+05        -0.57398E+08         0.00000E+00
    0.00000E+00         0.00000E+00         0.20296E-07
 
   -0.19895E+07        -0.12687E+06         0.00000E+00
   -0.12687E+06        -0.57996E+08         0.00000E+00
    0.00000E+00         0.00000E+00         0.20296E-07
 
   -0.24721E+07        -0.25626E+06         0.00000E+00
   -0.25626E+06        -0.58612E+08         0.00000E+00
    0.00000E+00         0.00000E+00         0.10148E-07
 
   -0.30004E+07        -0.36204E+06         0.00000E+00
   -0.36204E+06        -0.59236E+08         0.00000E+00
    0.00000E+00         0.00000E+00         0.30446E-07
 
   -0.35740E+07        -0.42189E+06         0.00000E+00
   -0.42189E+06        -0.59847E+08         0.00000E+00
    0.00000E+00         0.00000E+00        -0.60889E-07
 
   -0.41988E+07        -0.40888E+06         0.00000E+00
   -0.40888E+06        -0.60408E+08         0.00000E+00
    0.00000E+00         0.00000E+00        -0.20296E-07
 
   -0.48944E+07        -0.30285E+06         0.00000E+00
   -0.30285E+06        -0.60855E+08         0.00000E+00
    0.00000E+00         0.00000E+00        -0.71037E-07
 
   -0.56943E+07        -0.11240E+06         0.00000E+00
   -0.11240E+06        -0.61109E+08         0.00000E+00
    0.00000E+00         0.00000E+00        -0.50740E-07
 
    0.87248E+05        -0.23859E+02         0.00000E+00
   -0.23859E+02        -0.47607E+08         0.00000E+00
    0.00000E+00         0.00000E+00        -0.10148E-07
 
    0.81813E+05         0.18818E+03         0.00000E+00
    0.18818E+03        -0.47610E+08         0.00000E+00
    0.00000E+00         0.00000E+00        -0.10148E-07
 
    0.77222E+05         0.10385E+04         0.00000E+00
    0.10385E+04        -0.47613E+08         0.00000E+00
    0.00000E+00         0.00000E+00         0.50741E-08
 
    0.73228E+05         0.25790E+04         0.00000E+00
    0.25790E+04        -0.47618E+08         0.00000E+00
    0.00000E+00         0.00000E+00        -0.40593E-07
 
    0.69706E+05         0.46498E+04         0.00000E+00
    0.46498E+04        -0.47624E+08         0.00000E+00
    0.00000E+00         0.00000E+00        -0.50741E-08
 
    0.66635E+05         0.70556E+04         0.00000E+00
    0.70556E+04        -0.47630E+08         0.00000E+00
    0.00000E+00         0.00000E+00        -0.20296E-07
 
    0.64034E+05         0.96444E+04         0.00000E+00
    0.96444E+04        -0.47636E+08         0.00000E+00
    0.00000E+00         0.00000E+00        -0.25370E-07
 
    0.61919E+05         0.12315E+05         0.00000E+00
    0.12315E+05        -0.47643E+08         0.00000E+00
    0.00000E+00         0.00000E+00         0.50741E-08
 
    0.60295E+05         0.15002E+05         0.00000E+00
    0.15002E+05        -0.47649E+08         0.00000E+00
    0.00000E+00         0.00000E+00         0.50741E-08
 
    0.59157E+05         0.17670E+05         0.00000E+00
    0.17670E+05        -0.47656E+08         0.00000E+00
    0.00000E+00         0.00000E+00        -0.20296E-07
 
    0.58493E+05         0.20299E+05         0.00000E+00
    0.20299E+05        -0.47663E+08         0.00000E+00
    0.00000E+00         0.00000E+00        -0.25370E-07
 
    0.58287E+05         0.22883E+05         0.00000E+00
    0.22883E+05        -0.47670E+08         0.00000E+00
    0.00000E+00         0.00000E+00         0.10148E-07
 
    0.58521E+05         0.25426E+05         0.00000E+00
    0.25426E+05        -0.47677E+08         0.00000E+00
    0.00000E+00         0.00000E+00         0.30444E-07
 
    0.59176E+05         0.27935E+05         0.00000E+00
    0.27935E+05        -0.47684E+08         0.00000E+00
    0.00000E+00         0.00000E+00        -0.10148E-07
 
    0.60233E+05         0.30422E+05         0.00000E+00
    0.30422E+05        -0.47692E+08         0.00000E+00
    0.00000E+00         0.00000E+00        -0.30444E-07
 
    0.61676E+05         0.32902E+05         0.00000E+00
    0.32902E+05        -0.47700E+08         0.00000E+00
    0.00000E+00         0.00000E+00        -0.25370E-07
 
    0.63489E+05         0.35391E+05         0.00000E+00
    0.35391E+05        -0.47708E+08         0.00000E+00
    0.00000E+00         0.00000E+00         0.40593E-07
 
    0.65660E+05         0.37905E+05         0.00000E+00
    0.37905E+05        -0.47717E+08         0.00000E+00
    0.00000E+00         0.00000E+00         0.00000E+00
 
    0.68177E+05         0.40460E+05         0.00000E+00
    0.40460E+05        -0.47725E+08         0.00000E+00
    0.00000E+00         0.00000E+00         0.00000E+00
 
    0.71032E+05         0.43072E+05         0.00000E+00
    0.43072E+05        -0.47735E+08         0.00000E+00
    0.00000E+00         0.00000E+00         0.10148E-07
 
    0.74218E+05         0.45757E+05         0.00000E+00
    0.45757E+05        -0.47744E+08         0.00000E+00
    0.00000E+00         0.00000E+00         0.10148E-07
 
    0.77731E+05         0.48529E+05         0.00000E+00
    0.48529E+05        -0.47754E+08         0.00000E+00
    0.00000E+00         0.00000E+00         0.10148E-07
 
    0.81570E+05         0.51404E+05         0.00000E+00
    0.51404E+05        -0.47764E+08         0.00000E+00
    0.00000E+00         0.00000E+00        -0.55815E-07
 
    0.85733E+05         0.54396E+05         0.00000E+00
    0.54396E+05        -0.47775E+08         0.00000E+00
    0.00000E+00         0.00000E+00         0.50741E-07
 
    0.90224E+05         0.57518E+05         0.00000E+00
    0.57518E+05        -0.47787E+08         0.00000E+00
    0.00000E+00         0.00000E+00        -0.15222E-07
 
    0.95046E+05         0.60785E+05         0.00000E+00
    0.60785E+05        -0.47799E+08         0.00000E+00
    0.00000E+00         0.00000E+00         0.35518E-07
 
    0.10020E+06         0.64209E+05         0.00000E+00
    0.64209E+05        -0.47811E+08         0.00000E+00
    0.00000E+00         0.00000E+00         0.20296E-07
 
    0.10571E+06         0.67803E+05         0.00000E+00
    0.67803E+05        -0.47825E+08         0.00000E+00
    0.00000E+00         0.00000E+00        -0.50741E-08
 
    0.11156E+06         0.71582E+05         0.00000E+00
    0.71582E+05        -0.47839E+08         0.00000E+00
    0.00000E+00         0.00000E+00        -0.35518E-07
 
    0.11778E+06         0.75558E+05         0.00000E+00
    0.75558E+05        -0.47853E+08         0.00000E+00
    0.00000E+00         0.00000E+00        -0.10148E-07
 
    0.12438E+06         0.79745E+05         0.00000E+00
    0.79745E+05        -0.47869E+08         0.00000E+00
    0.00000E+00         0.00000E+00         0.10148E-07
 
    0.13136E+06         0.84156E+05         0.00000E+00
    0.84156E+05        -0.47885E+08         0.00000E+00
    0.00000E+00         0.00000E+00         0.96407E-07
 
    0.13875E+06         0.88805E+05         0.00000E+00
    0.88805E+05        -0.47902E+08         0.00000E+00
    0.00000E+00         0.00000E+00        -0.76111E-07
 
    0.14655E+06         0.93707E+05         0.00000E+00
    0.93707E+05        -0.47920E+08         0.00000E+00
    0.00000E+00         0.00000E+00         0.30444E-07
 
    0.15480E+06         0.98876E+05         0.00000E+00
    0.98876E+05        -0.47939E+08         0.00000E+00
    0.00000E+00         0.00000E+00         0.20296E-07
 
    0.16349E+06         0.10433E+06         0.00000E+00
    0.10433E+06        -0.47959E+08         0.00000E+00
    0.00000E+00         0.00000E+00         0.10148E-07
 
    0.17266E+06         0.11008E+06         0.00000E+00
    0.11008E+06        -0.47981E+08         0.00000E+00
    0.00000E+00         0.00000E+00        -0.20296E-07
 
    0.18233E+06         0.11614E+06         0.00000E+00
    0.11614E+06        -0.48003E+08         0.00000E+00
    0.00000E+00         0.00000E+00        -0.10148E-07
 
    0.19250E+06         0.12253E+06         0.00000E+00
    0.12253E+06        -0.48027E+08         0.00000E+00
    0.00000E+00         0.00000E+00        -0.25370E-07
 
    0.20321E+06         0.12927E+06         0.00000E+00
    0.12927E+06        -0.48052E+08         0.00000E+00
    0.00000E+00         0.00000E+00         0.10148E-07
 
    0.21448E+06         0.13637E+06         0.00000E+00
    0.13637E+06        -0.48078E+08         0.00000E+00
    0.00000E+00         0.00000E+00        -0.12178E-06
 
    0.22633E+06         0.14385E+06         0.00000E+00
    0.14385E+06        -0.48106E+08         0.00000E+00
    0.00000E+00         0.00000E+00        -0.40593E-07
 
    0.23878E+06         0.15174E+06         0.00000E+00
    0.15174E+06        -0.48136E+08         0.00000E+00
    0.00000E+00         0.00000E+00        -0.30444E-07
 
    0.25186E+06         0.16004E+06         0.00000E+00
    0.16004E+06        -0.48167E+08         0.00000E+00
    0.00000E+00         0.00000E+00         0.30444E-07
 
    0.26558E+06         0.16879E+06         0.00000E+00
    0.16879E+06        -0.48200E+08         0.00000E+00
    0.00000E+00         0.00000E+00         0.45667E-07
 
    0.27998E+06         0.17799E+06         0.00000E+00
    0.17799E+06        -0.48235E+08         0.00000E+00
    0.00000E+00         0.00000E+00        -0.50741E-07
 
    0.29507E+06         0.18767E+06         0.00000E+00
    0.18767E+06        -0.48272E+08         0.00000E+00
    0.00000E+00         0.00000E+00        -0.50741E-08
 
    0.31088E+06         0.19785E+06         0.00000E+00
    0.19785E+06        -0.48311E+08         0.00000E+00
    0.00000E+00         0.00000E+00         0.00000E+00
 
    0.32742E+06         0.20855E+06         0.00000E+00
    0.20855E+06        -0.48352E+08         0.00000E+00
    0.00000E+00         0.00000E+00        -0.50740E-07
 
    0.34472E+06         0.21979E+06         0.00000E+00
    0.21979E+06        -0.48395E+08         0.00000E+00
    0.00000E+00         0.00000E+00         0.45667E-07
 
    0.36279E+06         0.23158E+06         0.00000E+00
    0.23158E+06        -0.48441E+08         0.00000E+00
    0.00000E+00         0.00000E+00        -0.40593E-07
 
    0.38164E+06         0.24396E+06         0.00000E+00
    0.24396E+06        -0.48490E+08         0.00000E+00
    0.00000E+00         0.00000E+00        -0.81185E-07
 
    0.40129E+06         0.25694E+06         0.00000E+00
    0.25694E+06        -0.48542E+08         0.00000E+00
    0.00000E+00         0.00000E+00        -0.30444E-07
 
    0.42174E+06         0.27054E+06         0.00000E+00
    0.27054E+06        -0.48596E+08         0.00000E+00
    0.00000E+00         0.00000E+00        -0.65963E-07
 
    0.44300E+06         0.28477E+06         0.00000E+00
    0.28477E+06        -0.48654E+08         0.00000E+00
    0.00000E+00         0.00000E+00         0.00000E+00
 
    0.46505E+06         0.29966E+06         0.00000E+00
    0.29966E+06        -0.48715E+08         0.00000E+00
    0.00000E+00         0.00000E+00         0.35518E-07
 
    0.48789E+06         0.31521E+06         0.00000E+00
    0.31521E+06        -0.48780E+08         0.00000E+00
    0.00000E+00         0.00000E+00         0.50741E-08
 
    0.51149E+06         0.33144E+06         0.00000E+00
    0.33144E+06        -0.48848E+08         0.00000E+00
    0.00000E+00         0.00000E+00        -0.55815E-07
 
    0.53582E+06         0.34835E+06         0.00000E+00
    0.34835E+06        -0.48921E+08         0.00000E+00
    0.00000E+00         0.00000E+00         0.50741E-08
 
    0.56084E+06         0.36595E+06         0.00000E+00
    0.36595E+06        -0.48997E+08         0.00000E+00
    0.00000E+00         0.00000E+00         0.25370E-07
 
    0.58649E+06         0.38424E+06         0.00000E+00
    0.38424E+06        -0.49079E+08         0.00000E+00
    0.00000E+00         0.00000E+00         0.30444E-07
 
    0.61268E+06         0.40321E+06         0.00000E+00
    0.40321E+06        -0.49165E+08         0.00000E+00
    0.00000E+00         0.00000E+00         0.10148E-07
 
    0.63932E+06         0.42285E+06         0.00000E+00
    0.42285E+06        -0.49256E+08         0.00000E+00
    0.00000E+00         0.00000E+00         0.50741E-07
 
    0.66629E+06         0.44312E+06         0.00000E+00
    0.44312E+06        -0.49352E+08         0.00000E+00
    0.00000E+00         0.00000E+00        -0.35518E-07
 
    0.69343E+06         0.46400E+06         0.00000E+00
    0.46400E+06        -0.49455E+08         0.00000E+00
    0.00000E+00         0.00000E+00         0.00000E+00
 
    0.72057E+06         0.48544E+06         0.00000E+00
    0.48544E+06        -0.49563E+08         0.00000E+00
    0.00000E+00         0.00000E+00         0.00000E+00
 
    0.74748E+06         0.50737E+06         0.00000E+00
    0.50737E+06        -0.49678E+08         0.00000E+00
    0.00000E+00         0.00000E+00        -0.15222E-07
 
    0.77389E+06         0.52971E+06         0.00000E+00
    0.52971E+06        -0.49800E+08         0.00000E+00
    0.00000E+00         0.00000E+00        -0.13700E-06
 
    0.79949E+06         0.55236E+06         0.00000E+00
    0.55236E+06        -0.49930E+08         0.00000E+00
    0.00000E+00         0.00000E+00        -0.10148E-07
 
    0.82391E+06         0.57517E+06         0.00000E+00
    0.57517E+06        -0.50067E+08         0.00000E+00
    0.00000E+00         0.00000E+00         0.40593E-07
 
    0.84669E+06         0.59798E+06         0.00000E+00
    0.59798E+06        -0.50213E+08         0.00000E+00
    0.00000E+00         0.00000E+00        -0.30444E-07
 
    0.86733E+06         0.62060E+06         0.00000E+00
    0.62060E+06        -0.50368E+08         0.00000E+00
    0.00000E+00         0.00000E+00         0.60889E-07
 
    0.88521E+06         0.64277E+06         0.00000E+00
    0.64277E+06        -0.50533E+08         0.00000E+00
    0.00000E+00         0.00000E+00         0.15222E-07
 
    0.89963E+06         0.66419E+06         0.00000E+00
    0.66419E+06        -0.50708E+08         0.00000E+00
    0.00000E+00         0.00000E+00        -0.50741E-08
 
    0.90977E+06         0.68450E+06         0.00000E+00
    0.68450E+06        -0.50894E+08         0.00000E+00
    0.00000E+00         0.00000E+00         0.30444E-07
 
    0.91468E+06         0.70328E+06         0.00000E+00
    0.70328E+06        -0.51092E+08         0.00000E+00
    0.00000E+00         0.00000E+00        -0.35518E-07
 
    0.91327E+06         0.72002E+06         0.00000E+00
    0.72002E+06        -0.51302E+08         0.00000E+00
    0.00000E+00         0.00000E+00        -0.50741E-08
 
    0.90430E+06         0.73412E+06         0.00000E+00
    0.73412E+06        -0.51527E+08         0.00000E+00
    0.00000E+00         0.00000E+00        -0.35518E-07
 
    0.88634E+06         0.74489E+06         0.00000E+00
    0.74489E+06        -0.51766E+08         0.00000E+00
    0.00000E+00         0.00000E+00         0.20296E-07
 
    0.85779E+06         0.75153E+06         0.00000E+00
    0.75153E+06        -0.52021E+08         0.00000E+00
    0.00000E+00         0.00000E+00         0.50741E-08
 
    0.81683E+06         0.75312E+06         0.00000E+00
    0.75312E+06        -0.52293E+08         0.00000E+00
    0.00000E+00         0.00000E+00         0.30444E-07
 
    0.76141E+06         0.74864E+06         0.00000E+00
    0.74864E+06        -0.52584E+08         0.00000E+00
    0.00000E+00         0.00000E+00        -0.20296E-07
 
    0.68928E+06         0.73694E+06         0.00000E+00
    0.73694E+06        -0.52894E+08         0.00000E+00
    0.00000E+00         0.00000E+00         0.40593E-07
 
    0.59791E+06         0.71678E+06         0.00000E+00
    0.71678E+06        -0.53226E+08         0.00000E+00
    0.00000E+00         0.00000E+00         0.18190E-11
 
    0.48457E+06         0.68684E+06         0.00000E+00
    0.68684E+06        -0.53579E+08         0.00000E+00
    0.00000E+00         0.00000E+00        -0.20298E-07
 
    0.34626E+06         0.64577E+06         0.00000E+00
    0.64577E+06        -0.53957E+08         0.00000E+00
    0.00000E+00         0.00000E+00        -0.50739E-07
 
    0.17980E+06         0.59227E+06         0.00000E+00
    0.59227E+06        -0.54361E+08         0.00000E+00
    0.00000E+00         0.00000E+00         0.45668E-07
 
   -0.18195E+05         0.52516E+06         0.00000E+00
    0.52516E+06        -0.54791E+08         0.00000E+00
    0.00000E+00         0.00000E+00         0.20296E-07
 
   -0.25119E+06         0.44359E+06         0.00000E+00
    0.44359E+06        -0.55249E+08         0.00000E+00
    0.00000E+00         0.00000E+00        -0.86260E-07
 
   -0.52268E+06         0.34721E+06         0.00000E+00
    0.34721E+06        -0.55736E+08         0.00000E+00
    0.00000E+00         0.00000E+00        -0.10148E-07
 
   -0.83601E+06         0.23646E+06         0.00000E+00
    0.23646E+06        -0.56252E+08         0.00000E+00
    0.00000E+00         0.00000E+00         0.96406E-07
 
   -0.11942E+07         0.11308E+06         0.00000E+00
    0.11308E+06        -0.56797E+08         0.00000E+00
    0.00000E+00         0.00000E+00         0.60885E-07
 
   -0.15995E+07        -0.19424E+05         0.00000E+00
   -0.19424E+05        -0.57370E+08         0.00000E+00
    0.00000E+00         0.00000E+00        -0.20296E-07
 
   -0.20531E+07        -0.15484E+06         0.00000E+00
   -0.15484E+06        -0.57968E+08         0.00000E+00
    0.00000E+00         0.00000E+00        -0.20296E-07
 
   -0.25547E+07        -0.28317E+06         0.00000E+00
   -0.28317E+06        -0.58587E+08         0.00000E+00
    0.00000E+00         0.00000E+00         0.00000E+00
 
   -0.31023E+07        -0.38893E+06         0.00000E+00
   -0.38893E+06        -0.59217E+08         0.00000E+00
    0.00000E+00         0.00000E+00         0.30444E-07
 
   -0.36935E+07        -0.44946E+06         0.00000E+00
   -0.44946E+06        -0.59840E+08         0.00000E+00
    0.00000E+00         0.00000E+00        -0.30444E-07
 
   -0.43315E+07        -0.43584E+06         0.00000E+00
   -0.43584E+06        -0.60419E+08         0.00000E+00
    0.00000E+00         0.00000E+00         0.10148E-07
 
   -0.50340E+07        -0.32416E+06         0.00000E+00
   -0.32416E+06        -0.60887E+08         0.00000E+00
    0.00000E+00         0.00000E+00         0.40593E-07
 
   -0.58363E+07        -0.12074E+06         0.00000E+00
   -0.12074E+06        -0.61155E+08         0.00000E+00
    0.00000E+00         0.00000E+00        -0.30445E-07
 
    0.89287E+05        -0.12860E+03         0.00000E+00
   -0.12860E+03        -0.47607E+08         0.00000E+00
    0.00000E+00         0.00000E+00        -0.14211E-13
 
    0.83834E+05        -0.96256E+02         0.00000E+00
   -0.96256E+02        -0.47610E+08         0.00000E+00
    0.00000E+00         0.00000E+00         0.25370E-07
 
    0.79192E+05         0.63029E+03         0.00000E+00
    0.63029E+03        -0.47614E+08         0.00000E+00
    0.00000E+00         0.00000E+00         0.10148E-07
 
    0.75104E+05         0.20809E+04         0.00000E+00
    0.20809E+04        -0.47619E+08         0.00000E+00
    0.00000E+00         0.00000E+00        -0.10148E-07
 
    0.71461E+05         0.40653E+04         0.00000E+00
    0.40653E+04        -0.47624E+08         0.00000E+00
    0.00000E+00         0.00000E+00        -0.10148E-07
 
    0.68264E+05         0.63746E+04         0.00000E+00
    0.63746E+04        -0.47631E+08         0.00000E+00
    0.00000E+00         0.00000E+00         0.10148E-07
 
    0.65545E+05         0.88560E+04         0.00000E+00
    0.88560E+04        -0.47637E+08         0.00000E+00
    0.00000E+00         0.00000E+00         0.50741E-07
 
    0.63328E+05         0.11410E+05         0.00000E+00
    0.11410E+05        -0.47643E+08         0.00000E+00
    0.00000E+00         0.00000E+00        -0.71037E-07
 
    0.61621E+05         0.13977E+05         0.00000E+00
    0.13977E+05        -0.47650E+08         0.00000E+00
    0.00000E+00         0.00000E+00        -0.35518E-07
 
    0.60421E+05         0.16520E+05         0.00000E+00
    0.16520E+05        -0.47656E+08         0.00000E+00
    0.00000E+00         0.00000E+00         0.45667E-07
 
    0.59713E+05         0.19022E+05         0.00000E+00
    0.19022E+05        -0.47663E+08         0.00000E+00
    0.00000E+00         0.00000E+00         0.25370E-07
 
    0.59482E+05         0.21479E+05         0.00000E+00
    0.21479E+05        -0.47670E+08         0.00000E+00
    0.00000E+00         0.00000E+00         0.20296E-07
 
    0.59707E+05         0.23891E+05         0.00000E+00
    0.23891E+05        -0.47678E+08         0.00000E+00
    0.00000E+00         0.00000E+00         0.30444E-07
 
    0.60367E+05         0.26269E+05         0.00000E+00
    0.26269E+05        -0.47685E+08         0.00000E+00
    0.00000E+00         0.00000E+00        -0.10148E-07
 
    0.61443E+05         0.28624E+05         0.00000E+00
    0.28624E+05        -0.47693E+08         0.00000E+00
    0.00000E+00         0.00000E+00         0.30444E-07
 
    0.62917E+05         0.30970E+05         0.00000E+00
    0.30970E+05        -0.47700E+08         0.00000E+00
    0.00000E+00         0.00000E+00        -0.10148E-07
 
    0.64772E+05         0.33322E+05         0.00000E+00
    0.33322E+05        -0.47709E+08         0.00000E+00
    0.00000E+00         0.00000E+00        -0.15222E-07
 
    0.66994E+05         0.35696E+05         0.00000E+00
    0.35696E+05        -0.47717E+08         0.00000E+00
    0.00000E+00         0.00000E+00         0.50741E-08
 
    0.69572E+05         0.38107E+05         0.00000E+00
    0.38107E+05        -0.47726E+08         0.00000E+00
    0.00000E+00         0.00000E+00         0.40593E-07
 
    0.72495E+05         0.40571E+05         0.00000E+00
    0.40571E+05        -0.47735E+08         0.00000E+00
    0.00000E+00         0.00000E+00         0.35518E-07
 
    0.75758E+05         0.43102E+05         0.00000E+00
    0.43102E+05        -0.47745E+08         0.00000E+00
    0.00000E+00         0.00000E+00         0.50741E-08
 
    0.79355E+05         0.45716E+05         0.00000E+00
    0.45716E+05        -0.47755E+08         0.00000E+00
    0.00000E+00         0.00000E+00         0.00000E+00
 
    0.83284E+05         0.48425E+05         0.00000E+00
    0.48425E+05        -0.47765E+08         0.00000E+00
    0.00000E+00         0.00000E+00        -0.40593E-07
 
    0.87545E+05         0.51244E+05         0.00000E+00
    0.51244E+05        -0.47776E+08         0.00000E+00
    0.00000E+00         0.00000E+00         0.00000E+00
 
    0.92140E+05         0.54186E+05         0.00000E+00
    0.54186E+05        -0.47787E+08         0.00000E+00
    0.00000E+00         0.00000E+00        -0.45667E-07
 
    0.97074E+05         0.57264E+05         0.00000E+00
    0.57264E+05        -0.47799E+08         0.00000E+00
    0.00000E+00         0.00000E+00         0.00000E+00
 
    0.10235E+06         0.60489E+05         0.00000E+00
    0.60489E+05        -0.47812E+08         0.00000E+00
    0.00000E+00         0.00000E+00         0.35518E-07
 
    0.10798E+06         0.63876E+05         0.00000E+00
    0.63876E+05        -0.47825E+08         0.00000E+00
    0.00000E+00         0.00000E+00        -0.10148E-07
 
    0.11397E+06         0.67435E+05         0.00000E+00
    0.67435E+05        -0.47839E+08         0.00000E+00
    0.00000E+00         0.00000E+00         0.20296E-07
 
    0.12033E+06         0.71181E+05         0.00000E+00
    0.71181E+05        -0.47854E+08         0.00000E+00
    0.00000E+00         0.00000E+00        -0.12178E-06
 
    0.12707E+06         0.75125E+05         0.00000E+00
    0.75125E+05        -0.47870E+08         0.00000E+00
    0.00000E+00         0.00000E+00         0.15222E-07
 
    0.13421E+06         0.79280E+05         0.00000E+00
    0.79280E+05        -0.47886E+08         0.00000E+00
    0.00000E+00         0.00000E+00         0.40593E-07
 
    0.14177E+06         0.83660E+05         0.00000E+00
    0.83660E+05        -0.47903E+08         0.00000E+00
    0.00000E+00         0.00000E+00         0.35518E-07
 
    0.14975E+06         0.88278E+05         0.00000E+00
    0.88278E+05        -0.47921E+08         0.00000E+00
    0.00000E+00         0.00000E+00         0.50741E-08
 
    0.15818E+06         0.93148E+05         0.00000E+00
    0.93148E+05        -0.47940E+08         0.00000E+00
    0.00000E+00         0.00000E+00        -0.10148E-07
 
    0.16707E+06         0.98283E+05         0.00000E+00
    0.98283E+05        -0.47961E+08         0.00000E+00
    0.00000E+00         0.00000E+00         0.40592E-07
 
    0.17645E+06         0.10370E+06         0.00000E+00
    0.10370E+06        -0.47982E+08         0.00000E+00
    0.00000E+00         0.00000E+00        -0.15222E-07
 
    0.18633E+06         0.10941E+06         0.00000E+00
    0.10941E+06        -0.48004E+08         0.00000E+00
    0.00000E+00         0.00000E+00        -0.50741E-08
 
    0.19673E+06         0.11543E+06         0.00000E+00
    0.11543E+06        -0.48028E+08         0.00000E+00
    0.00000E+00         0.00000E+00         0.00000E+00
 
    0.20768E+06         0.12178E+06         0.00000E+00
    0.12178E+06        -0.48053E+08         0.00000E+00
    0.00000E+00         0.00000E+00         0.15222E-07
 
    0.21921E+06         0.12847E+06         0.00000E+00
    0.12847E+06        -0.48080E+08         0.00000E+00
    0.00000E+00         0.00000E+00        -0.15222E-07
 
    0.23133E+06         0.13552E+06         0.00000E+00
    0.13552E+06        -0.48108E+08         0.00000E+00
    0.00000E+00         0.00000E+00         0.50741E-08
 
    0.24406E+06         0.14295E+06         0.00000E+00
    0.14295E+06        -0.48137E+08         0.00000E+00
    0.00000E+00         0.00000E+00        -0.10148E-07
 
    0.25743E+06         0.15077E+06         0.00000E+00
    0.15077E+06        -0.48169E+08         0.00000E+00
    0.00000E+00         0.00000E+00        -0.10148E-07
 
    0.27147E+06         0.15901E+06         0.00000E+00
    0.15901E+06        -0.48202E+08         0.00000E+00
    0.00000E+00         0.00000E+00        -0.25370E-07
 
    0.28620E+06         0.16768E+06         0.00000E+00
    0.16768E+06        -0.48237E+08         0.00000E+00
    0.00000E+00         0.00000E+00         0.20296E-07
 
    0.30164E+06         0.17680E+06         0.00000E+00
    0.17680E+06        -0.48274E+08         0.00000E+00
    0.00000E+00         0.00000E+00        -0.50741E-07
 
    0.31782E+06         0.18639E+06         0.00000E+00
    0.18639E+06        -0.48313E+08         0.00000E+00
    0.00000E+00         0.00000E+00         0.15222E-07
 
    0.33475E+06         0.19647E+06         0.00000E+00
    0.19647E+06        -0.48354E+08         0.00000E+00
    0.00000E+00         0.00000E+00         0.40593E-07
 
    0.35245E+06         0.20706E+06         0.00000E+00
    0.20706E+06        -0.48398E+08         0.00000E+00
    0.00000E+00         0.00000E+00         0.55815E-07
 
    0.37095E+06         0.21818E+06         0.00000E+00
    0.21818E+06        -0.48444E+08         0.00000E+00
    0.00000E+00         0.00000E+00        -0.20296E-07
 
    0.39025E+06         0.22984E+06         0.00000E+00
    0.22984E+06        -0.48493E+08         0.00000E+00
    0.00000E+00         0.00000E+00         0.20296E-07
 
    0.41037E+06         0.24207E+06         0.00000E+00
    0.24207E+06        -0.48544E+08         0.00000E+00
    0.00000E+00         0.00000E+00         0.50741E-08
 
    0.43132E+06         0.25488E+06         0.00000E+00
    0.25488E+06        -0.48599E+08         0.00000E+00
    0.00000E+00         0.00000E+00        -0.50741E-08
 
    0.45310E+06         0.26829E+06         0.00000E+00
    0.26829E+06        -0.48657E+08         0.00000E+00
    0.00000E+00         0.00000E+00         0.00000E+00
 
    0.47570E+06         0.28232E+06         0.00000E+00
    0.28232E+06        -0.48718E+08         0.00000E+00
    0.00000E+00         0.00000E+00        -0.45667E-07
 
    0.49911E+06         0.29697E+06         0.00000E+00
    0.29697E+06        -0.48783E+08         0.00000E+00
    0.00000E+00         0.00000E+00        -0.30444E-07
 
    0.52332E+06         0.31227E+06         0.00000E+00
    0.31227E+06        -0.48852E+08         0.00000E+00
    0.00000E+00         0.00000E+00        -0.45667E-07
 
    0.54828E+06         0.32821E+06         0.00000E+00
    0.32821E+06        -0.48924E+08         0.00000E+00
    0.00000E+00         0.00000E+00        -0.10148E-07
 
    0.57396E+06         0.34479E+06         0.00000E+00
    0.34479E+06        -0.49001E+08         0.00000E+00
    0.00000E+00         0.00000E+00        -0.45667E-07
 
    0.60030E+06         0.36203E+06         0.00000E+00
    0.36203E+06        -0.49082E+08         0.00000E+00
    0.00000E+00         0.00000E+00        -0.86259E-07
 
    0.62721E+06         0.37991E+06         0.00000E+00
    0.37991E+06        -0.49169E+08         0.00000E+00
    0.00000E+00         0.00000E+00         0.00000E+00
 
    0.65461E+06         0.39842E+06         0.00000E+00
    0.39842E+06        -0.49260E+08         0.00000E+00
    0.00000E+00         0.00000E+00        -0.50741E-08
 
    0.68237E+06         0.41753E+06         0.00000E+00
    0.41753E+06        -0.49357E+08         0.00000E+00
    0.00000E+00         0.00000E+00         0.25370E-07
 
    0.71033E+06         0.43722E+06         0.00000E+00
    0.43722E+06        -0.49459E+08         0.00000E+00
    0.00000E+00         0.00000E+00         0.25370E-07
 
    0.73832E+06         0.45743E+06         0.00000E+00
    0.45743E+06        -0.49568E+08         0.00000E+00
    0.00000E+00         0.00000E+00         0.50740E-07
 
    0.76611E+06         0.47810E+06         0.00000E+00
    0.47810E+06        -0.49683E+08         0.00000E+00
    0.00000E+00         0.00000E+00        -0.10148E-07
 
    0.79344E+06         0.49917E+06         0.00000E+00
    0.49917E+06        -0.49805E+08         0.00000E+00
    0.00000E+00         0.00000E+00        -0.10148E-07
 
    0.81998E+06         0.52052E+06         0.00000E+00
    0.52052E+06        -0.49935E+08         0.00000E+00
    0.00000E+00         0.00000E+00        -0.71037E-07
 
    0.84536E+06         0.54202E+06         0.00000E+00
    0.54202E+06        -0.50072E+08         0.00000E+00
    0.00000E+00         0.00000E+00         0.10148E-07
 
    0.86912E+06         0.56353E+06         0.00000E+00
    0.56353E+06        -0.50218E+08         0.00000E+00
    0.00000E+00         0.00000E+00        -0.71037E-07
 
    0.89075E+06         0.58485E+06         0.00000E+00
    0.58485E+06        -0.50373E+08         0.00000E+00
    0.00000E+00         0.00000E+00         0.81185E-07
 
    0.90963E+06         0.60574E+06         0.00000E+00
    0.60574E+06        -0.50537E+08         0.00000E+00
    0.00000E+00         0.00000E+00         0.60889E-07
 
    0.92503E+06         0.62592E+06         0.00000E+00
    0.62592E+06        -0.50712E+08         0.00000E+00
    0.00000E+00         0.00000E+00         0.50741E-07
 
    0.93612E+06         0.64504E+06         0.00000E+00
    0.64504E+06        -0.50898E+08         0.00000E+00
    0.00000E+00         0.00000E+00         0.50741E-07
 
    0.94194E+06         0.66269E+06         0.00000E+00
    0.66269E+06        -0.51095E+08         0.00000E+00
    0.00000E+00         0.00000E+00         0.20296E-07
 
    0.94135E+06         0.67839E+06         0.00000E+00
    0.67839E+06        -0.51306E+08         0.00000E+00
    0.00000E+00         0.00000E+00        -0.45667E-07
 
    0.93310E+06         0.69157E+06         0.00000E+00
    0.69157E+06        -0.51530E+08         0.00000E+00
    0.00000E+00         0.00000E+00        -0.30444E-07
 
    0.91569E+06         0.70155E+06         0.00000E+00
    0.70155E+06        -0.51768E+08         0.00000E+00
    0.00000E+00         0.00000E+00        -0.10148E-07
 
    0.88748E+06         0.70756E+06         0.00000E+00
    0.70756E+06        -0.52022E+08         0.00000E+00
    0.00000E+00         0.00000E+00         0.10148E-07
 
    0.84656E+06         0.70873E+06         0.00000E+00
    0.70873E+06        -0.52293E+08         0.00000E+00
    0.00000E+00         0.00000E+00        -0.96407E-07
 
    0.79082E+06         0.70405E+06         0.00000E+00
    0.70405E+06        -0.52583E+08         0.00000E+00
    0.00000E+00         0.00000E+00         0.45667E-07
 
    0.71788E+06         0.69242E+06         0.00000E+00
    0.69242E+06        -0.52891E+08         0.00000E+00
    0.00000E+00         0.00000E+00        -0.35519E-07
 
    0.62510E+06         0.67261E+06         0.00000E+00
    0.67261E+06        -0.53221E+08         0.00000E+00
    0.00000E+00         0.00000E+00         0.86258E-07
 
    0.50958E+06         0.64336E+06         0.00000E+00
    0.64336E+06        -0.53573E+08         0.00000E+00
    0.00000E+00         0.00000E+00         0.20296E-07
 
    0.36816E+06         0.60333E+06         0.00000E+00
    0.60333E+06        -0.53948E+08         0.00000E+00
    0.00000E+00         0.00000E+00        -0.25371E-07
 
    0.19746E+06         0.55123E+06         0.00000E+00
    0.55123E+06        -0.54349E+08         0.00000E+00
    0.00000E+00         0.00000E+00         0.15221E-07
 
   -0.61119E+04         0.48591E+06         0.00000E+00
    0.48591E+06        -0.54777E+08         0.00000E+00
    0.00000E+00         0.00000E+00         0.20296E-07
 
   -0.24628E+06         0.40648E+06         0.00000E+00
    0.40648E+06        -0.55232E+08         0.00000E+00
    0.00000E+00         0.00000E+00        -0.10148E-07
 
   -0.52677E+06         0.31256E+06         0.00000E+00
    0.31256E+06        -0.55715E+08         0.00000E+00
    0.00000E+00         0.00000E+00        -0.40593E-07
 
   -0.85117E+06         0.20454E+06         0.00000E+00
    0.20454E+06        -0.56229E+08         0.00000E+00
    0.00000E+00         0.00000E+00        -0.10148E-07
 
   -0.12226E+07         0.83960E+05         0.00000E+00
    0.83960E+05        -0.56771E+08         0.00000E+00
    0.00000E+00         0.00000E+00         0.10148E-07
 
   -0.16436E+07        -0.45854E+05         0.00000E+00
   -0.45854E+05        -0.57343E+08         0.00000E+00
    0.00000E+00         0.00000E+00        -0.10148E-07
 
   -0.21151E+07        -0.17905E+06         0.00000E+00
   -0.17905E+06        -0.57941E+08         0.00000E+00
    0.00000E+00         0.00000E+00         0.40593E-07
 
   -0.26365E+07        -0.30606E+06         0.00000E+00
   -0.30606E+06        -0.58563E+08         0.00000E+00
    0.00000E+00         0.00000E+00         0.10146E-07
 
   -0.32046E+07        -0.41186E+06         0.00000E+00
   -0.41186E+06        -0.59199E+08         0.00000E+00
    0.00000E+00         0.00000E+00         0.20294E-07
 
   -0.38150E+07        -0.47368E+06         0.00000E+00
   -0.47368E+06        -0.59834E+08         0.00000E+00
    0.00000E+00         0.00000E+00         0.12178E-06
 
   -0.44677E+07        -0.46069E+06         0.00000E+00
   -0.46069E+06        -0.60430E+08         0.00000E+00
    0.00000E+00         0.00000E+00        -0.30444E-07
 
   -0.51783E+07        -0.34474E+06         0.00000E+00
   -0.34474E+06        -0.60920E+08         0.00000E+00
    0.00000E+00         0.00000E+00         0.11163E-06
 
   -0.59832E+07        -0.12902E+06         0.00000E+00
   -0.12902E+06        -0.61204E+08         0.00000E+00
    0.00000E+00         0.00000E+00        -0.50740E-07
 
    0.91341E+05        -0.23318E+03         0.00000E+00
   -0.23318E+03        -0.47607E+08         0.00000E+00
    0.00000E+00         0.00000E+00         0.10148E-07
 
    0.85868E+05        -0.37571E+03         0.00000E+00
   -0.37571E+03        -0.47610E+08         0.00000E+00
    0.00000E+00         0.00000E+00        -0.71037E-07
 
    0.81165E+05         0.23720E+03         0.00000E+00
    0.23720E+03        -0.47614E+08         0.00000E+00
    0.00000E+00         0.00000E+00        -0.30444E-07
 
    0.76970E+05         0.16062E+04         0.00000E+00
    0.16062E+04        -0.47619E+08         0.00000E+00
    0.00000E+00         0.00000E+00         0.30444E-07
 
    0.73193E+05         0.35073E+04         0.00000E+00
    0.35073E+04        -0.47625E+08         0.00000E+00
    0.00000E+00         0.00000E+00        -0.30444E-07
 
    0.69860E+05         0.57193E+04         0.00000E+00
    0.57193E+04        -0.47631E+08         0.00000E+00
    0.00000E+00         0.00000E+00        -0.50740E-08
 
    0.67017E+05         0.80902E+04         0.00000E+00
    0.80902E+04        -0.47637E+08         0.00000E+00
    0.00000E+00         0.00000E+00        -0.45667E-07
 
    0.64695E+05         0.10525E+05         0.00000E+00
    0.10525E+05        -0.47644E+08         0.00000E+00
    0.00000E+00         0.00000E+00        -0.20296E-07
 
    0.62904E+05         0.12966E+05         0.00000E+00
    0.12966E+05        -0.47650E+08         0.00000E+00
    0.00000E+00         0.00000E+00         0.16744E-06
 
    0.61640E+05         0.15381E+05         0.00000E+00
    0.15381E+05        -0.47657E+08         0.00000E+00
    0.00000E+00         0.00000E+00        -0.40593E-07
 
    0.60889E+05         0.17753E+05         0.00000E+00
    0.17753E+05        -0.47664E+08         0.00000E+00
    0.00000E+00         0.00000E+00        -0.10148E-07
 
    0.60632E+05         0.20077E+05         0.00000E+00
    0.20077E+05        -0.47671E+08         0.00000E+00
    0.00000E+00         0.00000E+00         0.10148E-07
 
    0.60847E+05         0.22357E+05         0.00000E+00
    0.22357E+05        -0.47678E+08         0.00000E+00
    0.00000E+00         0.00000E+00        -0.10656E-06
 
    0.61514E+05         0.24601E+05         0.00000E+00
    0.24601E+05        -0.47685E+08         0.00000E+00
    0.00000E+00         0.00000E+00        -0.10148E-07
 
    0.62609E+05         0.26821E+05         0.00000E+00
    0.26821E+05        -0.47693E+08         0.00000E+00
    0.00000E+00         0.00000E+00        -0.50741E-07
 
    0.64114E+05         0.29030E+05         0.00000E+00
    0.29030E+05        -0.47701E+08         0.00000E+00
    0.00000E+00         0.00000E+00         0.25370E-07
 
    0.66011E+05         0.31243E+05         0.00000E+00
    0.31243E+05        -0.47709E+08         0.00000E+00
    0.00000E+00         0.00000E+00        -0.40593E-07
 
    0.68285E+05         0.33475E+05         0.00000E+00
    0.33475E+05        -0.47718E+08         0.00000E+00
    0.00000E+00         0.00000E+00        -0.45667E-07
 
    0.70922E+05         0.35741E+05         0.00000E+00
    0.35741E+05        -0.47726E+08         0.00000E+00
    0.00000E+00         0.00000E+00         0.40593E-07
 
    0.73914E+05         0.38055E+05         0.00000E+00
    0.38055E+05        -0.47736E+08         0.00000E+00
    0.00000E+00         0.00000E+00         0.20296E-07
 
    0.77252E+05         0.40431E+05         0.00000E+00
    0.40431E+05        -0.47745E+08         0.00000E+00
    0.00000E+00         0.00000E+00        -0.40593E-07
 
    0.80932E+05         0.42885E+05         0.00000E+00
    0.42885E+05        -0.47755E+08         0.00000E+00
    0.00000E+00         0.00000E+00         0.00000E+00
 
    0.84950E+05         0.45427E+05         0.00000E+00
    0.45427E+05        -0.47766E+08         0.00000E+00
    0.00000E+00         0.00000E+00         0.15222E-07
 
    0.89308E+05         0.48072E+05         0.00000E+00
    0.48072E+05        -0.47777E+08         0.00000E+00
    0.00000E+00         0.00000E+00        -0.50741E-07
 
    0.94006E+05         0.50832E+05         0.00000E+00
    0.50832E+05        -0.47788E+08         0.00000E+00
    0.00000E+00         0.00000E+00         0.91333E-07
 
    0.99048E+05         0.53719E+05         0.00000E+00
    0.53719E+05        -0.47800E+08         0.00000E+00
    0.00000E+00         0.00000E+00        -0.10148E-07
 
    0.10444E+06         0.56745E+05         0.00000E+00
    0.56745E+05        -0.47813E+08         0.00000E+00
    0.00000E+00         0.00000E+00        -0.40593E-07
 
    0.11019E+06         0.59922E+05         0.00000E+00
    0.59922E+05        -0.47826E+08         0.00000E+00
    0.00000E+00         0.00000E+00         0.20296E-07
 
    0.11631E+06         0.63261E+05         0.00000E+00
    0.63261E+05        -0.47840E+08         0.00000E+00
    0.00000E+00         0.00000E+00         0.40593E-07
 
    0.12281E+06         0.66775E+05         0.00000E+00
    0.66775E+05        -0.47855E+08         0.00000E+00
    0.00000E+00         0.00000E+00        -0.86259E-07
 
    0.12970E+06         0.70475E+05         0.00000E+00
    0.70475E+05        -0.47870E+08         0.00000E+00
    0.00000E+00         0.00000E+00        -0.20296E-07
 
    0.13700E+06         0.74373E+05         0.00000E+00
    0.74373E+05        -0.47887E+08         0.00000E+00
    0.00000E+00         0.00000E+00        -0.91333E-07
 
    0.14471E+06         0.78481E+05         0.00000E+00
    0.78481E+05        -0.47904E+08         0.00000E+00
    0.00000E+00         0.00000E+00         0.15222E-07
 
    0.15287E+06         0.82813E+05         0.00000E+00
    0.82813E+05        -0.47922E+08         0.00000E+00
    0.00000E+00         0.00000E+00         0.40593E-07
 
    0.16148E+06         0.87381E+05         0.00000E+00
    0.87381E+05        -0.47941E+08         0.00000E+00
    0.00000E+00         0.00000E+00         0.71037E-07
 
    0.17056E+06         0.92198E+05         0.00000E+00
    0.92198E+05        -0.47962E+08         0.00000E+00
    0.00000E+00         0.00000E+00         0.25370E-07
 
    0.18014E+06         0.97279E+05         0.00000E+00
    0.97279E+05        -0.47983E+08         0.00000E+00
    0.00000E+00         0.00000E+00        -0.25370E-07
 
    0.19023E+06         0.10264E+06         0.00000E+00
    0.10264E+06        -0.48006E+08         0.00000E+00
    0.00000E+00         0.00000E+00         0.15222E-07
 
    0.20086E+06         0.10828E+06         0.00000E+00
    0.10828E+06        -0.48029E+08         0.00000E+00
    0.00000E+00         0.00000E+00        -0.30444E-07
 
    0.21205E+06         0.11424E+06         0.00000E+00
    0.11424E+06        -0.48055E+08         0.00000E+00
    0.00000E+00         0.00000E+00         0.40593E-07
 
    0.22382E+06         0.12052E+06         0.00000E+00
    0.12052E+06        -0.48081E+08         0.00000E+00
    0.00000E+00         0.00000E+00        -0.35518E-07
 
    0.23620E+06         0.12713E+06         0.00000E+00
    0.12713E+06        -0.48109E+08         0.00000E+00
    0.00000E+00         0.00000E+00         0.35518E-07
 
    0.24922E+06         0.13410E+06         0.00000E+00
    0.13410E+06        -0.48139E+08         0.00000E+00
    0.00000E+00         0.00000E+00         0.00000E+00
 
    0.26288E+06         0.14144E+06         0.00000E+00
    0.14144E+06        -0.48170E+08         0.00000E+00
    0.00000E+00         0.00000E+00         0.50741E-07
 
    0.27723E+06         0.14917E+06         0.00000E+00
    0.14917E+06        -0.48203E+08         0.00000E+00
    0.00000E+00         0.00000E+00        -0.20296E-07
 
    0.29228E+06         0.15730E+06         0.00000E+00
    0.15730E+06        -0.48239E+08         0.00000E+00
    0.00000E+00         0.00000E+00        -0.50741E-07
 
    0.30807E+06         0.16586E+06         0.00000E+00
    0.16586E+06        -0.48276E+08         0.00000E+00
    0.00000E+00         0.00000E+00         0.30444E-07
 
    0.32460E+06         0.17486E+06         0.00000E+00
    0.17486E+06        -0.48315E+08         0.00000E+00
    0.00000E+00         0.00000E+00         0.25370E-07
 
    0.34191E+06         0.18431E+06         0.00000E+00
    0.18431E+06        -0.48356E+08         0.00000E+00
    0.00000E+00         0.00000E+00        -0.65963E-07
 
    0.36001E+06         0.19425E+06         0.00000E+00
    0.19425E+06        -0.48400E+08         0.00000E+00
    0.00000E+00         0.00000E+00         0.50741E-08
 
    0.37893E+06         0.20468E+06         0.00000E+00
    0.20468E+06        -0.48446E+08         0.00000E+00
    0.00000E+00         0.00000E+00         0.86259E-07
 
    0.39868E+06         0.21562E+06         0.00000E+00
    0.21562E+06        -0.48495E+08         0.00000E+00
    0.00000E+00         0.00000E+00         0.35518E-07
 
    0.41927E+06         0.22710E+06         0.00000E+00
    0.22710E+06        -0.48547E+08         0.00000E+00
    0.00000E+00         0.00000E+00        -0.65963E-07
 
    0.44071E+06         0.23912E+06         0.00000E+00
    0.23912E+06        -0.48602E+08         0.00000E+00
    0.00000E+00         0.00000E+00        -0.40593E-07
 
    0.46300E+06         0.25171E+06         0.00000E+00
    0.25171E+06        -0.48660E+08         0.00000E+00
    0.00000E+00         0.00000E+00         0.00000E+00
 
    0.48614E+06         0.26487E+06         0.00000E+00
    0.26487E+06        -0.48721E+08         0.00000E+00
    0.00000E+00         0.00000E+00        -0.25370E-07
 
    0.51012E+06         0.27862E+06         0.00000E+00
    0.27862E+06        -0.48786E+08         0.00000E+00
    0.00000E+00         0.00000E+00        -0.20296E-07
 
    0.53492E+06         0.29297E+06         0.00000E+00
    0.29297E+06        -0.48855E+08         0.00000E+00
    0.00000E+00         0.00000E+00         0.35518E-07
 
    0.56051E+06         0.30793E+06         0.00000E+00
    0.30793E+06        -0.48927E+08         0.00000E+00
    0.00000E+00         0.00000E+00        -0.20296E-07
 
    0.58685E+06         0.32350E+06         0.00000E+00
    0.32350E+06        -0.49004E+08         0.00000E+00
    0.00000E+00         0.00000E+00         0.00000E+00
 
    0.61387E+06         0.33968E+06         0.00000E+00
    0.33968E+06        -0.49086E+08         0.00000E+00
    0.00000E+00         0.00000E+00         0.20296E-07
 
    0.64151E+06         0.35646E+06         0.00000E+00
    0.35646E+06        -0.49172E+08         0.00000E+00
    0.00000E+00         0.00000E+00        -0.50741E-08
 
    0.66966E+06         0.37384E+06         0.00000E+00
    0.37384E+06        -0.49264E+08         0.00000E+00
    0.00000E+00         0.00000E+00         0.00000E+00
 
    0.69820E+06         0.39178E+06         0.00000E+00
    0.39178E+06        -0.49361E+08         0.00000E+00
    0.00000E+00         0.00000E+00         0.00000E+00
 
    0.72699E+06         0.41026E+06         0.00000E+00
    0.41026E+06        -0.49463E+08         0.00000E+00
    0.00000E+00         0.00000E+00         0.00000E+00
 
    0.75584E+06         0.42924E+06         0.00000E+00
    0.42924E+06        -0.49572E+08         0.00000E+00
    0.00000E+00         0.00000E+00         0.45667E-07
 
    0.78452E+06         0.44865E+06         0.00000E+00
    0.44865E+06        -0.49687E+08         0.00000E+00
    0.00000E+00         0.00000E+00         0.50741E-08
 
    0.81276E+06         0.46843E+06         0.00000E+00
    0.46843E+06        -0.49809E+08         0.00000E+00
    0.00000E+00         0.00000E+00        -0.45667E-07
 
    0.84026E+06         0.48848E+06         0.00000E+00
    0.48848E+06        -0.49939E+08         0.00000E+00
    0.00000E+00         0.00000E+00         0.55815E-07
 
    0.86662E+06         0.50868E+06         0.00000E+00
    0.50868E+06        -0.50076E+08         0.00000E+00
    0.00000E+00         0.00000E+00        -0.20296E-07
 
    0.89139E+06         0.52888E+06         0.00000E+00
    0.52888E+06        -0.50222E+08         0.00000E+00
    0.00000E+00         0.00000E+00        -0.15222E-07
 
    0.91404E+06         0.54890E+06         0.00000E+00
    0.54890E+06        -0.50377E+08         0.00000E+00
    0.00000E+00         0.00000E+00         0.11163E-06
 
    0.93395E+06         0.56851E+06         0.00000E+00
    0.56851E+06        -0.50541E+08         0.00000E+00
    0.00000E+00         0.00000E+00        -0.35518E-07
 
    0.95038E+06         0.58745E+06         0.00000E+00
    0.58745E+06        -0.50716E+08         0.00000E+00
    0.00000E+00         0.00000E+00         0.45667E-07
 
    0.96248E+06         0.60538E+06         0.00000E+00
    0.60538E+06        -0.50902E+08         0.00000E+00
    0.00000E+00         0.00000E+00         0.40593E-07
 
    0.96927E+06         0.62192E+06         0.00000E+00
    0.62192E+06        -0.51099E+08         0.00000E+00
    0.00000E+00         0.00000E+00        -0.91333E-07
 
    0.96959E+06         0.63660E+06         0.00000E+00
    0.63660E+06        -0.51309E+08         0.00000E+00
    0.00000E+00         0.00000E+00         0.40593E-07
 
    0.96214E+06         0.64887E+06         0.00000E+00
    0.64887E+06        -0.51532E+08         0.00000E+00
    0.00000E+00         0.00000E+00         0.00000E+00
 
    0.94539E+06         0.65810E+06         0.00000E+00
    0.65810E+06        -0.51770E+08         0.00000E+00
    0.00000E+00         0.00000E+00        -0.50741E-08
 
    0.91764E+06         0.66354E+06         0.00000E+00
    0.66354E+06        -0.52023E+08         0.00000E+00
    0.00000E+00         0.00000E+00         0.10148E-07
 
    0.87691E+06         0.66435E+06         0.00000E+00
    0.66435E+06        -0.52293E+08         0.00000E+00
    0.00000E+00         0.00000E+00        -0.50741E-07
 
    0.82099E+06         0.65956E+06         0.00000E+00
    0.65956E+06        -0.52581E+08         0.00000E+00
    0.00000E+00         0.00000E+00        -0.45667E-07
 
    0.74741E+06         0.64809E+06         0.00000E+00
    0.64809E+06        -0.52889E+08         0.00000E+00
    0.00000E+00         0.00000E+00         0.50741E-07
 
    0.65341E+06         0.62879E+06         0.00000E+00
    0.62879E+06        -0.53217E+08         0.00000E+00
    0.00000E+00         0.00000E+00        -0.20296E-07
 
    0.53592E+06         0.60038E+06         0.00000E+00
    0.60038E+06        -0.53566E+08         0.00000E+00
    0.00000E+00         0.00000E+00        -0.15223E-07
 
    0.39161E+06         0.56159E+06         0.00000E+00
    0.56159E+06        -0.53940E+08         0.00000E+00
    0.00000E+00         0.00000E+00        -0.40593E-07
 
    0.21689E+06         0.51115E+06         0.00000E+00
    0.51115E+06        -0.54338E+08         0.00000E+00
    0.00000E+00         0.00000E+00        -0.20296E-07
 
    0.79367E+04         0.44791E+06         0.00000E+00
    0.44791E+06        -0.54762E+08         0.00000E+00
    0.00000E+00         0.00000E+00         0.20296E-07
 
   -0.23921E+06         0.37098E+06         0.00000E+00
    0.37098E+06        -0.55215E+08         0.00000E+00
    0.00000E+00         0.00000E+00        -0.71037E-07
 
   -0.52856E+06         0.27993E+06         0.00000E+00
    0.27993E+06        -0.55696E+08         0.00000E+00
    0.00000E+00         0.00000E+00        -0.71037E-07
 
   -0.86393E+06         0.17506E+06         0.00000E+00
    0.17506E+06        -0.56206E+08         0.00000E+00
    0.00000E+00         0.00000E+00         0.11163E-06
 
   -0.12487E+07         0.57777E+05         0.00000E+00
    0.57777E+05        -0.56746E+08         0.00000E+00
    0.00000E+00         0.00000E+00        -0.50741E-07
 
   -0.16855E+07        -0.68860E+05         0.00000E+00
   -0.68860E+05        -0.57316E+08         0.00000E+00
    0.00000E+00         0.00000E+00         0.71037E-07
 
   -0.21754E+07        -0.19938E+06         0.00000E+00
   -0.19938E+06        -0.57915E+08         0.00000E+00
    0.00000E+00         0.00000E+00        -0.10148E-07
 
   -0.27172E+07        -0.32475E+06         0.00000E+00
   -0.32475E+06        -0.58538E+08         0.00000E+00
    0.00000E+00         0.00000E+00         0.10148E-06
 
   -0.33071E+07        -0.43054E+06         0.00000E+00
   -0.43054E+06        -0.59180E+08         0.00000E+00
    0.00000E+00         0.00000E+00         0.10148E-07
 
   -0.39385E+07        -0.49418E+06         0.00000E+00
   -0.49418E+06        -0.59826E+08         0.00000E+00
    0.00000E+00         0.00000E+00         0.15222E-06
 
   -0.46080E+07        -0.48313E+06         0.00000E+00
   -0.48313E+06        -0.60442E+08         0.00000E+00
    0.00000E+00         0.00000E+00        -0.40594E-07
 
   -0.53280E+07        -0.36444E+06         0.00000E+00
   -0.36444E+06        -0.60954E+08         0.00000E+00
    0.00000E+00         0.00000E+00        -0.10148E-07
 
   -0.61360E+07        -0.13721E+06         0.00000E+00
   -0.13721E+06        -0.61255E+08         0.00000E+00
    0.00000E+00         0.00000E+00         0.11369E-12
 
    0.93417E+05        -0.33745E+03         0.00000E+00
   -0.33745E+03        -0.47607E+08         0.00000E+00
    0.00000E+00         0.00000E+00         0.00000E+00
 
    0.87919E+05        -0.64888E+03         0.00000E+00
   -0.64888E+03        -0.47610E+08         0.00000E+00
    0.00000E+00         0.00000E+00         0.10148E-07
 
    0.83143E+05        -0.13798E+03         0.00000E+00
   -0.13798E+03        -0.47614E+08         0.00000E+00
    0.00000E+00         0.00000E+00        -0.50741E-08
 
    0.78824E+05         0.11581E+04         0.00000E+00
    0.11581E+04        -0.47620E+08         0.00000E+00
    0.00000E+00         0.00000E+00        -0.30444E-07
 
    0.74899E+05         0.29783E+04         0.00000E+00
    0.29783E+04        -0.47625E+08         0.00000E+00
    0.00000E+00         0.00000E+00        -0.55815E-07
 
    0.71421E+05         0.50912E+04         0.00000E+00
    0.50912E+04        -0.47631E+08         0.00000E+00
    0.00000E+00         0.00000E+00         0.50741E-08
 
    0.68448E+05         0.73481E+04         0.00000E+00
    0.73481E+04        -0.47638E+08         0.00000E+00
    0.00000E+00         0.00000E+00        -0.25370E-07
 
    0.66018E+05         0.96591E+04         0.00000E+00
    0.96591E+04        -0.47644E+08         0.00000E+00
    0.00000E+00         0.00000E+00        -0.71037E-07
 
    0.64141E+05         0.11971E+05         0.00000E+00
    0.11971E+05        -0.47651E+08         0.00000E+00
    0.00000E+00         0.00000E+00        -0.25370E-07
 
    0.62812E+05         0.14252E+05         0.00000E+00
    0.14252E+05        -0.47657E+08         0.00000E+00
    0.00000E+00         0.00000E+00        -0.91333E-07
 
    0.62017E+05         0.16490E+05         0.00000E+00
    0.16490E+05        -0.47664E+08         0.00000E+00
    0.00000E+00         0.00000E+00        -0.55815E-07
 
    0.61735E+05         0.18679E+05         0.00000E+00
    0.18679E+05        -0.47671E+08         0.00000E+00
    0.00000E+00         0.00000E+00         0.10148E-07
 
    0.61942E+05         0.20823E+05         0.00000E+00
    0.20823E+05        -0.47678E+08         0.00000E+00
    0.00000E+00         0.00000E+00        -0.55815E-07
 
    0.62615E+05         0.22931E+05         0.00000E+00
    0.22931E+05        -0.47686E+08         0.00000E+00
    0.00000E+00         0.00000E+00        -0.76111E-07
 
    0.63731E+05         0.25013E+05         0.00000E+00
    0.25013E+05        -0.47694E+08         0.00000E+00
    0.00000E+00         0.00000E+00         0.25370E-07
 
    0.65267E+05         0.27083E+05         0.00000E+00
    0.27083E+05        -0.47701E+08         0.00000E+00
    0.00000E+00         0.00000E+00        -0.71037E-07
 
    0.67206E+05         0.29155E+05         0.00000E+00
    0.29155E+05        -0.47710E+08         0.00000E+00
    0.00000E+00         0.00000E+00        -0.35518E-07
 
    0.69531E+05         0.31243E+05         0.00000E+00
    0.31243E+05        -0.47718E+08         0.00000E+00
    0.00000E+00         0.00000E+00         0.30444E-07
 
    0.72228E+05         0.33362E+05         0.00000E+00
    0.33362E+05        -0.47727E+08         0.00000E+00
    0.00000E+00         0.00000E+00        -0.35518E-07
 
    0.75287E+05         0.35524E+05         0.00000E+00
    0.35524E+05        -0.47736E+08         0.00000E+00
    0.00000E+00         0.00000E+00        -0.40593E-07
 
    0.78700E+05         0.37745E+05         0.00000E+00
    0.37745E+05        -0.47746E+08         0.00000E+00
    0.00000E+00         0.00000E+00         0.10148E-07
 
    0.82461E+05         0.40036E+05         0.00000E+00
    0.40036E+05        -0.47756E+08         0.00000E+00
    0.00000E+00         0.00000E+00        -0.10148E-07
 
    0.86568E+05         0.42411E+05         0.00000E+00
    0.42411E+05        -0.47766E+08         0.00000E+00
    0.00000E+00         0.00000E+00         0.10148E-07
 
    0.91020E+05         0.44880E+05         0.00000E+00
    0.44880E+05        -0.47777E+08         0.00000E+00
    0.00000E+00         0.00000E+00        -0.40593E-07
 
    0.95819E+05         0.47457E+05         0.00000E+00
    0.47457E+05        -0.47789E+08         0.00000E+00
    0.00000E+00         0.00000E+00        -0.40593E-07
 
    0.10097E+06         0.50153E+05         0.00000E+00
    0.50153E+05        -0.47801E+08         0.00000E+00
    0.00000E+00         0.00000E+00         0.10148E-07
 
    0.10648E+06         0.52977E+05         0.00000E+00
    0.52977E+05        -0.47813E+08         0.00000E+00
    0.00000E+00         0.00000E+00         0.50741E-08
 
    0.11235E+06         0.55943E+05         0.00000E+00
    0.55943E+05        -0.47827E+08         0.00000E+00
    0.00000E+00         0.00000E+00        -0.15222E-07
 
    0.11860E+06         0.59060E+05         0.00000E+00
    0.59060E+05        -0.47841E+08         0.00000E+00
    0.00000E+00         0.00000E+00         0.55815E-07
 
    0.12523E+06         0.62340E+05         0.00000E+00
    0.62340E+05        -0.47856E+08         0.00000E+00
    0.00000E+00         0.00000E+00        -0.45667E-07
 
    0.13226E+06         0.65794E+05         0.00000E+00
    0.65794E+05        -0.47871E+08         0.00000E+00
    0.00000E+00         0.00000E+00        -0.50741E-08
 
    0.13971E+06         0.69433E+05         0.00000E+00
    0.69433E+05        -0.47888E+08         0.00000E+00
    0.00000E+00         0.00000E+00        -0.20296E-07
 
    0.14759E+06         0.73269E+05         0.00000E+00
    0.73269E+05        -0.47905E+08         0.00000E+00
    0.00000E+00         0.00000E+00        -0.40593E-07
 
    0.15591E+06         0.77313E+05         0.00000E+00
    0.77313E+05        -0.47923E+08         0.00000E+00
    0.00000E+00         0.00000E+00        -0.55815E-07
 
    0.16469E+06         0.81577E+05         0.00000E+00
    0.81577E+05        -0.47942E+08         0.00000E+00
    0.00000E+00         0.00000E+00         0.40593E-07
 
    0.17396E+06         0.86075E+05         0.00000E+00
    0.86075E+05        -0.47963E+08         0.00000E+00
    0.00000E+00         0.00000E+00         0.55815E-07
 
    0.18374E+06         0.90818E+05         0.00000E+00
    0.90818E+05        -0.47984E+08         0.00000E+00
    0.00000E+00         0.00000E+00         0.50741E-08
 
    0.19404E+06         0.95819E+05         0.00000E+00
    0.95819E+05        -0.48007E+08         0.00000E+00
    0.00000E+00         0.00000E+00        -0.60889E-07
 
    0.20489E+06         0.10109E+06         0.00000E+00
    0.10109E+06        -0.48031E+08         0.00000E+00
    0.00000E+00         0.00000E+00         0.10148E-07
 
    0.21631E+06         0.10665E+06         0.00000E+00
    0.10665E+06        -0.48056E+08         0.00000E+00
    0.00000E+00         0.00000E+00         0.71037E-07
 
    0.22833E+06         0.11251E+06         0.00000E+00
    0.11251E+06        -0.48083E+08         0.00000E+00
    0.00000E+00         0.00000E+00         0.40593E-07
 
    0.24097E+06         0.11869E+06         0.00000E+00
    0.11869E+06        -0.48111E+08         0.00000E+00
    0.00000E+00         0.00000E+00        -0.30444E-07
 
    0.25425E+06         0.12520E+06         0.00000E+00
    0.12520E+06        -0.48140E+08         0.00000E+00
    0.00000E+00         0.00000E+00         0.00000E+00
 
    0.26820E+06         0.13205E+06         0.00000E+00
    0.13205E+06        -0.48172E+08         0.00000E+00
    0.00000E+00         0.00000E+00        -0.10148E-06
 
    0.28285E+06         0.13927E+06         0.00000E+00
    0.13927E+06        -0.48205E+08         0.00000E+00
    0.00000E+00         0.00000E+00        -0.40593E-07
 
    0.29823E+06         0.14686E+06         0.00000E+00
    0.14686E+06        -0.48240E+08         0.00000E+00
    0.00000E+00         0.00000E+00         0.45667E-07
 
    0.31434E+06         0.15485E+06         0.00000E+00
    0.15485E+06        -0.48277E+08         0.00000E+00
    0.00000E+00         0.00000E+00         0.10148E-06
 
    0.33123E+06         0.16325E+06         0.00000E+00
    0.16325E+06        -0.48317E+08         0.00000E+00
    0.00000E+00         0.00000E+00        -0.20296E-07
 
    0.34891E+06         0.17208E+06         0.00000E+00
    0.17208E+06        -0.48358E+08         0.00000E+00
    0.00000E+00         0.00000E+00        -0.50741E-08
 
    0.36741E+06         0.18136E+06         0.00000E+00
    0.18136E+06        -0.48402E+08         0.00000E+00
    0.00000E+00         0.00000E+00         0.11163E-06
 
    0.38674E+06         0.19110E+06         0.00000E+00
    0.19110E+06        -0.48448E+08         0.00000E+00
    0.00000E+00         0.00000E+00        -0.20296E-07
 
    0.40692E+06         0.20132E+06         0.00000E+00
    0.20132E+06        -0.48497E+08         0.00000E+00
    0.00000E+00         0.00000E+00        -0.10148E-07
 
    0.42797E+06         0.21203E+06         0.00000E+00
    0.21203E+06        -0.48549E+08         0.00000E+00
    0.00000E+00         0.00000E+00         0.35518E-07
 
    0.44989E+06         0.22326E+06         0.00000E+00
    0.22326E+06        -0.48604E+08         0.00000E+00
    0.00000E+00         0.00000E+00        -0.20296E-07
 
    0.47269E+06         0.23501E+06         0.00000E+00
    0.23501E+06        -0.48662E+08         0.00000E+00
    0.00000E+00         0.00000E+00        -0.50741E-08
 
    0.49637E+06         0.24731E+06         0.00000E+00
    0.24731E+06        -0.48724E+08         0.00000E+00
    0.00000E+00         0.00000E+00         0.35518E-07
 
    0.52091E+06         0.26015E+06         0.00000E+00
    0.26015E+06        -0.48789E+08         0.00000E+00
    0.00000E+00         0.00000E+00         0.30444E-07
 
    0.54630E+06         0.27355E+06         0.00000E+00
    0.27355E+06        -0.48858E+08         0.00000E+00
    0.00000E+00         0.00000E+00        -0.40592E-07
 
    0.57251E+06         0.28753E+06         0.00000E+00
    0.28753E+06        -0.48931E+08         0.00000E+00
    0.00000E+00         0.00000E+00         0.11670E-06
 
    0.59950E+06         0.30207E+06         0.00000E+00
    0.30207E+06        -0.49008E+08         0.00000E+00
    0.00000E+00         0.00000E+00         0.50741E-08
 
    0.62721E+06         0.31719E+06         0.00000E+00
    0.31719E+06        -0.49089E+08         0.00000E+00
    0.00000E+00         0.00000E+00        -0.55815E-07
 
    0.65556E+06         0.33287E+06         0.00000E+00
    0.33287E+06        -0.49176E+08         0.00000E+00
    0.00000E+00         0.00000E+00        -0.40593E-07
 
    0.68446E+06         0.34910E+06         0.00000E+00
    0.34910E+06        -0.49267E+08         0.00000E+00
    0.00000E+00         0.00000E+00         0.00000E+00
 
    0.71379E+06         0.36586E+06         0.00000E+00
    0.36586E+06        -0.49364E+08         0.00000E+00
    0.00000E+00         0.00000E+00        -0.30444E-07
 
    0.74340E+06         0.38313E+06         0.00000E+00
    0.38313E+06        -0.49467E+08         0.00000E+00
    0.00000E+00         0.00000E+00        -0.15222E-07
 
    0.77311E+06         0.40087E+06         0.00000E+00
    0.40087E+06        -0.49576E+08         0.00000E+00
    0.00000E+00         0.00000E+00        -0.40593E-07
 
    0.80269E+06         0.41902E+06         0.00000E+00
    0.41902E+06        -0.49691E+08         0.00000E+00
    0.00000E+00         0.00000E+00        -0.10148E-07
 
    0.83187E+06         0.43751E+06         0.00000E+00
    0.43751E+06        -0.49813E+08         0.00000E+00
    0.00000E+00         0.00000E+00        -0.76111E-07
 
    0.86033E+06         0.45625E+06         0.00000E+00
    0.45625E+06        -0.49943E+08         0.00000E+00
    0.00000E+00         0.00000E+00        -0.35518E-07
 
    0.88769E+06         0.47513E+06         0.00000E+00
    0.47513E+06        -0.50080E+08         0.00000E+00
    0.00000E+00         0.00000E+00         0.55815E-07
 
    0.91349E+06         0.49402E+06         0.00000E+00
    0.49402E+06        -0.50226E+08         0.00000E+00
    0.00000E+00         0.00000E+00         0.25370E-07
 
    0.93720E+06         0.51273E+06         0.00000E+00
    0.51273E+06        -0.50381E+08         0.00000E+00
    0.00000E+00         0.00000E+00         0.91333E-07
 
    0.95817E+06         0.53107E+06         0.00000E+00
    0.53107E+06        -0.50545E+08         0.00000E+00
    0.00000E+00         0.00000E+00         0.20296E-07
 
    0.97568E+06         0.54876E+06         0.00000E+00
    0.54876E+06        -0.50720E+08         0.00000E+00
    0.00000E+00         0.00000E+00         0.20296E-07
 
    0.98885E+06         0.56551E+06         0.00000E+00
    0.56551E+06        -0.50905E+08         0.00000E+00
    0.00000E+00         0.00000E+00        -0.55815E-07
 
    0.99668E+06         0.58094E+06         0.00000E+00
    0.58094E+06        -0.51102E+08         0.00000E+00
    0.00000E+00         0.00000E+00        -0.10148E-07
 
    0.99799E+06         0.59462E+06         0.00000E+00
    0.59462E+06        -0.51312E+08         0.00000E+00
    0.00000E+00         0.00000E+00         0.15222E-07
 
    0.99143E+06         0.60601E+06         0.00000E+00
    0.60601E+06        -0.51535E+08         0.00000E+00
    0.00000E+00         0.00000E+00         0.50741E-08
 
    0.97546E+06         0.61452E+06         0.00000E+00
    0.61452E+06        -0.51772E+08         0.00000E+00
    0.00000E+00         0.00000E+00        -0.12685E-06
 
    0.94828E+06         0.61944E+06         0.00000E+00
    0.61944E+06        -0.52024E+08         0.00000E+00
    0.00000E+00         0.00000E+00         0.00000E+00
 
    0.90788E+06         0.61995E+06         0.00000E+00
    0.61995E+06        -0.52293E+08         0.00000E+00
    0.00000E+00         0.00000E+00         0.65963E-07
 
    0.85196E+06         0.61512E+06         0.00000E+00
    0.61512E+06        -0.52580E+08         0.00000E+00
    0.00000E+00         0.00000E+00         0.00000E+00
 
    0.77793E+06         0.60394E+06         0.00000E+00
    0.60394E+06        -0.52886E+08         0.00000E+00
    0.00000E+00         0.00000E+00        -0.10148E-07
 
    0.68289E+06         0.58526E+06         0.00000E+00
    0.58526E+06        -0.53212E+08         0.00000E+00
    0.00000E+00         0.00000E+00        -0.30444E-07
 
    0.56365E+06         0.55787E+06         0.00000E+00
    0.55787E+06        -0.53560E+08         0.00000E+00
    0.00000E+00         0.00000E+00         0.00000E+00
 
    0.41668E+06         0.52053E+06         0.00000E+00
    0.52053E+06        -0.53931E+08         0.00000E+00
    0.00000E+00         0.00000E+00        -0.40593E-07
 
    0.23817E+06         0.47199E+06         0.00000E+00
    0.47199E+06        -0.54327E+08         0.00000E+00
    0.00000E+00         0.00000E+00         0.00000E+00
 
    0.24074E+05         0.41113E+06         0.00000E+00
    0.41113E+06        -0.54749E+08         0.00000E+00
    0.00000E+00         0.00000E+00         0.00000E+00
 
   -0.22984E+06         0.33705E+06         0.00000E+00
    0.33705E+06        -0.55198E+08         0.00000E+00
    0.00000E+00         0.00000E+00        -0.71037E-07
 
   -0.52785E+06         0.24927E+06         0.00000E+00
    0.24927E+06        -0.55676E+08         0.00000E+00
    0.00000E+00         0.00000E+00         0.30444E-07
 
   -0.87409E+06         0.14802E+06         0.00000E+00
    0.14802E+06        -0.56184E+08         0.00000E+00
    0.00000E+00         0.00000E+00        -0.30444E-07
 
   -0.12722E+07         0.34540E+05         0.00000E+00
    0.34540E+05        -0.56722E+08         0.00000E+00
    0.00000E+00         0.00000E+00         0.40593E-07
 
   -0.17250E+07        -0.88389E+05         0.00000E+00
   -0.88389E+05        -0.57290E+08         0.00000E+00
    0.00000E+00         0.00000E+00         0.81185E-07
 
   -0.22336E+07        -0.21572E+06         0.00000E+00
   -0.21572E+06        -0.57888E+08         0.00000E+00
    0.00000E+00         0.00000E+00         0.00000E+00
 
   -0.27967E+07        -0.33901E+06         0.00000E+00
   -0.33901E+06        -0.58514E+08         0.00000E+00
    0.00000E+00         0.00000E+00        -0.60891E-07
 
   -0.34097E+07        -0.44464E+06         0.00000E+00
   -0.44464E+06        -0.59162E+08         0.00000E+00
    0.00000E+00         0.00000E+00        -0.10148E-07
 
   -0.40641E+07        -0.51053E+06         0.00000E+00
   -0.51053E+06        -0.59819E+08         0.00000E+00
    0.00000E+00         0.00000E+00         0.10148E-06
 
   -0.47526E+07        -0.50275E+06         0.00000E+00
   -0.50275E+06        -0.60453E+08         0.00000E+00
    0.00000E+00         0.00000E+00         0.10150E-07
 
   -0.54838E+07        -0.38309E+06         0.00000E+00
   -0.38309E+06        -0.60990E+08         0.00000E+00
    0.00000E+00         0.00000E+00         0.00000E+00
 
   -0.62956E+07        -0.14531E+06         0.00000E+00
   -0.14531E+06        -0.61310E+08         0.00000E+00
    0.00000E+00         0.00000E+00        -0.50741E-07
 
    0.95522E+05        -0.44122E+03         0.00000E+00
   -0.44122E+03        -0.47607E+08         0.00000E+00
    0.00000E+00         0.00000E+00         0.00000E+00
 
    0.89992E+05        -0.91402E+03         0.00000E+00
   -0.91402E+03        -0.47610E+08         0.00000E+00
    0.00000E+00         0.00000E+00        -0.55815E-07
 
    0.85129E+05        -0.49173E+03         0.00000E+00
   -0.49173E+03        -0.47614E+08         0.00000E+00
    0.00000E+00         0.00000E+00         0.50741E-07
 
    0.80667E+05         0.74012E+03         0.00000E+00
    0.74012E+03        -0.47620E+08         0.00000E+00
    0.00000E+00         0.00000E+00        -0.20296E-07
 
    0.76578E+05         0.24807E+04         0.00000E+00
    0.24807E+04        -0.47626E+08         0.00000E+00
    0.00000E+00         0.00000E+00         0.00000E+00
 
    0.72944E+05         0.44917E+04         0.00000E+00
    0.44917E+04        -0.47632E+08         0.00000E+00
    0.00000E+00         0.00000E+00        -0.60889E-07
 
    0.69836E+05         0.66303E+04         0.00000E+00
    0.66303E+04        -0.47638E+08         0.00000E+00
    0.00000E+00         0.00000E+00         0.45667E-07
 
    0.67294E+05         0.88129E+04         0.00000E+00
    0.88129E+04        -0.47645E+08         0.00000E+00
    0.00000E+00         0.00000E+00         0.30444E-07
 
    0.65329E+05         0.10990E+05         0.00000E+00
    0.10990E+05        -0.47651E+08         0.00000E+00
    0.00000E+00         0.00000E+00         0.25370E-07
 
    0.63936E+05         0.13135E+05         0.00000E+00
    0.13135E+05        -0.47658E+08         0.00000E+00
    0.00000E+00         0.00000E+00        -0.96407E-07
 
    0.63098E+05         0.15234E+05         0.00000E+00
    0.15234E+05        -0.47665E+08         0.00000E+00
    0.00000E+00         0.00000E+00        -0.10148E-07
 
    0.62791E+05         0.17284E+05         0.00000E+00
    0.17284E+05        -0.47672E+08         0.00000E+00
    0.00000E+00         0.00000E+00         0.00000E+00
 
    0.62991E+05         0.19289E+05         0.00000E+00
    0.19289E+05        -0.47679E+08         0.00000E+00
    0.00000E+00         0.00000E+00         0.35518E-07
 
    0.63671E+05         0.21257E+05         0.00000E+00
    0.21257E+05        -0.47686E+08         0.00000E+00
    0.00000E+00         0.00000E+00        -0.60889E-07
 
    0.64806E+05         0.23200E+05         0.00000E+00
    0.23200E+05        -0.47694E+08         0.00000E+00
    0.00000E+00         0.00000E+00         0.15222E-07
 
    0.66375E+05         0.25129E+05         0.00000E+00
    0.25129E+05        -0.47702E+08         0.00000E+00
    0.00000E+00         0.00000E+00        -0.55815E-07
 
    0.68356E+05         0.27058E+05         0.00000E+00
    0.27058E+05        -0.47710E+08         0.00000E+00
    0.00000E+00         0.00000E+00        -0.20296E-07
 
    0.70732E+05         0.29000E+05         0.00000E+00
    0.29000E+05        -0.47718E+08         0.00000E+00
    0.00000E+00         0.00000E+00         0.50741E-08
 
    0.73489E+05         0.30970E+05         0.00000E+00
    0.30970E+05        -0.47727E+08         0.00000E+00
    0.00000E+00         0.00000E+00        -0.50741E-08
 
    0.76615E+05         0.32980E+05         0.00000E+00
    0.32980E+05        -0.47736E+08         0.00000E+00
    0.00000E+00         0.00000E+00        -0.40593E-07
 
    0.80102E+05         0.35043E+05         0.00000E+00
    0.35043E+05        -0.47746E+08         0.00000E+00
    0.00000E+00         0.00000E+00        -0.15222E-07
 
    0.83943E+05         0.37171E+05         0.00000E+00
    0.37171E+05        -0.47756E+08         0.00000E+00
    0.00000E+00         0.00000E+00         0.15222E-07
 
    0.88137E+05         0.39376E+05         0.00000E+00
    0.39376E+05        -0.47767E+08         0.00000E+00
    0.00000E+00         0.00000E+00        -0.15222E-07
 
    0.92682E+05         0.41669E+05         0.00000E+00
    0.41669E+05        -0.47778E+08         0.00000E+00
    0.00000E+00         0.00000E+00         0.00000E+00
 
    0.97580E+05         0.44061E+05         0.00000E+00
    0.44061E+05        -0.47789E+08         0.00000E+00
    0.00000E+00         0.00000E+00        -0.50741E-08
 
    0.10284E+06         0.46564E+05         0.00000E+00
    0.46564E+05        -0.47801E+08         0.00000E+00
    0.00000E+00         0.00000E+00        -0.15222E-07
 
    0.10846E+06         0.49186E+05         0.00000E+00
    0.49186E+05        -0.47814E+08         0.00000E+00
    0.00000E+00         0.00000E+00        -0.10148E-07
 
    0.11445E+06         0.51939E+05         0.00000E+00
    0.51939E+05        -0.47827E+08         0.00000E+00
    0.00000E+00         0.00000E+00        -0.10148E-07
 
    0.12082E+06         0.54833E+05         0.00000E+00
    0.54833E+05        -0.47841E+08         0.00000E+00
    0.00000E+00         0.00000E+00         0.00000E+00
 
    0.12758E+06         0.57878E+05         0.00000E+00
    0.57878E+05        -0.47856E+08         0.00000E+00
    0.00000E+00         0.00000E+00         0.00000E+00
 
    0.13476E+06         0.61084E+05         0.00000E+00
    0.61084E+05        -0.47872E+08         0.00000E+00
    0.00000E+00         0.00000E+00        -0.50741E-08
 
    0.14235E+06         0.64463E+05         0.00000E+00
    0.64463E+05        -0.47888E+08         0.00000E+00
    0.00000E+00         0.00000E+00         0.40593E-07
 
    0.15038E+06         0.68024E+05         0.00000E+00
    0.68024E+05        -0.47906E+08         0.00000E+00
    0.00000E+00         0.00000E+00        -0.25370E-07
 
    0.15887E+06         0.71778E+05         0.00000E+00
    0.71778E+05        -0.47924E+08         0.00000E+00
    0.00000E+00         0.00000E+00        -0.50741E-08
 
    0.16783E+06         0.75737E+05         0.00000E+00
    0.75737E+05        -0.47943E+08         0.00000E+00
    0.00000E+00         0.00000E+00        -0.20296E-07
 
    0.17728E+06         0.79913E+05         0.00000E+00
    0.79913E+05        -0.47964E+08         0.00000E+00
    0.00000E+00         0.00000E+00        -0.30444E-07
 
    0.18725E+06         0.84316E+05         0.00000E+00
    0.84316E+05        -0.47985E+08         0.00000E+00
    0.00000E+00         0.00000E+00        -0.76111E-07
 
    0.19775E+06         0.88960E+05         0.00000E+00
    0.88960E+05        -0.48008E+08         0.00000E+00
    0.00000E+00         0.00000E+00         0.91333E-07
 
    0.20882E+06         0.93856E+05         0.00000E+00
    0.93856E+05        -0.48032E+08         0.00000E+00
    0.00000E+00         0.00000E+00         0.76111E-07
 
    0.22047E+06         0.99018E+05         0.00000E+00
    0.99018E+05        -0.48057E+08         0.00000E+00
    0.00000E+00         0.00000E+00        -0.25370E-07
 
    0.23272E+06         0.10446E+06         0.00000E+00
    0.10446E+06        -0.48084E+08         0.00000E+00
    0.00000E+00         0.00000E+00        -0.60889E-07
 
    0.24561E+06         0.11019E+06         0.00000E+00
    0.11019E+06        -0.48112E+08         0.00000E+00
    0.00000E+00         0.00000E+00        -0.25370E-07
 
    0.25916E+06         0.11624E+06         0.00000E+00
    0.11624E+06        -0.48142E+08         0.00000E+00
    0.00000E+00         0.00000E+00        -0.15222E-07
 
    0.27340E+06         0.12260E+06         0.00000E+00
    0.12260E+06        -0.48173E+08         0.00000E+00
    0.00000E+00         0.00000E+00         0.30444E-07
 
    0.28834E+06         0.12930E+06         0.00000E+00
    0.12930E+06        -0.48207E+08         0.00000E+00
    0.00000E+00         0.00000E+00         0.60889E-07
 
    0.30403E+06         0.13635E+06         0.00000E+00
    0.13635E+06        -0.48242E+08         0.00000E+00
    0.00000E+00         0.00000E+00        -0.10148E-07
 
    0.32047E+06         0.14377E+06         0.00000E+00
    0.14377E+06        -0.48279E+08         0.00000E+00
    0.00000E+00         0.00000E+00        -0.10148E-07
 
    0.33771E+06         0.15157E+06         0.00000E+00
    0.15157E+06        -0.48318E+08         0.00000E+00
    0.00000E+00         0.00000E+00        -0.55815E-07
 
    0.35576E+06         0.15977E+06         0.00000E+00
    0.15977E+06        -0.48360E+08         0.00000E+00
    0.00000E+00         0.00000E+00        -0.15222E-07
 
    0.37464E+06         0.16838E+06         0.00000E+00
    0.16838E+06        -0.48404E+08         0.00000E+00
    0.00000E+00         0.00000E+00         0.50740E-07
 
    0.39437E+06         0.17743E+06         0.00000E+00
    0.17743E+06        -0.48450E+08         0.00000E+00
    0.00000E+00         0.00000E+00        -0.25370E-07
 
    0.41498E+06         0.18692E+06         0.00000E+00
    0.18692E+06        -0.48500E+08         0.00000E+00
    0.00000E+00         0.00000E+00        -0.65963E-07
 
    0.43648E+06         0.19687E+06         0.00000E+00
    0.19687E+06        -0.48552E+08         0.00000E+00
    0.00000E+00         0.00000E+00         0.30444E-07
 
    0.45888E+06         0.20730E+06         0.00000E+00
    0.20730E+06        -0.48607E+08         0.00000E+00
    0.00000E+00         0.00000E+00         0.22737E-12
 
    0.48218E+06         0.21821E+06         0.00000E+00
    0.21821E+06        -0.48665E+08         0.00000E+00
    0.00000E+00         0.00000E+00         0.00000E+00
 
    0.50638E+06         0.22963E+06         0.00000E+00
    0.22963E+06        -0.48726E+08         0.00000E+00
    0.00000E+00         0.00000E+00        -0.65963E-07
 
    0.53148E+06         0.24156E+06         0.00000E+00
    0.24156E+06        -0.48792E+08         0.00000E+00
    0.00000E+00         0.00000E+00        -0.12178E-06
 
    0.55745E+06         0.25401E+06         0.00000E+00
    0.25401E+06        -0.48860E+08         0.00000E+00
    0.00000E+00         0.00000E+00         0.40593E-07
 
    0.58428E+06         0.26700E+06         0.00000E+00
    0.26700E+06        -0.48933E+08         0.00000E+00
    0.00000E+00         0.00000E+00        -0.50741E-08
 
    0.61191E+06         0.28051E+06         0.00000E+00
    0.28051E+06        -0.49011E+08         0.00000E+00
    0.00000E+00         0.00000E+00         0.50741E-07
 
    0.64030E+06         0.29455E+06         0.00000E+00
    0.29455E+06        -0.49092E+08         0.00000E+00
    0.00000E+00         0.00000E+00        -0.50741E-08
 
    0.66937E+06         0.30912E+06         0.00000E+00
    0.30912E+06        -0.49179E+08         0.00000E+00
    0.00000E+00         0.00000E+00         0.00000E+00
 
    0.69902E+06         0.32420E+06         0.00000E+00
    0.32420E+06        -0.49271E+08         0.00000E+00
    0.00000E+00         0.00000E+00        -0.10148E-07
 
    0.72914E+06         0.33979E+06         0.00000E+00
    0.33979E+06        -0.49368E+08         0.00000E+00
    0.00000E+00         0.00000E+00         0.25370E-07
 
    0.75957E+06         0.35584E+06         0.00000E+00
    0.35584E+06        -0.49471E+08         0.00000E+00
    0.00000E+00         0.00000E+00         0.25370E-07
 
    0.79014E+06         0.37233E+06         0.00000E+00
    0.37233E+06        -0.49579E+08         0.00000E+00
    0.00000E+00         0.00000E+00         0.60889E-07
 
    0.82062E+06         0.38920E+06         0.00000E+00
    0.38920E+06        -0.49695E+08         0.00000E+00
    0.00000E+00         0.00000E+00        -0.25370E-07
 
    0.85074E+06         0.40639E+06         0.00000E+00
    0.40639E+06        -0.49817E+08         0.00000E+00
    0.00000E+00         0.00000E+00         0.81185E-07
 
    0.88019E+06         0.42382E+06         0.00000E+00
    0.42382E+06        -0.49947E+08         0.00000E+00
    0.00000E+00         0.00000E+00         0.20296E-07
 
    0.90857E+06         0.44138E+06         0.00000E+00
    0.44138E+06        -0.50084E+08         0.00000E+00
    0.00000E+00         0.00000E+00        -0.10148E-07
 
    0.93542E+06         0.45894E+06         0.00000E+00
    0.45894E+06        -0.50230E+08         0.00000E+00
    0.00000E+00         0.00000E+00        -0.50741E-08
 
    0.96021E+06         0.47635E+06         0.00000E+00
    0.47635E+06        -0.50385E+08         0.00000E+00
    0.00000E+00         0.00000E+00         0.35518E-07
 
    0.98230E+06         0.49340E+06         0.00000E+00
    0.49340E+06        -0.50549E+08         0.00000E+00
    0.00000E+00         0.00000E+00         0.50741E-08
 
    0.10009E+07         0.50985E+06         0.00000E+00
    0.50985E+06        -0.50723E+08         0.00000E+00
    0.00000E+00         0.00000E+00        -0.15222E-07
 
    0.10152E+07         0.52542E+06         0.00000E+00
    0.52542E+06        -0.50909E+08         0.00000E+00
    0.00000E+00         0.00000E+00         0.20296E-07
 
    0.10242E+07         0.53975E+06         0.00000E+00
    0.53975E+06        -0.51105E+08         0.00000E+00
    0.00000E+00         0.00000E+00         0.10148E-07
 
    0.10265E+07         0.55244E+06         0.00000E+00
    0.55244E+06        -0.51314E+08         0.00000E+00
    0.00000E+00         0.00000E+00        -0.20296E-07
 
    0.10210E+07         0.56298E+06         0.00000E+00
    0.56298E+06        -0.51537E+08         0.00000E+00
    0.00000E+00         0.00000E+00        -0.50741E-07
 
    0.10059E+07         0.57080E+06         0.00000E+00
    0.57080E+06        -0.51773E+08         0.00000E+00
    0.00000E+00         0.00000E+00        -0.40593E-07
 
    0.97943E+06         0.57523E+06         0.00000E+00
    0.57523E+06        -0.52025E+08         0.00000E+00
    0.00000E+00         0.00000E+00        -0.30444E-07
 
    0.93951E+06         0.57549E+06         0.00000E+00
    0.57549E+06        -0.52293E+08         0.00000E+00
    0.00000E+00         0.00000E+00        -0.30444E-07
 
    0.88375E+06         0.57071E+06         0.00000E+00
    0.57071E+06        -0.52579E+08         0.00000E+00
    0.00000E+00         0.00000E+00        -0.30444E-07
 
    0.80946E+06         0.55990E+06         0.00000E+00
    0.55990E+06        -0.52883E+08         0.00000E+00
    0.00000E+00         0.00000E+00        -0.30444E-07
 
    0.71360E+06         0.54198E+06         0.00000E+00
    0.54198E+06        -0.53208E+08         0.00000E+00
    0.00000E+00         0.00000E+00         0.50741E-07
 
    0.59283E+06         0.51578E+06         0.00000E+00
    0.51578E+06        -0.53554E+08         0.00000E+00
    0.00000E+00         0.00000E+00        -0.10148E-06
 
    0.44344E+06         0.48008E+06         0.00000E+00
    0.48008E+06        -0.53923E+08         0.00000E+00
    0.00000E+00         0.00000E+00         0.40593E-07
 
    0.26141E+06         0.43370E+06         0.00000E+00
    0.43370E+06        -0.54317E+08         0.00000E+00
    0.00000E+00         0.00000E+00         0.60889E-07
 
    0.42425E+05         0.37552E+06         0.00000E+00
    0.37552E+06        -0.54736E+08         0.00000E+00
    0.00000E+00         0.00000E+00        -0.40593E-07
 
   -0.21801E+06         0.30464E+06         0.00000E+00
    0.30464E+06        -0.55183E+08         0.00000E+00
    0.00000E+00         0.00000E+00        -0.50741E-07
 
   -0.52448E+06         0.22056E+06         0.00000E+00
    0.22056E+06        -0.55658E+08         0.00000E+00
    0.00000E+00         0.00000E+00         0.10148E-07
 
   -0.88142E+06         0.12341E+06         0.00000E+00
    0.12341E+06        -0.56163E+08         0.00000E+00
    0.00000E+00         0.00000E+00        -0.10148E-07
 
   -0.12928E+07         0.14256E+05         0.00000E+00
    0.14256E+05        -0.56699E+08         0.00000E+00
    0.00000E+00         0.00000E+00         0.50741E-07
 
   -0.17617E+07        -0.10439E+06         0.00000E+00
   -0.10439E+06        -0.57265E+08         0.00000E+00
    0.00000E+00         0.00000E+00        -0.71037E-07
 
   -0.22894E+07        -0.22794E+06         0.00000E+00
   -0.22794E+06        -0.57863E+08         0.00000E+00
    0.00000E+00         0.00000E+00        -0.30443E-07
 
   -0.28746E+07        -0.34865E+06         0.00000E+00
   -0.34865E+06        -0.58490E+08         0.00000E+00
    0.00000E+00         0.00000E+00        -0.91333E-07
 
   -0.35122E+07        -0.45381E+06         0.00000E+00
   -0.45381E+06        -0.59143E+08         0.00000E+00
    0.00000E+00         0.00000E+00        -0.20294E-07
 
   -0.41918E+07        -0.52224E+06         0.00000E+00
   -0.52224E+06        -0.59810E+08         0.00000E+00
    0.00000E+00         0.00000E+00         0.10148E-07
 
   -0.49020E+07        -0.51906E+06         0.00000E+00
   -0.51906E+06        -0.60463E+08         0.00000E+00
    0.00000E+00         0.00000E+00         0.11163E-06
 
   -0.56466E+07        -0.40043E+06         0.00000E+00
   -0.40043E+06        -0.61026E+08         0.00000E+00
    0.00000E+00         0.00000E+00        -0.30444E-07
 
   -0.64630E+07        -0.15328E+06         0.00000E+00
   -0.15328E+06        -0.61368E+08         0.00000E+00
    0.00000E+00         0.00000E+00        -0.40593E-07
 
    0.97664E+05        -0.54419E+03         0.00000E+00
   -0.54419E+03        -0.47607E+08         0.00000E+00
    0.00000E+00         0.00000E+00         0.00000E+00
 
    0.92096E+05        -0.11688E+04         0.00000E+00
   -0.11688E+04        -0.47610E+08         0.00000E+00
    0.00000E+00         0.00000E+00         0.00000E+00
 
    0.87125E+05        -0.81979E+03         0.00000E+00
   -0.81979E+03        -0.47615E+08         0.00000E+00
    0.00000E+00         0.00000E+00        -0.10148E-07
 
    0.82497E+05         0.35622E+03         0.00000E+00
    0.35622E+03        -0.47620E+08         0.00000E+00
    0.00000E+00         0.00000E+00         0.15222E-07
 
    0.78228E+05         0.20172E+04         0.00000E+00
    0.20172E+04        -0.47626E+08         0.00000E+00
    0.00000E+00         0.00000E+00         0.20296E-07
 
    0.74427E+05         0.39225E+04         0.00000E+00
    0.39225E+04        -0.47632E+08         0.00000E+00
    0.00000E+00         0.00000E+00         0.55815E-07
 
    0.71178E+05         0.59379E+04         0.00000E+00
    0.59379E+04        -0.47639E+08         0.00000E+00
    0.00000E+00         0.00000E+00        -0.40593E-07
 
    0.68521E+05         0.79869E+04         0.00000E+00
    0.79869E+04        -0.47645E+08         0.00000E+00
    0.00000E+00         0.00000E+00        -0.15222E-07
 
    0.66468E+05         0.10025E+05         0.00000E+00
    0.10025E+05        -0.47652E+08         0.00000E+00
    0.00000E+00         0.00000E+00        -0.76111E-07
 
    0.65010E+05         0.12028E+05         0.00000E+00
    0.12028E+05        -0.47658E+08         0.00000E+00
    0.00000E+00         0.00000E+00        -0.10148E-07
 
    0.64128E+05         0.13984E+05         0.00000E+00
    0.13984E+05        -0.47665E+08         0.00000E+00
    0.00000E+00         0.00000E+00        -0.15222E-07
 
    0.63798E+05         0.15892E+05         0.00000E+00
    0.15892E+05        -0.47672E+08         0.00000E+00
    0.00000E+00         0.00000E+00        -0.65963E-07
 
    0.63991E+05         0.17755E+05         0.00000E+00
    0.17755E+05        -0.47679E+08         0.00000E+00
    0.00000E+00         0.00000E+00        -0.86259E-07
 
    0.64679E+05         0.19581E+05         0.00000E+00
    0.19581E+05        -0.47687E+08         0.00000E+00
    0.00000E+00         0.00000E+00         0.20296E-07
 
    0.65836E+05         0.21381E+05         0.00000E+00
    0.21381E+05        -0.47694E+08         0.00000E+00
    0.00000E+00         0.00000E+00        -0.15222E-07
 
    0.67437E+05         0.23166E+05         0.00000E+00
    0.23166E+05        -0.47702E+08         0.00000E+00
    0.00000E+00         0.00000E+00         0.55815E-07
 
    0.69461E+05         0.24950E+05         0.00000E+00
    0.24950E+05        -0.47710E+08         0.00000E+00
    0.00000E+00         0.00000E+00         0.20296E-07
 
    0.71888E+05         0.26746E+05         0.00000E+00
    0.26746E+05        -0.47719E+08         0.00000E+00
    0.00000E+00         0.00000E+00        -0.10656E-06
 
    0.74704E+05         0.28565E+05         0.00000E+00
    0.28565E+05        -0.47728E+08         0.00000E+00
    0.00000E+00         0.00000E+00        -0.10148E-07
 
    0.77896E+05         0.30421E+05         0.00000E+00
    0.30421E+05        -0.47737E+08         0.00000E+00
    0.00000E+00         0.00000E+00         0.25370E-07
 
    0.81456E+05         0.32325E+05         0.00000E+00
    0.32325E+05        -0.47746E+08         0.00000E+00
    0.00000E+00         0.00000E+00        -0.20296E-07
 
    0.85377E+05         0.34288E+05         0.00000E+00
    0.34288E+05        -0.47757E+08         0.00000E+00
    0.00000E+00         0.00000E+00         0.20296E-07
 
    0.89656E+05         0.36323E+05         0.00000E+00
    0.36323E+05        -0.47767E+08         0.00000E+00
    0.00000E+00         0.00000E+00        -0.81185E-07
 
    0.94293E+05         0.38438E+05         0.00000E+00
    0.38438E+05        -0.47778E+08         0.00000E+00
    0.00000E+00         0.00000E+00         0.13193E-06
 
    0.99288E+05         0.40645E+05         0.00000E+00
    0.40645E+05        -0.47790E+08         0.00000E+00
    0.00000E+00         0.00000E+00        -0.45667E-07
 
    0.10465E+06         0.42953E+05         0.00000E+00
    0.42953E+05        -0.47802E+08         0.00000E+00
    0.00000E+00         0.00000E+00        -0.10148E-07
 
    0.11038E+06         0.45372E+05         0.00000E+00
    0.45372E+05        -0.47815E+08         0.00000E+00
    0.00000E+00         0.00000E+00        -0.15222E-07
 
    0.11648E+06         0.47911E+05         0.00000E+00
    0.47911E+05        -0.47828E+08         0.00000E+00
    0.00000E+00         0.00000E+00         0.00000E+00
 
    0.12298E+06         0.50580E+05         0.00000E+00
    0.50580E+05        -0.47842E+08         0.00000E+00
    0.00000E+00         0.00000E+00         0.50741E-07
 
    0.12987E+06         0.53389E+05         0.00000E+00
    0.53389E+05        -0.47857E+08         0.00000E+00
    0.00000E+00         0.00000E+00         0.65963E-07
 
    0.13718E+06         0.56346E+05         0.00000E+00
    0.56346E+05        -0.47873E+08         0.00000E+00
    0.00000E+00         0.00000E+00        -0.45667E-07
 
    0.14492E+06         0.59462E+05         0.00000E+00
    0.59462E+05        -0.47889E+08         0.00000E+00
    0.00000E+00         0.00000E+00         0.50741E-08
 
    0.15310E+06         0.62747E+05         0.00000E+00
    0.62747E+05        -0.47906E+08         0.00000E+00
    0.00000E+00         0.00000E+00        -0.20296E-07
 
    0.16175E+06         0.66210E+05         0.00000E+00
    0.66210E+05        -0.47925E+08         0.00000E+00
    0.00000E+00         0.00000E+00        -0.25370E-07
 
    0.17088E+06         0.69862E+05         0.00000E+00
    0.69862E+05        -0.47944E+08         0.00000E+00
    0.00000E+00         0.00000E+00         0.96407E-07
 
    0.18051E+06         0.73713E+05         0.00000E+00
    0.73713E+05        -0.47964E+08         0.00000E+00
    0.00000E+00         0.00000E+00         0.00000E+00
 
    0.19067E+06         0.77775E+05         0.00000E+00
    0.77775E+05        -0.47986E+08         0.00000E+00
    0.00000E+00         0.00000E+00        -0.10148E-07
 
    0.20137E+06         0.82059E+05         0.00000E+00
    0.82059E+05        -0.48009E+08         0.00000E+00
    0.00000E+00         0.00000E+00        -0.40592E-07
 
    0.21265E+06         0.86575E+05         0.00000E+00
    0.86575E+05        -0.48033E+08         0.00000E+00
    0.00000E+00         0.00000E+00         0.50741E-08
 
    0.22452E+06         0.91337E+05         0.00000E+00
    0.91337E+05        -0.48058E+08         0.00000E+00
    0.00000E+00         0.00000E+00         0.35518E-07
 
    0.23701E+06         0.96357E+05         0.00000E+00
    0.96357E+05        -0.48085E+08         0.00000E+00
    0.00000E+00         0.00000E+00         0.30444E-07
 
    0.25014E+06         0.10165E+06         0.00000E+00
    0.10165E+06        -0.48113E+08         0.00000E+00
    0.00000E+00         0.00000E+00         0.00000E+00
 
    0.26395E+06         0.10722E+06         0.00000E+00
    0.10722E+06        -0.48143E+08         0.00000E+00
    0.00000E+00         0.00000E+00         0.20296E-07
 
    0.27846E+06         0.11309E+06         0.00000E+00
    0.11309E+06        -0.48175E+08         0.00000E+00
    0.00000E+00         0.00000E+00        -0.25370E-07
 
    0.29370E+06         0.11927E+06         0.00000E+00
    0.11927E+06        -0.48208E+08         0.00000E+00
    0.00000E+00         0.00000E+00         0.00000E+00
 
    0.30968E+06         0.12578E+06         0.00000E+00
    0.12578E+06        -0.48243E+08         0.00000E+00
    0.00000E+00         0.00000E+00         0.60889E-07
 
    0.32645E+06         0.13262E+06         0.00000E+00
    0.13262E+06        -0.48280E+08         0.00000E+00
    0.00000E+00         0.00000E+00        -0.40593E-07
 
    0.34403E+06         0.13982E+06         0.00000E+00
    0.13982E+06        -0.48320E+08         0.00000E+00
    0.00000E+00         0.00000E+00         0.50741E-07
 
    0.36243E+06         0.14738E+06         0.00000E+00
    0.14738E+06        -0.48362E+08         0.00000E+00
    0.00000E+00         0.00000E+00         0.60889E-07
 
    0.38169E+06         0.15533E+06         0.00000E+00
    0.15533E+06        -0.48406E+08         0.00000E+00
    0.00000E+00         0.00000E+00        -0.50741E-08
 
    0.40183E+06         0.16368E+06         0.00000E+00
    0.16368E+06        -0.48452E+08         0.00000E+00
    0.00000E+00         0.00000E+00         0.12178E-06
 
    0.42286E+06         0.17244E+06         0.00000E+00
    0.17244E+06        -0.48501E+08         0.00000E+00
    0.00000E+00         0.00000E+00         0.50741E-07
 
    0.44480E+06         0.18162E+06         0.00000E+00
    0.18162E+06        -0.48554E+08         0.00000E+00
    0.00000E+00         0.00000E+00        -0.50741E-08
 
    0.46766E+06         0.19124E+06         0.00000E+00
    0.19124E+06        -0.48609E+08         0.00000E+00
    0.00000E+00         0.00000E+00        -0.40593E-07
 
    0.49146E+06         0.20131E+06         0.00000E+00
    0.20131E+06        -0.48667E+08         0.00000E+00
    0.00000E+00         0.00000E+00        -0.10148E-07
 
    0.51618E+06         0.21185E+06         0.00000E+00
    0.21185E+06        -0.48729E+08         0.00000E+00
    0.00000E+00         0.00000E+00        -0.50741E-08
 
    0.54182E+06         0.22286E+06         0.00000E+00
    0.22286E+06        -0.48794E+08         0.00000E+00
    0.00000E+00         0.00000E+00        -0.20296E-07
 
    0.56838E+06         0.23436E+06         0.00000E+00
    0.23436E+06        -0.48863E+08         0.00000E+00
    0.00000E+00         0.00000E+00        -0.50741E-07
 
    0.59581E+06         0.24634E+06         0.00000E+00
    0.24634E+06        -0.48936E+08         0.00000E+00
    0.00000E+00         0.00000E+00        -0.60889E-07
 
    0.62408E+06         0.25881E+06         0.00000E+00
    0.25881E+06        -0.49013E+08         0.00000E+00
    0.00000E+00         0.00000E+00        -0.15222E-07
 
    0.65315E+06         0.27177E+06         0.00000E+00
    0.27177E+06        -0.49095E+08         0.00000E+00
    0.00000E+00         0.00000E+00         0.40593E-07
 
    0.68292E+06         0.28523E+06         0.00000E+00
    0.28523E+06        -0.49182E+08         0.00000E+00
    0.00000E+00         0.00000E+00         0.00000E+00
 
    0.71332E+06         0.29916E+06         0.00000E+00
    0.29916E+06        -0.49274E+08         0.00000E+00
    0.00000E+00         0.00000E+00         0.10148E-07
 
    0.74422E+06         0.31355E+06         0.00000E+00
    0.31355E+06        -0.49371E+08         0.00000E+00
    0.00000E+00         0.00000E+00        -0.50740E-07
 
    0.77548E+06         0.32837E+06         0.00000E+00
    0.32837E+06        -0.49474E+08         0.00000E+00
    0.00000E+00         0.00000E+00        -0.20296E-07
 
    0.80692E+06         0.34360E+06         0.00000E+00
    0.34360E+06        -0.49583E+08         0.00000E+00
    0.00000E+00         0.00000E+00        -0.10148E-07
 
    0.83831E+06         0.35919E+06         0.00000E+00
    0.35919E+06        -0.49698E+08         0.00000E+00
    0.00000E+00         0.00000E+00        -0.60889E-07
 
    0.86939E+06         0.37507E+06         0.00000E+00
    0.37507E+06        -0.49821E+08         0.00000E+00
    0.00000E+00         0.00000E+00        -0.20296E-07
 
    0.89983E+06         0.39118E+06         0.00000E+00
    0.39118E+06        -0.49950E+08         0.00000E+00
    0.00000E+00         0.00000E+00        -0.60889E-07
 
    0.92924E+06         0.40741E+06         0.00000E+00
    0.40741E+06        -0.50088E+08         0.00000E+00
    0.00000E+00         0.00000E+00         0.40593E-07
 
    0.95718E+06         0.42365E+06         0.00000E+00
    0.42365E+06        -0.50234E+08         0.00000E+00
    0.00000E+00         0.00000E+00        -0.20296E-07
 
    0.98309E+06         0.43974E+06         0.00000E+00
    0.43974E+06        -0.50388E+08         0.00000E+00
    0.00000E+00         0.00000E+00        -0.91333E-07
 
    0.10063E+07         0.45550E+06         0.00000E+00
    0.45550E+06        -0.50553E+08         0.00000E+00
    0.00000E+00         0.00000E+00         0.00000E+00
 
    0.10261E+07         0.47071E+06         0.00000E+00
    0.47071E+06        -0.50727E+08         0.00000E+00
    0.00000E+00         0.00000E+00        -0.10148E-07
 
    0.10416E+07         0.48510E+06         0.00000E+00
    0.48510E+06        -0.50912E+08         0.00000E+00
    0.00000E+00         0.00000E+00        -0.60889E-07
 
    0.10517E+07         0.49834E+06         0.00000E+00
    0.49834E+06        -0.51108E+08         0.00000E+00
    0.00000E+00         0.00000E+00         0.60889E-07
 
    0.10552E+07         0.51004E+06         0.00000E+00
    0.51004E+06        -0.51317E+08         0.00000E+00
    0.00000E+00         0.00000E+00         0.00000E+00
 
    0.10508E+07         0.51974E+06         0.00000E+00
    0.51974E+06        -0.51539E+08         0.00000E+00
    0.00000E+00         0.00000E+00        -0.10148E-07
 
    0.10367E+07         0.52690E+06         0.00000E+00
    0.52690E+06        -0.51775E+08         0.00000E+00
    0.00000E+00         0.00000E+00        -0.20296E-07
 
    0.10111E+07         0.53088E+06         0.00000E+00
    0.53088E+06        -0.52026E+08         0.00000E+00
    0.00000E+00         0.00000E+00         0.50741E-07
 
    0.97181E+06         0.53095E+06         0.00000E+00
    0.53095E+06        -0.52293E+08         0.00000E+00
    0.00000E+00         0.00000E+00        -0.71037E-07
 
    0.91639E+06         0.52629E+06         0.00000E+00
    0.52629E+06        -0.52578E+08         0.00000E+00
    0.00000E+00         0.00000E+00        -0.60889E-07
 
    0.84203E+06         0.51595E+06         0.00000E+00
    0.51595E+06        -0.52881E+08         0.00000E+00
    0.00000E+00         0.00000E+00        -0.10148E-07
 
    0.74558E+06         0.49891E+06         0.00000E+00
    0.49891E+06        -0.53204E+08         0.00000E+00
    0.00000E+00         0.00000E+00         0.60889E-07
 
    0.62353E+06         0.47405E+06         0.00000E+00
    0.47405E+06        -0.53548E+08         0.00000E+00
    0.00000E+00         0.00000E+00         0.40593E-07
 
    0.47199E+06         0.44020E+06         0.00000E+00
    0.44020E+06        -0.53915E+08         0.00000E+00
    0.00000E+00         0.00000E+00        -0.60889E-07
 
    0.28670E+06         0.39622E+06         0.00000E+00
    0.39622E+06        -0.54307E+08         0.00000E+00
    0.00000E+00         0.00000E+00         0.60889E-07
 
    0.63113E+05         0.34102E+06         0.00000E+00
    0.34102E+06        -0.54724E+08         0.00000E+00
    0.00000E+00         0.00000E+00         0.30444E-07
 
   -0.20357E+06         0.27371E+06         0.00000E+00
    0.27371E+06        -0.55168E+08         0.00000E+00
    0.00000E+00         0.00000E+00        -0.71037E-07
 
   -0.51825E+06         0.19375E+06         0.00000E+00
    0.19375E+06        -0.55640E+08         0.00000E+00
    0.00000E+00         0.00000E+00        -0.14207E-06
 
   -0.88571E+06         0.10119E+06         0.00000E+00
    0.10119E+06        -0.56143E+08         0.00000E+00
    0.00000E+00         0.00000E+00        -0.10148E-06
 
   -0.13103E+07        -0.30754E+04         0.00000E+00
   -0.30754E+04        -0.56676E+08         0.00000E+00
    0.00000E+00         0.00000E+00        -0.71037E-07
 
   -0.17953E+07        -0.11683E+06         0.00000E+00
   -0.11683E+06        -0.57241E+08         0.00000E+00
    0.00000E+00         0.00000E+00         0.00000E+00
 
   -0.23425E+07        -0.23596E+06         0.00000E+00
   -0.23596E+06        -0.57838E+08         0.00000E+00
    0.00000E+00         0.00000E+00         0.50741E-07
 
   -0.29506E+07        -0.35345E+06         0.00000E+00
   -0.35345E+06        -0.58467E+08         0.00000E+00
    0.00000E+00         0.00000E+00         0.13193E-06
 
   -0.36141E+07        -0.45767E+06         0.00000E+00
   -0.45767E+06        -0.59124E+08         0.00000E+00
    0.00000E+00         0.00000E+00         0.10148E-06
 
   -0.43214E+07        -0.52873E+06         0.00000E+00
   -0.52873E+06        -0.59801E+08         0.00000E+00
    0.00000E+00         0.00000E+00         0.10148E-07
 
   -0.50566E+07        -0.53144E+06         0.00000E+00
   -0.53144E+06        -0.60472E+08         0.00000E+00
    0.00000E+00         0.00000E+00         0.30444E-07
 
   -0.58173E+07        -0.41615E+06         0.00000E+00
   -0.41615E+06        -0.61063E+08         0.00000E+00
    0.00000E+00         0.00000E+00        -0.10150E-07
 
   -0.66395E+07        -0.16109E+06         0.00000E+00
   -0.16109E+06        -0.61429E+08         0.00000E+00
    0.00000E+00         0.00000E+00         0.71037E-07
 
    0.99855E+05        -0.64594E+03         0.00000E+00
   -0.64594E+03        -0.47607E+08         0.00000E+00
    0.00000E+00         0.00000E+00         0.00000E+00
 
    0.94236E+05        -0.14101E+04         0.00000E+00
   -0.14101E+04        -0.47610E+08         0.00000E+00
    0.00000E+00         0.00000E+00         0.50741E-07
 
    0.89134E+05        -0.11169E+04         0.00000E+00
   -0.11169E+04        -0.47615E+08         0.00000E+00
    0.00000E+00         0.00000E+00         0.10148E-07
 
    0.84313E+05         0.10859E+02         0.00000E+00
    0.10859E+02        -0.47620E+08         0.00000E+00
    0.00000E+00         0.00000E+00         0.10148E-06
 
    0.79845E+05         0.15905E+04         0.00000E+00
    0.15905E+04        -0.47627E+08         0.00000E+00
    0.00000E+00         0.00000E+00         0.50741E-07
 
    0.75867E+05         0.33851E+04         0.00000E+00
    0.33851E+04        -0.47633E+08         0.00000E+00
    0.00000E+00         0.00000E+00        -0.10148E-07
 
    0.72471E+05         0.52716E+04         0.00000E+00
    0.52716E+04        -0.47639E+08         0.00000E+00
    0.00000E+00         0.00000E+00         0.00000E+00
 
    0.69697E+05         0.71815E+04         0.00000E+00
    0.71815E+04        -0.47645E+08         0.00000E+00
    0.00000E+00         0.00000E+00         0.10148E-07
 
    0.67554E+05         0.90754E+04         0.00000E+00
    0.90754E+04        -0.47652E+08         0.00000E+00
    0.00000E+00         0.00000E+00        -0.30444E-07
 
    0.66032E+05         0.10932E+05         0.00000E+00
    0.10932E+05        -0.47659E+08         0.00000E+00
    0.00000E+00         0.00000E+00        -0.10148E-07
 
    0.65108E+05         0.12742E+05         0.00000E+00
    0.12742E+05        -0.47665E+08         0.00000E+00
    0.00000E+00         0.00000E+00        -0.20296E-07
 
    0.64755E+05         0.14503E+05         0.00000E+00
    0.14503E+05        -0.47672E+08         0.00000E+00
    0.00000E+00         0.00000E+00         0.10148E-07
 
    0.64942E+05         0.16220E+05         0.00000E+00
    0.16220E+05        -0.47680E+08         0.00000E+00
    0.00000E+00         0.00000E+00        -0.20296E-07
 
    0.65639E+05         0.17902E+05         0.00000E+00
    0.17902E+05        -0.47687E+08         0.00000E+00
    0.00000E+00         0.00000E+00         0.10148E-07
 
    0.66818E+05         0.19556E+05         0.00000E+00
    0.19556E+05        -0.47695E+08         0.00000E+00
    0.00000E+00         0.00000E+00         0.20296E-07
 
    0.68452E+05         0.21197E+05         0.00000E+00
    0.21197E+05        -0.47703E+08         0.00000E+00
    0.00000E+00         0.00000E+00         0.00000E+00
 
    0.70519E+05         0.22834E+05         0.00000E+00
    0.22834E+05        -0.47711E+08         0.00000E+00
    0.00000E+00         0.00000E+00         0.20296E-07
 
    0.72998E+05         0.24480E+05         0.00000E+00
    0.24480E+05        -0.47719E+08         0.00000E+00
    0.00000E+00         0.00000E+00        -0.50741E-07
 
    0.75873E+05         0.26148E+05         0.00000E+00
    0.26148E+05        -0.47728E+08         0.00000E+00
    0.00000E+00         0.00000E+00         0.30444E-07
 
    0.79131E+05         0.27848E+05         0.00000E+00
    0.27848E+05        -0.47737E+08         0.00000E+00
    0.00000E+00         0.00000E+00         0.20296E-07
 
    0.82763E+05         0.29592E+05         0.00000E+00
    0.29592E+05        -0.47747E+08         0.00000E+00
    0.00000E+00         0.00000E+00        -0.50741E-07
 
    0.86763E+05         0.31390E+05         0.00000E+00
    0.31390E+05        -0.47757E+08         0.00000E+00
    0.00000E+00         0.00000E+00        -0.60889E-07
 
    0.91126E+05         0.33252E+05         0.00000E+00
    0.33252E+05        -0.47767E+08         0.00000E+00
    0.00000E+00         0.00000E+00         0.10148E-07
 
    0.95852E+05         0.35188E+05         0.00000E+00
    0.35188E+05        -0.47778E+08         0.00000E+00
    0.00000E+00         0.00000E+00        -0.10148E-07
 
    0.10094E+06         0.37208E+05         0.00000E+00
    0.37208E+05        -0.47790E+08         0.00000E+00
    0.00000E+00         0.00000E+00        -0.30444E-07
 
    0.10640E+06         0.39321E+05         0.00000E+00
    0.39321E+05        -0.47802E+08         0.00000E+00
    0.00000E+00         0.00000E+00        -0.50741E-07
 
    0.11224E+06         0.41535E+05         0.00000E+00
    0.41535E+05        -0.47815E+08         0.00000E+00
    0.00000E+00         0.00000E+00        -0.10148E-07
 
    0.11846E+06         0.43859E+05         0.00000E+00
    0.43859E+05        -0.47828E+08         0.00000E+00
    0.00000E+00         0.00000E+00         0.91333E-07
 
    0.12508E+06         0.46302E+05         0.00000E+00
    0.46302E+05        -0.47843E+08         0.00000E+00
    0.00000E+00         0.00000E+00         0.40593E-07
 
    0.13210E+06         0.48873E+05         0.00000E+00
    0.48873E+05        -0.47857E+08         0.00000E+00
    0.00000E+00         0.00000E+00         0.10148E-07
 
    0.13954E+06         0.51580E+05         0.00000E+00
    0.51580E+05        -0.47873E+08         0.00000E+00
    0.00000E+00         0.00000E+00         0.30444E-07
 
    0.14742E+06         0.54432E+05         0.00000E+00
    0.54432E+05        -0.47890E+08         0.00000E+00
    0.00000E+00         0.00000E+00         0.50741E-07
 
    0.15575E+06         0.57439E+05         0.00000E+00
    0.57439E+05        -0.47907E+08         0.00000E+00
    0.00000E+00         0.00000E+00        -0.20296E-07
 
    0.16455E+06         0.60609E+05         0.00000E+00
    0.60609E+05        -0.47925E+08         0.00000E+00
    0.00000E+00         0.00000E+00         0.00000E+00
 
    0.17385E+06         0.63951E+05         0.00000E+00
    0.63951E+05        -0.47945E+08         0.00000E+00
    0.00000E+00         0.00000E+00         0.30444E-07
 
    0.18365E+06         0.67477E+05         0.00000E+00
    0.67477E+05        -0.47965E+08         0.00000E+00
    0.00000E+00         0.00000E+00        -0.91333E-07
 
    0.19399E+06         0.71195E+05         0.00000E+00
    0.71195E+05        -0.47987E+08         0.00000E+00
    0.00000E+00         0.00000E+00         0.00000E+00
 
    0.20489E+06         0.75117E+05         0.00000E+00
    0.75117E+05        -0.48010E+08         0.00000E+00
    0.00000E+00         0.00000E+00         0.20296E-07
 
    0.21637E+06         0.79252E+05         0.00000E+00
    0.79252E+05        -0.48034E+08         0.00000E+00
    0.00000E+00         0.00000E+00         0.71037E-07
 
    0.22846E+06         0.83611E+05         0.00000E+00
    0.83611E+05        -0.48059E+08         0.00000E+00
    0.00000E+00         0.00000E+00        -0.91333E-07
 
    0.24117E+06         0.88206E+05         0.00000E+00
    0.88206E+05        -0.48086E+08         0.00000E+00
    0.00000E+00         0.00000E+00         0.10148E-07
 
    0.25455E+06         0.93049E+05         0.00000E+00
    0.93049E+05        -0.48114E+08         0.00000E+00
    0.00000E+00         0.00000E+00         0.00000E+00
 
    0.26861E+06         0.98152E+05         0.00000E+00
    0.98152E+05        -0.48144E+08         0.00000E+00
    0.00000E+00         0.00000E+00        -0.10148E-07
 
    0.28339E+06         0.10353E+06         0.00000E+00
    0.10353E+06        -0.48176E+08         0.00000E+00
    0.00000E+00         0.00000E+00        -0.60889E-07
 
    0.29891E+06         0.10918E+06         0.00000E+00
    0.10918E+06        -0.48209E+08         0.00000E+00
    0.00000E+00         0.00000E+00        -0.40592E-07
 
    0.31520E+06         0.11514E+06         0.00000E+00
    0.11514E+06        -0.48245E+08         0.00000E+00
    0.00000E+00         0.00000E+00         0.00000E+00
 
    0.33228E+06         0.12141E+06         0.00000E+00
    0.12141E+06        -0.48282E+08         0.00000E+00
    0.00000E+00         0.00000E+00         0.60889E-07
 
    0.35019E+06         0.12800E+06         0.00000E+00
    0.12800E+06        -0.48321E+08         0.00000E+00
    0.00000E+00         0.00000E+00         0.60889E-07
 
    0.36895E+06         0.13493E+06         0.00000E+00
    0.13493E+06        -0.48363E+08         0.00000E+00
    0.00000E+00         0.00000E+00         0.40592E-07
 
    0.38858E+06         0.14220E+06         0.00000E+00
    0.14220E+06        -0.48407E+08         0.00000E+00
    0.00000E+00         0.00000E+00         0.00000E+00
 
    0.40910E+06         0.14985E+06         0.00000E+00
    0.14985E+06        -0.48454E+08         0.00000E+00
    0.00000E+00         0.00000E+00        -0.10148E-07
 
    0.43055E+06         0.15786E+06         0.00000E+00
    0.15786E+06        -0.48503E+08         0.00000E+00
    0.00000E+00         0.00000E+00        -0.71037E-07
 
    0.45292E+06         0.16627E+06         0.00000E+00
    0.16627E+06        -0.48555E+08         0.00000E+00
    0.00000E+00         0.00000E+00        -0.10148E-07
 
    0.47625E+06         0.17509E+06         0.00000E+00
    0.17509E+06        -0.48611E+08         0.00000E+00
    0.00000E+00         0.00000E+00         0.71037E-07
 
    0.50053E+06         0.18431E+06         0.00000E+00
    0.18431E+06        -0.48669E+08         0.00000E+00
    0.00000E+00         0.00000E+00        -0.10148E-07
 
    0.52576E+06         0.19396E+06         0.00000E+00
    0.19396E+06        -0.48731E+08         0.00000E+00
    0.00000E+00         0.00000E+00        -0.60889E-07
 
    0.55195E+06         0.20405E+06         0.00000E+00
    0.20405E+06        -0.48796E+08         0.00000E+00
    0.00000E+00         0.00000E+00        -0.91333E-07
 
    0.57907E+06         0.21458E+06         0.00000E+00
    0.21458E+06        -0.48865E+08         0.00000E+00
    0.00000E+00         0.00000E+00        -0.30444E-07
 
    0.60710E+06         0.22555E+06         0.00000E+00
    0.22555E+06        -0.48939E+08         0.00000E+00
    0.00000E+00         0.00000E+00         0.10148E-07
 
    0.63601E+06         0.23698E+06         0.00000E+00
    0.23698E+06        -0.49016E+08         0.00000E+00
    0.00000E+00         0.00000E+00        -0.30444E-07
 
    0.66574E+06         0.24886E+06         0.00000E+00
    0.24886E+06        -0.49098E+08         0.00000E+00
    0.00000E+00         0.00000E+00        -0.10148E-07
 
    0.69623E+06         0.26119E+06         0.00000E+00
    0.26119E+06        -0.49185E+08         0.00000E+00
    0.00000E+00         0.00000E+00         0.10148E-07
 
    0.72737E+06         0.27395E+06         0.00000E+00
    0.27395E+06        -0.49277E+08         0.00000E+00
    0.00000E+00         0.00000E+00         0.10148E-07
 
    0.75906E+06         0.28714E+06         0.00000E+00
    0.28714E+06        -0.49374E+08         0.00000E+00
    0.00000E+00         0.00000E+00        -0.20296E-07
 
    0.79114E+06         0.30073E+06         0.00000E+00
    0.30073E+06        -0.49477E+08         0.00000E+00
    0.00000E+00         0.00000E+00         0.60889E-07
 
    0.82345E+06         0.31470E+06         0.00000E+00
    0.31470E+06        -0.49586E+08         0.00000E+00
    0.00000E+00         0.00000E+00         0.30444E-07
 
    0.85576E+06         0.32899E+06         0.00000E+00
    0.32899E+06        -0.49701E+08         0.00000E+00
    0.00000E+00         0.00000E+00        -0.20296E-07
 
    0.88779E+06         0.34356E+06         0.00000E+00
    0.34356E+06        -0.49824E+08         0.00000E+00
    0.00000E+00         0.00000E+00         0.40593E-07
 
    0.91924E+06         0.35834E+06         0.00000E+00
    0.35834E+06        -0.49954E+08         0.00000E+00
    0.00000E+00         0.00000E+00        -0.10148E-07
 
    0.94972E+06         0.37323E+06         0.00000E+00
    0.37323E+06        -0.50091E+08         0.00000E+00
    0.00000E+00         0.00000E+00        -0.50741E-07
 
    0.97876E+06         0.38813E+06         0.00000E+00
    0.38813E+06        -0.50237E+08         0.00000E+00
    0.00000E+00         0.00000E+00        -0.10148E-07
 
    0.10058E+07         0.40290E+06         0.00000E+00
    0.40290E+06        -0.50392E+08         0.00000E+00
    0.00000E+00         0.00000E+00        -0.50741E-07
 
    0.10302E+07         0.41737E+06         0.00000E+00
    0.41737E+06        -0.50556E+08         0.00000E+00
    0.00000E+00         0.00000E+00        -0.20296E-07
 
    0.10513E+07         0.43133E+06         0.00000E+00
    0.43133E+06        -0.50730E+08         0.00000E+00
    0.00000E+00         0.00000E+00         0.20296E-07
 
    0.10680E+07         0.44453E+06         0.00000E+00
    0.44453E+06        -0.50915E+08         0.00000E+00
    0.00000E+00         0.00000E+00        -0.30444E-07
 
    0.10794E+07         0.45668E+06         0.00000E+00
    0.45668E+06        -0.51111E+08         0.00000E+00
    0.00000E+00         0.00000E+00        -0.50741E-07
 
    0.10841E+07         0.46740E+06         0.00000E+00
    0.46740E+06        -0.51319E+08         0.00000E+00
    0.00000E+00         0.00000E+00        -0.20296E-07
 
    0.10809E+07         0.47628E+06         0.00000E+00
    0.47628E+06        -0.51541E+08         0.00000E+00
    0.00000E+00         0.00000E+00        -0.20296E-07
 
    0.10679E+07         0.48279E+06         0.00000E+00
    0.48279E+06        -0.51776E+08         0.00000E+00
    0.00000E+00         0.00000E+00        -0.13193E-06
 
    0.10433E+07         0.48636E+06         0.00000E+00
    0.48636E+06        -0.52027E+08         0.00000E+00
    0.00000E+00         0.00000E+00         0.20296E-07
 
    0.10048E+07         0.48630E+06         0.00000E+00
    0.48630E+06        -0.52293E+08         0.00000E+00
    0.00000E+00         0.00000E+00         0.10148E-07
 
    0.94989E+06         0.48182E+06         0.00000E+00
    0.48182E+06        -0.52577E+08         0.00000E+00
    0.00000E+00         0.00000E+00        -0.30444E-07
 
    0.87568E+06         0.47204E+06         0.00000E+00
    0.47204E+06        -0.52879E+08         0.00000E+00
    0.00000E+00         0.00000E+00         0.10148E-07
 
    0.77888E+06         0.45600E+06         0.00000E+00
    0.45600E+06        -0.53200E+08         0.00000E+00
    0.00000E+00         0.00000E+00         0.00000E+00
 
    0.65581E+06         0.43263E+06         0.00000E+00
    0.43263E+06        -0.53543E+08         0.00000E+00
    0.00000E+00         0.00000E+00        -0.11163E-06
 
    0.50239E+06         0.40083E+06         0.00000E+00
    0.40083E+06        -0.53908E+08         0.00000E+00
    0.00000E+00         0.00000E+00         0.40593E-07
 
    0.31415E+06         0.35950E+06         0.00000E+00
    0.35950E+06        -0.54297E+08         0.00000E+00
    0.00000E+00         0.00000E+00         0.20296E-07
 
    0.86264E+05         0.30758E+06         0.00000E+00
    0.30758E+06        -0.54712E+08         0.00000E+00
    0.00000E+00         0.00000E+00         0.20296E-07
 
   -0.18637E+06         0.24419E+06         0.00000E+00
    0.24419E+06        -0.55153E+08         0.00000E+00
    0.00000E+00         0.00000E+00        -0.71037E-07
 
   -0.50898E+06         0.16879E+06         0.00000E+00
    0.16879E+06        -0.55623E+08         0.00000E+00
    0.00000E+00         0.00000E+00         0.50741E-07
 
   -0.88674E+06         0.81326E+05         0.00000E+00
    0.81326E+05        -0.56123E+08         0.00000E+00
    0.00000E+00         0.00000E+00         0.10148E-07
 
   -0.13244E+07        -0.17462E+05         0.00000E+00
   -0.17462E+05        -0.56655E+08         0.00000E+00
    0.00000E+00         0.00000E+00         0.40593E-07
 
   -0.18256E+07        -0.12566E+06         0.00000E+00
   -0.12566E+06        -0.57218E+08         0.00000E+00
    0.00000E+00         0.00000E+00        -0.30444E-07
 
   -0.23926E+07        -0.23966E+06         0.00000E+00
   -0.23966E+06        -0.57814E+08         0.00000E+00
    0.00000E+00         0.00000E+00        -0.20296E-07
 
   -0.30244E+07        -0.35321E+06         0.00000E+00
   -0.35321E+06        -0.58444E+08         0.00000E+00
    0.00000E+00         0.00000E+00         0.00000E+00
 
   -0.37153E+07        -0.45586E+06         0.00000E+00
   -0.45586E+06        -0.59104E+08         0.00000E+00
    0.00000E+00         0.00000E+00        -0.30444E-07
 
   -0.44527E+07        -0.52937E+06         0.00000E+00
   -0.52937E+06        -0.59791E+08         0.00000E+00
    0.00000E+00         0.00000E+00        -0.40594E-07
 
   -0.52167E+07        -0.53915E+06         0.00000E+00
   -0.53915E+06        -0.60480E+08         0.00000E+00
    0.00000E+00         0.00000E+00        -0.91331E-07
 
   -0.59970E+07        -0.42978E+06         0.00000E+00
   -0.42978E+06        -0.61100E+08         0.00000E+00
    0.00000E+00         0.00000E+00         0.40594E-07
 
   -0.68266E+07        -0.16867E+06         0.00000E+00
   -0.16867E+06        -0.61493E+08         0.00000E+00
    0.00000E+00         0.00000E+00         0.10149E-07
 
    0.10210E+06        -0.74587E+03         0.00000E+00
   -0.74587E+03        -0.47606E+08         0.00000E+00
    0.00000E+00         0.00000E+00        -0.10148E-07
 
    0.96420E+05        -0.16339E+04         0.00000E+00
   -0.16339E+04        -0.47610E+08         0.00000E+00
    0.00000E+00         0.00000E+00         0.91333E-07
 
    0.91155E+05        -0.13767E+04         0.00000E+00
   -0.13767E+04        -0.47615E+08         0.00000E+00
    0.00000E+00         0.00000E+00         0.81185E-07
 
    0.86113E+05        -0.29108E+03         0.00000E+00
   -0.29108E+03        -0.47621E+08         0.00000E+00
    0.00000E+00         0.00000E+00        -0.60889E-07
 
    0.81426E+05         0.12034E+04         0.00000E+00
    0.12034E+04        -0.47627E+08         0.00000E+00
    0.00000E+00         0.00000E+00        -0.91333E-07
 
    0.77262E+05         0.28809E+04         0.00000E+00
    0.28809E+04        -0.47633E+08         0.00000E+00
    0.00000E+00         0.00000E+00        -0.60889E-07
 
    0.73713E+05         0.46321E+04         0.00000E+00
    0.46321E+04        -0.47639E+08         0.00000E+00
    0.00000E+00         0.00000E+00        -0.20296E-07
 
    0.70819E+05         0.63969E+04         0.00000E+00
    0.63969E+04        -0.47646E+08         0.00000E+00
    0.00000E+00         0.00000E+00         0.00000E+00
 
    0.68586E+05         0.81410E+04         0.00000E+00
    0.81410E+04        -0.47652E+08         0.00000E+00
    0.00000E+00         0.00000E+00        -0.10148E-07
 
    0.67000E+05         0.98463E+04         0.00000E+00
    0.98463E+04        -0.47659E+08         0.00000E+00
    0.00000E+00         0.00000E+00         0.91333E-07
 
    0.66035E+05         0.11505E+05         0.00000E+00
    0.11505E+05        -0.47666E+08         0.00000E+00
    0.00000E+00         0.00000E+00        -0.20296E-07
 
    0.65660E+05         0.13117E+05         0.00000E+00
    0.13117E+05        -0.47673E+08         0.00000E+00
    0.00000E+00         0.00000E+00        -0.10148E-07
 
    0.65843E+05         0.14685E+05         0.00000E+00
    0.14685E+05        -0.47680E+08         0.00000E+00
    0.00000E+00         0.00000E+00        -0.50741E-07
 
    0.66551E+05         0.16219E+05         0.00000E+00
    0.16219E+05        -0.47687E+08         0.00000E+00
    0.00000E+00         0.00000E+00        -0.30444E-07
 
    0.67753E+05         0.17726E+05         0.00000E+00
    0.17726E+05        -0.47695E+08         0.00000E+00
    0.00000E+00         0.00000E+00         0.10148E-07
 
    0.69421E+05         0.19219E+05         0.00000E+00
    0.19219E+05        -0.47703E+08         0.00000E+00
    0.00000E+00         0.00000E+00         0.00000E+00
 
    0.71530E+05         0.20708E+05         0.00000E+00
    0.20708E+05        -0.47711E+08         0.00000E+00
    0.00000E+00         0.00000E+00         0.00000E+00
 
    0.74061E+05         0.22203E+05         0.00000E+00
    0.22203E+05        -0.47720E+08         0.00000E+00
    0.00000E+00         0.00000E+00         0.30444E-07
 
    0.76995E+05         0.23718E+05         0.00000E+00
    0.23718E+05        -0.47728E+08         0.00000E+00
    0.00000E+00         0.00000E+00         0.30444E-07
 
    0.80319E+05         0.25261E+05         0.00000E+00
    0.25261E+05        -0.47738E+08         0.00000E+00
    0.00000E+00         0.00000E+00        -0.20296E-07
 
    0.84023E+05         0.26843E+05         0.00000E+00
    0.26843E+05        -0.47747E+08         0.00000E+00
    0.00000E+00         0.00000E+00         0.10148E-07
 
    0.88099E+05         0.28474E+05         0.00000E+00
    0.28474E+05        -0.47757E+08         0.00000E+00
    0.00000E+00         0.00000E+00         0.20296E-07
 
    0.92546E+05         0.30164E+05         0.00000E+00
    0.30164E+05        -0.47768E+08         0.00000E+00
    0.00000E+00         0.00000E+00        -0.10148E-07
 
    0.97360E+05         0.31920E+05         0.00000E+00
    0.31920E+05        -0.47779E+08         0.00000E+00
    0.00000E+00         0.00000E+00        -0.91333E-07
 
    0.10255E+06         0.33752E+05         0.00000E+00
    0.33752E+05        -0.47790E+08         0.00000E+00
    0.00000E+00         0.00000E+00        -0.30444E-07
 
    0.10811E+06         0.35668E+05         0.00000E+00
    0.35668E+05        -0.47803E+08         0.00000E+00
    0.00000E+00         0.00000E+00        -0.20296E-07
 
    0.11405E+06         0.37676E+05         0.00000E+00
    0.37676E+05        -0.47815E+08         0.00000E+00
    0.00000E+00         0.00000E+00         0.00000E+00
 
    0.12038E+06         0.39784E+05         0.00000E+00
    0.39784E+05        -0.47829E+08         0.00000E+00
    0.00000E+00         0.00000E+00        -0.81185E-07
 
    0.12711E+06         0.41999E+05         0.00000E+00
    0.41999E+05        -0.47843E+08         0.00000E+00
    0.00000E+00         0.00000E+00         0.20296E-07
 
    0.13425E+06         0.44331E+05         0.00000E+00
    0.44331E+05        -0.47858E+08         0.00000E+00
    0.00000E+00         0.00000E+00         0.00000E+00
 
    0.14183E+06         0.46786E+05         0.00000E+00
    0.46786E+05        -0.47874E+08         0.00000E+00
    0.00000E+00         0.00000E+00        -0.71037E-07
 
    0.14984E+06         0.49373E+05         0.00000E+00
    0.49373E+05        -0.47890E+08         0.00000E+00
    0.00000E+00         0.00000E+00        -0.10148E-07
 
    0.15832E+06         0.52100E+05         0.00000E+00
    0.52100E+05        -0.47908E+08         0.00000E+00
    0.00000E+00         0.00000E+00         0.00000E+00
 
    0.16728E+06         0.54975E+05         0.00000E+00
    0.54975E+05        -0.47926E+08         0.00000E+00
    0.00000E+00         0.00000E+00        -0.11369E-12
 
    0.17673E+06         0.58007E+05         0.00000E+00
    0.58007E+05        -0.47945E+08         0.00000E+00
    0.00000E+00         0.00000E+00         0.00000E+00
 
    0.18671E+06         0.61205E+05         0.00000E+00
    0.61205E+05        -0.47966E+08         0.00000E+00
    0.00000E+00         0.00000E+00        -0.30444E-07
 
    0.19723E+06         0.64578E+05         0.00000E+00
    0.64578E+05        -0.47988E+08         0.00000E+00
    0.00000E+00         0.00000E+00         0.00000E+00
 
    0.20831E+06         0.68135E+05         0.00000E+00
    0.68135E+05        -0.48010E+08         0.00000E+00
    0.00000E+00         0.00000E+00        -0.40593E-07
 
    0.21999E+06         0.71886E+05         0.00000E+00
    0.71886E+05        -0.48034E+08         0.00000E+00
    0.00000E+00         0.00000E+00         0.20296E-07
 
    0.23229E+06         0.75840E+05         0.00000E+00
    0.75840E+05        -0.48060E+08         0.00000E+00
    0.00000E+00         0.00000E+00         0.40593E-07
 
    0.24523E+06         0.80009E+05         0.00000E+00
    0.80009E+05        -0.48087E+08         0.00000E+00
    0.00000E+00         0.00000E+00         0.10148E-07
 
    0.25884E+06         0.84402E+05         0.00000E+00
    0.84402E+05        -0.48115E+08         0.00000E+00
    0.00000E+00         0.00000E+00         0.10148E-07
 
    0.27315E+06         0.89031E+05         0.00000E+00
    0.89031E+05        -0.48145E+08         0.00000E+00
    0.00000E+00         0.00000E+00        -0.10148E-07
 
    0.28819E+06         0.93907E+05         0.00000E+00
    0.93907E+05        -0.48177E+08         0.00000E+00
    0.00000E+00         0.00000E+00         0.20296E-07
 
    0.30399E+06         0.99040E+05         0.00000E+00
    0.99040E+05        -0.48210E+08         0.00000E+00
    0.00000E+00         0.00000E+00        -0.81185E-07
 
    0.32056E+06         0.10444E+06         0.00000E+00
    0.10444E+06        -0.48246E+08         0.00000E+00
    0.00000E+00         0.00000E+00         0.10148E-07
 
    0.33796E+06         0.11013E+06         0.00000E+00
    0.11013E+06        -0.48283E+08         0.00000E+00
    0.00000E+00         0.00000E+00         0.00000E+00
 
    0.35619E+06         0.11611E+06         0.00000E+00
    0.11611E+06        -0.48323E+08         0.00000E+00
    0.00000E+00         0.00000E+00         0.20296E-07
 
    0.37529E+06         0.12239E+06         0.00000E+00
    0.12239E+06        -0.48365E+08         0.00000E+00
    0.00000E+00         0.00000E+00         0.10148E-07
 
    0.39528E+06         0.12900E+06         0.00000E+00
    0.12900E+06        -0.48409E+08         0.00000E+00
    0.00000E+00         0.00000E+00         0.10148E-07
 
    0.41620E+06         0.13593E+06         0.00000E+00
    0.13593E+06        -0.48455E+08         0.00000E+00
    0.00000E+00         0.00000E+00         0.50741E-07
 
    0.43804E+06         0.14321E+06         0.00000E+00
    0.14321E+06        -0.48505E+08         0.00000E+00
    0.00000E+00         0.00000E+00         0.00000E+00
 
    0.46085E+06         0.15084E+06         0.00000E+00
    0.15084E+06        -0.48557E+08         0.00000E+00
    0.00000E+00         0.00000E+00        -0.10148E-07
 
    0.48463E+06         0.15884E+06         0.00000E+00
    0.15884E+06        -0.48612E+08         0.00000E+00
    0.00000E+00         0.00000E+00        -0.10148E-07
 
    0.50938E+06         0.16721E+06         0.00000E+00
    0.16721E+06        -0.48671E+08         0.00000E+00
    0.00000E+00         0.00000E+00         0.00000E+00
 
    0.53512E+06         0.17597E+06         0.00000E+00
    0.17597E+06        -0.48733E+08         0.00000E+00
    0.00000E+00         0.00000E+00        -0.30444E-07
 
    0.56184E+06         0.18512E+06         0.00000E+00
    0.18512E+06        -0.48798E+08         0.00000E+00
    0.00000E+00         0.00000E+00        -0.10148E-07
 
    0.58952E+06         0.19468E+06         0.00000E+00
    0.19468E+06        -0.48868E+08         0.00000E+00
    0.00000E+00         0.00000E+00        -0.10148E-07
 
    0.61815E+06         0.20464E+06         0.00000E+00
    0.20464E+06        -0.48941E+08         0.00000E+00
    0.00000E+00         0.00000E+00        -0.50741E-07
 
    0.64769E+06         0.21502E+06         0.00000E+00
    0.21502E+06        -0.49018E+08         0.00000E+00
    0.00000E+00         0.00000E+00        -0.30444E-07
 
    0.67809E+06         0.22581E+06         0.00000E+00
    0.22581E+06        -0.49100E+08         0.00000E+00
    0.00000E+00         0.00000E+00        -0.60889E-07
 
    0.70927E+06         0.23700E+06         0.00000E+00
    0.23700E+06        -0.49187E+08         0.00000E+00
    0.00000E+00         0.00000E+00         0.10148E-07
 
    0.74116E+06         0.24860E+06         0.00000E+00
    0.24860E+06        -0.49279E+08         0.00000E+00
    0.00000E+00         0.00000E+00         0.10148E-07
 
    0.77363E+06         0.26058E+06         0.00000E+00
    0.26058E+06        -0.49377E+08         0.00000E+00
    0.00000E+00         0.00000E+00        -0.10148E-07
 
    0.80654E+06         0.27293E+06         0.00000E+00
    0.27293E+06        -0.49480E+08         0.00000E+00
    0.00000E+00         0.00000E+00         0.10148E-07
 
    0.83972E+06         0.28561E+06         0.00000E+00
    0.28561E+06        -0.49589E+08         0.00000E+00
    0.00000E+00         0.00000E+00        -0.40593E-07
 
    0.87295E+06         0.29861E+06         0.00000E+00
    0.29861E+06        -0.49704E+08         0.00000E+00
    0.00000E+00         0.00000E+00         0.11163E-06
 
    0.90596E+06         0.31185E+06         0.00000E+00
    0.31185E+06        -0.49827E+08         0.00000E+00
    0.00000E+00         0.00000E+00         0.71037E-07
 
    0.93844E+06         0.32528E+06         0.00000E+00
    0.32528E+06        -0.49957E+08         0.00000E+00
    0.00000E+00         0.00000E+00         0.50741E-07
 
    0.96999E+06         0.33883E+06         0.00000E+00
    0.33883E+06        -0.50094E+08         0.00000E+00
    0.00000E+00         0.00000E+00         0.00000E+00
 
    0.10002E+07         0.35238E+06         0.00000E+00
    0.35238E+06        -0.50240E+08         0.00000E+00
    0.00000E+00         0.00000E+00        -0.10148E-07
 
    0.10284E+07         0.36582E+06         0.00000E+00
    0.36582E+06        -0.50395E+08         0.00000E+00
    0.00000E+00         0.00000E+00        -0.10148E-07
 
    0.10540E+07         0.37898E+06         0.00000E+00
    0.37898E+06        -0.50559E+08         0.00000E+00
    0.00000E+00         0.00000E+00         0.00000E+00
 
    0.10763E+07         0.39169E+06         0.00000E+00
    0.39169E+06        -0.50733E+08         0.00000E+00
    0.00000E+00         0.00000E+00         0.20296E-07
 
    0.10944E+07         0.40371E+06         0.00000E+00
    0.40371E+06        -0.50917E+08         0.00000E+00
    0.00000E+00         0.00000E+00         0.60889E-07
 
    0.11071E+07         0.41476E+06         0.00000E+00
    0.41476E+06        -0.51113E+08         0.00000E+00
    0.00000E+00         0.00000E+00         0.30444E-07
 
    0.11132E+07         0.42451E+06         0.00000E+00
    0.42451E+06        -0.51321E+08         0.00000E+00
    0.00000E+00         0.00000E+00        -0.10148E-07
 
    0.11112E+07         0.43257E+06         0.00000E+00
    0.43257E+06        -0.51542E+08         0.00000E+00
    0.00000E+00         0.00000E+00         0.10148E-07
 
    0.10995E+07         0.43846E+06         0.00000E+00
    0.43846E+06        -0.51777E+08         0.00000E+00
    0.00000E+00         0.00000E+00         0.00000E+00
 
    0.10760E+07         0.44165E+06         0.00000E+00
    0.44165E+06        -0.52027E+08         0.00000E+00
    0.00000E+00         0.00000E+00        -0.30444E-07
 
    0.10385E+07         0.44149E+06         0.00000E+00
    0.44149E+06        -0.52293E+08         0.00000E+00
    0.00000E+00         0.00000E+00        -0.60889E-07
 
    0.98429E+06         0.43725E+06         0.00000E+00
    0.43725E+06        -0.52576E+08         0.00000E+00
    0.00000E+00         0.00000E+00        -0.20296E-07
 
    0.91045E+06         0.42813E+06         0.00000E+00
    0.42813E+06        -0.52876E+08         0.00000E+00
    0.00000E+00         0.00000E+00         0.10148E-07
 
    0.81354E+06         0.41320E+06         0.00000E+00
    0.41320E+06        -0.53197E+08         0.00000E+00
    0.00000E+00         0.00000E+00         0.60887E-07
 
    0.68972E+06         0.39147E+06         0.00000E+00
    0.39147E+06        -0.53538E+08         0.00000E+00
    0.00000E+00         0.00000E+00        -0.40593E-07
 
    0.53473E+06         0.36191E+06         0.00000E+00
    0.36191E+06        -0.53901E+08         0.00000E+00
    0.00000E+00         0.00000E+00        -0.10148E-07
 
    0.34385E+06         0.32346E+06         0.00000E+00
    0.32346E+06        -0.54288E+08         0.00000E+00
    0.00000E+00         0.00000E+00        -0.40593E-07
 
    0.11200E+06         0.27512E+06         0.00000E+00
    0.27512E+06        -0.54701E+08         0.00000E+00
    0.00000E+00         0.00000E+00        -0.30444E-07
 
   -0.16624E+06         0.21604E+06         0.00000E+00
    0.21604E+06        -0.55140E+08         0.00000E+00
    0.00000E+00         0.00000E+00        -0.30444E-07
 
   -0.49648E+06         0.14563E+06         0.00000E+00
    0.14563E+06        -0.55608E+08         0.00000E+00
    0.00000E+00         0.00000E+00         0.00000E+00
 
   -0.88427E+06         0.63784E+05         0.00000E+00
    0.63784E+05        -0.56105E+08         0.00000E+00
    0.00000E+00         0.00000E+00         0.00000E+00
 
   -0.13348E+07        -0.28921E+05         0.00000E+00
   -0.28921E+05        -0.56634E+08         0.00000E+00
    0.00000E+00         0.00000E+00        -0.71035E-07
 
   -0.18523E+07        -0.13087E+06         0.00000E+00
   -0.13087E+06        -0.57196E+08         0.00000E+00
    0.00000E+00         0.00000E+00        -0.11163E-06
 
   -0.24393E+07        -0.23894E+06         0.00000E+00
   -0.23894E+06        -0.57791E+08         0.00000E+00
    0.00000E+00         0.00000E+00        -0.10148E-07
 
   -0.30954E+07        -0.34771E+06         0.00000E+00
   -0.34771E+06        -0.58421E+08         0.00000E+00
    0.00000E+00         0.00000E+00         0.20298E-07
 
   -0.38152E+07        -0.44797E+06         0.00000E+00
   -0.44797E+06        -0.59085E+08         0.00000E+00
    0.00000E+00         0.00000E+00         0.10148E-07
 
   -0.45855E+07        -0.52348E+06         0.00000E+00
   -0.52348E+06        -0.59779E+08         0.00000E+00
    0.00000E+00         0.00000E+00        -0.12178E-06
 
   -0.53825E+07        -0.54129E+06         0.00000E+00
   -0.54129E+06        -0.60486E+08         0.00000E+00
    0.00000E+00         0.00000E+00         0.40593E-07
 
   -0.61868E+07        -0.44076E+06         0.00000E+00
   -0.44076E+06        -0.61137E+08         0.00000E+00
    0.00000E+00         0.00000E+00         0.11163E-06
 
   -0.70261E+07        -0.17594E+06         0.00000E+00
   -0.17594E+06        -0.61559E+08         0.00000E+00
    0.00000E+00         0.00000E+00         0.60888E-07
 
    0.10443E+06        -0.84313E+03         0.00000E+00
   -0.84313E+03        -0.47606E+08         0.00000E+00
    0.00000E+00         0.00000E+00         0.50741E-07
 
    0.98658E+05        -0.18345E+04         0.00000E+00
   -0.18345E+04        -0.47610E+08         0.00000E+00
    0.00000E+00         0.00000E+00        -0.30444E-07
 
    0.93190E+05        -0.15915E+04         0.00000E+00
   -0.15915E+04        -0.47615E+08         0.00000E+00
    0.00000E+00         0.00000E+00         0.10148E-07
 
    0.87892E+05        -0.54439E+03         0.00000E+00
   -0.54439E+03        -0.47621E+08         0.00000E+00
    0.00000E+00         0.00000E+00        -0.20296E-07
 
    0.82968E+05         0.85867E+03         0.00000E+00
    0.85867E+03        -0.47627E+08         0.00000E+00
    0.00000E+00         0.00000E+00        -0.30444E-07
 
    0.78607E+05         0.24115E+04         0.00000E+00
    0.24115E+04        -0.47633E+08         0.00000E+00
    0.00000E+00         0.00000E+00        -0.40593E-07
 
    0.74901E+05         0.40202E+04         0.00000E+00
    0.40202E+04        -0.47640E+08         0.00000E+00
    0.00000E+00         0.00000E+00        -0.30444E-07
 
    0.71886E+05         0.56333E+04         0.00000E+00
    0.56333E+04        -0.47646E+08         0.00000E+00
    0.00000E+00         0.00000E+00         0.30444E-07
 
    0.69562E+05         0.72220E+04         0.00000E+00
    0.72220E+04        -0.47653E+08         0.00000E+00
    0.00000E+00         0.00000E+00        -0.60889E-07
 
    0.67912E+05         0.87711E+04         0.00000E+00
    0.87711E+04        -0.47659E+08         0.00000E+00
    0.00000E+00         0.00000E+00        -0.20296E-07
 
    0.66907E+05         0.10275E+05         0.00000E+00
    0.10275E+05        -0.47666E+08         0.00000E+00
    0.00000E+00         0.00000E+00        -0.30444E-07
 
    0.66512E+05         0.11733E+05         0.00000E+00
    0.11733E+05        -0.47673E+08         0.00000E+00
    0.00000E+00         0.00000E+00         0.10148E-07
 
    0.66693E+05         0.13149E+05         0.00000E+00
    0.13149E+05        -0.47680E+08         0.00000E+00
    0.00000E+00         0.00000E+00        -0.20296E-07
 
    0.67412E+05         0.14532E+05         0.00000E+00
    0.14532E+05        -0.47688E+08         0.00000E+00
    0.00000E+00         0.00000E+00         0.20296E-07
 
    0.68638E+05         0.15890E+05         0.00000E+00
    0.15890E+05        -0.47695E+08         0.00000E+00
    0.00000E+00         0.00000E+00        -0.11163E-06
 
    0.70341E+05         0.17233E+05         0.00000E+00
    0.17233E+05        -0.47703E+08         0.00000E+00
    0.00000E+00         0.00000E+00         0.60889E-07
 
    0.72495E+05         0.18572E+05         0.00000E+00
    0.18572E+05        -0.47711E+08         0.00000E+00
    0.00000E+00         0.00000E+00         0.50741E-07
 
    0.75077E+05         0.19916E+05         0.00000E+00
    0.19916E+05        -0.47720E+08         0.00000E+00
    0.00000E+00         0.00000E+00         0.30444E-07
 
    0.78070E+05         0.21275E+05         0.00000E+00
    0.21275E+05        -0.47729E+08         0.00000E+00
    0.00000E+00         0.00000E+00        -0.20296E-07
 
    0.81459E+05         0.22660E+05         0.00000E+00
    0.22660E+05        -0.47738E+08         0.00000E+00
    0.00000E+00         0.00000E+00         0.20296E-07
 
    0.85234E+05         0.24080E+05         0.00000E+00
    0.24080E+05        -0.47748E+08         0.00000E+00
    0.00000E+00         0.00000E+00        -0.20296E-07
 
    0.89387E+05         0.25543E+05         0.00000E+00
    0.25543E+05        -0.47758E+08         0.00000E+00
    0.00000E+00         0.00000E+00        -0.60889E-07
 
    0.93915E+05         0.27059E+05         0.00000E+00
    0.27059E+05        -0.47768E+08         0.00000E+00
    0.00000E+00         0.00000E+00         0.10148E-07
 
    0.98816E+05         0.28634E+05         0.00000E+00
    0.28634E+05        -0.47779E+08         0.00000E+00
    0.00000E+00         0.00000E+00        -0.71037E-07
 
    0.10409E+06         0.30277E+05         0.00000E+00
    0.30277E+05        -0.47791E+08         0.00000E+00
    0.00000E+00         0.00000E+00         0.71037E-07
 
    0.10975E+06         0.31995E+05         0.00000E+00
    0.31995E+05        -0.47803E+08         0.00000E+00
    0.00000E+00         0.00000E+00         0.30444E-07
 
    0.11579E+06         0.33795E+05         0.00000E+00
    0.33795E+05        -0.47816E+08         0.00000E+00
    0.00000E+00         0.00000E+00        -0.50741E-07
 
    0.12223E+06         0.35686E+05         0.00000E+00
    0.35686E+05        -0.47829E+08         0.00000E+00
    0.00000E+00         0.00000E+00        -0.10148E-07
 
    0.12908E+06         0.37673E+05         0.00000E+00
    0.37673E+05        -0.47844E+08         0.00000E+00
    0.00000E+00         0.00000E+00         0.00000E+00
 
    0.13635E+06         0.39764E+05         0.00000E+00
    0.39764E+05        -0.47858E+08         0.00000E+00
    0.00000E+00         0.00000E+00         0.50741E-07
 
    0.14404E+06         0.41966E+05         0.00000E+00
    0.41966E+05        -0.47874E+08         0.00000E+00
    0.00000E+00         0.00000E+00         0.30444E-07
 
    0.15219E+06         0.44286E+05         0.00000E+00
    0.44286E+05        -0.47891E+08         0.00000E+00
    0.00000E+00         0.00000E+00        -0.60889E-07
 
    0.16081E+06         0.46732E+05         0.00000E+00
    0.46732E+05        -0.47908E+08         0.00000E+00
    0.00000E+00         0.00000E+00         0.00000E+00
 
    0.16992E+06         0.49311E+05         0.00000E+00
    0.49311E+05        -0.47927E+08         0.00000E+00
    0.00000E+00         0.00000E+00         0.40593E-07
 
    0.17953E+06         0.52030E+05         0.00000E+00
    0.52030E+05        -0.47946E+08         0.00000E+00
    0.00000E+00         0.00000E+00         0.40593E-07
 
    0.18967E+06         0.54899E+05         0.00000E+00
    0.54899E+05        -0.47967E+08         0.00000E+00
    0.00000E+00         0.00000E+00         0.40592E-07
 
    0.20036E+06         0.57924E+05         0.00000E+00
    0.57924E+05        -0.47988E+08         0.00000E+00
    0.00000E+00         0.00000E+00        -0.40592E-07
 
    0.21164E+06         0.61115E+05         0.00000E+00
    0.61115E+05        -0.48011E+08         0.00000E+00
    0.00000E+00         0.00000E+00         0.60889E-07
 
    0.22351E+06         0.64479E+05         0.00000E+00
    0.64479E+05        -0.48035E+08         0.00000E+00
    0.00000E+00         0.00000E+00        -0.30444E-07
 
    0.23601E+06         0.68027E+05         0.00000E+00
    0.68027E+05        -0.48061E+08         0.00000E+00
    0.00000E+00         0.00000E+00         0.30444E-07
 
    0.24917E+06         0.71766E+05         0.00000E+00
    0.71766E+05        -0.48088E+08         0.00000E+00
    0.00000E+00         0.00000E+00        -0.40593E-07
 
    0.26301E+06         0.75707E+05         0.00000E+00
    0.75707E+05        -0.48116E+08         0.00000E+00
    0.00000E+00         0.00000E+00        -0.50741E-07
 
    0.27756E+06         0.79860E+05         0.00000E+00
    0.79860E+05        -0.48146E+08         0.00000E+00
    0.00000E+00         0.00000E+00         0.14207E-06
 
    0.29286E+06         0.84234E+05         0.00000E+00
    0.84234E+05        -0.48178E+08         0.00000E+00
    0.00000E+00         0.00000E+00        -0.10148E-06
 
    0.30892E+06         0.88839E+05         0.00000E+00
    0.88839E+05        -0.48211E+08         0.00000E+00
    0.00000E+00         0.00000E+00         0.10148E-07
 
    0.32579E+06         0.93687E+05         0.00000E+00
    0.93687E+05        -0.48247E+08         0.00000E+00
    0.00000E+00         0.00000E+00        -0.10148E-07
 
    0.34348E+06         0.98788E+05         0.00000E+00
    0.98788E+05        -0.48284E+08         0.00000E+00
    0.00000E+00         0.00000E+00        -0.91333E-07
 
    0.36203E+06         0.10415E+06         0.00000E+00
    0.10415E+06        -0.48324E+08         0.00000E+00
    0.00000E+00         0.00000E+00        -0.81185E-07
 
    0.38147E+06         0.10979E+06         0.00000E+00
    0.10979E+06        -0.48366E+08         0.00000E+00
    0.00000E+00         0.00000E+00         0.50740E-07
 
    0.40182E+06         0.11572E+06         0.00000E+00
    0.11572E+06        -0.48410E+08         0.00000E+00
    0.00000E+00         0.00000E+00         0.50741E-07
 
    0.42310E+06         0.12194E+06         0.00000E+00
    0.12194E+06        -0.48457E+08         0.00000E+00
    0.00000E+00         0.00000E+00         0.10148E-07
 
    0.44535E+06         0.12847E+06         0.00000E+00
    0.12847E+06        -0.48506E+08         0.00000E+00
    0.00000E+00         0.00000E+00        -0.81185E-07
 
    0.46858E+06         0.13532E+06         0.00000E+00
    0.13532E+06        -0.48559E+08         0.00000E+00
    0.00000E+00         0.00000E+00        -0.10148E-07
 
    0.49280E+06         0.14249E+06         0.00000E+00
    0.14249E+06        -0.48614E+08         0.00000E+00
    0.00000E+00         0.00000E+00        -0.20296E-07
 
    0.51802E+06         0.15001E+06         0.00000E+00
    0.15001E+06        -0.48673E+08         0.00000E+00
    0.00000E+00         0.00000E+00        -0.10148E-07
 
    0.54426E+06         0.15787E+06         0.00000E+00
    0.15787E+06        -0.48735E+08         0.00000E+00
    0.00000E+00         0.00000E+00         0.50741E-07
 
    0.57150E+06         0.16609E+06         0.00000E+00
    0.16609E+06        -0.48800E+08         0.00000E+00
    0.00000E+00         0.00000E+00         0.30444E-07
 
    0.59974E+06         0.17467E+06         0.00000E+00
    0.17467E+06        -0.48869E+08         0.00000E+00
    0.00000E+00         0.00000E+00        -0.10148E-07
 
    0.62896E+06         0.18361E+06         0.00000E+00
    0.18361E+06        -0.48943E+08         0.00000E+00
    0.00000E+00         0.00000E+00        -0.10148E-07
 
    0.65912E+06         0.19293E+06         0.00000E+00
    0.19293E+06        -0.49020E+08         0.00000E+00
    0.00000E+00         0.00000E+00         0.40593E-07
 
    0.69018E+06         0.20262E+06         0.00000E+00
    0.20262E+06        -0.49103E+08         0.00000E+00
    0.00000E+00         0.00000E+00         0.00000E+00
 
    0.72206E+06         0.21267E+06         0.00000E+00
    0.21267E+06        -0.49190E+08         0.00000E+00
    0.00000E+00         0.00000E+00        -0.10148E-06
 
    0.75468E+06         0.22308E+06         0.00000E+00
    0.22308E+06        -0.49282E+08         0.00000E+00
    0.00000E+00         0.00000E+00         0.30444E-07
 
    0.78794E+06         0.23385E+06         0.00000E+00
    0.23385E+06        -0.49379E+08         0.00000E+00
    0.00000E+00         0.00000E+00         0.30444E-07
 
    0.82168E+06         0.24494E+06         0.00000E+00
    0.24494E+06        -0.49482E+08         0.00000E+00
    0.00000E+00         0.00000E+00         0.30444E-07
 
    0.85574E+06         0.25635E+06         0.00000E+00
    0.25635E+06        -0.49591E+08         0.00000E+00
    0.00000E+00         0.00000E+00         0.10148E-06
 
    0.88990E+06         0.26803E+06         0.00000E+00
    0.26803E+06        -0.49707E+08         0.00000E+00
    0.00000E+00         0.00000E+00        -0.20296E-07
 
    0.92389E+06         0.27993E+06         0.00000E+00
    0.27993E+06        -0.49830E+08         0.00000E+00
    0.00000E+00         0.00000E+00        -0.20296E-07
 
    0.95740E+06         0.29202E+06         0.00000E+00
    0.29202E+06        -0.49959E+08         0.00000E+00
    0.00000E+00         0.00000E+00         0.60889E-07
 
    0.99005E+06         0.30420E+06         0.00000E+00
    0.30420E+06        -0.50097E+08         0.00000E+00
    0.00000E+00         0.00000E+00         0.10148E-06
 
    0.10214E+07         0.31640E+06         0.00000E+00
    0.31640E+06        -0.50243E+08         0.00000E+00
    0.00000E+00         0.00000E+00        -0.50741E-07
 
    0.10508E+07         0.32849E+06         0.00000E+00
    0.32849E+06        -0.50397E+08         0.00000E+00
    0.00000E+00         0.00000E+00         0.20296E-07
 
    0.10777E+07         0.34034E+06         0.00000E+00
    0.34034E+06        -0.50561E+08         0.00000E+00
    0.00000E+00         0.00000E+00        -0.30444E-07
 
    0.11013E+07         0.35179E+06         0.00000E+00
    0.35179E+06        -0.50735E+08         0.00000E+00
    0.00000E+00         0.00000E+00        -0.20296E-07
 
    0.11207E+07         0.36261E+06         0.00000E+00
    0.36261E+06        -0.50920E+08         0.00000E+00
    0.00000E+00         0.00000E+00        -0.50741E-07
 
    0.11348E+07         0.37256E+06         0.00000E+00
    0.37256E+06        -0.51115E+08         0.00000E+00
    0.00000E+00         0.00000E+00         0.40593E-07
 
    0.11423E+07         0.38134E+06         0.00000E+00
    0.38134E+06        -0.51323E+08         0.00000E+00
    0.00000E+00         0.00000E+00         0.60889E-07
 
    0.11418E+07         0.38859E+06         0.00000E+00
    0.38859E+06        -0.51544E+08         0.00000E+00
    0.00000E+00         0.00000E+00        -0.91333E-07
 
    0.11314E+07         0.39388E+06         0.00000E+00
    0.39388E+06        -0.51779E+08         0.00000E+00
    0.00000E+00         0.00000E+00         0.10148E-07
 
    0.11092E+07         0.39670E+06         0.00000E+00
    0.39670E+06        -0.52028E+08         0.00000E+00
    0.00000E+00         0.00000E+00         0.10148E-07
 
    0.10729E+07         0.39648E+06         0.00000E+00
    0.39648E+06        -0.52293E+08         0.00000E+00
    0.00000E+00         0.00000E+00         0.10148E-07
 
    0.10196E+07         0.39256E+06         0.00000E+00
    0.39256E+06        -0.52575E+08         0.00000E+00
    0.00000E+00         0.00000E+00         0.10148E-06
 
    0.94636E+06         0.38416E+06         0.00000E+00
    0.38416E+06        -0.52874E+08         0.00000E+00
    0.00000E+00         0.00000E+00        -0.10148E-07
 
    0.84960E+06         0.37045E+06         0.00000E+00
    0.37045E+06        -0.53194E+08         0.00000E+00
    0.00000E+00         0.00000E+00        -0.40593E-07
 
    0.72532E+06         0.35051E+06         0.00000E+00
    0.35051E+06        -0.53533E+08         0.00000E+00
    0.00000E+00         0.00000E+00         0.81185E-07
 
    0.56907E+06         0.32337E+06         0.00000E+00
    0.32337E+06        -0.53895E+08         0.00000E+00
    0.00000E+00         0.00000E+00         0.12178E-06
 
    0.37591E+06         0.28805E+06         0.00000E+00
    0.28805E+06        -0.54280E+08         0.00000E+00
    0.00000E+00         0.00000E+00        -0.71037E-07
 
    0.14046E+06         0.24359E+06         0.00000E+00
    0.24359E+06        -0.54691E+08         0.00000E+00
    0.00000E+00         0.00000E+00        -0.50741E-07
 
   -0.14303E+06         0.18916E+06         0.00000E+00
    0.18916E+06        -0.55128E+08         0.00000E+00
    0.00000E+00         0.00000E+00         0.60889E-07
 
   -0.48054E+06         0.12420E+06         0.00000E+00
    0.12420E+06        -0.55593E+08         0.00000E+00
    0.00000E+00         0.00000E+00        -0.91333E-07
 
   -0.87806E+06         0.48510E+05         0.00000E+00
    0.48510E+05        -0.56088E+08         0.00000E+00
    0.00000E+00         0.00000E+00         0.20296E-07
 
   -0.13412E+07        -0.37479E+05         0.00000E+00
   -0.37479E+05        -0.56615E+08         0.00000E+00
    0.00000E+00         0.00000E+00         0.00000E+00
 
   -0.18749E+07        -0.13244E+06         0.00000E+00
   -0.13244E+06        -0.57175E+08         0.00000E+00
    0.00000E+00         0.00000E+00         0.10148E-07
 
   -0.24822E+07        -0.23374E+06         0.00000E+00
   -0.23374E+06        -0.57770E+08         0.00000E+00
    0.00000E+00         0.00000E+00        -0.91333E-07
 
   -0.31632E+07        -0.33677E+06         0.00000E+00
   -0.33677E+06        -0.58400E+08         0.00000E+00
    0.00000E+00         0.00000E+00         0.81185E-07
 
   -0.39133E+07        -0.43363E+06         0.00000E+00
   -0.43363E+06        -0.59067E+08         0.00000E+00
    0.00000E+00         0.00000E+00        -0.10146E-07
 
   -0.47192E+07        -0.51032E+06         0.00000E+00
   -0.51032E+06        -0.59767E+08         0.00000E+00
    0.00000E+00         0.00000E+00        -0.71037E-07
 
   -0.55541E+07        -0.53675E+06         0.00000E+00
   -0.53675E+06        -0.60490E+08         0.00000E+00
    0.00000E+00         0.00000E+00        -0.10146E-07
 
   -0.63881E+07        -0.44828E+06         0.00000E+00
   -0.44828E+06        -0.61172E+08         0.00000E+00
    0.00000E+00         0.00000E+00         0.50741E-07
 
   -0.72400E+07        -0.18277E+06         0.00000E+00
   -0.18277E+06        -0.61628E+08         0.00000E+00
    0.00000E+00         0.00000E+00        -0.71036E-07
 
    0.10684E+06        -0.93648E+03         0.00000E+00
   -0.93648E+03        -0.47606E+08         0.00000E+00
    0.00000E+00         0.00000E+00         0.00000E+00
 
    0.10096E+06        -0.20044E+04         0.00000E+00
   -0.20044E+04        -0.47610E+08         0.00000E+00
    0.00000E+00         0.00000E+00         0.10148E-07
 
    0.95238E+05        -0.17520E+04         0.00000E+00
   -0.17520E+04        -0.47615E+08         0.00000E+00
    0.00000E+00         0.00000E+00         0.20296E-07
 
    0.89646E+05        -0.74368E+03         0.00000E+00
   -0.74368E+03        -0.47621E+08         0.00000E+00
    0.00000E+00         0.00000E+00        -0.81185E-07
 
    0.84466E+05         0.55886E+03         0.00000E+00
    0.55886E+03        -0.47627E+08         0.00000E+00
    0.00000E+00         0.00000E+00        -0.40593E-07
 
    0.79899E+05         0.19782E+04         0.00000E+00
    0.19782E+04        -0.47634E+08         0.00000E+00
    0.00000E+00         0.00000E+00        -0.50741E-07
 
    0.76032E+05         0.34365E+04         0.00000E+00
    0.34365E+04        -0.47640E+08         0.00000E+00
    0.00000E+00         0.00000E+00        -0.20296E-07
 
    0.72893E+05         0.48910E+04         0.00000E+00
    0.48910E+04        -0.47646E+08         0.00000E+00
    0.00000E+00         0.00000E+00         0.20296E-07
 
    0.70479E+05         0.63183E+04         0.00000E+00
    0.63183E+04        -0.47653E+08         0.00000E+00
    0.00000E+00         0.00000E+00        -0.60889E-07
 
    0.68767E+05         0.77061E+04         0.00000E+00
    0.77061E+04        -0.47660E+08         0.00000E+00
    0.00000E+00         0.00000E+00         0.10148E-07
 
    0.67723E+05         0.90500E+04         0.00000E+00
    0.90500E+04        -0.47666E+08         0.00000E+00
    0.00000E+00         0.00000E+00         0.40593E-07
 
    0.67311E+05         0.10351E+05         0.00000E+00
    0.10351E+05        -0.47673E+08         0.00000E+00
    0.00000E+00         0.00000E+00         0.00000E+00
 
    0.67490E+05         0.11612E+05         0.00000E+00
    0.11612E+05        -0.47681E+08         0.00000E+00
    0.00000E+00         0.00000E+00         0.60889E-07
 
    0.68223E+05         0.12842E+05         0.00000E+00
    0.12842E+05        -0.47688E+08         0.00000E+00
    0.00000E+00         0.00000E+00        -0.40593E-07
 
    0.69474E+05         0.14048E+05         0.00000E+00
    0.14048E+05        -0.47696E+08         0.00000E+00
    0.00000E+00         0.00000E+00        -0.10148E-07
 
    0.71213E+05         0.15240E+05         0.00000E+00
    0.15240E+05        -0.47703E+08         0.00000E+00
    0.00000E+00         0.00000E+00        -0.40593E-07
 
    0.73411E+05         0.16426E+05         0.00000E+00
    0.16426E+05        -0.47712E+08         0.00000E+00
    0.00000E+00         0.00000E+00        -0.20296E-07
 
    0.76046E+05         0.17617E+05         0.00000E+00
    0.17617E+05        -0.47720E+08         0.00000E+00
    0.00000E+00         0.00000E+00         0.10148E-07
 
    0.79097E+05         0.18820E+05         0.00000E+00
    0.18820E+05        -0.47729E+08         0.00000E+00
    0.00000E+00         0.00000E+00         0.30444E-07
 
    0.82551E+05         0.20046E+05         0.00000E+00
    0.20046E+05        -0.47738E+08         0.00000E+00
    0.00000E+00         0.00000E+00         0.20296E-07
 
    0.86396E+05         0.21302E+05         0.00000E+00
    0.21302E+05        -0.47748E+08         0.00000E+00
    0.00000E+00         0.00000E+00        -0.40593E-07
 
    0.90625E+05         0.22596E+05         0.00000E+00
    0.22596E+05        -0.47758E+08         0.00000E+00
    0.00000E+00         0.00000E+00         0.20296E-07
 
    0.95233E+05         0.23936E+05         0.00000E+00
    0.23936E+05        -0.47768E+08         0.00000E+00
    0.00000E+00         0.00000E+00         0.00000E+00
 
    0.10022E+06         0.25329E+05         0.00000E+00
    0.25329E+05        -0.47780E+08         0.00000E+00
    0.00000E+00         0.00000E+00         0.71037E-07
 
    0.10559E+06         0.26782E+05         0.00000E+00
    0.26782E+05        -0.47791E+08         0.00000E+00
    0.00000E+00         0.00000E+00         0.20296E-07
 
    0.11134E+06         0.28302E+05         0.00000E+00
    0.28302E+05        -0.47803E+08         0.00000E+00
    0.00000E+00         0.00000E+00         0.00000E+00
 
    0.11748E+06         0.29894E+05         0.00000E+00
    0.29894E+05        -0.47816E+08         0.00000E+00
    0.00000E+00         0.00000E+00         0.40593E-07
 
    0.12403E+06         0.31566E+05         0.00000E+00
    0.31566E+05        -0.47830E+08         0.00000E+00
    0.00000E+00         0.00000E+00         0.00000E+00
 
    0.13099E+06         0.33323E+05         0.00000E+00
    0.33323E+05        -0.47844E+08         0.00000E+00
    0.00000E+00         0.00000E+00         0.20296E-07
 
    0.13837E+06         0.35172E+05         0.00000E+00
    0.35172E+05        -0.47859E+08         0.00000E+00
    0.00000E+00         0.00000E+00        -0.20296E-07
 
    0.14619E+06         0.37120E+05         0.00000E+00
    0.37120E+05        -0.47875E+08         0.00000E+00
    0.00000E+00         0.00000E+00        -0.20296E-07
 
    0.15447E+06         0.39172E+05         0.00000E+00
    0.39172E+05        -0.47891E+08         0.00000E+00
    0.00000E+00         0.00000E+00         0.91333E-07
 
    0.16323E+06         0.41335E+05         0.00000E+00
    0.41335E+05        -0.47909E+08         0.00000E+00
    0.00000E+00         0.00000E+00        -0.10148E-06
 
    0.17248E+06         0.43616E+05         0.00000E+00
    0.43616E+05        -0.47927E+08         0.00000E+00
    0.00000E+00         0.00000E+00        -0.20296E-07
 
    0.18224E+06         0.46021E+05         0.00000E+00
    0.46021E+05        -0.47947E+08         0.00000E+00
    0.00000E+00         0.00000E+00         0.30444E-07
 
    0.19254E+06         0.48558E+05         0.00000E+00
    0.48558E+05        -0.47967E+08         0.00000E+00
    0.00000E+00         0.00000E+00         0.20296E-07
 
    0.20341E+06         0.51234E+05         0.00000E+00
    0.51234E+05        -0.47989E+08         0.00000E+00
    0.00000E+00         0.00000E+00         0.00000E+00
 
    0.21486E+06         0.54057E+05         0.00000E+00
    0.54057E+05        -0.48012E+08         0.00000E+00
    0.00000E+00         0.00000E+00        -0.10148E-07
 
    0.22692E+06         0.57033E+05         0.00000E+00
    0.57033E+05        -0.48036E+08         0.00000E+00
    0.00000E+00         0.00000E+00         0.81185E-07
 
    0.23962E+06         0.60171E+05         0.00000E+00
    0.60171E+05        -0.48061E+08         0.00000E+00
    0.00000E+00         0.00000E+00         0.60889E-07
 
    0.25299E+06         0.63479E+05         0.00000E+00
    0.63479E+05        -0.48088E+08         0.00000E+00
    0.00000E+00         0.00000E+00        -0.40593E-07
 
    0.26705E+06         0.66965E+05         0.00000E+00
    0.66965E+05        -0.48117E+08         0.00000E+00
    0.00000E+00         0.00000E+00         0.20296E-07
 
    0.28184E+06         0.70639E+05         0.00000E+00
    0.70639E+05        -0.48147E+08         0.00000E+00
    0.00000E+00         0.00000E+00         0.20296E-07
 
    0.29739E+06         0.74508E+05         0.00000E+00
    0.74508E+05        -0.48179E+08         0.00000E+00
    0.00000E+00         0.00000E+00         0.30444E-07
 
    0.31372E+06         0.78583E+05         0.00000E+00
    0.78583E+05        -0.48212E+08         0.00000E+00
    0.00000E+00         0.00000E+00        -0.20296E-07
 
    0.33086E+06         0.82872E+05         0.00000E+00
    0.82872E+05        -0.48248E+08         0.00000E+00
    0.00000E+00         0.00000E+00        -0.10148E-06
 
    0.34885E+06         0.87385E+05         0.00000E+00
    0.87385E+05        -0.48285E+08         0.00000E+00
    0.00000E+00         0.00000E+00         0.00000E+00
 
    0.36771E+06         0.92131E+05         0.00000E+00
    0.92131E+05        -0.48325E+08         0.00000E+00
    0.00000E+00         0.00000E+00         0.40593E-07
 
    0.38748E+06         0.97121E+05         0.00000E+00
    0.97121E+05        -0.48367E+08         0.00000E+00
    0.00000E+00         0.00000E+00         0.71037E-07
 
    0.40817E+06         0.10236E+06         0.00000E+00
    0.10236E+06        -0.48411E+08         0.00000E+00
    0.00000E+00         0.00000E+00        -0.60889E-07
 
    0.42983E+06         0.10787E+06         0.00000E+00
    0.10787E+06        -0.48458E+08         0.00000E+00
    0.00000E+00         0.00000E+00         0.30444E-07
 
    0.45246E+06         0.11365E+06         0.00000E+00
    0.11365E+06        -0.48508E+08         0.00000E+00
    0.00000E+00         0.00000E+00         0.30444E-07
 
    0.47610E+06         0.11971E+06         0.00000E+00
    0.11971E+06        -0.48560E+08         0.00000E+00
    0.00000E+00         0.00000E+00         0.40593E-07
 
    0.50076E+06         0.12606E+06         0.00000E+00
    0.12606E+06        -0.48616E+08         0.00000E+00
    0.00000E+00         0.00000E+00         0.10148E-06
 
    0.52645E+06         0.13271E+06         0.00000E+00
    0.13271E+06        -0.48674E+08         0.00000E+00
    0.00000E+00         0.00000E+00         0.60889E-07
 
    0.55317E+06         0.13967E+06         0.00000E+00
    0.13967E+06        -0.48736E+08         0.00000E+00
    0.00000E+00         0.00000E+00        -0.30444E-07
 
    0.58093E+06         0.14695E+06         0.00000E+00
    0.14695E+06        -0.48802E+08         0.00000E+00
    0.00000E+00         0.00000E+00         0.60889E-07
 
    0.60972E+06         0.15454E+06         0.00000E+00
    0.15454E+06        -0.48871E+08         0.00000E+00
    0.00000E+00         0.00000E+00        -0.20296E-07
 
    0.63952E+06         0.16246E+06         0.00000E+00
    0.16246E+06        -0.48945E+08         0.00000E+00
    0.00000E+00         0.00000E+00        -0.91333E-07
 
    0.67030E+06         0.17071E+06         0.00000E+00
    0.17071E+06        -0.49022E+08         0.00000E+00
    0.00000E+00         0.00000E+00        -0.30444E-07
 
    0.70201E+06         0.17929E+06         0.00000E+00
    0.17929E+06        -0.49105E+08         0.00000E+00
    0.00000E+00         0.00000E+00        -0.10148E-07
 
    0.73458E+06         0.18819E+06         0.00000E+00
    0.18819E+06        -0.49192E+08         0.00000E+00
    0.00000E+00         0.00000E+00         0.91333E-07
 
    0.76794E+06         0.19742E+06         0.00000E+00
    0.19742E+06        -0.49284E+08         0.00000E+00
    0.00000E+00         0.00000E+00        -0.10148E-07
 
    0.80198E+06         0.20696E+06         0.00000E+00
    0.20696E+06        -0.49381E+08         0.00000E+00
    0.00000E+00         0.00000E+00        -0.40593E-07
 
    0.83655E+06         0.21679E+06         0.00000E+00
    0.21679E+06        -0.49484E+08         0.00000E+00
    0.00000E+00         0.00000E+00        -0.50741E-07
 
    0.87149E+06         0.22690E+06         0.00000E+00
    0.22690E+06        -0.49594E+08         0.00000E+00
    0.00000E+00         0.00000E+00         0.30444E-07
 
    0.90658E+06         0.23725E+06         0.00000E+00
    0.23725E+06        -0.49709E+08         0.00000E+00
    0.00000E+00         0.00000E+00        -0.10148E-07
 
    0.94156E+06         0.24782E+06         0.00000E+00
    0.24782E+06        -0.49832E+08         0.00000E+00
    0.00000E+00         0.00000E+00         0.10148E-07
 
    0.97613E+06         0.25853E+06         0.00000E+00
    0.25853E+06        -0.49962E+08         0.00000E+00
    0.00000E+00         0.00000E+00         0.50741E-07
 
    0.10099E+07         0.26935E+06         0.00000E+00
    0.26935E+06        -0.50099E+08         0.00000E+00
    0.00000E+00         0.00000E+00        -0.11163E-06
 
    0.10424E+07         0.28017E+06         0.00000E+00
    0.28017E+06        -0.50245E+08         0.00000E+00
    0.00000E+00         0.00000E+00         0.20296E-07
 
    0.10731E+07         0.29091E+06         0.00000E+00
    0.29091E+06        -0.50400E+08         0.00000E+00
    0.00000E+00         0.00000E+00        -0.10148E-07
 
    0.11013E+07         0.30144E+06         0.00000E+00
    0.30144E+06        -0.50564E+08         0.00000E+00
    0.00000E+00         0.00000E+00        -0.30444E-07
 
    0.11263E+07         0.31161E+06         0.00000E+00
    0.31161E+06        -0.50738E+08         0.00000E+00
    0.00000E+00         0.00000E+00        -0.20296E-07
 
    0.11471E+07         0.32123E+06         0.00000E+00
    0.32123E+06        -0.50922E+08         0.00000E+00
    0.00000E+00         0.00000E+00         0.30444E-07
 
    0.11627E+07         0.33007E+06         0.00000E+00
    0.33007E+06        -0.51117E+08         0.00000E+00
    0.00000E+00         0.00000E+00         0.50741E-07
 
    0.11717E+07         0.33788E+06         0.00000E+00
    0.33788E+06        -0.51325E+08         0.00000E+00
    0.00000E+00         0.00000E+00         0.10148E-07
 
    0.11726E+07         0.34432E+06         0.00000E+00
    0.34432E+06        -0.51545E+08         0.00000E+00
    0.00000E+00         0.00000E+00        -0.91333E-07
 
    0.11638E+07         0.34901E+06         0.00000E+00
    0.34901E+06        -0.51780E+08         0.00000E+00
    0.00000E+00         0.00000E+00        -0.71037E-07
 
    0.11430E+07         0.35149E+06         0.00000E+00
    0.35149E+06        -0.52028E+08         0.00000E+00
    0.00000E+00         0.00000E+00         0.00000E+00
 
    0.11080E+07         0.35125E+06         0.00000E+00
    0.35125E+06        -0.52293E+08         0.00000E+00
    0.00000E+00         0.00000E+00        -0.91333E-07
 
    0.10558E+07         0.34768E+06         0.00000E+00
    0.34768E+06        -0.52574E+08         0.00000E+00
    0.00000E+00         0.00000E+00        -0.20296E-07
 
    0.98344E+06         0.34008E+06         0.00000E+00
    0.34008E+06        -0.52873E+08         0.00000E+00
    0.00000E+00         0.00000E+00         0.20296E-07
 
    0.88710E+06         0.32770E+06         0.00000E+00
    0.32770E+06        -0.53191E+08         0.00000E+00
    0.00000E+00         0.00000E+00         0.71037E-07
 
    0.76268E+06         0.30969E+06         0.00000E+00
    0.30969E+06        -0.53529E+08         0.00000E+00
    0.00000E+00         0.00000E+00         0.30444E-07
 
    0.60551E+06         0.28515E+06         0.00000E+00
    0.28515E+06        -0.53889E+08         0.00000E+00
    0.00000E+00         0.00000E+00        -0.81185E-07
 
    0.41042E+06         0.25318E+06         0.00000E+00
    0.25318E+06        -0.54273E+08         0.00000E+00
    0.00000E+00         0.00000E+00         0.20296E-07
 
    0.17175E+06         0.21289E+06         0.00000E+00
    0.21289E+06        -0.54682E+08         0.00000E+00
    0.00000E+00         0.00000E+00         0.81185E-07
 
   -0.11659E+06         0.16350E+06         0.00000E+00
    0.16350E+06        -0.55117E+08         0.00000E+00
    0.00000E+00         0.00000E+00        -0.10148E-07
 
   -0.46098E+06         0.10443E+06         0.00000E+00
    0.10443E+06        -0.55580E+08         0.00000E+00
    0.00000E+00         0.00000E+00        -0.10148E-07
 
   -0.86788E+06         0.35443E+05         0.00000E+00
    0.35443E+05        -0.56073E+08         0.00000E+00
    0.00000E+00         0.00000E+00         0.50741E-07
 
   -0.13435E+07        -0.43174E+05         0.00000E+00
   -0.43174E+05        -0.56598E+08         0.00000E+00
    0.00000E+00         0.00000E+00        -0.10148E-07
 
   -0.18932E+07        -0.13037E+06         0.00000E+00
   -0.13037E+06        -0.57156E+08         0.00000E+00
    0.00000E+00         0.00000E+00        -0.40593E-07
 
   -0.25208E+07        -0.22398E+06         0.00000E+00
   -0.22398E+06        -0.57750E+08         0.00000E+00
    0.00000E+00         0.00000E+00         0.10148E-06
 
   -0.32274E+07        -0.32021E+06         0.00000E+00
   -0.32021E+06        -0.58380E+08         0.00000E+00
    0.00000E+00         0.00000E+00        -0.81187E-07
 
   -0.40090E+07        -0.41247E+06         0.00000E+00
   -0.41247E+06        -0.59049E+08         0.00000E+00
    0.00000E+00         0.00000E+00        -0.81187E-07
 
   -0.48532E+07        -0.48912E+06         0.00000E+00
   -0.48912E+06        -0.59754E+08         0.00000E+00
    0.00000E+00         0.00000E+00        -0.15222E-06
 
   -0.57313E+07        -0.52423E+06         0.00000E+00
   -0.52423E+06        -0.60491E+08         0.00000E+00
    0.00000E+00         0.00000E+00         0.20298E-07
 
   -0.66020E+07        -0.45125E+06         0.00000E+00
   -0.45125E+06        -0.61205E+08         0.00000E+00
    0.00000E+00         0.00000E+00         0.71039E-07
 
   -0.74708E+07        -0.18899E+06         0.00000E+00
   -0.18899E+06        -0.61698E+08         0.00000E+00
    0.00000E+00         0.00000E+00        -0.81184E-07
 
    0.10937E+06        -0.10241E+04         0.00000E+00
   -0.10241E+04        -0.47605E+08         0.00000E+00
    0.00000E+00         0.00000E+00         0.00000E+00
 
    0.10333E+06        -0.21330E+04         0.00000E+00
   -0.21330E+04        -0.47609E+08         0.00000E+00
    0.00000E+00         0.00000E+00         0.00000E+00
 
    0.97296E+05        -0.18476E+04         0.00000E+00
   -0.18476E+04        -0.47615E+08         0.00000E+00
    0.00000E+00         0.00000E+00         0.50741E-07
 
    0.91370E+05        -0.88363E+03         0.00000E+00
   -0.88363E+03        -0.47622E+08         0.00000E+00
    0.00000E+00         0.00000E+00         0.00000E+00
 
    0.85916E+05         0.30642E+03         0.00000E+00
    0.30642E+03        -0.47628E+08         0.00000E+00
    0.00000E+00         0.00000E+00        -0.20296E-07
 
    0.81134E+05         0.15820E+04         0.00000E+00
    0.15820E+04        -0.47634E+08         0.00000E+00
    0.00000E+00         0.00000E+00        -0.30444E-07
 
    0.77101E+05         0.28812E+04         0.00000E+00
    0.28812E+04        -0.47640E+08         0.00000E+00
    0.00000E+00         0.00000E+00         0.00000E+00
 
    0.73839E+05         0.41699E+04         0.00000E+00
    0.41699E+04        -0.47647E+08         0.00000E+00
    0.00000E+00         0.00000E+00         0.20296E-07
 
    0.71335E+05         0.54295E+04         0.00000E+00
    0.54295E+04        -0.47653E+08         0.00000E+00
    0.00000E+00         0.00000E+00         0.71037E-07
 
    0.69562E+05         0.66509E+04         0.00000E+00
    0.66509E+04        -0.47660E+08         0.00000E+00
    0.00000E+00         0.00000E+00         0.00000E+00
 
    0.68482E+05         0.78307E+04         0.00000E+00
    0.78307E+04        -0.47667E+08         0.00000E+00
    0.00000E+00         0.00000E+00        -0.30444E-07
 
    0.68054E+05         0.89703E+04         0.00000E+00
    0.89703E+04        -0.47674E+08         0.00000E+00
    0.00000E+00         0.00000E+00         0.30444E-07
 
    0.68233E+05         0.10074E+05         0.00000E+00
    0.10074E+05        -0.47681E+08         0.00000E+00
    0.00000E+00         0.00000E+00         0.10148E-07
 
    0.68981E+05         0.11148E+05         0.00000E+00
    0.11148E+05        -0.47688E+08         0.00000E+00
    0.00000E+00         0.00000E+00         0.30444E-07
 
    0.70260E+05         0.12200E+05         0.00000E+00
    0.12200E+05        -0.47696E+08         0.00000E+00
    0.00000E+00         0.00000E+00        -0.20296E-07
 
    0.72036E+05         0.13238E+05         0.00000E+00
    0.13238E+05        -0.47704E+08         0.00000E+00
    0.00000E+00         0.00000E+00        -0.20296E-07
 
    0.74279E+05         0.14271E+05         0.00000E+00
    0.14271E+05        -0.47712E+08         0.00000E+00
    0.00000E+00         0.00000E+00         0.00000E+00
 
    0.76966E+05         0.15306E+05         0.00000E+00
    0.15306E+05        -0.47720E+08         0.00000E+00
    0.00000E+00         0.00000E+00        -0.81185E-07
 
    0.80077E+05         0.16353E+05         0.00000E+00
    0.16353E+05        -0.47729E+08         0.00000E+00
    0.00000E+00         0.00000E+00        -0.30444E-07
 
    0.83595E+05         0.17418E+05         0.00000E+00
    0.17418E+05        -0.47738E+08         0.00000E+00
    0.00000E+00         0.00000E+00         0.30444E-07
 
    0.87510E+05         0.18509E+05         0.00000E+00
    0.18509E+05        -0.47748E+08         0.00000E+00
    0.00000E+00         0.00000E+00        -0.50741E-07
 
    0.91813E+05         0.19634E+05         0.00000E+00
    0.19634E+05        -0.47758E+08         0.00000E+00
    0.00000E+00         0.00000E+00         0.40593E-07
 
    0.96501E+05         0.20798E+05         0.00000E+00
    0.20798E+05        -0.47769E+08         0.00000E+00
    0.00000E+00         0.00000E+00         0.10148E-07
 
    0.10157E+06         0.22008E+05         0.00000E+00
    0.22008E+05        -0.47780E+08         0.00000E+00
    0.00000E+00         0.00000E+00        -0.81185E-07
 
    0.10703E+06         0.23270E+05         0.00000E+00
    0.23270E+05        -0.47791E+08         0.00000E+00
    0.00000E+00         0.00000E+00        -0.30444E-07
 
    0.11287E+06         0.24589E+05         0.00000E+00
    0.24589E+05        -0.47804E+08         0.00000E+00
    0.00000E+00         0.00000E+00         0.20296E-07
 
    0.11911E+06         0.25972E+05         0.00000E+00
    0.25972E+05        -0.47817E+08         0.00000E+00
    0.00000E+00         0.00000E+00        -0.40593E-07
 
    0.12576E+06         0.27424E+05         0.00000E+00
    0.27424E+05        -0.47830E+08         0.00000E+00
    0.00000E+00         0.00000E+00         0.00000E+00
 
    0.13283E+06         0.28950E+05         0.00000E+00
    0.28950E+05        -0.47844E+08         0.00000E+00
    0.00000E+00         0.00000E+00         0.60889E-07
 
    0.14033E+06         0.30557E+05         0.00000E+00
    0.30557E+05        -0.47859E+08         0.00000E+00
    0.00000E+00         0.00000E+00         0.00000E+00
 
    0.14827E+06         0.32248E+05         0.00000E+00
    0.32248E+05        -0.47875E+08         0.00000E+00
    0.00000E+00         0.00000E+00        -0.10148E-07
 
    0.15668E+06         0.34031E+05         0.00000E+00
    0.34031E+05        -0.47892E+08         0.00000E+00
    0.00000E+00         0.00000E+00        -0.10148E-07
 
    0.16556E+06         0.35910E+05         0.00000E+00
    0.35910E+05        -0.47909E+08         0.00000E+00
    0.00000E+00         0.00000E+00         0.40593E-07
 
    0.17495E+06         0.37891E+05         0.00000E+00
    0.37891E+05        -0.47928E+08         0.00000E+00
    0.00000E+00         0.00000E+00         0.00000E+00
 
    0.18487E+06         0.39981E+05         0.00000E+00
    0.39981E+05        -0.47947E+08         0.00000E+00
    0.00000E+00         0.00000E+00         0.00000E+00
 
    0.19533E+06         0.42185E+05         0.00000E+00
    0.42185E+05        -0.47968E+08         0.00000E+00
    0.00000E+00         0.00000E+00        -0.60889E-07
 
    0.20635E+06         0.44510E+05         0.00000E+00
    0.44510E+05        -0.47989E+08         0.00000E+00
    0.00000E+00         0.00000E+00         0.71037E-07
 
    0.21798E+06         0.46962E+05         0.00000E+00
    0.46962E+05        -0.48012E+08         0.00000E+00
    0.00000E+00         0.00000E+00         0.00000E+00
 
    0.23023E+06         0.49548E+05         0.00000E+00
    0.49548E+05        -0.48037E+08         0.00000E+00
    0.00000E+00         0.00000E+00         0.30444E-07
 
    0.24312E+06         0.52274E+05         0.00000E+00
    0.52274E+05        -0.48062E+08         0.00000E+00
    0.00000E+00         0.00000E+00         0.40593E-07
 
    0.25670E+06         0.55148E+05         0.00000E+00
    0.55148E+05        -0.48089E+08         0.00000E+00
    0.00000E+00         0.00000E+00        -0.30444E-07
 
    0.27098E+06         0.58178E+05         0.00000E+00
    0.58178E+05        -0.48118E+08         0.00000E+00
    0.00000E+00         0.00000E+00         0.00000E+00
 
    0.28600E+06         0.61370E+05         0.00000E+00
    0.61370E+05        -0.48148E+08         0.00000E+00
    0.00000E+00         0.00000E+00         0.10148E-07
 
    0.30178E+06         0.64732E+05         0.00000E+00
    0.64732E+05        -0.48180E+08         0.00000E+00
    0.00000E+00         0.00000E+00         0.10148E-07
 
    0.31837E+06         0.68273E+05         0.00000E+00
    0.68273E+05        -0.48213E+08         0.00000E+00
    0.00000E+00         0.00000E+00        -0.11369E-12
 
    0.33578E+06         0.72000E+05         0.00000E+00
    0.72000E+05        -0.48249E+08         0.00000E+00
    0.00000E+00         0.00000E+00         0.00000E+00
 
    0.35406E+06         0.75922E+05         0.00000E+00
    0.75922E+05        -0.48286E+08         0.00000E+00
    0.00000E+00         0.00000E+00        -0.50741E-07
 
    0.37322E+06         0.80046E+05         0.00000E+00
    0.80046E+05        -0.48326E+08         0.00000E+00
    0.00000E+00         0.00000E+00         0.00000E+00
 
    0.39331E+06         0.84383E+05         0.00000E+00
    0.84383E+05        -0.48368E+08         0.00000E+00
    0.00000E+00         0.00000E+00         0.00000E+00
 
    0.41435E+06         0.88940E+05         0.00000E+00
    0.88940E+05        -0.48412E+08         0.00000E+00
    0.00000E+00         0.00000E+00        -0.22737E-12
 
    0.43637E+06         0.93725E+05         0.00000E+00
    0.93725E+05        -0.48459E+08         0.00000E+00
    0.00000E+00         0.00000E+00        -0.60889E-07
 
    0.45938E+06         0.98748E+05         0.00000E+00
    0.98748E+05        -0.48509E+08         0.00000E+00
    0.00000E+00         0.00000E+00         0.00000E+00
 
    0.48342E+06         0.10402E+06         0.00000E+00
    0.10402E+06        -0.48561E+08         0.00000E+00
    0.00000E+00         0.00000E+00        -0.16237E-06
 
    0.50851E+06         0.10954E+06         0.00000E+00
    0.10954E+06        -0.48617E+08         0.00000E+00
    0.00000E+00         0.00000E+00         0.11163E-06
 
    0.53465E+06         0.11532E+06         0.00000E+00
    0.11532E+06        -0.48676E+08         0.00000E+00
    0.00000E+00         0.00000E+00        -0.10148E-07
 
    0.56186E+06         0.12137E+06         0.00000E+00
    0.12137E+06        -0.48738E+08         0.00000E+00
    0.00000E+00         0.00000E+00        -0.10148E-07
 
    0.59013E+06         0.12770E+06         0.00000E+00
    0.12770E+06        -0.48803E+08         0.00000E+00
    0.00000E+00         0.00000E+00         0.30444E-07
 
    0.61946E+06         0.13430E+06         0.00000E+00
    0.13430E+06        -0.48873E+08         0.00000E+00
    0.00000E+00         0.00000E+00         0.40592E-07
 
    0.64984E+06         0.14119E+06         0.00000E+00
    0.14119E+06        -0.48946E+08         0.00000E+00
    0.00000E+00         0.00000E+00         0.60889E-07
 
    0.68122E+06         0.14837E+06         0.00000E+00
    0.14837E+06        -0.49024E+08         0.00000E+00
    0.00000E+00         0.00000E+00        -0.30444E-07
 
    0.71358E+06         0.15583E+06         0.00000E+00
    0.15583E+06        -0.49106E+08         0.00000E+00
    0.00000E+00         0.00000E+00        -0.10148E-07
 
    0.74684E+06         0.16358E+06         0.00000E+00
    0.16358E+06        -0.49193E+08         0.00000E+00
    0.00000E+00         0.00000E+00         0.10148E-07
 
    0.78094E+06         0.17161E+06         0.00000E+00
    0.17161E+06        -0.49285E+08         0.00000E+00
    0.00000E+00         0.00000E+00        -0.40593E-07
 
    0.81575E+06         0.17991E+06         0.00000E+00
    0.17991E+06        -0.49383E+08         0.00000E+00
    0.00000E+00         0.00000E+00         0.00000E+00
 
    0.85115E+06         0.18847E+06         0.00000E+00
    0.18847E+06        -0.49486E+08         0.00000E+00
    0.00000E+00         0.00000E+00        -0.40593E-07
 
    0.88697E+06         0.19727E+06         0.00000E+00
    0.19727E+06        -0.49596E+08         0.00000E+00
    0.00000E+00         0.00000E+00        -0.30444E-07
 
    0.92300E+06         0.20629E+06         0.00000E+00
    0.20629E+06        -0.49711E+08         0.00000E+00
    0.00000E+00         0.00000E+00        -0.40593E-07
 
    0.95898E+06         0.21549E+06         0.00000E+00
    0.21549E+06        -0.49834E+08         0.00000E+00
    0.00000E+00         0.00000E+00         0.20296E-07
 
    0.99461E+06         0.22483E+06         0.00000E+00
    0.22483E+06        -0.49964E+08         0.00000E+00
    0.00000E+00         0.00000E+00         0.50741E-07
 
    0.10295E+07         0.23426E+06         0.00000E+00
    0.23426E+06        -0.50102E+08         0.00000E+00
    0.00000E+00         0.00000E+00        -0.20296E-07
 
    0.10632E+07         0.24370E+06         0.00000E+00
    0.24370E+06        -0.50247E+08         0.00000E+00
    0.00000E+00         0.00000E+00         0.00000E+00
 
    0.10952E+07         0.25307E+06         0.00000E+00
    0.25307E+06        -0.50402E+08         0.00000E+00
    0.00000E+00         0.00000E+00        -0.60889E-07
 
    0.11247E+07         0.26226E+06         0.00000E+00
    0.26226E+06        -0.50566E+08         0.00000E+00
    0.00000E+00         0.00000E+00         0.40593E-07
 
    0.11511E+07         0.27114E+06         0.00000E+00
    0.27114E+06        -0.50740E+08         0.00000E+00
    0.00000E+00         0.00000E+00         0.00000E+00
 
    0.11734E+07         0.27955E+06         0.00000E+00
    0.27955E+06        -0.50924E+08         0.00000E+00
    0.00000E+00         0.00000E+00        -0.40593E-07
 
    0.11906E+07         0.28728E+06         0.00000E+00
    0.28728E+06        -0.51119E+08         0.00000E+00
    0.00000E+00         0.00000E+00         0.10148E-07
 
    0.12012E+07         0.29410E+06         0.00000E+00
    0.29410E+06        -0.51327E+08         0.00000E+00
    0.00000E+00         0.00000E+00         0.20296E-07
 
    0.12038E+07         0.29973E+06         0.00000E+00
    0.29973E+06        -0.51547E+08         0.00000E+00
    0.00000E+00         0.00000E+00         0.30444E-07
 
    0.11965E+07         0.30383E+06         0.00000E+00
    0.30383E+06        -0.51780E+08         0.00000E+00
    0.00000E+00         0.00000E+00        -0.50741E-07
 
    0.11774E+07         0.30599E+06         0.00000E+00
    0.30599E+06        -0.52029E+08         0.00000E+00
    0.00000E+00         0.00000E+00         0.00000E+00
 
    0.11438E+07         0.30575E+06         0.00000E+00
    0.30575E+06        -0.52293E+08         0.00000E+00
    0.00000E+00         0.00000E+00        -0.30444E-07
 
    0.10930E+07         0.30258E+06         0.00000E+00
    0.30258E+06        -0.52573E+08         0.00000E+00
    0.00000E+00         0.00000E+00        -0.10148E-07
 
    0.10217E+07         0.29585E+06         0.00000E+00
    0.29585E+06        -0.52871E+08         0.00000E+00
    0.00000E+00         0.00000E+00        -0.40593E-07
 
    0.92608E+06         0.28489E+06         0.00000E+00
    0.28489E+06        -0.53188E+08         0.00000E+00
    0.00000E+00         0.00000E+00        -0.11163E-06
 
    0.80183E+06         0.26893E+06         0.00000E+00
    0.26893E+06        -0.53525E+08         0.00000E+00
    0.00000E+00         0.00000E+00         0.13193E-06
 
    0.64410E+06         0.24717E+06         0.00000E+00
    0.24717E+06        -0.53884E+08         0.00000E+00
    0.00000E+00         0.00000E+00        -0.30444E-07
 
    0.44748E+06         0.21879E+06         0.00000E+00
    0.21879E+06        -0.54266E+08         0.00000E+00
    0.00000E+00         0.00000E+00        -0.40593E-07
 
    0.20600E+06         0.18296E+06         0.00000E+00
    0.18296E+06        -0.54673E+08         0.00000E+00
    0.00000E+00         0.00000E+00         0.91333E-07
 
   -0.86754E+05         0.13896E+06         0.00000E+00
    0.13896E+06        -0.55106E+08         0.00000E+00
    0.00000E+00         0.00000E+00         0.30444E-07
 
   -0.43760E+06         0.86241E+05         0.00000E+00
    0.86241E+05        -0.55568E+08         0.00000E+00
    0.00000E+00         0.00000E+00         0.30444E-07
 
   -0.85347E+06         0.24512E+05         0.00000E+00
    0.24512E+05        -0.56059E+08         0.00000E+00
    0.00000E+00         0.00000E+00        -0.81185E-07
 
   -0.13411E+07        -0.46056E+05         0.00000E+00
   -0.46056E+05        -0.56582E+08         0.00000E+00
    0.00000E+00         0.00000E+00         0.20296E-07
 
   -0.19067E+07        -0.12467E+06         0.00000E+00
   -0.12467E+06        -0.57139E+08         0.00000E+00
    0.00000E+00         0.00000E+00         0.50741E-07
 
   -0.25548E+07        -0.20961E+06         0.00000E+00
   -0.20961E+06        -0.57731E+08         0.00000E+00
    0.00000E+00         0.00000E+00         0.20296E-07
 
   -0.32873E+07        -0.29787E+06         0.00000E+00
   -0.29787E+06        -0.58361E+08         0.00000E+00
    0.00000E+00         0.00000E+00         0.11163E-06
 
   -0.41016E+07        -0.38414E+06         0.00000E+00
   -0.38414E+06        -0.59031E+08         0.00000E+00
    0.00000E+00         0.00000E+00         0.20296E-07
 
   -0.49867E+07        -0.45911E+06         0.00000E+00
   -0.45911E+06        -0.59741E+08         0.00000E+00
    0.00000E+00         0.00000E+00         0.71037E-07
 
   -0.59138E+07        -0.50219E+06         0.00000E+00
   -0.50219E+06        -0.60489E+08         0.00000E+00
    0.00000E+00         0.00000E+00        -0.71037E-07
 
   -0.68300E+07        -0.44818E+06         0.00000E+00
   -0.44818E+06        -0.61234E+08         0.00000E+00
    0.00000E+00         0.00000E+00         0.10148E-07
 
   -0.77219E+07        -0.19434E+06         0.00000E+00
   -0.19434E+06        -0.61770E+08         0.00000E+00
    0.00000E+00         0.00000E+00         0.10149E-07
 
    0.11204E+06        -0.11031E+04         0.00000E+00
   -0.11031E+04        -0.47605E+08         0.00000E+00
    0.00000E+00         0.00000E+00         0.30444E-07
 
    0.10578E+06        -0.22059E+04         0.00000E+00
   -0.22059E+04        -0.47609E+08         0.00000E+00
    0.00000E+00         0.00000E+00        -0.20296E-07
 
    0.99356E+05        -0.18658E+04         0.00000E+00
   -0.18658E+04        -0.47615E+08         0.00000E+00
    0.00000E+00         0.00000E+00        -0.91333E-07
 
    0.93056E+05        -0.95931E+03         0.00000E+00
   -0.95931E+03        -0.47622E+08         0.00000E+00
    0.00000E+00         0.00000E+00        -0.10148E-07
 
    0.87311E+05         0.10356E+03         0.00000E+00
    0.10356E+03        -0.47628E+08         0.00000E+00
    0.00000E+00         0.00000E+00         0.71037E-07
 
    0.82307E+05         0.12242E+04         0.00000E+00
    0.12242E+04        -0.47634E+08         0.00000E+00
    0.00000E+00         0.00000E+00         0.71037E-07
 
    0.78107E+05         0.23549E+04         0.00000E+00
    0.23549E+04        -0.47641E+08         0.00000E+00
    0.00000E+00         0.00000E+00        -0.40593E-07
 
    0.74720E+05         0.34699E+04         0.00000E+00
    0.34699E+04        -0.47647E+08         0.00000E+00
    0.00000E+00         0.00000E+00         0.10148E-07
 
    0.72128E+05         0.45556E+04         0.00000E+00
    0.45556E+04        -0.47654E+08         0.00000E+00
    0.00000E+00         0.00000E+00         0.40593E-07
 
    0.70297E+05         0.56050E+04         0.00000E+00
    0.56050E+04        -0.47660E+08         0.00000E+00
    0.00000E+00         0.00000E+00         0.10148E-07
 
    0.69182E+05         0.66163E+04         0.00000E+00
    0.66163E+04        -0.47667E+08         0.00000E+00
    0.00000E+00         0.00000E+00        -0.10148E-07
 
    0.68740E+05         0.75911E+04         0.00000E+00
    0.75911E+04        -0.47674E+08         0.00000E+00
    0.00000E+00         0.00000E+00        -0.20296E-07
 
    0.68923E+05         0.85335E+04         0.00000E+00
    0.85335E+04        -0.47681E+08         0.00000E+00
    0.00000E+00         0.00000E+00         0.30444E-07
 
    0.69688E+05         0.94492E+04         0.00000E+00
    0.94492E+04        -0.47688E+08         0.00000E+00
    0.00000E+00         0.00000E+00        -0.10148E-07
 
    0.70995E+05         0.10345E+05         0.00000E+00
    0.10345E+05        -0.47696E+08         0.00000E+00
    0.00000E+00         0.00000E+00        -0.20296E-07
 
    0.72809E+05         0.11228E+05         0.00000E+00
    0.11228E+05        -0.47704E+08         0.00000E+00
    0.00000E+00         0.00000E+00         0.81185E-07
 
    0.75098E+05         0.12105E+05         0.00000E+00
    0.12105E+05        -0.47712E+08         0.00000E+00
    0.00000E+00         0.00000E+00         0.00000E+00
 
    0.77839E+05         0.12985E+05         0.00000E+00
    0.12985E+05        -0.47721E+08         0.00000E+00
    0.00000E+00         0.00000E+00        -0.60889E-07
 
    0.81008E+05         0.13873E+05         0.00000E+00
    0.13873E+05        -0.47729E+08         0.00000E+00
    0.00000E+00         0.00000E+00        -0.20296E-07
 
    0.84591E+05         0.14777E+05         0.00000E+00
    0.14777E+05        -0.47739E+08         0.00000E+00
    0.00000E+00         0.00000E+00         0.30444E-07
 
    0.88575E+05         0.15702E+05         0.00000E+00
    0.15702E+05        -0.47748E+08         0.00000E+00
    0.00000E+00         0.00000E+00         0.20296E-07
 
    0.92951E+05         0.16656E+05         0.00000E+00
    0.16656E+05        -0.47758E+08         0.00000E+00
    0.00000E+00         0.00000E+00        -0.81185E-07
 
    0.97717E+05         0.17643E+05         0.00000E+00
    0.17643E+05        -0.47769E+08         0.00000E+00
    0.00000E+00         0.00000E+00         0.10148E-07
 
    0.10287E+06         0.18669E+05         0.00000E+00
    0.18669E+05        -0.47780E+08         0.00000E+00
    0.00000E+00         0.00000E+00         0.30444E-07
 
    0.10841E+06         0.19739E+05         0.00000E+00
    0.19739E+05        -0.47792E+08         0.00000E+00
    0.00000E+00         0.00000E+00         0.60889E-07
 
    0.11435E+06         0.20858E+05         0.00000E+00
    0.20858E+05        -0.47804E+08         0.00000E+00
    0.00000E+00         0.00000E+00         0.00000E+00
 
    0.12069E+06         0.22030E+05         0.00000E+00
    0.22030E+05        -0.47817E+08         0.00000E+00
    0.00000E+00         0.00000E+00         0.00000E+00
 
    0.12743E+06         0.23261E+05         0.00000E+00
    0.23261E+05        -0.47830E+08         0.00000E+00
    0.00000E+00         0.00000E+00         0.71037E-07
 
    0.13461E+06         0.24556E+05         0.00000E+00
    0.24556E+05        -0.47845E+08         0.00000E+00
    0.00000E+00         0.00000E+00        -0.56843E-13
 
    0.14221E+06         0.25918E+05         0.00000E+00
    0.25918E+05        -0.47860E+08         0.00000E+00
    0.00000E+00         0.00000E+00         0.00000E+00
 
    0.15027E+06         0.27352E+05         0.00000E+00
    0.27352E+05        -0.47875E+08         0.00000E+00
    0.00000E+00         0.00000E+00        -0.10148E-07
 
    0.15880E+06         0.28864E+05         0.00000E+00
    0.28864E+05        -0.47892E+08         0.00000E+00
    0.00000E+00         0.00000E+00        -0.10148E-07
 
    0.16782E+06         0.30458E+05         0.00000E+00
    0.30458E+05        -0.47910E+08         0.00000E+00
    0.00000E+00         0.00000E+00        -0.30444E-07
 
    0.17735E+06         0.32138E+05         0.00000E+00
    0.32138E+05        -0.47928E+08         0.00000E+00
    0.00000E+00         0.00000E+00        -0.20296E-07
 
    0.18741E+06         0.33911E+05         0.00000E+00
    0.33911E+05        -0.47948E+08         0.00000E+00
    0.00000E+00         0.00000E+00        -0.60889E-07
 
    0.19802E+06         0.35780E+05         0.00000E+00
    0.35780E+05        -0.47968E+08         0.00000E+00
    0.00000E+00         0.00000E+00        -0.10148E-07
 
    0.20921E+06         0.37752E+05         0.00000E+00
    0.37752E+05        -0.47990E+08         0.00000E+00
    0.00000E+00         0.00000E+00         0.20296E-07
 
    0.22100E+06         0.39832E+05         0.00000E+00
    0.39832E+05        -0.48013E+08         0.00000E+00
    0.00000E+00         0.00000E+00         0.00000E+00
 
    0.23343E+06         0.42025E+05         0.00000E+00
    0.42025E+05        -0.48037E+08         0.00000E+00
    0.00000E+00         0.00000E+00         0.20296E-07
 
    0.24651E+06         0.44338E+05         0.00000E+00
    0.44338E+05        -0.48063E+08         0.00000E+00
    0.00000E+00         0.00000E+00         0.10148E-07
 
    0.26029E+06         0.46776E+05         0.00000E+00
    0.46776E+05        -0.48090E+08         0.00000E+00
    0.00000E+00         0.00000E+00         0.30444E-07
 
    0.27478E+06         0.49346E+05         0.00000E+00
    0.49346E+05        -0.48118E+08         0.00000E+00
    0.00000E+00         0.00000E+00        -0.71037E-07
 
    0.29002E+06         0.52054E+05         0.00000E+00
    0.52054E+05        -0.48148E+08         0.00000E+00
    0.00000E+00         0.00000E+00         0.81185E-07
 
    0.30604E+06         0.54906E+05         0.00000E+00
    0.54906E+05        -0.48180E+08         0.00000E+00
    0.00000E+00         0.00000E+00        -0.10148E-07
 
    0.32288E+06         0.57910E+05         0.00000E+00
    0.57910E+05        -0.48214E+08         0.00000E+00
    0.00000E+00         0.00000E+00        -0.20296E-07
 
    0.34056E+06         0.61072E+05         0.00000E+00
    0.61072E+05        -0.48249E+08         0.00000E+00
    0.00000E+00         0.00000E+00        -0.20296E-07
 
    0.35911E+06         0.64399E+05         0.00000E+00
    0.64399E+05        -0.48287E+08         0.00000E+00
    0.00000E+00         0.00000E+00        -0.50741E-07
 
    0.37857E+06         0.67899E+05         0.00000E+00
    0.67899E+05        -0.48327E+08         0.00000E+00
    0.00000E+00         0.00000E+00         0.00000E+00
 
    0.39898E+06         0.71579E+05         0.00000E+00
    0.71579E+05        -0.48369E+08         0.00000E+00
    0.00000E+00         0.00000E+00        -0.30444E-07
 
    0.42035E+06         0.75446E+05         0.00000E+00
    0.75446E+05        -0.48413E+08         0.00000E+00
    0.00000E+00         0.00000E+00         0.10148E-07
 
    0.44271E+06         0.79507E+05         0.00000E+00
    0.79507E+05        -0.48460E+08         0.00000E+00
    0.00000E+00         0.00000E+00         0.13193E-06
 
    0.46611E+06         0.83769E+05         0.00000E+00
    0.83769E+05        -0.48510E+08         0.00000E+00
    0.00000E+00         0.00000E+00        -0.50741E-07
 
    0.49054E+06         0.88240E+05         0.00000E+00
    0.88240E+05        -0.48562E+08         0.00000E+00
    0.00000E+00         0.00000E+00        -0.30444E-07
 
    0.51605E+06         0.92926E+05         0.00000E+00
    0.92926E+05        -0.48618E+08         0.00000E+00
    0.00000E+00         0.00000E+00         0.00000E+00
 
    0.54263E+06         0.97835E+05         0.00000E+00
    0.97835E+05        -0.48677E+08         0.00000E+00
    0.00000E+00         0.00000E+00         0.71037E-07
 
    0.57031E+06         0.10297E+06         0.00000E+00
    0.10297E+06        -0.48739E+08         0.00000E+00
    0.00000E+00         0.00000E+00        -0.16237E-06
 
    0.59909E+06         0.10834E+06         0.00000E+00
    0.10834E+06        -0.48804E+08         0.00000E+00
    0.00000E+00         0.00000E+00         0.60889E-07
 
    0.62895E+06         0.11395E+06         0.00000E+00
    0.11395E+06        -0.48874E+08         0.00000E+00
    0.00000E+00         0.00000E+00        -0.30444E-07
 
    0.65990E+06         0.11980E+06         0.00000E+00
    0.11980E+06        -0.48948E+08         0.00000E+00
    0.00000E+00         0.00000E+00         0.30444E-07
 
    0.69189E+06         0.12589E+06         0.00000E+00
    0.12589E+06        -0.49025E+08         0.00000E+00
    0.00000E+00         0.00000E+00        -0.40592E-07
 
    0.72488E+06         0.13223E+06         0.00000E+00
    0.13223E+06        -0.49108E+08         0.00000E+00
    0.00000E+00         0.00000E+00        -0.30444E-07
 
    0.75883E+06         0.13881E+06         0.00000E+00
    0.13881E+06        -0.49195E+08         0.00000E+00
    0.00000E+00         0.00000E+00         0.10148E-07
 
    0.79365E+06         0.14564E+06         0.00000E+00
    0.14564E+06        -0.49287E+08         0.00000E+00
    0.00000E+00         0.00000E+00         0.00000E+00
 
    0.82925E+06         0.15269E+06         0.00000E+00
    0.15269E+06        -0.49385E+08         0.00000E+00
    0.00000E+00         0.00000E+00         0.10148E-07
 
    0.86547E+06         0.15997E+06         0.00000E+00
    0.15997E+06        -0.49488E+08         0.00000E+00
    0.00000E+00         0.00000E+00         0.91333E-07
 
    0.90218E+06         0.16746E+06         0.00000E+00
    0.16746E+06        -0.49597E+08         0.00000E+00
    0.00000E+00         0.00000E+00         0.00000E+00
 
    0.93915E+06         0.17513E+06         0.00000E+00
    0.17513E+06        -0.49713E+08         0.00000E+00
    0.00000E+00         0.00000E+00        -0.20296E-07
 
    0.97614E+06         0.18296E+06         0.00000E+00
    0.18296E+06        -0.49836E+08         0.00000E+00
    0.00000E+00         0.00000E+00         0.30444E-07
 
    0.10128E+07         0.19091E+06         0.00000E+00
    0.19091E+06        -0.49966E+08         0.00000E+00
    0.00000E+00         0.00000E+00         0.30444E-07
 
    0.10489E+07         0.19893E+06         0.00000E+00
    0.19893E+06        -0.50103E+08         0.00000E+00
    0.00000E+00         0.00000E+00         0.11163E-06
 
    0.10838E+07         0.20698E+06         0.00000E+00
    0.20698E+06        -0.50249E+08         0.00000E+00
    0.00000E+00         0.00000E+00         0.20296E-07
 
    0.11171E+07         0.21496E+06         0.00000E+00
    0.21496E+06        -0.50404E+08         0.00000E+00
    0.00000E+00         0.00000E+00         0.00000E+00
 
    0.11480E+07         0.22280E+06         0.00000E+00
    0.22280E+06        -0.50568E+08         0.00000E+00
    0.00000E+00         0.00000E+00        -0.10148E-07
 
    0.11759E+07         0.23038E+06         0.00000E+00
    0.23038E+06        -0.50741E+08         0.00000E+00
    0.00000E+00         0.00000E+00        -0.40593E-07
 
    0.11998E+07         0.23755E+06         0.00000E+00
    0.23755E+06        -0.50925E+08         0.00000E+00
    0.00000E+00         0.00000E+00         0.11163E-06
 
    0.12185E+07         0.24416E+06         0.00000E+00
    0.24416E+06        -0.51121E+08         0.00000E+00
    0.00000E+00         0.00000E+00        -0.14207E-06
 
    0.12308E+07         0.24999E+06         0.00000E+00
    0.24999E+06        -0.51328E+08         0.00000E+00
    0.00000E+00         0.00000E+00         0.50741E-07
 
    0.12351E+07         0.25480E+06         0.00000E+00
    0.25480E+06        -0.51548E+08         0.00000E+00
    0.00000E+00         0.00000E+00         0.50741E-07
 
    0.12297E+07         0.25831E+06         0.00000E+00
    0.25831E+06        -0.51781E+08         0.00000E+00
    0.00000E+00         0.00000E+00         0.00000E+00
 
    0.12123E+07         0.26016E+06         0.00000E+00
    0.26016E+06        -0.52029E+08         0.00000E+00
    0.00000E+00         0.00000E+00        -0.30444E-07
 
    0.11804E+07         0.25995E+06         0.00000E+00
    0.25995E+06        -0.52292E+08         0.00000E+00
    0.00000E+00         0.00000E+00         0.30444E-07
 
    0.11312E+07         0.25721E+06         0.00000E+00
    0.25721E+06        -0.52572E+08         0.00000E+00
    0.00000E+00         0.00000E+00        -0.10148E-07
 
    0.10612E+07         0.25141E+06         0.00000E+00
    0.25141E+06        -0.52870E+08         0.00000E+00
    0.00000E+00         0.00000E+00         0.14207E-06
 
    0.96658E+06         0.24195E+06         0.00000E+00
    0.24195E+06        -0.53186E+08         0.00000E+00
    0.00000E+00         0.00000E+00        -0.40593E-07
 
    0.84283E+06         0.22817E+06         0.00000E+00
    0.22817E+06        -0.53522E+08         0.00000E+00
    0.00000E+00         0.00000E+00        -0.40593E-07
 
    0.68491E+06         0.20935E+06         0.00000E+00
    0.20935E+06        -0.53880E+08         0.00000E+00
    0.00000E+00         0.00000E+00        -0.50741E-07
 
    0.48717E+06         0.18477E+06         0.00000E+00
    0.18477E+06        -0.54261E+08         0.00000E+00
    0.00000E+00         0.00000E+00        -0.71037E-07
 
    0.24335E+06         0.15369E+06         0.00000E+00
    0.15369E+06        -0.54666E+08         0.00000E+00
    0.00000E+00         0.00000E+00         0.20296E-07
 
   -0.53362E+05         0.11546E+06         0.00000E+00
    0.11546E+06        -0.55097E+08         0.00000E+00
    0.00000E+00         0.00000E+00        -0.71037E-07
 
   -0.41019E+06         0.69540E+05         0.00000E+00
    0.69540E+05        -0.55557E+08         0.00000E+00
    0.00000E+00         0.00000E+00        -0.81185E-07
 
   -0.83459E+06         0.15638E+05         0.00000E+00
    0.15638E+05        -0.56047E+08         0.00000E+00
    0.00000E+00         0.00000E+00        -0.30444E-07
 
   -0.13340E+07        -0.46187E+05         0.00000E+00
   -0.46187E+05        -0.56568E+08         0.00000E+00
    0.00000E+00         0.00000E+00         0.60889E-07
 
   -0.19151E+07        -0.11536E+06         0.00000E+00
   -0.11536E+06        -0.57123E+08         0.00000E+00
    0.00000E+00         0.00000E+00         0.30444E-07
 
   -0.25836E+07        -0.19060E+06         0.00000E+00
   -0.19060E+06        -0.57714E+08         0.00000E+00
    0.00000E+00         0.00000E+00        -0.30444E-07
 
   -0.33424E+07        -0.26961E+06         0.00000E+00
   -0.26961E+06        -0.58344E+08         0.00000E+00
    0.00000E+00         0.00000E+00         0.91331E-07
 
   -0.41905E+07        -0.34835E+06         0.00000E+00
   -0.34835E+06        -0.59015E+08         0.00000E+00
    0.00000E+00         0.00000E+00         0.10146E-07
 
   -0.51187E+07        -0.41961E+06         0.00000E+00
   -0.41961E+06        -0.59727E+08         0.00000E+00
    0.00000E+00         0.00000E+00        -0.30443E-07
 
   -0.61005E+07        -0.46885E+06         0.00000E+00
   -0.46885E+06        -0.60484E+08         0.00000E+00
    0.00000E+00         0.00000E+00         0.50743E-07
 
   -0.70734E+07        -0.43701E+06         0.00000E+00
   -0.43701E+06        -0.61259E+08         0.00000E+00
    0.00000E+00         0.00000E+00         0.40593E-07
 
   -0.79971E+07        -0.19841E+06         0.00000E+00
   -0.19841E+06        -0.61843E+08         0.00000E+00
    0.00000E+00         0.00000E+00        -0.30444E-07
 
    0.11489E+06        -0.11689E+04         0.00000E+00
   -0.11689E+04        -0.47605E+08         0.00000E+00
    0.00000E+00         0.00000E+00         0.20296E-07
 
    0.10831E+06        -0.22027E+04         0.00000E+00
   -0.22027E+04        -0.47609E+08         0.00000E+00
    0.00000E+00         0.00000E+00         0.30444E-07
 
    0.10141E+06        -0.17933E+04         0.00000E+00
   -0.17933E+04        -0.47616E+08         0.00000E+00
    0.00000E+00         0.00000E+00         0.30444E-07
 
    0.94695E+05        -0.96657E+03         0.00000E+00
   -0.96657E+03        -0.47622E+08         0.00000E+00
    0.00000E+00         0.00000E+00        -0.50741E-07
 
    0.88647E+05        -0.47714E+02         0.00000E+00
   -0.47714E+02        -0.47628E+08         0.00000E+00
    0.00000E+00         0.00000E+00        -0.20296E-07
 
    0.83415E+05         0.90548E+03         0.00000E+00
    0.90548E+03        -0.47634E+08         0.00000E+00
    0.00000E+00         0.00000E+00         0.00000E+00
 
    0.79044E+05         0.18575E+04         0.00000E+00
    0.18575E+04        -0.47641E+08         0.00000E+00
    0.00000E+00         0.00000E+00         0.30444E-07
 
    0.75534E+05         0.27909E+04         0.00000E+00
    0.27909E+04        -0.47647E+08         0.00000E+00
    0.00000E+00         0.00000E+00        -0.20296E-07
 
    0.72855E+05         0.36960E+04         0.00000E+00
    0.36960E+04        -0.47654E+08         0.00000E+00
    0.00000E+00         0.00000E+00        -0.91333E-07
 
    0.70967E+05         0.45681E+04         0.00000E+00
    0.45681E+04        -0.47660E+08         0.00000E+00
    0.00000E+00         0.00000E+00         0.10148E-07
 
    0.69822E+05         0.54064E+04         0.00000E+00
    0.54064E+04        -0.47667E+08         0.00000E+00
    0.00000E+00         0.00000E+00        -0.20296E-07
 
    0.69368E+05         0.62127E+04         0.00000E+00
    0.62127E+04        -0.47674E+08         0.00000E+00
    0.00000E+00         0.00000E+00         0.40593E-07
 
    0.69556E+05         0.69908E+04         0.00000E+00
    0.69908E+04        -0.47681E+08         0.00000E+00
    0.00000E+00         0.00000E+00        -0.10148E-07
 
    0.70340E+05         0.77455E+04         0.00000E+00
    0.77455E+04        -0.47689E+08         0.00000E+00
    0.00000E+00         0.00000E+00         0.10148E-07
 
    0.71678E+05         0.84829E+04         0.00000E+00
    0.84829E+04        -0.47696E+08         0.00000E+00
    0.00000E+00         0.00000E+00        -0.71037E-07
 
    0.73531E+05         0.92089E+04         0.00000E+00
    0.92089E+04        -0.47704E+08         0.00000E+00
    0.00000E+00         0.00000E+00        -0.10148E-07
 
    0.75868E+05         0.99298E+04         0.00000E+00
    0.99298E+04        -0.47712E+08         0.00000E+00
    0.00000E+00         0.00000E+00        -0.10148E-07
 
    0.78662E+05         0.10652E+05         0.00000E+00
    0.10652E+05        -0.47721E+08         0.00000E+00
    0.00000E+00         0.00000E+00         0.00000E+00
 
    0.81891E+05         0.11381E+05         0.00000E+00
    0.11381E+05        -0.47730E+08         0.00000E+00
    0.00000E+00         0.00000E+00        -0.30444E-07
 
    0.85538E+05         0.12122E+05         0.00000E+00
    0.12122E+05        -0.47739E+08         0.00000E+00
    0.00000E+00         0.00000E+00        -0.60889E-07
 
    0.89590E+05         0.12881E+05         0.00000E+00
    0.12881E+05        -0.47748E+08         0.00000E+00
    0.00000E+00         0.00000E+00        -0.40593E-07
 
    0.94039E+05         0.13663E+05         0.00000E+00
    0.13663E+05        -0.47759E+08         0.00000E+00
    0.00000E+00         0.00000E+00         0.10148E-07
 
    0.98881E+05         0.14472E+05         0.00000E+00
    0.14472E+05        -0.47769E+08         0.00000E+00
    0.00000E+00         0.00000E+00        -0.20296E-07
 
    0.10411E+06         0.15313E+05         0.00000E+00
    0.15313E+05        -0.47780E+08         0.00000E+00
    0.00000E+00         0.00000E+00         0.00000E+00
 
    0.10974E+06         0.16190E+05         0.00000E+00
    0.16190E+05        -0.47792E+08         0.00000E+00
    0.00000E+00         0.00000E+00        -0.10148E-07
 
    0.11577E+06         0.17107E+05         0.00000E+00
    0.17107E+05        -0.47804E+08         0.00000E+00
    0.00000E+00         0.00000E+00         0.40593E-07
 
    0.12220E+06         0.18069E+05         0.00000E+00
    0.18069E+05        -0.47817E+08         0.00000E+00
    0.00000E+00         0.00000E+00         0.20296E-07
 
    0.12904E+06         0.19078E+05         0.00000E+00
    0.19078E+05        -0.47831E+08         0.00000E+00
    0.00000E+00         0.00000E+00        -0.10148E-07
 
    0.13632E+06         0.20139E+05         0.00000E+00
    0.20139E+05        -0.47845E+08         0.00000E+00
    0.00000E+00         0.00000E+00         0.50741E-07
 
    0.14403E+06         0.21256E+05         0.00000E+00
    0.21256E+05        -0.47860E+08         0.00000E+00
    0.00000E+00         0.00000E+00        -0.20296E-07
 
    0.15221E+06         0.22433E+05         0.00000E+00
    0.22433E+05        -0.47876E+08         0.00000E+00
    0.00000E+00         0.00000E+00         0.40593E-07
 
    0.16086E+06         0.23672E+05         0.00000E+00
    0.23672E+05        -0.47892E+08         0.00000E+00
    0.00000E+00         0.00000E+00        -0.10148E-06
 
    0.17000E+06         0.24979E+05         0.00000E+00
    0.24979E+05        -0.47910E+08         0.00000E+00
    0.00000E+00         0.00000E+00         0.40593E-07
 
    0.17966E+06         0.26357E+05         0.00000E+00
    0.26357E+05        -0.47928E+08         0.00000E+00
    0.00000E+00         0.00000E+00        -0.20296E-07
 
    0.18986E+06         0.27811E+05         0.00000E+00
    0.27811E+05        -0.47948E+08         0.00000E+00
    0.00000E+00         0.00000E+00         0.30444E-07
 
    0.20061E+06         0.29344E+05         0.00000E+00
    0.29344E+05        -0.47968E+08         0.00000E+00
    0.00000E+00         0.00000E+00         0.00000E+00
 
    0.21196E+06         0.30961E+05         0.00000E+00
    0.30961E+05        -0.47990E+08         0.00000E+00
    0.00000E+00         0.00000E+00         0.20296E-07
 
    0.22392E+06         0.32667E+05         0.00000E+00
    0.32667E+05        -0.48013E+08         0.00000E+00
    0.00000E+00         0.00000E+00        -0.20296E-07
 
    0.23652E+06         0.34466E+05         0.00000E+00
    0.34466E+05        -0.48037E+08         0.00000E+00
    0.00000E+00         0.00000E+00         0.10148E-06
 
    0.24979E+06         0.36363E+05         0.00000E+00
    0.36363E+05        -0.48063E+08         0.00000E+00
    0.00000E+00         0.00000E+00         0.20296E-07
 
    0.26376E+06         0.38363E+05         0.00000E+00
    0.38363E+05        -0.48090E+08         0.00000E+00
    0.00000E+00         0.00000E+00         0.30444E-07
 
    0.27845E+06         0.40471E+05         0.00000E+00
    0.40471E+05        -0.48119E+08         0.00000E+00
    0.00000E+00         0.00000E+00         0.10148E-07
 
    0.29391E+06         0.42692E+05         0.00000E+00
    0.42692E+05        -0.48149E+08         0.00000E+00
    0.00000E+00         0.00000E+00        -0.20296E-07
 
    0.31016E+06         0.45032E+05         0.00000E+00
    0.45032E+05        -0.48181E+08         0.00000E+00
    0.00000E+00         0.00000E+00         0.20296E-07
 
    0.32724E+06         0.47496E+05         0.00000E+00
    0.47496E+05        -0.48214E+08         0.00000E+00
    0.00000E+00         0.00000E+00        -0.30444E-07
 
    0.34518E+06         0.50090E+05         0.00000E+00
    0.50090E+05        -0.48250E+08         0.00000E+00
    0.00000E+00         0.00000E+00        -0.91333E-07
 
    0.36401E+06         0.52820E+05         0.00000E+00
    0.52820E+05        -0.48288E+08         0.00000E+00
    0.00000E+00         0.00000E+00        -0.50741E-07
 
    0.38376E+06         0.55692E+05         0.00000E+00
    0.55692E+05        -0.48327E+08         0.00000E+00
    0.00000E+00         0.00000E+00         0.60889E-07
 
    0.40447E+06         0.58711E+05         0.00000E+00
    0.58711E+05        -0.48370E+08         0.00000E+00
    0.00000E+00         0.00000E+00         0.40592E-07
 
    0.42616E+06         0.61883E+05         0.00000E+00
    0.61883E+05        -0.48414E+08         0.00000E+00
    0.00000E+00         0.00000E+00         0.20296E-07
 
    0.44887E+06         0.65216E+05         0.00000E+00
    0.65216E+05        -0.48461E+08         0.00000E+00
    0.00000E+00         0.00000E+00        -0.20296E-07
 
    0.47263E+06         0.68714E+05         0.00000E+00
    0.68714E+05        -0.48511E+08         0.00000E+00
    0.00000E+00         0.00000E+00        -0.12178E-06
 
    0.49745E+06         0.72383E+05         0.00000E+00
    0.72383E+05        -0.48563E+08         0.00000E+00
    0.00000E+00         0.00000E+00         0.00000E+00
 
    0.52337E+06         0.76229E+05         0.00000E+00
    0.76229E+05        -0.48619E+08         0.00000E+00
    0.00000E+00         0.00000E+00         0.40593E-07
 
    0.55039E+06         0.80258E+05         0.00000E+00
    0.80258E+05        -0.48678E+08         0.00000E+00
    0.00000E+00         0.00000E+00        -0.81185E-07
 
    0.57854E+06         0.84475E+05         0.00000E+00
    0.84475E+05        -0.48740E+08         0.00000E+00
    0.00000E+00         0.00000E+00        -0.10148E-07
 
    0.60781E+06         0.88883E+05         0.00000E+00
    0.88883E+05        -0.48806E+08         0.00000E+00
    0.00000E+00         0.00000E+00        -0.20296E-07
 
    0.63820E+06         0.93488E+05         0.00000E+00
    0.93488E+05        -0.48875E+08         0.00000E+00
    0.00000E+00         0.00000E+00         0.17252E-06
 
    0.66970E+06         0.98292E+05         0.00000E+00
    0.98292E+05        -0.48949E+08         0.00000E+00
    0.00000E+00         0.00000E+00         0.10148E-07
 
    0.70229E+06         0.10330E+06         0.00000E+00
    0.10330E+06        -0.49027E+08         0.00000E+00
    0.00000E+00         0.00000E+00        -0.10148E-07
 
    0.73592E+06         0.10850E+06         0.00000E+00
    0.10850E+06        -0.49109E+08         0.00000E+00
    0.00000E+00         0.00000E+00        -0.10148E-07
 
    0.77055E+06         0.11391E+06         0.00000E+00
    0.11391E+06        -0.49196E+08         0.00000E+00
    0.00000E+00         0.00000E+00         0.20296E-07
 
    0.80610E+06         0.11952E+06         0.00000E+00
    0.11952E+06        -0.49288E+08         0.00000E+00
    0.00000E+00         0.00000E+00         0.00000E+00
 
    0.84246E+06         0.12532E+06         0.00000E+00
    0.12532E+06        -0.49386E+08         0.00000E+00
    0.00000E+00         0.00000E+00        -0.10148E-07
 
    0.87952E+06         0.13130E+06         0.00000E+00
    0.13130E+06        -0.49489E+08         0.00000E+00
    0.00000E+00         0.00000E+00        -0.40593E-07
 
    0.91711E+06         0.13746E+06         0.00000E+00
    0.13746E+06        -0.49599E+08         0.00000E+00
    0.00000E+00         0.00000E+00        -0.40593E-07
 
    0.95503E+06         0.14377E+06         0.00000E+00
    0.14377E+06        -0.49715E+08         0.00000E+00
    0.00000E+00         0.00000E+00        -0.91333E-07
 
    0.99304E+06         0.15021E+06         0.00000E+00
    0.15021E+06        -0.49837E+08         0.00000E+00
    0.00000E+00         0.00000E+00         0.60888E-07
 
    0.10308E+07         0.15676E+06         0.00000E+00
    0.15676E+06        -0.49967E+08         0.00000E+00
    0.00000E+00         0.00000E+00        -0.20296E-07
 
    0.10680E+07         0.16337E+06         0.00000E+00
    0.16337E+06        -0.50105E+08         0.00000E+00
    0.00000E+00         0.00000E+00         0.20296E-07
 
    0.11042E+07         0.17000E+06         0.00000E+00
    0.17000E+06        -0.50251E+08         0.00000E+00
    0.00000E+00         0.00000E+00         0.60889E-07
 
    0.11388E+07         0.17658E+06         0.00000E+00
    0.17658E+06        -0.50405E+08         0.00000E+00
    0.00000E+00         0.00000E+00        -0.30444E-07
 
    0.11712E+07         0.18305E+06         0.00000E+00
    0.18305E+06        -0.50569E+08         0.00000E+00
    0.00000E+00         0.00000E+00         0.60889E-07
 
    0.12006E+07         0.18930E+06         0.00000E+00
    0.18930E+06        -0.50743E+08         0.00000E+00
    0.00000E+00         0.00000E+00        -0.30444E-07
 
    0.12261E+07         0.19523E+06         0.00000E+00
    0.19523E+06        -0.50927E+08         0.00000E+00
    0.00000E+00         0.00000E+00         0.30444E-07
 
    0.12465E+07         0.20069E+06         0.00000E+00
    0.20069E+06        -0.51122E+08         0.00000E+00
    0.00000E+00         0.00000E+00        -0.81185E-07
 
    0.12606E+07         0.20552E+06         0.00000E+00
    0.20552E+06        -0.51329E+08         0.00000E+00
    0.00000E+00         0.00000E+00         0.10148E-07
 
    0.12668E+07         0.20951E+06         0.00000E+00
    0.20951E+06        -0.51549E+08         0.00000E+00
    0.00000E+00         0.00000E+00         0.40593E-07
 
    0.12632E+07         0.21242E+06         0.00000E+00
    0.21242E+06        -0.51782E+08         0.00000E+00
    0.00000E+00         0.00000E+00        -0.15222E-06
 
    0.12477E+07         0.21396E+06         0.00000E+00
    0.21396E+06        -0.52029E+08         0.00000E+00
    0.00000E+00         0.00000E+00         0.30444E-07
 
    0.12178E+07         0.21379E+06         0.00000E+00
    0.21379E+06        -0.52292E+08         0.00000E+00
    0.00000E+00         0.00000E+00        -0.40593E-07
 
    0.11703E+07         0.21152E+06         0.00000E+00
    0.21152E+06        -0.52572E+08         0.00000E+00
    0.00000E+00         0.00000E+00         0.10148E-07
 
    0.11020E+07         0.20670E+06         0.00000E+00
    0.20670E+06        -0.52868E+08         0.00000E+00
    0.00000E+00         0.00000E+00        -0.12178E-06
 
    0.10086E+07         0.19883E+06         0.00000E+00
    0.19883E+06        -0.53184E+08         0.00000E+00
    0.00000E+00         0.00000E+00        -0.40593E-07
 
    0.88573E+06         0.18733E+06         0.00000E+00
    0.18733E+06        -0.53519E+08         0.00000E+00
    0.00000E+00         0.00000E+00         0.30444E-07
 
    0.72803E+06         0.17162E+06         0.00000E+00
    0.17162E+06        -0.53876E+08         0.00000E+00
    0.00000E+00         0.00000E+00         0.30444E-07
 
    0.52960E+06         0.15105E+06         0.00000E+00
    0.15105E+06        -0.54256E+08         0.00000E+00
    0.00000E+00         0.00000E+00         0.10148E-07
 
    0.28390E+06         0.12500E+06         0.00000E+00
    0.12500E+06        -0.54660E+08         0.00000E+00
    0.00000E+00         0.00000E+00        -0.40593E-07
 
   -0.16259E+05         0.92889E+05         0.00000E+00
    0.92889E+05        -0.55090E+08         0.00000E+00
    0.00000E+00         0.00000E+00         0.91333E-07
 
   -0.37855E+06         0.54230E+05         0.00000E+00
    0.54230E+05        -0.55548E+08         0.00000E+00
    0.00000E+00         0.00000E+00        -0.91331E-07
 
   -0.81098E+06         0.87258E+04         0.00000E+00
    0.87258E+04        -0.56036E+08         0.00000E+00
    0.00000E+00         0.00000E+00        -0.30444E-07
 
   -0.13216E+07        -0.43644E+05         0.00000E+00
   -0.43644E+05        -0.56556E+08         0.00000E+00
    0.00000E+00         0.00000E+00         0.10148E-07
 
   -0.19180E+07        -0.10251E+06         0.00000E+00
   -0.10251E+06        -0.57109E+08         0.00000E+00
    0.00000E+00         0.00000E+00         0.00000E+00
 
   -0.26067E+07        -0.16695E+06         0.00000E+00
   -0.16695E+06        -0.57700E+08         0.00000E+00
    0.00000E+00         0.00000E+00        -0.10148E-07
 
   -0.33921E+07        -0.23532E+06         0.00000E+00
   -0.23532E+06        -0.58329E+08         0.00000E+00
    0.00000E+00         0.00000E+00        -0.40594E-07
 
   -0.42747E+07        -0.30481E+06         0.00000E+00
   -0.30481E+06        -0.59000E+08         0.00000E+00
    0.00000E+00         0.00000E+00         0.10148E-06
 
   -0.52480E+07        -0.37003E+06         0.00000E+00
   -0.37003E+06        -0.59715E+08         0.00000E+00
    0.00000E+00         0.00000E+00        -0.20298E-07
 
   -0.62901E+07        -0.42231E+06         0.00000E+00
   -0.42231E+06        -0.60476E+08         0.00000E+00
    0.00000E+00         0.00000E+00         0.20296E-07
 
   -0.73331E+07        -0.41480E+06         0.00000E+00
   -0.41480E+06        -0.61278E+08         0.00000E+00
    0.00000E+00         0.00000E+00         0.81185E-07
 
   -0.83017E+07        -0.20054E+06         0.00000E+00
   -0.20054E+06        -0.61916E+08         0.00000E+00
    0.00000E+00         0.00000E+00        -0.20294E-07
 
    0.11797E+06        -0.12139E+04         0.00000E+00
   -0.12139E+04        -0.47604E+08         0.00000E+00
    0.00000E+00         0.00000E+00         0.10148E-07
 
    0.11094E+06        -0.20945E+04         0.00000E+00
   -0.20945E+04        -0.47609E+08         0.00000E+00
    0.00000E+00         0.00000E+00         0.20296E-07
 
    0.10344E+06        -0.16168E+04         0.00000E+00
   -0.16168E+04        -0.47616E+08         0.00000E+00
    0.00000E+00         0.00000E+00         0.10148E-07
 
    0.96280E+05        -0.90240E+03         0.00000E+00
   -0.90240E+03        -0.47622E+08         0.00000E+00
    0.00000E+00         0.00000E+00        -0.81185E-07
 
    0.89917E+05        -0.14560E+03         0.00000E+00
   -0.14560E+03        -0.47628E+08         0.00000E+00
    0.00000E+00         0.00000E+00        -0.30444E-07
 
    0.84451E+05         0.62641E+03         0.00000E+00
    0.62641E+03        -0.47635E+08         0.00000E+00
    0.00000E+00         0.00000E+00         0.10148E-07
 
    0.79910E+05         0.13892E+04         0.00000E+00
    0.13892E+04        -0.47641E+08         0.00000E+00
    0.00000E+00         0.00000E+00         0.40593E-07
 
    0.76277E+05         0.21326E+04         0.00000E+00
    0.21326E+04        -0.47647E+08         0.00000E+00
    0.00000E+00         0.00000E+00         0.10148E-07
 
    0.73514E+05         0.28503E+04         0.00000E+00
    0.28503E+04        -0.47654E+08         0.00000E+00
    0.00000E+00         0.00000E+00         0.71037E-07
 
    0.71573E+05         0.35396E+04         0.00000E+00
    0.35396E+04        -0.47661E+08         0.00000E+00
    0.00000E+00         0.00000E+00        -0.60889E-07
 
    0.70399E+05         0.42004E+04         0.00000E+00
    0.42004E+04        -0.47667E+08         0.00000E+00
    0.00000E+00         0.00000E+00        -0.40593E-07
 
    0.69936E+05         0.48345E+04         0.00000E+00
    0.48345E+04        -0.47674E+08         0.00000E+00
    0.00000E+00         0.00000E+00        -0.40593E-07
 
    0.70133E+05         0.54452E+04         0.00000E+00
    0.54452E+04        -0.47681E+08         0.00000E+00
    0.00000E+00         0.00000E+00         0.20296E-07
 
    0.70939E+05         0.60366E+04         0.00000E+00
    0.60366E+04        -0.47689E+08         0.00000E+00
    0.00000E+00         0.00000E+00        -0.40593E-07
 
    0.72308E+05         0.66136E+04         0.00000E+00
    0.66136E+04        -0.47696E+08         0.00000E+00
    0.00000E+00         0.00000E+00         0.20296E-07
 
    0.74203E+05         0.71811E+04         0.00000E+00
    0.71811E+04        -0.47704E+08         0.00000E+00
    0.00000E+00         0.00000E+00         0.10148E-07
 
    0.76588E+05         0.77441E+04         0.00000E+00
    0.77441E+04        -0.47712E+08         0.00000E+00
    0.00000E+00         0.00000E+00         0.00000E+00
 
    0.79436E+05         0.83074E+04         0.00000E+00
    0.83074E+04        -0.47721E+08         0.00000E+00
    0.00000E+00         0.00000E+00         0.00000E+00
 
    0.82724E+05         0.88759E+04         0.00000E+00
    0.88759E+04        -0.47730E+08         0.00000E+00
    0.00000E+00         0.00000E+00         0.50741E-07
 
    0.86435E+05         0.94539E+04         0.00000E+00
    0.94539E+04        -0.47739E+08         0.00000E+00
    0.00000E+00         0.00000E+00        -0.50741E-07
 
    0.90555E+05         0.10046E+05         0.00000E+00
    0.10046E+05        -0.47749E+08         0.00000E+00
    0.00000E+00         0.00000E+00         0.20296E-07
 
    0.95076E+05         0.10655E+05         0.00000E+00
    0.10655E+05        -0.47759E+08         0.00000E+00
    0.00000E+00         0.00000E+00         0.20296E-07
 
    0.99993E+05         0.11285E+05         0.00000E+00
    0.11285E+05        -0.47769E+08         0.00000E+00
    0.00000E+00         0.00000E+00         0.60889E-07
 
    0.10530E+06         0.11941E+05         0.00000E+00
    0.11941E+05        -0.47780E+08         0.00000E+00
    0.00000E+00         0.00000E+00         0.00000E+00
 
    0.11101E+06         0.12624E+05         0.00000E+00
    0.12624E+05        -0.47792E+08         0.00000E+00
    0.00000E+00         0.00000E+00         0.10148E-07
 
    0.11713E+06         0.13339E+05         0.00000E+00
    0.13339E+05        -0.47804E+08         0.00000E+00
    0.00000E+00         0.00000E+00         0.00000E+00
 
    0.12365E+06         0.14089E+05         0.00000E+00
    0.14089E+05        -0.47817E+08         0.00000E+00
    0.00000E+00         0.00000E+00         0.40593E-07
 
    0.13059E+06         0.14875E+05         0.00000E+00
    0.14875E+05        -0.47831E+08         0.00000E+00
    0.00000E+00         0.00000E+00         0.00000E+00
 
    0.13796E+06         0.15702E+05         0.00000E+00
    0.15702E+05        -0.47845E+08         0.00000E+00
    0.00000E+00         0.00000E+00         0.11163E-06
 
    0.14578E+06         0.16573E+05         0.00000E+00
    0.16573E+05        -0.47860E+08         0.00000E+00
    0.00000E+00         0.00000E+00         0.12178E-06
 
    0.15407E+06         0.17490E+05         0.00000E+00
    0.17490E+05        -0.47876E+08         0.00000E+00
    0.00000E+00         0.00000E+00         0.10148E-07
 
    0.16283E+06         0.18456E+05         0.00000E+00
    0.18456E+05        -0.47893E+08         0.00000E+00
    0.00000E+00         0.00000E+00        -0.20296E-07
 
    0.17210E+06         0.19475E+05         0.00000E+00
    0.19475E+05        -0.47910E+08         0.00000E+00
    0.00000E+00         0.00000E+00        -0.81185E-07
 
    0.18189E+06         0.20549E+05         0.00000E+00
    0.20549E+05        -0.47929E+08         0.00000E+00
    0.00000E+00         0.00000E+00         0.20296E-07
 
    0.19222E+06         0.21683E+05         0.00000E+00
    0.21683E+05        -0.47948E+08         0.00000E+00
    0.00000E+00         0.00000E+00        -0.40593E-07
 
    0.20312E+06         0.22878E+05         0.00000E+00
    0.22878E+05        -0.47969E+08         0.00000E+00
    0.00000E+00         0.00000E+00        -0.13193E-06
 
    0.21462E+06         0.24139E+05         0.00000E+00
    0.24139E+05        -0.47991E+08         0.00000E+00
    0.00000E+00         0.00000E+00        -0.81185E-07
 
    0.22674E+06         0.25469E+05         0.00000E+00
    0.25469E+05        -0.48014E+08         0.00000E+00
    0.00000E+00         0.00000E+00        -0.71037E-07
 
    0.23950E+06         0.26872E+05         0.00000E+00
    0.26872E+05        -0.48038E+08         0.00000E+00
    0.00000E+00         0.00000E+00        -0.71037E-07
 
    0.25295E+06         0.28351E+05         0.00000E+00
    0.28351E+05        -0.48063E+08         0.00000E+00
    0.00000E+00         0.00000E+00         0.00000E+00
 
    0.26711E+06         0.29910E+05         0.00000E+00
    0.29910E+05        -0.48090E+08         0.00000E+00
    0.00000E+00         0.00000E+00        -0.30444E-07
 
    0.28200E+06         0.31554E+05         0.00000E+00
    0.31554E+05        -0.48119E+08         0.00000E+00
    0.00000E+00         0.00000E+00        -0.30444E-07
 
    0.29767E+06         0.33286E+05         0.00000E+00
    0.33286E+05        -0.48149E+08         0.00000E+00
    0.00000E+00         0.00000E+00         0.10148E-07
 
    0.31415E+06         0.35111E+05         0.00000E+00
    0.35111E+05        -0.48181E+08         0.00000E+00
    0.00000E+00         0.00000E+00         0.10148E-07
 
    0.33146E+06         0.37033E+05         0.00000E+00
    0.37033E+05        -0.48215E+08         0.00000E+00
    0.00000E+00         0.00000E+00         0.30444E-07
 
    0.34965E+06         0.39056E+05         0.00000E+00
    0.39056E+05        -0.48251E+08         0.00000E+00
    0.00000E+00         0.00000E+00         0.50740E-07
 
    0.36874E+06         0.41185E+05         0.00000E+00
    0.41185E+05        -0.48288E+08         0.00000E+00
    0.00000E+00         0.00000E+00         0.50740E-07
 
    0.38877E+06         0.43425E+05         0.00000E+00
    0.43425E+05        -0.48328E+08         0.00000E+00
    0.00000E+00         0.00000E+00         0.00000E+00
 
    0.40978E+06         0.45780E+05         0.00000E+00
    0.45780E+05        -0.48370E+08         0.00000E+00
    0.00000E+00         0.00000E+00         0.20296E-07
 
    0.43179E+06         0.48255E+05         0.00000E+00
    0.48255E+05        -0.48415E+08         0.00000E+00
    0.00000E+00         0.00000E+00         0.60889E-07
 
    0.45484E+06         0.50854E+05         0.00000E+00
    0.50854E+05        -0.48462E+08         0.00000E+00
    0.00000E+00         0.00000E+00         0.00000E+00
 
    0.47895E+06         0.53583E+05         0.00000E+00
    0.53583E+05        -0.48511E+08         0.00000E+00
    0.00000E+00         0.00000E+00        -0.60889E-07
 
    0.50416E+06         0.56446E+05         0.00000E+00
    0.56446E+05        -0.48564E+08         0.00000E+00
    0.00000E+00         0.00000E+00         0.00000E+00
 
    0.53048E+06         0.59448E+05         0.00000E+00
    0.59448E+05        -0.48620E+08         0.00000E+00
    0.00000E+00         0.00000E+00         0.10148E-07
 
    0.55793E+06         0.62592E+05         0.00000E+00
    0.62592E+05        -0.48678E+08         0.00000E+00
    0.00000E+00         0.00000E+00         0.40593E-07
 
    0.58653E+06         0.65883E+05         0.00000E+00
    0.65883E+05        -0.48741E+08         0.00000E+00
    0.00000E+00         0.00000E+00        -0.40593E-07
 
    0.61629E+06         0.69324E+05         0.00000E+00
    0.69324E+05        -0.48806E+08         0.00000E+00
    0.00000E+00         0.00000E+00        -0.10148E-07
 
    0.64719E+06         0.72918E+05         0.00000E+00
    0.72918E+05        -0.48876E+08         0.00000E+00
    0.00000E+00         0.00000E+00         0.71037E-07
 
    0.67925E+06         0.76669E+05         0.00000E+00
    0.76669E+05        -0.48950E+08         0.00000E+00
    0.00000E+00         0.00000E+00        -0.20296E-07
 
    0.71242E+06         0.80577E+05         0.00000E+00
    0.80577E+05        -0.49028E+08         0.00000E+00
    0.00000E+00         0.00000E+00         0.00000E+00
 
    0.74669E+06         0.84644E+05         0.00000E+00
    0.84644E+05        -0.49110E+08         0.00000E+00
    0.00000E+00         0.00000E+00         0.00000E+00
 
    0.78199E+06         0.88869E+05         0.00000E+00
    0.88869E+05        -0.49197E+08         0.00000E+00
    0.00000E+00         0.00000E+00        -0.71037E-07
 
    0.81826E+06         0.93250E+05         0.00000E+00
    0.93250E+05        -0.49289E+08         0.00000E+00
    0.00000E+00         0.00000E+00         0.30444E-07
 
    0.85539E+06         0.97783E+05         0.00000E+00
    0.97783E+05        -0.49387E+08         0.00000E+00
    0.00000E+00         0.00000E+00        -0.81185E-07
 
    0.89328E+06         0.10246E+06         0.00000E+00
    0.10246E+06        -0.49491E+08         0.00000E+00
    0.00000E+00         0.00000E+00         0.17252E-06
 
    0.93175E+06         0.10727E+06         0.00000E+00
    0.10727E+06        -0.49600E+08         0.00000E+00
    0.00000E+00         0.00000E+00        -0.71037E-07
 
    0.97063E+06         0.11221E+06         0.00000E+00
    0.11221E+06        -0.49716E+08         0.00000E+00
    0.00000E+00         0.00000E+00        -0.30444E-07
 
    0.10097E+07         0.11725E+06         0.00000E+00
    0.11725E+06        -0.49839E+08         0.00000E+00
    0.00000E+00         0.00000E+00         0.40593E-07
 
    0.10486E+07         0.12238E+06         0.00000E+00
    0.12238E+06        -0.49969E+08         0.00000E+00
    0.00000E+00         0.00000E+00        -0.10148E-07
 
    0.10869E+07         0.12756E+06         0.00000E+00
    0.12756E+06        -0.50106E+08         0.00000E+00
    0.00000E+00         0.00000E+00        -0.50741E-07
 
    0.11244E+07         0.13276E+06         0.00000E+00
    0.13276E+06        -0.50252E+08         0.00000E+00
    0.00000E+00         0.00000E+00        -0.10148E-07
 
    0.11604E+07         0.13792E+06         0.00000E+00
    0.13792E+06        -0.50407E+08         0.00000E+00
    0.00000E+00         0.00000E+00         0.91333E-07
 
    0.11942E+07         0.14300E+06         0.00000E+00
    0.14300E+06        -0.50570E+08         0.00000E+00
    0.00000E+00         0.00000E+00        -0.40593E-07
 
    0.12252E+07         0.14791E+06         0.00000E+00
    0.14791E+06        -0.50744E+08         0.00000E+00
    0.00000E+00         0.00000E+00        -0.10148E-07
 
    0.12523E+07         0.15257E+06         0.00000E+00
    0.15257E+06        -0.50928E+08         0.00000E+00
    0.00000E+00         0.00000E+00        -0.50741E-07
 
    0.12745E+07         0.15687E+06         0.00000E+00
    0.15687E+06        -0.51123E+08         0.00000E+00
    0.00000E+00         0.00000E+00         0.81185E-07
 
    0.12905E+07         0.16068E+06         0.00000E+00
    0.16068E+06        -0.51330E+08         0.00000E+00
    0.00000E+00         0.00000E+00         0.30444E-07
 
    0.12987E+07         0.16383E+06         0.00000E+00
    0.16383E+06        -0.51549E+08         0.00000E+00
    0.00000E+00         0.00000E+00         0.11163E-06
 
    0.12971E+07         0.16613E+06         0.00000E+00
    0.16613E+06        -0.51782E+08         0.00000E+00
    0.00000E+00         0.00000E+00         0.10148E-06
 
    0.12837E+07         0.16736E+06         0.00000E+00
    0.16736E+06        -0.52030E+08         0.00000E+00
    0.00000E+00         0.00000E+00         0.10148E-06
 
    0.12559E+07         0.16724E+06         0.00000E+00
    0.16724E+06        -0.52292E+08         0.00000E+00
    0.00000E+00         0.00000E+00        -0.40593E-07
 
    0.12105E+07         0.16546E+06         0.00000E+00
    0.16546E+06        -0.52571E+08         0.00000E+00
    0.00000E+00         0.00000E+00         0.30444E-07
 
    0.11440E+07         0.16167E+06         0.00000E+00
    0.16167E+06        -0.52867E+08         0.00000E+00
    0.00000E+00         0.00000E+00        -0.30444E-07
 
    0.10523E+07         0.15545E+06         0.00000E+00
    0.15545E+06        -0.53182E+08         0.00000E+00
    0.00000E+00         0.00000E+00         0.10148E-07
 
    0.93058E+06         0.14635E+06         0.00000E+00
    0.14635E+06        -0.53517E+08         0.00000E+00
    0.00000E+00         0.00000E+00         0.00000E+00
 
    0.77350E+06         0.13388E+06         0.00000E+00
    0.13388E+06        -0.53873E+08         0.00000E+00
    0.00000E+00         0.00000E+00         0.81185E-07
 
    0.57485E+06         0.11753E+06         0.00000E+00
    0.11753E+06        -0.54252E+08         0.00000E+00
    0.00000E+00         0.00000E+00        -0.20296E-07
 
    0.32778E+06         0.96784E+05         0.00000E+00
    0.96784E+05        -0.54655E+08         0.00000E+00
    0.00000E+00         0.00000E+00        -0.60889E-07
 
    0.24713E+05         0.71144E+05         0.00000E+00
    0.71144E+05        -0.55084E+08         0.00000E+00
    0.00000E+00         0.00000E+00         0.71037E-07
 
   -0.34248E+06         0.40200E+05         0.00000E+00
    0.40200E+05        -0.55540E+08         0.00000E+00
    0.00000E+00         0.00000E+00        -0.10148E-06
 
   -0.78238E+06         0.36725E+04         0.00000E+00
    0.36725E+04        -0.56027E+08         0.00000E+00
    0.00000E+00         0.00000E+00        -0.91333E-07
 
   -0.13037E+07        -0.38517E+05         0.00000E+00
   -0.38517E+05        -0.56546E+08         0.00000E+00
    0.00000E+00         0.00000E+00         0.20296E-07
 
   -0.19149E+07        -0.86160E+05         0.00000E+00
   -0.86160E+05        -0.57098E+08         0.00000E+00
    0.00000E+00         0.00000E+00         0.00000E+00
 
   -0.26236E+07        -0.13867E+06         0.00000E+00
   -0.13867E+06        -0.57687E+08         0.00000E+00
    0.00000E+00         0.00000E+00         0.30444E-07
 
   -0.34356E+07        -0.19494E+06         0.00000E+00
   -0.19494E+06        -0.58316E+08         0.00000E+00
    0.00000E+00         0.00000E+00        -0.11163E-06
 
   -0.43535E+07        -0.25328E+06         0.00000E+00
   -0.25328E+06        -0.58987E+08         0.00000E+00
    0.00000E+00         0.00000E+00        -0.81187E-07
 
   -0.53734E+07        -0.30992E+06         0.00000E+00
   -0.30992E+06        -0.59703E+08         0.00000E+00
    0.00000E+00         0.00000E+00        -0.13192E-06
 
   -0.64803E+07        -0.36068E+06         0.00000E+00
   -0.36068E+06        -0.60467E+08         0.00000E+00
    0.00000E+00         0.00000E+00         0.00000E+00
 
   -0.76090E+07        -0.37744E+06         0.00000E+00
   -0.37744E+06        -0.61290E+08         0.00000E+00
    0.00000E+00         0.00000E+00        -0.20296E-07
 
   -0.86427E+07        -0.19964E+06         0.00000E+00
   -0.19964E+06        -0.61987E+08         0.00000E+00
    0.00000E+00         0.00000E+00         0.16237E-06
 
    0.12134E+06        -0.12245E+04         0.00000E+00
   -0.12245E+04        -0.47604E+08         0.00000E+00
    0.00000E+00         0.00000E+00         0.00000E+00
 
    0.11363E+06        -0.18404E+04         0.00000E+00
   -0.18404E+04        -0.47609E+08         0.00000E+00
    0.00000E+00         0.00000E+00         0.50741E-07
 
    0.10542E+06        -0.13260E+04         0.00000E+00
   -0.13260E+04        -0.47616E+08         0.00000E+00
    0.00000E+00         0.00000E+00        -0.40593E-07
 
    0.97801E+05        -0.76481E+03         0.00000E+00
   -0.76481E+03        -0.47622E+08         0.00000E+00
    0.00000E+00         0.00000E+00         0.71037E-07
 
    0.91113E+05        -0.18844E+03         0.00000E+00
   -0.18844E+03        -0.47629E+08         0.00000E+00
    0.00000E+00         0.00000E+00         0.81185E-07
 
    0.85412E+05         0.38715E+03         0.00000E+00
    0.38715E+03        -0.47635E+08         0.00000E+00
    0.00000E+00         0.00000E+00         0.28422E-13
 
    0.80701E+05         0.94972E+03         0.00000E+00
    0.94972E+03        -0.47641E+08         0.00000E+00
    0.00000E+00         0.00000E+00         0.10148E-07
 
    0.76947E+05         0.14944E+04         0.00000E+00
    0.14944E+04        -0.47648E+08         0.00000E+00
    0.00000E+00         0.00000E+00         0.40593E-07
 
    0.74103E+05         0.20178E+04         0.00000E+00
    0.20178E+04        -0.47654E+08         0.00000E+00
    0.00000E+00         0.00000E+00         0.20296E-07
 
    0.72111E+05         0.25187E+04         0.00000E+00
    0.25187E+04        -0.47661E+08         0.00000E+00
    0.00000E+00         0.00000E+00        -0.20296E-07
 
    0.70912E+05         0.29975E+04         0.00000E+00
    0.29975E+04        -0.47667E+08         0.00000E+00
    0.00000E+00         0.00000E+00        -0.30444E-07
 
    0.70444E+05         0.34558E+04         0.00000E+00
    0.34558E+04        -0.47674E+08         0.00000E+00
    0.00000E+00         0.00000E+00        -0.10148E-07
 
    0.70652E+05         0.38963E+04         0.00000E+00
    0.38963E+04        -0.47681E+08         0.00000E+00
    0.00000E+00         0.00000E+00         0.00000E+00
 
    0.71482E+05         0.43221E+04         0.00000E+00
    0.43221E+04        -0.47689E+08         0.00000E+00
    0.00000E+00         0.00000E+00         0.20296E-07
 
    0.72886E+05         0.47368E+04         0.00000E+00
    0.47368E+04        -0.47696E+08         0.00000E+00
    0.00000E+00         0.00000E+00         0.20296E-07
 
    0.74823E+05         0.51442E+04         0.00000E+00
    0.51442E+04        -0.47704E+08         0.00000E+00
    0.00000E+00         0.00000E+00         0.60889E-07
 
    0.77258E+05         0.55479E+04         0.00000E+00
    0.55479E+04        -0.47712E+08         0.00000E+00
    0.00000E+00         0.00000E+00         0.40593E-07
 
    0.80161E+05         0.59517E+04         0.00000E+00
    0.59517E+04        -0.47721E+08         0.00000E+00
    0.00000E+00         0.00000E+00        -0.20296E-07
 
    0.83509E+05         0.63588E+04         0.00000E+00
    0.63588E+04        -0.47730E+08         0.00000E+00
    0.00000E+00         0.00000E+00         0.10148E-07
 
    0.87283E+05         0.67727E+04         0.00000E+00
    0.67727E+04        -0.47739E+08         0.00000E+00
    0.00000E+00         0.00000E+00        -0.71037E-07
 
    0.91470E+05         0.71962E+04         0.00000E+00
    0.71962E+04        -0.47749E+08         0.00000E+00
    0.00000E+00         0.00000E+00         0.10148E-07
 
    0.96062E+05         0.76323E+04         0.00000E+00
    0.76323E+04        -0.47759E+08         0.00000E+00
    0.00000E+00         0.00000E+00         0.30444E-07
 
    0.10105E+06         0.80836E+04         0.00000E+00
    0.80836E+04        -0.47769E+08         0.00000E+00
    0.00000E+00         0.00000E+00         0.50741E-07
 
    0.10644E+06         0.85527E+04         0.00000E+00
    0.85527E+04        -0.47781E+08         0.00000E+00
    0.00000E+00         0.00000E+00         0.20296E-07
 
    0.11223E+06         0.90419E+04         0.00000E+00
    0.90419E+04        -0.47792E+08         0.00000E+00
    0.00000E+00         0.00000E+00         0.00000E+00
 
    0.11843E+06         0.95535E+04         0.00000E+00
    0.95535E+04        -0.47804E+08         0.00000E+00
    0.00000E+00         0.00000E+00        -0.40593E-07
 
    0.12504E+06         0.10090E+05         0.00000E+00
    0.10090E+05        -0.47817E+08         0.00000E+00
    0.00000E+00         0.00000E+00        -0.30444E-07
 
    0.13207E+06         0.10653E+05         0.00000E+00
    0.10653E+05        -0.47831E+08         0.00000E+00
    0.00000E+00         0.00000E+00        -0.10148E-07
 
    0.13954E+06         0.11245E+05         0.00000E+00
    0.11245E+05        -0.47845E+08         0.00000E+00
    0.00000E+00         0.00000E+00         0.40593E-07
 
    0.14747E+06         0.11868E+05         0.00000E+00
    0.11868E+05        -0.47860E+08         0.00000E+00
    0.00000E+00         0.00000E+00         0.71037E-07
 
    0.15586E+06         0.12525E+05         0.00000E+00
    0.12525E+05        -0.47876E+08         0.00000E+00
    0.00000E+00         0.00000E+00        -0.81185E-07
 
    0.16473E+06         0.13217E+05         0.00000E+00
    0.13217E+05        -0.47893E+08         0.00000E+00
    0.00000E+00         0.00000E+00         0.60889E-07
 
    0.17412E+06         0.13946E+05         0.00000E+00
    0.13946E+05        -0.47910E+08         0.00000E+00
    0.00000E+00         0.00000E+00         0.20296E-07
 
    0.18403E+06         0.14715E+05         0.00000E+00
    0.14715E+05        -0.47929E+08         0.00000E+00
    0.00000E+00         0.00000E+00         0.60889E-07
 
    0.19449E+06         0.15527E+05         0.00000E+00
    0.15527E+05        -0.47948E+08         0.00000E+00
    0.00000E+00         0.00000E+00        -0.10148E-07
 
    0.20553E+06         0.16383E+05         0.00000E+00
    0.16383E+05        -0.47969E+08         0.00000E+00
    0.00000E+00         0.00000E+00        -0.30444E-07
 
    0.21718E+06         0.17286E+05         0.00000E+00
    0.17286E+05        -0.47991E+08         0.00000E+00
    0.00000E+00         0.00000E+00         0.00000E+00
 
    0.22945E+06         0.18238E+05         0.00000E+00
    0.18238E+05        -0.48014E+08         0.00000E+00
    0.00000E+00         0.00000E+00         0.30444E-07
 
    0.24238E+06         0.19243E+05         0.00000E+00
    0.19243E+05        -0.48038E+08         0.00000E+00
    0.00000E+00         0.00000E+00        -0.30444E-07
 
    0.25600E+06         0.20302E+05         0.00000E+00
    0.20302E+05        -0.48064E+08         0.00000E+00
    0.00000E+00         0.00000E+00         0.10148E-07
 
    0.27034E+06         0.21419E+05         0.00000E+00
    0.21419E+05        -0.48091E+08         0.00000E+00
    0.00000E+00         0.00000E+00         0.11163E-06
 
    0.28543E+06         0.22597E+05         0.00000E+00
    0.22597E+05        -0.48119E+08         0.00000E+00
    0.00000E+00         0.00000E+00         0.00000E+00
 
    0.30130E+06         0.23837E+05         0.00000E+00
    0.23837E+05        -0.48150E+08         0.00000E+00
    0.00000E+00         0.00000E+00         0.20296E-07
 
    0.31799E+06         0.25145E+05         0.00000E+00
    0.25145E+05        -0.48182E+08         0.00000E+00
    0.00000E+00         0.00000E+00         0.30444E-07
 
    0.33553E+06         0.26521E+05         0.00000E+00
    0.26521E+05        -0.48215E+08         0.00000E+00
    0.00000E+00         0.00000E+00         0.40592E-07
 
    0.35396E+06         0.27971E+05         0.00000E+00
    0.27971E+05        -0.48251E+08         0.00000E+00
    0.00000E+00         0.00000E+00         0.60889E-07
 
    0.37332E+06         0.29496E+05         0.00000E+00
    0.29496E+05        -0.48289E+08         0.00000E+00
    0.00000E+00         0.00000E+00        -0.10148E-07
 
    0.39362E+06         0.31101E+05         0.00000E+00
    0.31101E+05        -0.48328E+08         0.00000E+00
    0.00000E+00         0.00000E+00         0.40593E-07
 
    0.41492E+06         0.32788E+05         0.00000E+00
    0.32788E+05        -0.48371E+08         0.00000E+00
    0.00000E+00         0.00000E+00        -0.20296E-07
 
    0.43724E+06         0.34562E+05         0.00000E+00
    0.34562E+05        -0.48415E+08         0.00000E+00
    0.00000E+00         0.00000E+00         0.10148E-07
 
    0.46061E+06         0.36424E+05         0.00000E+00
    0.36424E+05        -0.48462E+08         0.00000E+00
    0.00000E+00         0.00000E+00        -0.60889E-07
 
    0.48508E+06         0.38380E+05         0.00000E+00
    0.38380E+05        -0.48512E+08         0.00000E+00
    0.00000E+00         0.00000E+00        -0.71037E-07
 
    0.51065E+06         0.40432E+05         0.00000E+00
    0.40432E+05        -0.48564E+08         0.00000E+00
    0.00000E+00         0.00000E+00         0.00000E+00
 
    0.53736E+06         0.42583E+05         0.00000E+00
    0.42583E+05        -0.48620E+08         0.00000E+00
    0.00000E+00         0.00000E+00        -0.81185E-07
 
    0.56524E+06         0.44837E+05         0.00000E+00
    0.44837E+05        -0.48679E+08         0.00000E+00
    0.00000E+00         0.00000E+00        -0.10148E-07
 
    0.59429E+06         0.47197E+05         0.00000E+00
    0.47197E+05        -0.48741E+08         0.00000E+00
    0.00000E+00         0.00000E+00        -0.10148E-07
 
    0.62452E+06         0.49664E+05         0.00000E+00
    0.49664E+05        -0.48807E+08         0.00000E+00
    0.00000E+00         0.00000E+00        -0.10148E-07
 
    0.65594E+06         0.52242E+05         0.00000E+00
    0.52242E+05        -0.48877E+08         0.00000E+00
    0.00000E+00         0.00000E+00         0.10148E-07
 
    0.68853E+06         0.54932E+05         0.00000E+00
    0.54932E+05        -0.48950E+08         0.00000E+00
    0.00000E+00         0.00000E+00        -0.60889E-07
 
    0.72229E+06         0.57736E+05         0.00000E+00
    0.57736E+05        -0.49028E+08         0.00000E+00
    0.00000E+00         0.00000E+00        -0.40593E-07
 
    0.75718E+06         0.60655E+05         0.00000E+00
    0.60655E+05        -0.49111E+08         0.00000E+00
    0.00000E+00         0.00000E+00         0.60889E-07
 
    0.79315E+06         0.63687E+05         0.00000E+00
    0.63687E+05        -0.49198E+08         0.00000E+00
    0.00000E+00         0.00000E+00        -0.30444E-07
 
    0.83013E+06         0.66832E+05         0.00000E+00
    0.66832E+05        -0.49290E+08         0.00000E+00
    0.00000E+00         0.00000E+00        -0.30444E-07
 
    0.86803E+06         0.70087E+05         0.00000E+00
    0.70087E+05        -0.49388E+08         0.00000E+00
    0.00000E+00         0.00000E+00        -0.91333E-07
 
    0.90674E+06         0.73448E+05         0.00000E+00
    0.73448E+05        -0.49491E+08         0.00000E+00
    0.00000E+00         0.00000E+00        -0.30444E-07
 
    0.94611E+06         0.76907E+05         0.00000E+00
    0.76907E+05        -0.49601E+08         0.00000E+00
    0.00000E+00         0.00000E+00        -0.91333E-07
 
    0.98594E+06         0.80457E+05         0.00000E+00
    0.80457E+05        -0.49717E+08         0.00000E+00
    0.00000E+00         0.00000E+00         0.50741E-07
 
    0.10260E+07         0.84084E+05         0.00000E+00
    0.84084E+05        -0.49840E+08         0.00000E+00
    0.00000E+00         0.00000E+00        -0.10148E-07
 
    0.10660E+07         0.87773E+05         0.00000E+00
    0.87773E+05        -0.49970E+08         0.00000E+00
    0.00000E+00         0.00000E+00        -0.10148E-06
 
    0.11056E+07         0.91502E+05         0.00000E+00
    0.91502E+05        -0.50107E+08         0.00000E+00
    0.00000E+00         0.00000E+00         0.14207E-06
 
    0.11443E+07         0.95246E+05         0.00000E+00
    0.95246E+05        -0.50253E+08         0.00000E+00
    0.00000E+00         0.00000E+00        -0.71037E-07
 
    0.11817E+07         0.98971E+05         0.00000E+00
    0.98971E+05        -0.50408E+08         0.00000E+00
    0.00000E+00         0.00000E+00         0.40593E-07
 
    0.12170E+07         0.10263E+06         0.00000E+00
    0.10263E+06        -0.50571E+08         0.00000E+00
    0.00000E+00         0.00000E+00         0.00000E+00
 
    0.12496E+07         0.10618E+06         0.00000E+00
    0.10618E+06        -0.50745E+08         0.00000E+00
    0.00000E+00         0.00000E+00        -0.40592E-07
 
    0.12785E+07         0.10956E+06         0.00000E+00
    0.10956E+06        -0.50929E+08         0.00000E+00
    0.00000E+00         0.00000E+00         0.12178E-06
 
    0.13026E+07         0.11267E+06         0.00000E+00
    0.11267E+06        -0.51124E+08         0.00000E+00
    0.00000E+00         0.00000E+00        -0.20296E-07
 
    0.13205E+07         0.11543E+06         0.00000E+00
    0.11543E+06        -0.51331E+08         0.00000E+00
    0.00000E+00         0.00000E+00        -0.14207E-06
 
    0.13308E+07         0.11773E+06         0.00000E+00
    0.11773E+06        -0.51550E+08         0.00000E+00
    0.00000E+00         0.00000E+00        -0.20296E-07
 
    0.13314E+07         0.11941E+06         0.00000E+00
    0.11941E+06        -0.51783E+08         0.00000E+00
    0.00000E+00         0.00000E+00        -0.10148E-07
 
    0.13203E+07         0.12032E+06         0.00000E+00
    0.12032E+06        -0.52030E+08         0.00000E+00
    0.00000E+00         0.00000E+00         0.20296E-07
 
    0.12947E+07         0.12025E+06         0.00000E+00
    0.12025E+06        -0.52292E+08         0.00000E+00
    0.00000E+00         0.00000E+00         0.10148E-07
 
    0.12516E+07         0.11898E+06         0.00000E+00
    0.11898E+06        -0.52571E+08         0.00000E+00
    0.00000E+00         0.00000E+00         0.20296E-07
 
    0.11872E+07         0.11625E+06         0.00000E+00
    0.11625E+06        -0.52867E+08         0.00000E+00
    0.00000E+00         0.00000E+00        -0.50741E-07
 
    0.10975E+07         0.11174E+06         0.00000E+00
    0.11174E+06        -0.53181E+08         0.00000E+00
    0.00000E+00         0.00000E+00         0.20296E-07
 
    0.97742E+06         0.10513E+06         0.00000E+00
    0.10513E+06        -0.53515E+08         0.00000E+00
    0.00000E+00         0.00000E+00        -0.60889E-07
 
    0.82139E+06         0.96053E+05         0.00000E+00
    0.96053E+05        -0.53870E+08         0.00000E+00
    0.00000E+00         0.00000E+00         0.71037E-07
 
    0.62301E+06         0.84115E+05         0.00000E+00
    0.84115E+05        -0.54248E+08         0.00000E+00
    0.00000E+00         0.00000E+00        -0.10148E-07
 
    0.37510E+06         0.68925E+05         0.00000E+00
    0.68925E+05        -0.54651E+08         0.00000E+00
    0.00000E+00         0.00000E+00        -0.11163E-06
 
    0.69710E+05         0.50108E+05         0.00000E+00
    0.50108E+05        -0.55079E+08         0.00000E+00
    0.00000E+00         0.00000E+00        -0.10148E-07
 
   -0.30178E+06         0.27333E+05         0.00000E+00
    0.27333E+05        -0.55535E+08         0.00000E+00
    0.00000E+00         0.00000E+00        -0.30444E-07
 
   -0.74854E+06         0.36092E+03         0.00000E+00
    0.36092E+03        -0.56020E+08         0.00000E+00
    0.00000E+00         0.00000E+00         0.20296E-07
 
   -0.12800E+07        -0.30914E+05         0.00000E+00
   -0.30914E+05        -0.56538E+08         0.00000E+00
    0.00000E+00         0.00000E+00         0.40593E-07
 
   -0.19055E+07        -0.66406E+05         0.00000E+00
   -0.66406E+05        -0.57089E+08         0.00000E+00
    0.00000E+00         0.00000E+00         0.20296E-07
 
   -0.26339E+07        -0.10580E+06         0.00000E+00
   -0.10580E+06        -0.57678E+08         0.00000E+00
    0.00000E+00         0.00000E+00        -0.11163E-06
 
   -0.34723E+07        -0.14846E+06         0.00000E+00
   -0.14846E+06        -0.58306E+08         0.00000E+00
    0.00000E+00         0.00000E+00        -0.11163E-06
 
   -0.44258E+07        -0.19351E+06         0.00000E+00
   -0.19351E+06        -0.58976E+08         0.00000E+00
    0.00000E+00         0.00000E+00         0.00000E+00
 
   -0.54937E+07        -0.23902E+06         0.00000E+00
   -0.23902E+06        -0.59693E+08         0.00000E+00
    0.00000E+00         0.00000E+00         0.91333E-07
 
   -0.66682E+07        -0.28247E+06         0.00000E+00
   -0.28247E+06        -0.60457E+08         0.00000E+00
    0.00000E+00         0.00000E+00        -0.50741E-07
 
   -0.78996E+07        -0.31907E+06         0.00000E+00
   -0.31907E+06        -0.61292E+08         0.00000E+00
    0.00000E+00         0.00000E+00         0.91333E-07
 
   -0.90298E+07        -0.19376E+06         0.00000E+00
   -0.19376E+06        -0.62053E+08         0.00000E+00
    0.00000E+00         0.00000E+00         0.90949E-12
 
    0.12510E+06        -0.11755E+04         0.00000E+00
   -0.11755E+04        -0.47603E+08         0.00000E+00
    0.00000E+00         0.00000E+00         0.28422E-13
 
    0.11636E+06        -0.13819E+04         0.00000E+00
   -0.13819E+04        -0.47610E+08         0.00000E+00
    0.00000E+00         0.00000E+00         0.00000E+00
 
    0.10734E+06        -0.91890E+03         0.00000E+00
   -0.91890E+03        -0.47616E+08         0.00000E+00
    0.00000E+00         0.00000E+00         0.71037E-07
 
    0.99249E+05        -0.55136E+03         0.00000E+00
   -0.55136E+03        -0.47622E+08         0.00000E+00
    0.00000E+00         0.00000E+00        -0.30444E-07
 
    0.92229E+05        -0.17522E+03         0.00000E+00
   -0.17522E+03        -0.47629E+08         0.00000E+00
    0.00000E+00         0.00000E+00        -0.20296E-07
 
    0.86292E+05         0.18758E+03         0.00000E+00
    0.18758E+03        -0.47635E+08         0.00000E+00
    0.00000E+00         0.00000E+00         0.20296E-07
 
    0.81412E+05         0.53880E+03         0.00000E+00
    0.53880E+03        -0.47641E+08         0.00000E+00
    0.00000E+00         0.00000E+00        -0.50741E-07
 
    0.77540E+05         0.87586E+03         0.00000E+00
    0.87586E+03        -0.47648E+08         0.00000E+00
    0.00000E+00         0.00000E+00        -0.20296E-07
 
    0.74618E+05         0.11980E+04         0.00000E+00
    0.11980E+04        -0.47654E+08         0.00000E+00
    0.00000E+00         0.00000E+00        -0.60889E-07
 
    0.72580E+05         0.15049E+04         0.00000E+00
    0.15049E+04        -0.47661E+08         0.00000E+00
    0.00000E+00         0.00000E+00         0.60889E-07
 
    0.71359E+05         0.17972E+04         0.00000E+00
    0.17972E+04        -0.47667E+08         0.00000E+00
    0.00000E+00         0.00000E+00        -0.11163E-06
 
    0.70891E+05         0.20761E+04         0.00000E+00
    0.20761E+04        -0.47674E+08         0.00000E+00
    0.00000E+00         0.00000E+00        -0.30444E-07
 
    0.71113E+05         0.23434E+04         0.00000E+00
    0.23434E+04        -0.47682E+08         0.00000E+00
    0.00000E+00         0.00000E+00         0.20296E-07
 
    0.71969E+05         0.26013E+04         0.00000E+00
    0.26013E+04        -0.47689E+08         0.00000E+00
    0.00000E+00         0.00000E+00         0.60889E-07
 
    0.73410E+05         0.28520E+04         0.00000E+00
    0.28520E+04        -0.47696E+08         0.00000E+00
    0.00000E+00         0.00000E+00        -0.50741E-07
 
    0.75392E+05         0.30978E+04         0.00000E+00
    0.30978E+04        -0.47704E+08         0.00000E+00
    0.00000E+00         0.00000E+00        -0.20296E-07
 
    0.77877E+05         0.33412E+04         0.00000E+00
    0.33412E+04        -0.47712E+08         0.00000E+00
    0.00000E+00         0.00000E+00         0.91333E-07
 
    0.80836E+05         0.35844E+04         0.00000E+00
    0.35844E+04        -0.47721E+08         0.00000E+00
    0.00000E+00         0.00000E+00         0.81185E-07
 
    0.84243E+05         0.38294E+04         0.00000E+00
    0.38294E+04        -0.47730E+08         0.00000E+00
    0.00000E+00         0.00000E+00         0.81185E-07
 
    0.88081E+05         0.40784E+04         0.00000E+00
    0.40784E+04        -0.47739E+08         0.00000E+00
    0.00000E+00         0.00000E+00         0.50741E-07
 
    0.92335E+05         0.43331E+04         0.00000E+00
    0.43331E+04        -0.47749E+08         0.00000E+00
    0.00000E+00         0.00000E+00         0.00000E+00
 
    0.96996E+05         0.45953E+04         0.00000E+00
    0.45953E+04        -0.47759E+08         0.00000E+00
    0.00000E+00         0.00000E+00         0.50741E-07
 
    0.10206E+06         0.48667E+04         0.00000E+00
    0.48667E+04        -0.47770E+08         0.00000E+00
    0.00000E+00         0.00000E+00        -0.71037E-07
 
    0.10753E+06         0.51488E+04         0.00000E+00
    0.51488E+04        -0.47781E+08         0.00000E+00
    0.00000E+00         0.00000E+00         0.00000E+00
 
    0.11339E+06         0.54430E+04         0.00000E+00
    0.54430E+04        -0.47792E+08         0.00000E+00
    0.00000E+00         0.00000E+00        -0.10148E-07
 
    0.11967E+06         0.57507E+04         0.00000E+00
    0.57507E+04        -0.47805E+08         0.00000E+00
    0.00000E+00         0.00000E+00         0.00000E+00
 
    0.12637E+06         0.60732E+04         0.00000E+00
    0.60732E+04        -0.47817E+08         0.00000E+00
    0.00000E+00         0.00000E+00         0.40593E-07
 
    0.13349E+06         0.64120E+04         0.00000E+00
    0.64120E+04        -0.47831E+08         0.00000E+00
    0.00000E+00         0.00000E+00        -0.30444E-07
 
    0.14106E+06         0.67681E+04         0.00000E+00
    0.67681E+04        -0.47845E+08         0.00000E+00
    0.00000E+00         0.00000E+00         0.40593E-07
 
    0.14908E+06         0.71431E+04         0.00000E+00
    0.71431E+04        -0.47860E+08         0.00000E+00
    0.00000E+00         0.00000E+00        -0.14207E-06
 
    0.15757E+06         0.75380E+04         0.00000E+00
    0.75380E+04        -0.47876E+08         0.00000E+00
    0.00000E+00         0.00000E+00         0.10148E-07
 
    0.16656E+06         0.79543E+04         0.00000E+00
    0.79543E+04        -0.47893E+08         0.00000E+00
    0.00000E+00         0.00000E+00        -0.10148E-06
 
    0.17606E+06         0.83933E+04         0.00000E+00
    0.83933E+04        -0.47910E+08         0.00000E+00
    0.00000E+00         0.00000E+00         0.10148E-07
 
    0.18609E+06         0.88562E+04         0.00000E+00
    0.88562E+04        -0.47929E+08         0.00000E+00
    0.00000E+00         0.00000E+00        -0.60889E-07
 
    0.19668E+06         0.93446E+04         0.00000E+00
    0.93446E+04        -0.47949E+08         0.00000E+00
    0.00000E+00         0.00000E+00        -0.20296E-07
 
    0.20785E+06         0.98598E+04         0.00000E+00
    0.98598E+04        -0.47969E+08         0.00000E+00
    0.00000E+00         0.00000E+00         0.20296E-07
 
    0.21964E+06         0.10403E+05         0.00000E+00
    0.10403E+05        -0.47991E+08         0.00000E+00
    0.00000E+00         0.00000E+00        -0.10148E-07
 
    0.23206E+06         0.10977E+05         0.00000E+00
    0.10977E+05        -0.48014E+08         0.00000E+00
    0.00000E+00         0.00000E+00         0.10148E-07
 
    0.24514E+06         0.11581E+05         0.00000E+00
    0.11581E+05        -0.48038E+08         0.00000E+00
    0.00000E+00         0.00000E+00        -0.71037E-07
 
    0.25893E+06         0.12219E+05         0.00000E+00
    0.12219E+05        -0.48064E+08         0.00000E+00
    0.00000E+00         0.00000E+00         0.14207E-06
 
    0.27345E+06         0.12891E+05         0.00000E+00
    0.12891E+05        -0.48091E+08         0.00000E+00
    0.00000E+00         0.00000E+00        -0.20296E-07
 
    0.28872E+06         0.13600E+05         0.00000E+00
    0.13600E+05        -0.48120E+08         0.00000E+00
    0.00000E+00         0.00000E+00        -0.20296E-07
 
    0.30479E+06         0.14347E+05         0.00000E+00
    0.14347E+05        -0.48150E+08         0.00000E+00
    0.00000E+00         0.00000E+00        -0.60889E-07
 
    0.32169E+06         0.15134E+05         0.00000E+00
    0.15134E+05        -0.48182E+08         0.00000E+00
    0.00000E+00         0.00000E+00        -0.30444E-07
 
    0.33946E+06         0.15963E+05         0.00000E+00
    0.15963E+05        -0.48215E+08         0.00000E+00
    0.00000E+00         0.00000E+00         0.00000E+00
 
    0.35813E+06         0.16836E+05         0.00000E+00
    0.16836E+05        -0.48251E+08         0.00000E+00
    0.00000E+00         0.00000E+00        -0.10148E-07
 
    0.37773E+06         0.17754E+05         0.00000E+00
    0.17754E+05        -0.48289E+08         0.00000E+00
    0.00000E+00         0.00000E+00        -0.50741E-07
 
    0.39830E+06         0.18721E+05         0.00000E+00
    0.18721E+05        -0.48329E+08         0.00000E+00
    0.00000E+00         0.00000E+00         0.00000E+00
 
    0.41988E+06         0.19737E+05         0.00000E+00
    0.19737E+05        -0.48371E+08         0.00000E+00
    0.00000E+00         0.00000E+00        -0.50740E-07
 
    0.44250E+06         0.20805E+05         0.00000E+00
    0.20805E+05        -0.48415E+08         0.00000E+00
    0.00000E+00         0.00000E+00         0.00000E+00
 
    0.46619E+06         0.21928E+05         0.00000E+00
    0.21928E+05        -0.48462E+08         0.00000E+00
    0.00000E+00         0.00000E+00         0.00000E+00
 
    0.49100E+06         0.23106E+05         0.00000E+00
    0.23106E+05        -0.48512E+08         0.00000E+00
    0.00000E+00         0.00000E+00        -0.30444E-07
 
    0.51693E+06         0.24342E+05         0.00000E+00
    0.24342E+05        -0.48565E+08         0.00000E+00
    0.00000E+00         0.00000E+00         0.00000E+00
 
    0.54403E+06         0.25639E+05         0.00000E+00
    0.25639E+05        -0.48620E+08         0.00000E+00
    0.00000E+00         0.00000E+00         0.11163E-06
 
    0.57232E+06         0.26997E+05         0.00000E+00
    0.26997E+05        -0.48679E+08         0.00000E+00
    0.00000E+00         0.00000E+00         0.11163E-06
 
    0.60180E+06         0.28419E+05         0.00000E+00
    0.28419E+05        -0.48742E+08         0.00000E+00
    0.00000E+00         0.00000E+00         0.10148E-07
 
    0.63250E+06         0.29907E+05         0.00000E+00
    0.29907E+05        -0.48807E+08         0.00000E+00
    0.00000E+00         0.00000E+00         0.40593E-07
 
    0.66442E+06         0.31461E+05         0.00000E+00
    0.31461E+05        -0.48877E+08         0.00000E+00
    0.00000E+00         0.00000E+00         0.00000E+00
 
    0.69756E+06         0.33084E+05         0.00000E+00
    0.33084E+05        -0.48951E+08         0.00000E+00
    0.00000E+00         0.00000E+00         0.81185E-07
 
    0.73189E+06         0.34775E+05         0.00000E+00
    0.34775E+05        -0.49029E+08         0.00000E+00
    0.00000E+00         0.00000E+00        -0.22326E-06
 
    0.76739E+06         0.36536E+05         0.00000E+00
    0.36536E+05        -0.49111E+08         0.00000E+00
    0.00000E+00         0.00000E+00        -0.81185E-07
 
    0.80402E+06         0.38367E+05         0.00000E+00
    0.38367E+05        -0.49198E+08         0.00000E+00
    0.00000E+00         0.00000E+00        -0.10148E-07
 
    0.84172E+06         0.40266E+05         0.00000E+00
    0.40266E+05        -0.49291E+08         0.00000E+00
    0.00000E+00         0.00000E+00        -0.20296E-07
 
    0.88038E+06         0.42232E+05         0.00000E+00
    0.42232E+05        -0.49389E+08         0.00000E+00
    0.00000E+00         0.00000E+00         0.20296E-07
 
    0.91992E+06         0.44263E+05         0.00000E+00
    0.44263E+05        -0.49492E+08         0.00000E+00
    0.00000E+00         0.00000E+00        -0.60889E-07
 
    0.96017E+06         0.46355E+05         0.00000E+00
    0.46355E+05        -0.49602E+08         0.00000E+00
    0.00000E+00         0.00000E+00         0.50741E-07
 
    0.10010E+07         0.48502E+05         0.00000E+00
    0.48502E+05        -0.49717E+08         0.00000E+00
    0.00000E+00         0.00000E+00        -0.20296E-07
 
    0.10421E+07         0.50698E+05         0.00000E+00
    0.50698E+05        -0.49840E+08         0.00000E+00
    0.00000E+00         0.00000E+00         0.60889E-07
 
    0.10832E+07         0.52933E+05         0.00000E+00
    0.52933E+05        -0.49970E+08         0.00000E+00
    0.00000E+00         0.00000E+00         0.10148E-07
 
    0.11240E+07         0.55194E+05         0.00000E+00
    0.55194E+05        -0.50108E+08         0.00000E+00
    0.00000E+00         0.00000E+00        -0.10148E-07
 
    0.11640E+07         0.57466E+05         0.00000E+00
    0.57466E+05        -0.50254E+08         0.00000E+00
    0.00000E+00         0.00000E+00        -0.50741E-07
 
    0.12028E+07         0.59729E+05         0.00000E+00
    0.59729E+05        -0.50408E+08         0.00000E+00
    0.00000E+00         0.00000E+00        -0.20296E-07
 
    0.12397E+07         0.61957E+05         0.00000E+00
    0.61957E+05        -0.50572E+08         0.00000E+00
    0.00000E+00         0.00000E+00         0.30444E-07
 
    0.12740E+07         0.64119E+05         0.00000E+00
    0.64119E+05        -0.50745E+08         0.00000E+00
    0.00000E+00         0.00000E+00        -0.81185E-07
 
    0.13046E+07         0.66177E+05         0.00000E+00
    0.66177E+05        -0.50929E+08         0.00000E+00
    0.00000E+00         0.00000E+00         0.50741E-07
 
    0.13307E+07         0.68081E+05         0.00000E+00
    0.68081E+05        -0.51124E+08         0.00000E+00
    0.00000E+00         0.00000E+00         0.20296E-07
 
    0.13507E+07         0.69775E+05         0.00000E+00
    0.69775E+05        -0.51331E+08         0.00000E+00
    0.00000E+00         0.00000E+00         0.30444E-07
 
    0.13631E+07         0.71186E+05         0.00000E+00
    0.71186E+05        -0.51550E+08         0.00000E+00
    0.00000E+00         0.00000E+00         0.30444E-07
 
    0.13661E+07         0.72229E+05         0.00000E+00
    0.72229E+05        -0.51783E+08         0.00000E+00
    0.00000E+00         0.00000E+00         0.10148E-07
 
    0.13574E+07         0.72802E+05         0.00000E+00
    0.72802E+05        -0.52030E+08         0.00000E+00
    0.00000E+00         0.00000E+00        -0.91332E-07
 
    0.13343E+07         0.72784E+05         0.00000E+00
    0.72784E+05        -0.52292E+08         0.00000E+00
    0.00000E+00         0.00000E+00         0.91333E-07
 
    0.12937E+07         0.72031E+05         0.00000E+00
    0.72031E+05        -0.52570E+08         0.00000E+00
    0.00000E+00         0.00000E+00         0.14207E-06
 
    0.12318E+07         0.70379E+05         0.00000E+00
    0.70379E+05        -0.52866E+08         0.00000E+00
    0.00000E+00         0.00000E+00        -0.50741E-07
 
    0.11444E+07         0.67640E+05         0.00000E+00
    0.67640E+05        -0.53180E+08         0.00000E+00
    0.00000E+00         0.00000E+00        -0.30444E-07
 
    0.10263E+07         0.63602E+05         0.00000E+00
    0.63602E+05        -0.53514E+08         0.00000E+00
    0.00000E+00         0.00000E+00         0.40593E-07
 
    0.87177E+06         0.58034E+05         0.00000E+00
    0.58034E+05        -0.53869E+08         0.00000E+00
    0.00000E+00         0.00000E+00         0.30444E-07
 
    0.67416E+06         0.50689E+05         0.00000E+00
    0.50689E+05        -0.54246E+08         0.00000E+00
    0.00000E+00         0.00000E+00        -0.81185E-07
 
    0.42598E+06         0.41312E+05         0.00000E+00
    0.41312E+05        -0.54648E+08         0.00000E+00
    0.00000E+00         0.00000E+00        -0.10148E-06
 
    0.11888E+06         0.29656E+05         0.00000E+00
    0.29656E+05        -0.55075E+08         0.00000E+00
    0.00000E+00         0.00000E+00         0.20296E-07
 
   -0.25625E+06         0.15497E+05         0.00000E+00
    0.15497E+05        -0.55531E+08         0.00000E+00
    0.00000E+00         0.00000E+00        -0.91333E-07
 
   -0.70920E+06        -0.13392E+04         0.00000E+00
   -0.13392E+04        -0.56015E+08         0.00000E+00
    0.00000E+00         0.00000E+00         0.60889E-07
 
   -0.12501E+07        -0.20954E+05         0.00000E+00
   -0.20954E+05        -0.56532E+08         0.00000E+00
    0.00000E+00         0.00000E+00         0.12178E-06
 
   -0.18894E+07        -0.43351E+05         0.00000E+00
   -0.43351E+05        -0.57083E+08         0.00000E+00
    0.00000E+00         0.00000E+00         0.50741E-07
 
   -0.26369E+07        -0.68402E+05         0.00000E+00
   -0.68402E+05        -0.57671E+08         0.00000E+00
    0.00000E+00         0.00000E+00        -0.10148E-07
 
   -0.35015E+07        -0.95904E+05         0.00000E+00
   -0.95904E+05        -0.58298E+08         0.00000E+00
    0.00000E+00         0.00000E+00         0.00000E+00
 
   -0.44905E+07        -0.12538E+06         0.00000E+00
   -0.12538E+06        -0.58968E+08         0.00000E+00
    0.00000E+00         0.00000E+00        -0.40593E-07
 
   -0.56076E+07        -0.15697E+06         0.00000E+00
   -0.15697E+06        -0.59685E+08         0.00000E+00
    0.00000E+00         0.00000E+00         0.10148E-07
 
   -0.68507E+07        -0.18740E+06         0.00000E+00
   -0.18740E+06        -0.60449E+08         0.00000E+00
    0.00000E+00         0.00000E+00         0.18190E-11
 
   -0.81991E+07        -0.23134E+06         0.00000E+00
   -0.23134E+06        -0.61283E+08         0.00000E+00
    0.00000E+00         0.00000E+00         0.40593E-07
 
   -0.94767E+07        -0.17931E+06         0.00000E+00
   -0.17931E+06        -0.62113E+08         0.00000E+00
    0.00000E+00         0.00000E+00         0.40591E-07
 
    0.12939E+06        -0.10176E+04         0.00000E+00
   -0.10176E+04        -0.47603E+08         0.00000E+00
    0.00000E+00         0.00000E+00        -0.40593E-07
 
    0.11903E+06        -0.63716E+03         0.00000E+00
   -0.63716E+03        -0.47610E+08         0.00000E+00
    0.00000E+00         0.00000E+00         0.30444E-07
 
    0.10918E+06        -0.41235E+03         0.00000E+00
   -0.41235E+03        -0.47616E+08         0.00000E+00
    0.00000E+00         0.00000E+00         0.60889E-07
 
    0.10061E+06        -0.25440E+03         0.00000E+00
   -0.25440E+03        -0.47622E+08         0.00000E+00
    0.00000E+00         0.00000E+00         0.00000E+00
 
    0.93257E+05        -0.10757E+03         0.00000E+00
   -0.10757E+03        -0.47629E+08         0.00000E+00
    0.00000E+00         0.00000E+00        -0.30444E-07
 
    0.87085E+05         0.27947E+02         0.00000E+00
    0.27947E+02        -0.47635E+08         0.00000E+00
    0.00000E+00         0.00000E+00         0.00000E+00
 
    0.82039E+05         0.15564E+03         0.00000E+00
    0.15564E+03        -0.47641E+08         0.00000E+00
    0.00000E+00         0.00000E+00        -0.10148E-07
 
    0.78054E+05         0.27619E+03         0.00000E+00
    0.27619E+03        -0.47648E+08         0.00000E+00
    0.00000E+00         0.00000E+00        -0.50741E-07
 
    0.75058E+05         0.38994E+03         0.00000E+00
    0.38994E+03        -0.47654E+08         0.00000E+00
    0.00000E+00         0.00000E+00        -0.20296E-07
 
    0.72978E+05         0.49724E+03         0.00000E+00
    0.49724E+03        -0.47661E+08         0.00000E+00
    0.00000E+00         0.00000E+00        -0.50741E-07
 
    0.71740E+05         0.59858E+03         0.00000E+00
    0.59858E+03        -0.47667E+08         0.00000E+00
    0.00000E+00         0.00000E+00        -0.60889E-07
 
    0.71274E+05         0.69459E+03         0.00000E+00
    0.69459E+03        -0.47674E+08         0.00000E+00
    0.00000E+00         0.00000E+00         0.60889E-07
 
    0.71514E+05         0.78605E+03         0.00000E+00
    0.78605E+03        -0.47682E+08         0.00000E+00
    0.00000E+00         0.00000E+00         0.30444E-07
 
    0.72400E+05         0.87380E+03         0.00000E+00
    0.87380E+03        -0.47689E+08         0.00000E+00
    0.00000E+00         0.00000E+00         0.00000E+00
 
    0.73880E+05         0.95873E+03         0.00000E+00
    0.95873E+03        -0.47696E+08         0.00000E+00
    0.00000E+00         0.00000E+00        -0.50741E-07
 
    0.75908E+05         0.10417E+04         0.00000E+00
    0.10417E+04        -0.47704E+08         0.00000E+00
    0.00000E+00         0.00000E+00         0.10148E-07
 
    0.78445E+05         0.11237E+04         0.00000E+00
    0.11237E+04        -0.47713E+08         0.00000E+00
    0.00000E+00         0.00000E+00         0.60889E-07
 
    0.81460E+05         0.12054E+04         0.00000E+00
    0.12054E+04        -0.47721E+08         0.00000E+00
    0.00000E+00         0.00000E+00         0.81185E-07
 
    0.84928E+05         0.12876E+04         0.00000E+00
    0.12876E+04        -0.47730E+08         0.00000E+00
    0.00000E+00         0.00000E+00         0.60889E-07
 
    0.88829E+05         0.13711E+04         0.00000E+00
    0.13711E+04        -0.47739E+08         0.00000E+00
    0.00000E+00         0.00000E+00         0.20296E-07
 
    0.93149E+05         0.14564E+04         0.00000E+00
    0.14564E+04        -0.47749E+08         0.00000E+00
    0.00000E+00         0.00000E+00        -0.20296E-07
 
    0.97879E+05         0.15442E+04         0.00000E+00
    0.15442E+04        -0.47759E+08         0.00000E+00
    0.00000E+00         0.00000E+00         0.30444E-07
 
    0.10301E+06         0.16351E+04         0.00000E+00
    0.16351E+04        -0.47770E+08         0.00000E+00
    0.00000E+00         0.00000E+00         0.60889E-07
 
    0.10855E+06         0.17296E+04         0.00000E+00
    0.17296E+04        -0.47781E+08         0.00000E+00
    0.00000E+00         0.00000E+00        -0.30444E-07
 
    0.11450E+06         0.18281E+04         0.00000E+00
    0.18281E+04        -0.47792E+08         0.00000E+00
    0.00000E+00         0.00000E+00         0.50741E-07
 
    0.12086E+06         0.19312E+04         0.00000E+00
    0.19312E+04        -0.47805E+08         0.00000E+00
    0.00000E+00         0.00000E+00        -0.20296E-07
 
    0.12764E+06         0.20393E+04         0.00000E+00
    0.20393E+04        -0.47817E+08         0.00000E+00
    0.00000E+00         0.00000E+00         0.30444E-07
 
    0.13485E+06         0.21529E+04         0.00000E+00
    0.21529E+04        -0.47831E+08         0.00000E+00
    0.00000E+00         0.00000E+00        -0.40593E-07
 
    0.14251E+06         0.22723E+04         0.00000E+00
    0.22723E+04        -0.47845E+08         0.00000E+00
    0.00000E+00         0.00000E+00        -0.10148E-07
 
    0.15062E+06         0.23980E+04         0.00000E+00
    0.23980E+04        -0.47860E+08         0.00000E+00
    0.00000E+00         0.00000E+00         0.60889E-07
 
    0.15921E+06         0.25305E+04         0.00000E+00
    0.25305E+04        -0.47876E+08         0.00000E+00
    0.00000E+00         0.00000E+00         0.81185E-07
 
    0.16830E+06         0.26702E+04         0.00000E+00
    0.26702E+04        -0.47893E+08         0.00000E+00
    0.00000E+00         0.00000E+00        -0.71037E-07
 
    0.17791E+06         0.28174E+04         0.00000E+00
    0.28174E+04        -0.47910E+08         0.00000E+00
    0.00000E+00         0.00000E+00         0.00000E+00
 
    0.18806E+06         0.29728E+04         0.00000E+00
    0.29728E+04        -0.47929E+08         0.00000E+00
    0.00000E+00         0.00000E+00        -0.20296E-07
 
    0.19877E+06         0.31367E+04         0.00000E+00
    0.31367E+04        -0.47949E+08         0.00000E+00
    0.00000E+00         0.00000E+00         0.10148E-07
 
    0.21008E+06         0.33097E+04         0.00000E+00
    0.33097E+04        -0.47969E+08         0.00000E+00
    0.00000E+00         0.00000E+00        -0.30444E-07
 
    0.22200E+06         0.34921E+04         0.00000E+00
    0.34921E+04        -0.47991E+08         0.00000E+00
    0.00000E+00         0.00000E+00        -0.50741E-07
 
    0.23456E+06         0.36846E+04         0.00000E+00
    0.36846E+04        -0.48014E+08         0.00000E+00
    0.00000E+00         0.00000E+00         0.30444E-07
 
    0.24780E+06         0.38877E+04         0.00000E+00
    0.38877E+04        -0.48038E+08         0.00000E+00
    0.00000E+00         0.00000E+00         0.40592E-07
 
    0.26175E+06         0.41019E+04         0.00000E+00
    0.41019E+04        -0.48064E+08         0.00000E+00
    0.00000E+00         0.00000E+00        -0.40592E-07
 
    0.27643E+06         0.43277E+04         0.00000E+00
    0.43277E+04        -0.48091E+08         0.00000E+00
    0.00000E+00         0.00000E+00        -0.30444E-07
 
    0.29189E+06         0.45658E+04         0.00000E+00
    0.45658E+04        -0.48120E+08         0.00000E+00
    0.00000E+00         0.00000E+00        -0.11369E-12
 
    0.30815E+06         0.48168E+04         0.00000E+00
    0.48168E+04        -0.48150E+08         0.00000E+00
    0.00000E+00         0.00000E+00         0.40593E-07
 
    0.32526E+06         0.50812E+04         0.00000E+00
    0.50812E+04        -0.48182E+08         0.00000E+00
    0.00000E+00         0.00000E+00        -0.81185E-07
 
    0.34324E+06         0.53598E+04         0.00000E+00
    0.53598E+04        -0.48216E+08         0.00000E+00
    0.00000E+00         0.00000E+00        -0.40593E-07
 
    0.36213E+06         0.56531E+04         0.00000E+00
    0.56531E+04        -0.48251E+08         0.00000E+00
    0.00000E+00         0.00000E+00        -0.50741E-07
 
    0.38197E+06         0.59619E+04         0.00000E+00
    0.59619E+04        -0.48289E+08         0.00000E+00
    0.00000E+00         0.00000E+00        -0.11163E-06
 
    0.40281E+06         0.62869E+04         0.00000E+00
    0.62869E+04        -0.48329E+08         0.00000E+00
    0.00000E+00         0.00000E+00        -0.10148E-07
 
    0.42466E+06         0.66286E+04         0.00000E+00
    0.66286E+04        -0.48371E+08         0.00000E+00
    0.00000E+00         0.00000E+00        -0.20296E-07
 
    0.44757E+06         0.69879E+04         0.00000E+00
    0.69879E+04        -0.48416E+08         0.00000E+00
    0.00000E+00         0.00000E+00        -0.60889E-07
 
    0.47158E+06         0.73655E+04         0.00000E+00
    0.73655E+04        -0.48463E+08         0.00000E+00
    0.00000E+00         0.00000E+00        -0.60889E-07
 
    0.49671E+06         0.77620E+04         0.00000E+00
    0.77620E+04        -0.48512E+08         0.00000E+00
    0.00000E+00         0.00000E+00        -0.60889E-07
 
    0.52300E+06         0.81782E+04         0.00000E+00
    0.81782E+04        -0.48565E+08         0.00000E+00
    0.00000E+00         0.00000E+00         0.00000E+00
 
    0.55048E+06         0.86147E+04         0.00000E+00
    0.86147E+04        -0.48621E+08         0.00000E+00
    0.00000E+00         0.00000E+00         0.10148E-07
 
    0.57916E+06         0.90723E+04         0.00000E+00
    0.90723E+04        -0.48680E+08         0.00000E+00
    0.00000E+00         0.00000E+00         0.60889E-07
 
    0.60908E+06         0.95515E+04         0.00000E+00
    0.95515E+04        -0.48742E+08         0.00000E+00
    0.00000E+00         0.00000E+00        -0.40593E-07
 
    0.64024E+06         0.10053E+05         0.00000E+00
    0.10053E+05        -0.48808E+08         0.00000E+00
    0.00000E+00         0.00000E+00        -0.14207E-06
 
    0.67265E+06         0.10577E+05         0.00000E+00
    0.10577E+05        -0.48877E+08         0.00000E+00
    0.00000E+00         0.00000E+00         0.71037E-07
 
    0.70631E+06         0.11125E+05         0.00000E+00
    0.11125E+05        -0.48951E+08         0.00000E+00
    0.00000E+00         0.00000E+00         0.60889E-07
 
    0.74121E+06         0.11696E+05         0.00000E+00
    0.11696E+05        -0.49029E+08         0.00000E+00
    0.00000E+00         0.00000E+00        -0.60888E-07
 
    0.77732E+06         0.12291E+05         0.00000E+00
    0.12291E+05        -0.49111E+08         0.00000E+00
    0.00000E+00         0.00000E+00         0.50741E-07
 
    0.81461E+06         0.12910E+05         0.00000E+00
    0.12910E+05        -0.49199E+08         0.00000E+00
    0.00000E+00         0.00000E+00         0.30444E-07
 
    0.85301E+06         0.13553E+05         0.00000E+00
    0.13553E+05        -0.49291E+08         0.00000E+00
    0.00000E+00         0.00000E+00        -0.71037E-07
 
    0.89244E+06         0.14219E+05         0.00000E+00
    0.14219E+05        -0.49389E+08         0.00000E+00
    0.00000E+00         0.00000E+00        -0.10148E-07
 
    0.93279E+06         0.14907E+05         0.00000E+00
    0.14907E+05        -0.49492E+08         0.00000E+00
    0.00000E+00         0.00000E+00        -0.30444E-07
 
    0.97393E+06         0.15618E+05         0.00000E+00
    0.15618E+05        -0.49602E+08         0.00000E+00
    0.00000E+00         0.00000E+00        -0.20296E-07
 
    0.10157E+07         0.16348E+05         0.00000E+00
    0.16348E+05        -0.49718E+08         0.00000E+00
    0.00000E+00         0.00000E+00         0.20296E-07
 
    0.10578E+07         0.17095E+05         0.00000E+00
    0.17095E+05        -0.49841E+08         0.00000E+00
    0.00000E+00         0.00000E+00         0.17252E-06
 
    0.11001E+07         0.17858E+05         0.00000E+00
    0.17858E+05        -0.49971E+08         0.00000E+00
    0.00000E+00         0.00000E+00         0.30444E-07
 
    0.11421E+07         0.18630E+05         0.00000E+00
    0.18630E+05        -0.50108E+08         0.00000E+00
    0.00000E+00         0.00000E+00        -0.10148E-07
 
    0.11835E+07         0.19409E+05         0.00000E+00
    0.19409E+05        -0.50254E+08         0.00000E+00
    0.00000E+00         0.00000E+00         0.10148E-07
 
    0.12237E+07         0.20186E+05         0.00000E+00
    0.20186E+05        -0.50409E+08         0.00000E+00
    0.00000E+00         0.00000E+00        -0.30444E-07
 
    0.12622E+07         0.20954E+05         0.00000E+00
    0.20954E+05        -0.50572E+08         0.00000E+00
    0.00000E+00         0.00000E+00         0.10148E-06
 
    0.12982E+07         0.21702E+05         0.00000E+00
    0.21702E+05        -0.50746E+08         0.00000E+00
    0.00000E+00         0.00000E+00         0.71037E-07
 
    0.13307E+07         0.22416E+05         0.00000E+00
    0.22416E+05        -0.50930E+08         0.00000E+00
    0.00000E+00         0.00000E+00        -0.81185E-07
 
    0.13587E+07         0.23081E+05         0.00000E+00
    0.23081E+05        -0.51125E+08         0.00000E+00
    0.00000E+00         0.00000E+00        -0.71037E-07
 
    0.13809E+07         0.23677E+05         0.00000E+00
    0.23677E+05        -0.51331E+08         0.00000E+00
    0.00000E+00         0.00000E+00         0.20296E-07
 
    0.13957E+07         0.24179E+05         0.00000E+00
    0.24179E+05        -0.51551E+08         0.00000E+00
    0.00000E+00         0.00000E+00        -0.71037E-07
 
    0.14012E+07         0.24556E+05         0.00000E+00
    0.24556E+05        -0.51783E+08         0.00000E+00
    0.00000E+00         0.00000E+00         0.81185E-07
 
    0.13950E+07         0.24774E+05         0.00000E+00
    0.24774E+05        -0.52030E+08         0.00000E+00
    0.00000E+00         0.00000E+00         0.91332E-07
 
    0.13747E+07         0.24789E+05         0.00000E+00
    0.24789E+05        -0.52292E+08         0.00000E+00
    0.00000E+00         0.00000E+00        -0.81185E-07
 
    0.13368E+07         0.24551E+05         0.00000E+00
    0.24551E+05        -0.52570E+08         0.00000E+00
    0.00000E+00         0.00000E+00        -0.50741E-07
 
    0.12777E+07         0.23999E+05         0.00000E+00
    0.23999E+05        -0.52866E+08         0.00000E+00
    0.00000E+00         0.00000E+00         0.30444E-07
 
    0.11929E+07         0.23064E+05         0.00000E+00
    0.23064E+05        -0.53180E+08         0.00000E+00
    0.00000E+00         0.00000E+00         0.20296E-07
 
    0.10772E+07         0.21670E+05         0.00000E+00
    0.21670E+05        -0.53513E+08         0.00000E+00
    0.00000E+00         0.00000E+00         0.10148E-07
 
    0.92468E+06         0.19728E+05         0.00000E+00
    0.19728E+05        -0.53868E+08         0.00000E+00
    0.00000E+00         0.00000E+00        -0.71037E-07
 
    0.72839E+06         0.17145E+05         0.00000E+00
    0.17145E+05        -0.54245E+08         0.00000E+00
    0.00000E+00         0.00000E+00         0.30444E-07
 
    0.48054E+06         0.13821E+05         0.00000E+00
    0.13821E+05        -0.54647E+08         0.00000E+00
    0.00000E+00         0.00000E+00         0.20296E-07
 
    0.17239E+06         0.96551E+04         0.00000E+00
    0.96551E+04        -0.55074E+08         0.00000E+00
    0.00000E+00         0.00000E+00        -0.12178E-06
 
   -0.20569E+06         0.45528E+04         0.00000E+00
    0.45528E+04        -0.55528E+08         0.00000E+00
    0.00000E+00         0.00000E+00        -0.13193E-06
 
   -0.66409E+06        -0.15699E+04         0.00000E+00
   -0.15699E+04        -0.56013E+08         0.00000E+00
    0.00000E+00         0.00000E+00         0.81185E-07
 
   -0.12138E+07        -0.87784E+04         0.00000E+00
   -0.87784E+04        -0.56529E+08         0.00000E+00
    0.00000E+00         0.00000E+00         0.10148E-07
 
   -0.18660E+07        -0.17113E+05         0.00000E+00
   -0.17113E+05        -0.57080E+08         0.00000E+00
    0.00000E+00         0.00000E+00        -0.11163E-06
 
   -0.26320E+07        -0.26597E+05         0.00000E+00
   -0.26597E+05        -0.57667E+08         0.00000E+00
    0.00000E+00         0.00000E+00         0.50741E-07
 
   -0.35224E+07        -0.37247E+05         0.00000E+00
   -0.37247E+05        -0.58294E+08         0.00000E+00
    0.00000E+00         0.00000E+00        -0.40593E-07
 
   -0.45468E+07        -0.49126E+05         0.00000E+00
   -0.49126E+05        -0.58964E+08         0.00000E+00
    0.00000E+00         0.00000E+00        -0.50741E-07
 
   -0.57134E+07        -0.62689E+05         0.00000E+00
   -0.62689E+05        -0.59680E+08         0.00000E+00
    0.00000E+00         0.00000E+00        -0.40593E-07
 
   -0.70262E+07        -0.77856E+05         0.00000E+00
   -0.77856E+05        -0.60447E+08         0.00000E+00
    0.00000E+00         0.00000E+00         0.18190E-11
 
   -0.84940E+07        -0.10252E+06         0.00000E+00
   -0.10252E+06        -0.61264E+08         0.00000E+00
    0.00000E+00         0.00000E+00        -0.11163E-06
 
   -0.10004E+08        -0.14923E+06         0.00000E+00
   -0.14923E+06        -0.62158E+08         0.00000E+00
    0.00000E+00         0.00000E+00         0.20294E-07
 
TENSORS stresstot double 
   -0.49995E+08         0.55387E+04         0.00000E+00
    0.55387E+04        -0.97578E+08         0.00000E+00
    0.00000E+00         0.00000E+00        -0.49997E+08
 
   -0.49989E+08         0.14925E+05         0.00000E+00
    0.14925E+05        -0.97574E+08         0.00000E+00
    0.00000E+00         0.00000E+00        -0.49991E+08
 
   -0.49983E+08         0.22070E+05         0.00000E+00
    0.22070E+05        -0.97572E+08         0.00000E+00
    0.00000E+00         0.00000E+00        -0.49984E+08
 
   -0.49977E+08         0.28326E+05         0.00000E+00
    0.28326E+05        -0.97570E+08         0.00000E+00
    0.00000E+00         0.00000E+00        -0.49978E+08
 
   -0.49971E+08         0.34044E+05         0.00000E+00
    0.34044E+05        -0.97569E+08         0.00000E+00
    0.00000E+00         0.00000E+00        -0.49972E+08
 
   -0.49964E+08         0.39448E+05         0.00000E+00
    0.39448E+05        -0.97568E+08         0.00000E+00
    0.00000E+00         0.00000E+00        -0.49966E+08
 
   -0.49958E+08         0.44667E+05         0.00000E+00
    0.44667E+05        -0.97568E+08         0.00000E+00
    0.00000E+00         0.00000E+00        -0.49959E+08
 
   -0.49952E+08         0.49787E+05         0.00000E+00
    0.49787E+05        -0.97568E+08         0.00000E+00
    0.00000E+00         0.00000E+00        -0.49953E+08
 
   -0.49945E+08         0.54866E+05         0.00000E+00
    0.54866E+05        -0.97568E+08         0.00000E+00
    0.00000E+00         0.00000E+00        -0.49946E+08
 
   -0.49939E+08         0.59943E+05         0.00000E+00
    0.59943E+05        -0.97568E+08         0.00000E+00
    0.00000E+00         0.00000E+00        -0.49940E+08
 
   -0.49932E+08         0.65048E+05         0.00000E+00
    0.65048E+05        -0.97568E+08         0.00000E+00
    0.00000E+00         0.00000E+00        -0.49933E+08
 
   -0.49925E+08         0.70206E+05         0.00000E+00
    0.70206E+05        -0.97568E+08         0.00000E+00
    0.00000E+00         0.00000E+00        -0.49926E+08
 
   -0.49918E+08         0.75442E+05         0.00000E+00
    0.75442E+05        -0.97568E+08         0.00000E+00
    0.00000E+00         0.00000E+00        -0.49919E+08
 
   -0.49911E+08         0.80776E+05         0.00000E+00
    0.80776E+05        -0.97568E+08         0.00000E+00
    0.00000E+00         0.00000E+00        -0.49912E+08
 
   -0.49903E+08         0.86232E+05         0.00000E+00
    0.86232E+05        -0.97568E+08         0.00000E+00
    0.00000E+00         0.00000E+00        -0.49904E+08
 
   -0.49895E+08         0.91833E+05         0.00000E+00
    0.91833E+05        -0.97567E+08         0.00000E+00
    0.00000E+00         0.00000E+00        -0.49896E+08
 
   -0.49887E+08         0.97602E+05         0.00000E+00
    0.97602E+05        -0.97567E+08         0.00000E+00
    0.00000E+00         0.00000E+00        -0.49888E+08
 
   -0.49878E+08         0.10356E+06         0.00000E+00
    0.10356E+06        -0.97566E+08         0.00000E+00
    0.00000E+00         0.00000E+00        -0.49880E+08
 
   -0.49869E+08         0.10975E+06         0.00000E+00
    0.10975E+06        -0.97565E+08         0.00000E+00
    0.00000E+00         0.00000E+00        -0.49871E+08
 
   -0.49860E+08         0.11617E+06         0.00000E+00
    0.11617E+06        -0.97564E+08         0.00000E+00
    0.00000E+00         0.00000E+00        -0.49861E+08
 
   -0.49850E+08         0.12287E+06         0.00000E+00
    0.12287E+06        -0.97563E+08         0.00000E+00
    0.00000E+00         0.00000E+00        -0.49852E+08
 
   -0.49840E+08         0.12987E+06         0.00000E+00
    0.12987E+06        -0.97561E+08         0.00000E+00
    0.00000E+00         0.00000E+00        -0.49842E+08
 
   -0.49830E+08         0.13720E+06         0.00000E+00
    0.13720E+06        -0.97559E+08         0.00000E+00
    0.00000E+00         0.00000E+00        -0.49831E+08
 
   -0.49818E+08         0.14488E+06         0.00000E+00
    0.14488E+06        -0.97558E+08         0.00000E+00
    0.00000E+00         0.00000E+00        -0.49820E+08
 
   -0.49807E+08         0.15294E+06         0.00000E+00
    0.15294E+06        -0.97556E+08         0.00000E+00
    0.00000E+00         0.00000E+00        -0.49808E+08
 
   -0.49794E+08         0.16142E+06         0.00000E+00
    0.16142E+06        -0.97553E+08         0.00000E+00
    0.00000E+00         0.00000E+00        -0.49796E+08
 
   -0.49782E+08         0.17035E+06         0.00000E+00
    0.17035E+06        -0.97551E+08         0.00000E+00
    0.00000E+00         0.00000E+00        -0.49783E+08
 
   -0.49768E+08         0.17975E+06         0.00000E+00
    0.17975E+06        -0.97549E+08         0.00000E+00
    0.00000E+00         0.00000E+00        -0.49770E+08
 
   -0.49754E+08         0.18966E+06         0.00000E+00
    0.18966E+06        -0.97546E+08         0.00000E+00
    0.00000E+00         0.00000E+00        -0.49756E+08
 
   -0.49739E+08         0.20010E+06         0.00000E+00
    0.20010E+06        -0.97543E+08         0.00000E+00
    0.00000E+00         0.00000E+00        -0.49741E+08
 
   -0.49723E+08         0.21112E+06         0.00000E+00
    0.21112E+06        -0.97540E+08         0.00000E+00
    0.00000E+00         0.00000E+00        -0.49725E+08
 
   -0.49706E+08         0.22275E+06         0.00000E+00
    0.22275E+06        -0.97537E+08         0.00000E+00
    0.00000E+00         0.00000E+00        -0.49708E+08
 
   -0.49688E+08         0.23502E+06         0.00000E+00
    0.23502E+06        -0.97533E+08         0.00000E+00
    0.00000E+00         0.00000E+00        -0.49691E+08
 
   -0.49670E+08         0.24798E+06         0.00000E+00
    0.24798E+06        -0.97529E+08         0.00000E+00
    0.00000E+00         0.00000E+00        -0.49672E+08
 
   -0.49650E+08         0.26165E+06         0.00000E+00
    0.26165E+06        -0.97526E+08         0.00000E+00
    0.00000E+00         0.00000E+00        -0.49653E+08
 
   -0.49629E+08         0.27608E+06         0.00000E+00
    0.27608E+06        -0.97521E+08         0.00000E+00
    0.00000E+00         0.00000E+00        -0.49632E+08
 
   -0.49607E+08         0.29132E+06         0.00000E+00
    0.29132E+06        -0.97517E+08         0.00000E+00
    0.00000E+00         0.00000E+00        -0.49611E+08
 
   -0.49584E+08         0.30740E+06         0.00000E+00
    0.30740E+06        -0.97513E+08         0.00000E+00
    0.00000E+00         0.00000E+00        -0.49588E+08
 
   -0.49560E+08         0.32437E+06         0.00000E+00
    0.32437E+06        -0.97508E+08         0.00000E+00
    0.00000E+00         0.00000E+00        -0.49563E+08
 
   -0.49534E+08         0.34227E+06         0.00000E+00
    0.34227E+06        -0.97503E+08         0.00000E+00
    0.00000E+00         0.00000E+00        -0.49538E+08
 
   -0.49507E+08         0.36116E+06         0.00000E+00
    0.36116E+06        -0.97498E+08         0.00000E+00
    0.00000E+00         0.00000E+00        -0.49511E+08
 
   -0.49478E+08         0.38108E+06         0.00000E+00
    0.38108E+06        -0.97492E+08         0.00000E+00
    0.00000E+00         0.00000E+00        -0.49482E+08
 
   -0.49448E+08         0.40209E+06         0.00000E+00
    0.40209E+06        -0.97486E+08         0.00000E+00
    0.00000E+00         0.00000E+00        -0.49452E+08
 
   -0.49416E+08         0.42423E+06         0.00000E+00
    0.42423E+06        -0.97480E+08         0.00000E+00
    0.00000E+00         0.00000E+00        -0.49420E+08
 
   -0.49382E+08         0.44757E+06         0.00000E+00
    0.44757E+06        -0.97474E+08         0.00000E+00
    0.00000E+00         0.00000E+00        -0.49387E+08
 
   -0.49346E+08         0.47216E+06         0.00000E+00
    0.47216E+06        -0.97467E+08         0.00000E+00
    0.00000E+00         0.00000E+00        -0.49351E+08
 
   -0.49308E+08         0.49806E+06         0.00000E+00
    0.49806E+06        -0.97460E+08         0.00000E+00
    0.00000E+00         0.00000E+00        -0.49314E+08
 
   -0.49268E+08         0.52533E+06         0.00000E+00
    0.52533E+06        -0.97453E+08         0.00000E+00
    0.00000E+00         0.00000E+00        -0.49274E+08
 
   -0.49226E+08         0.55402E+06         0.00000E+00
    0.55402E+06        -0.97446E+08         0.00000E+00
    0.00000E+00         0.00000E+00        -0.49232E+08
 
   -0.49181E+08         0.58421E+06         0.00000E+00
    0.58421E+06        -0.97438E+08         0.00000E+00
    0.00000E+00         0.00000E+00        -0.49188E+08
 
   -0.49134E+08         0.61596E+06         0.00000E+00
    0.61596E+06        -0.97430E+08         0.00000E+00
    0.00000E+00         0.00000E+00        -0.49141E+08
 
   -0.49084E+08         0.64932E+06         0.00000E+00
    0.64932E+06        -0.97421E+08         0.00000E+00
    0.00000E+00         0.00000E+00        -0.49091E+08
 
   -0.49031E+08         0.68436E+06         0.00000E+00
    0.68436E+06        -0.97412E+08         0.00000E+00
    0.00000E+00         0.00000E+00        -0.49039E+08
 
   -0.48976E+08         0.72115E+06         0.00000E+00
    0.72115E+06        -0.97403E+08         0.00000E+00
    0.00000E+00         0.00000E+00        -0.48983E+08
 
   -0.48917E+08         0.75975E+06         0.00000E+00
    0.75975E+06        -0.97394E+08         0.00000E+00
    0.00000E+00         0.00000E+00        -0.48925E+08
 
   -0.48854E+08         0.80020E+06         0.00000E+00
    0.80020E+06        -0.97385E+08         0.00000E+00
    0.00000E+00         0.00000E+00        -0.48863E+08
 
   -0.48788E+08         0.84258E+06         0.00000E+00
    0.84258E+06        -0.97375E+08         0.00000E+00
    0.00000E+00         0.00000E+00        -0.48797E+08
 
   -0.48718E+08         0.88694E+06         0.00000E+00
    0.88694E+06        -0.97365E+08         0.00000E+00
    0.00000E+00         0.00000E+00        -0.48727E+08
 
   -0.48645E+08         0.93332E+06         0.00000E+00
    0.93332E+06        -0.97355E+08         0.00000E+00
    0.00000E+00         0.00000E+00        -0.48654E+08
 
   -0.48566E+08         0.98177E+06         0.00000E+00
    0.98177E+06        -0.97345E+08         0.00000E+00
    0.00000E+00         0.00000E+00        -0.48576E+08
 
   -0.48484E+08         0.10323E+07         0.00000E+00
    0.10323E+07        -0.97335E+08         0.00000E+00
    0.00000E+00         0.00000E+00        -0.48494E+08
 
   -0.48396E+08         0.10850E+07         0.00000E+00
    0.10850E+07        -0.97325E+08         0.00000E+00
    0.00000E+00         0.00000E+00        -0.48407E+08
 
   -0.48304E+08         0.11398E+07         0.00000E+00
    0.11398E+07        -0.97315E+08         0.00000E+00
    0.00000E+00         0.00000E+00        -0.48315E+08
 
   -0.48206E+08         0.11967E+07         0.00000E+00
    0.11967E+07        -0.97305E+08         0.00000E+00
    0.00000E+00         0.00000E+00        -0.48218E+08
 
   -0.48102E+08         0.12558E+07         0.00000E+00
    0.12558E+07        -0.97296E+08         0.00000E+00
    0.00000E+00         0.00000E+00        -0.48115E+08
 
   -0.47993E+08         0.13169E+07         0.00000E+00
    0.13169E+07        -0.97287E+08         0.00000E+00
    0.00000E+00         0.00000E+00        -0.48005E+08
 
   -0.47877E+08         0.13800E+07         0.00000E+00
    0.13800E+07        -0.97280E+08         0.00000E+00
    0.00000E+00         0.00000E+00        -0.47890E+08
 
   -0.47754E+08         0.14451E+07         0.00000E+00
    0.14451E+07        -0.97273E+08         0.00000E+00
    0.00000E+00         0.00000E+00        -0.47767E+08
 
   -0.47624E+08         0.15119E+07         0.00000E+00
    0.15119E+07        -0.97267E+08         0.00000E+00
    0.00000E+00         0.00000E+00        -0.47638E+08
 
   -0.47486E+08         0.15804E+07         0.00000E+00
    0.15804E+07        -0.97263E+08         0.00000E+00
    0.00000E+00         0.00000E+00        -0.47500E+08
 
   -0.47341E+08         0.16504E+07         0.00000E+00
    0.16504E+07        -0.97261E+08         0.00000E+00
    0.00000E+00         0.00000E+00        -0.47355E+08
 
   -0.47186E+08         0.17215E+07         0.00000E+00
    0.17215E+07        -0.97261E+08         0.00000E+00
    0.00000E+00         0.00000E+00        -0.47201E+08
 
   -0.47023E+08         0.17935E+07         0.00000E+00
    0.17935E+07        -0.97264E+08         0.00000E+00
    0.00000E+00         0.00000E+00        -0.47038E+08
 
   -0.46850E+08         0.18661E+07         0.00000E+00
    0.18661E+07        -0.97271E+08         0.00000E+00
    0.00000E+00         0.00000E+00        -0.46864E+08
 
   -0.46666E+08         0.19388E+07         0.00000E+00
    0.19388E+07        -0.97281E+08         0.00000E+00
    0.00000E+00         0.00000E+00        -0.46681E+08
 
   -0.46472E+08         0.20112E+07         0.00000E+00
    0.20112E+07        -0.97296E+08         0.00000E+00
    0.00000E+00         0.00000E+00        -0.46486E+08
 
   -0.46266E+08         0.20827E+07         0.00000E+00
    0.20827E+07        -0.97317E+08         0.00000E+00
    0.00000E+00         0.00000E+00        -0.46280E+08
 
   -0.46047E+08         0.21526E+07         0.00000E+00
    0.21526E+07        -0.97343E+08         0.00000E+00
    0.00000E+00         0.00000E+00        -0.46061E+08
 
   -0.45815E+08         0.22204E+07         0.00000E+00
    0.22204E+07        -0.97376E+08         0.00000E+00
    0.00000E+00         0.00000E+00        -0.45828E+08
 
   -0.45569E+08         0.22853E+07         0.00000E+00
    0.22853E+07        -0.97418E+08         0.00000E+00
    0.00000E+00         0.00000E+00        -0.45582E+08
 
   -0.45308E+08         0.23465E+07         0.00000E+00
    0.23465E+07        -0.97467E+08         0.00000E+00
    0.00000E+00         0.00000E+00        -0.45320E+08
 
   -0.45030E+08         0.24030E+07         0.00000E+00
    0.24030E+07        -0.97527E+08         0.00000E+00
    0.00000E+00         0.00000E+00        -0.45041E+08
 
   -0.44736E+08         0.24540E+07         0.00000E+00
    0.24540E+07        -0.97597E+08         0.00000E+00
    0.00000E+00         0.00000E+00        -0.44745E+08
 
   -0.44422E+08         0.24985E+07         0.00000E+00
    0.24985E+07        -0.97677E+08         0.00000E+00
    0.00000E+00         0.00000E+00        -0.44431E+08
 
   -0.44089E+08         0.25356E+07         0.00000E+00
    0.25356E+07        -0.97769E+08         0.00000E+00
    0.00000E+00         0.00000E+00        -0.44096E+08
 
   -0.43735E+08         0.25644E+07         0.00000E+00
    0.25644E+07        -0.97872E+08         0.00000E+00
    0.00000E+00         0.00000E+00        -0.43741E+08
 
   -0.43359E+08         0.25839E+07         0.00000E+00
    0.25839E+07        -0.97985E+08         0.00000E+00
    0.00000E+00         0.00000E+00        -0.43362E+08
 
   -0.42957E+08         0.25933E+07         0.00000E+00
    0.25933E+07        -0.98107E+08         0.00000E+00
    0.00000E+00         0.00000E+00        -0.42959E+08
 
   -0.42530E+08         0.25916E+07         0.00000E+00
    0.25916E+07        -0.98236E+08         0.00000E+00
    0.00000E+00         0.00000E+00        -0.42529E+08
 
   -0.42075E+08         0.25780E+07         0.00000E+00
    0.25780E+07        -0.98368E+08         0.00000E+00
    0.00000E+00         0.00000E+00        -0.42071E+08
 
   -0.41590E+08         0.25513E+07         0.00000E+00
    0.25513E+07        -0.98497E+08         0.00000E+00
    0.00000E+00         0.00000E+00        -0.41583E+08
 
   -0.41072E+08         0.25101E+07         0.00000E+00
    0.25101E+07        -0.98615E+08         0.00000E+00
    0.00000E+00         0.00000E+00        -0.41063E+08
 
   -0.40521E+08         0.24522E+07         0.00000E+00
    0.24522E+07        -0.98713E+08         0.00000E+00
    0.00000E+00         0.00000E+00        -0.40508E+08
 
   -0.39934E+08         0.23739E+07         0.00000E+00
    0.23739E+07        -0.98779E+08         0.00000E+00
    0.00000E+00         0.00000E+00        -0.39916E+08
 
   -0.39309E+08         0.22689E+07         0.00000E+00
    0.22689E+07        -0.98797E+08         0.00000E+00
    0.00000E+00         0.00000E+00        -0.39284E+08
 
   -0.38644E+08         0.21270E+07         0.00000E+00
    0.21270E+07        -0.98749E+08         0.00000E+00
    0.00000E+00         0.00000E+00        -0.38611E+08
 
   -0.37939E+08         0.19311E+07         0.00000E+00
    0.19311E+07        -0.98618E+08         0.00000E+00
    0.00000E+00         0.00000E+00        -0.37893E+08
 
   -0.37195E+08         0.16509E+07         0.00000E+00
    0.16509E+07        -0.98379E+08         0.00000E+00
    0.00000E+00         0.00000E+00        -0.37128E+08
 
   -0.36413E+08         0.12373E+07         0.00000E+00
    0.12373E+07        -0.98023E+08         0.00000E+00
    0.00000E+00         0.00000E+00        -0.36313E+08
 
   -0.35649E+08         0.49484E+06         0.00000E+00
    0.49484E+06        -0.97474E+08         0.00000E+00
    0.00000E+00         0.00000E+00        -0.35447E+08
 
   -0.49990E+08         0.49258E+04         0.00000E+00
    0.49258E+04        -0.97580E+08         0.00000E+00
    0.00000E+00         0.00000E+00        -0.49997E+08
 
   -0.49986E+08         0.13744E+05         0.00000E+00
    0.13744E+05        -0.97576E+08         0.00000E+00
    0.00000E+00         0.00000E+00        -0.49991E+08
 
   -0.49980E+08         0.20900E+05         0.00000E+00
    0.20900E+05        -0.97573E+08         0.00000E+00
    0.00000E+00         0.00000E+00        -0.49984E+08
 
   -0.49975E+08         0.27115E+05         0.00000E+00
    0.27115E+05        -0.97571E+08         0.00000E+00
    0.00000E+00         0.00000E+00        -0.49978E+08
 
   -0.49968E+08         0.32817E+05         0.00000E+00
    0.32817E+05        -0.97570E+08         0.00000E+00
    0.00000E+00         0.00000E+00        -0.49972E+08
 
   -0.49962E+08         0.38202E+05         0.00000E+00
    0.38202E+05        -0.97569E+08         0.00000E+00
    0.00000E+00         0.00000E+00        -0.49966E+08
 
   -0.49956E+08         0.43403E+05         0.00000E+00
    0.43403E+05        -0.97569E+08         0.00000E+00
    0.00000E+00         0.00000E+00        -0.49959E+08
 
   -0.49950E+08         0.48502E+05         0.00000E+00
    0.48502E+05        -0.97569E+08         0.00000E+00
    0.00000E+00         0.00000E+00        -0.49953E+08
 
   -0.49943E+08         0.53556E+05         0.00000E+00
    0.53556E+05        -0.97569E+08         0.00000E+00
    0.00000E+00         0.00000E+00        -0.49946E+08
 
   -0.49937E+08         0.58605E+05         0.00000E+00
    0.58605E+05        -0.97569E+08         0.00000E+00
    0.00000E+00         0.00000E+00        -0.49940E+08
 
   -0.49930E+08         0.63676E+05         0.00000E+00
    0.63676E+05        -0.97569E+08         0.00000E+00
    0.00000E+00         0.00000E+00        -0.49933E+08
 
   -0.49923E+08         0.68797E+05         0.00000E+00
    0.68797E+05        -0.97569E+08         0.00000E+00
    0.00000E+00         0.00000E+00        -0.49926E+08
 
   -0.49916E+08         0.73989E+05         0.00000E+00
    0.73989E+05        -0.97569E+08         0.00000E+00
    0.00000E+00         0.00000E+00        -0.49919E+08
 
   -0.49908E+08         0.79275E+05         0.00000E+00
    0.79275E+05        -0.97569E+08         0.00000E+00
    0.00000E+00         0.00000E+00        -0.49912E+08
 
   -0.49901E+08         0.84678E+05         0.00000E+00
    0.84678E+05        -0.97569E+08         0.00000E+00
    0.00000E+00         0.00000E+00        -0.49904E+08
 
   -0.49893E+08         0.90219E+05         0.00000E+00
    0.90219E+05        -0.97569E+08         0.00000E+00
    0.00000E+00         0.00000E+00        -0.49896E+08
 
   -0.49884E+08         0.95924E+05         0.00000E+00
    0.95924E+05        -0.97568E+08         0.00000E+00
    0.00000E+00         0.00000E+00        -0.49888E+08
 
   -0.49876E+08         0.10182E+06         0.00000E+00
    0.10182E+06        -0.97567E+08         0.00000E+00
    0.00000E+00         0.00000E+00        -0.49880E+08
 
   -0.49867E+08         0.10792E+06         0.00000E+00
    0.10792E+06        -0.97566E+08         0.00000E+00
    0.00000E+00         0.00000E+00        -0.49871E+08
 
   -0.49858E+08         0.11427E+06         0.00000E+00
    0.11427E+06        -0.97565E+08         0.00000E+00
    0.00000E+00         0.00000E+00        -0.49861E+08
 
   -0.49848E+08         0.12088E+06         0.00000E+00
    0.12088E+06        -0.97564E+08         0.00000E+00
    0.00000E+00         0.00000E+00        -0.49852E+08
 
   -0.49837E+08         0.12778E+06         0.00000E+00
    0.12778E+06        -0.97563E+08         0.00000E+00
    0.00000E+00         0.00000E+00        -0.49842E+08
 
   -0.49827E+08         0.13500E+06         0.00000E+00
    0.13500E+06        -0.97561E+08         0.00000E+00
    0.00000E+00         0.00000E+00        -0.49831E+08
 
   -0.49815E+08         0.14258E+06         0.00000E+00
    0.14258E+06        -0.97559E+08         0.00000E+00
    0.00000E+00         0.00000E+00        -0.49820E+08
 
   -0.49803E+08         0.15053E+06         0.00000E+00
    0.15053E+06        -0.97557E+08         0.00000E+00
    0.00000E+00         0.00000E+00        -0.49808E+08
 
   -0.49791E+08         0.15888E+06         0.00000E+00
    0.15888E+06        -0.97555E+08         0.00000E+00
    0.00000E+00         0.00000E+00        -0.49796E+08
 
   -0.49778E+08         0.16768E+06         0.00000E+00
    0.16768E+06        -0.97553E+08         0.00000E+00
    0.00000E+00         0.00000E+00        -0.49783E+08
 
   -0.49764E+08         0.17694E+06         0.00000E+00
    0.17694E+06        -0.97550E+08         0.00000E+00
    0.00000E+00         0.00000E+00        -0.49770E+08
 
   -0.49750E+08         0.18670E+06         0.00000E+00
    0.18670E+06        -0.97548E+08         0.00000E+00
    0.00000E+00         0.00000E+00        -0.49756E+08
 
   -0.49734E+08         0.19698E+06         0.00000E+00
    0.19698E+06        -0.97545E+08         0.00000E+00
    0.00000E+00         0.00000E+00        -0.49741E+08
 
   -0.49718E+08         0.20784E+06         0.00000E+00
    0.20784E+06        -0.97542E+08         0.00000E+00
    0.00000E+00         0.00000E+00        -0.49725E+08
 
   -0.49701E+08         0.21929E+06         0.00000E+00
    0.21929E+06        -0.97539E+08         0.00000E+00
    0.00000E+00         0.00000E+00        -0.49708E+08
 
   -0.49683E+08         0.23137E+06         0.00000E+00
    0.23137E+06        -0.97536E+08         0.00000E+00
    0.00000E+00         0.00000E+00        -0.49691E+08
 
   -0.49664E+08         0.24412E+06         0.00000E+00
    0.24412E+06        -0.97532E+08         0.00000E+00
    0.00000E+00         0.00000E+00        -0.49672E+08
 
   -0.49644E+08         0.25759E+06         0.00000E+00
    0.25759E+06        -0.97528E+08         0.00000E+00
    0.00000E+00         0.00000E+00        -0.49653E+08
 
   -0.49623E+08         0.27179E+06         0.00000E+00
    0.27179E+06        -0.97524E+08         0.00000E+00
    0.00000E+00         0.00000E+00        -0.49632E+08
 
   -0.49601E+08         0.28679E+06         0.00000E+00
    0.28679E+06        -0.97520E+08         0.00000E+00
    0.00000E+00         0.00000E+00        -0.49611E+08
 
   -0.49578E+08         0.30262E+06         0.00000E+00
    0.30262E+06        -0.97516E+08         0.00000E+00
    0.00000E+00         0.00000E+00        -0.49588E+08
 
   -0.49553E+08         0.31932E+06         0.00000E+00
    0.31932E+06        -0.97511E+08         0.00000E+00
    0.00000E+00         0.00000E+00        -0.49563E+08
 
   -0.49527E+08         0.33694E+06         0.00000E+00
    0.33694E+06        -0.97507E+08         0.00000E+00
    0.00000E+00         0.00000E+00        -0.49538E+08
 
   -0.49499E+08         0.35553E+06         0.00000E+00
    0.35553E+06        -0.97501E+08         0.00000E+00
    0.00000E+00         0.00000E+00        -0.49511E+08
 
   -0.49470E+08         0.37513E+06         0.00000E+00
    0.37513E+06        -0.97496E+08         0.00000E+00
    0.00000E+00         0.00000E+00        -0.49482E+08
 
   -0.49439E+08         0.39580E+06         0.00000E+00
    0.39580E+06        -0.97491E+08         0.00000E+00
    0.00000E+00         0.00000E+00        -0.49452E+08
 
   -0.49407E+08         0.41759E+06         0.00000E+00
    0.41759E+06        -0.97485E+08         0.00000E+00
    0.00000E+00         0.00000E+00        -0.49420E+08
 
   -0.49372E+08         0.44056E+06         0.00000E+00
    0.44056E+06        -0.97479E+08         0.00000E+00
    0.00000E+00         0.00000E+00        -0.49387E+08
 
   -0.49336E+08         0.46475E+06         0.00000E+00
    0.46475E+06        -0.97472E+08         0.00000E+00
    0.00000E+00         0.00000E+00        -0.49351E+08
 
   -0.49298E+08         0.49023E+06         0.00000E+00
    0.49023E+06        -0.97466E+08         0.00000E+00
    0.00000E+00         0.00000E+00        -0.49314E+08
 
   -0.49257E+08         0.51705E+06         0.00000E+00
    0.51705E+06        -0.97459E+08         0.00000E+00
    0.00000E+00         0.00000E+00        -0.49274E+08
 
   -0.49214E+08         0.54528E+06         0.00000E+00
    0.54528E+06        -0.97451E+08         0.00000E+00
    0.00000E+00         0.00000E+00        -0.49232E+08
 
   -0.49169E+08         0.57497E+06         0.00000E+00
    0.57497E+06        -0.97444E+08         0.00000E+00
    0.00000E+00         0.00000E+00        -0.49188E+08
 
   -0.49121E+08         0.60618E+06         0.00000E+00
    0.60618E+06        -0.97436E+08         0.00000E+00
    0.00000E+00         0.00000E+00        -0.49141E+08
 
   -0.49071E+08         0.63899E+06         0.00000E+00
    0.63899E+06        -0.97428E+08         0.00000E+00
    0.00000E+00         0.00000E+00        -0.49091E+08
 
   -0.49017E+08         0.67344E+06         0.00000E+00
    0.67344E+06        -0.97420E+08         0.00000E+00
    0.00000E+00         0.00000E+00        -0.49039E+08
 
   -0.48961E+08         0.70960E+06         0.00000E+00
    0.70960E+06        -0.97411E+08         0.00000E+00
    0.00000E+00         0.00000E+00        -0.48983E+08
 
   -0.48901E+08         0.74753E+06         0.00000E+00
    0.74753E+06        -0.97402E+08         0.00000E+00
    0.00000E+00         0.00000E+00        -0.48925E+08
 
   -0.48838E+08         0.78729E+06         0.00000E+00
    0.78729E+06        -0.97393E+08         0.00000E+00
    0.00000E+00         0.00000E+00        -0.48863E+08
 
   -0.48771E+08         0.82893E+06         0.00000E+00
    0.82893E+06        -0.97384E+08         0.00000E+00
    0.00000E+00         0.00000E+00        -0.48797E+08
 
   -0.48700E+08         0.87250E+06         0.00000E+00
    0.87250E+06        -0.97374E+08         0.00000E+00
    0.00000E+00         0.00000E+00        -0.48727E+08
 
   -0.48626E+08         0.91805E+06         0.00000E+00
    0.91805E+06        -0.97364E+08         0.00000E+00
    0.00000E+00         0.00000E+00        -0.48654E+08
 
   -0.48547E+08         0.96562E+06         0.00000E+00
    0.96562E+06        -0.97355E+08         0.00000E+00
    0.00000E+00         0.00000E+00        -0.48576E+08
 
   -0.48463E+08         0.10152E+07         0.00000E+00
    0.10152E+07        -0.97345E+08         0.00000E+00
    0.00000E+00         0.00000E+00        -0.48494E+08
 
   -0.48375E+08         0.10669E+07         0.00000E+00
    0.10669E+07        -0.97335E+08         0.00000E+00
    0.00000E+00         0.00000E+00        -0.48407E+08
 
   -0.48282E+08         0.11207E+07         0.00000E+00
    0.11207E+07        -0.97326E+08         0.00000E+00
    0.00000E+00         0.00000E+00        -0.48315E+08
 
   -0.48183E+08         0.11765E+07         0.00000E+00
    0.11765E+07        -0.97317E+08         0.00000E+00
    0.00000E+00         0.00000E+00        -0.48218E+08
 
   -0.48078E+08         0.12344E+07         0.00000E+00
    0.12344E+07        -0.97308E+08         0.00000E+00
    0.00000E+00         0.00000E+00        -0.48115E+08
 
   -0.47968E+08         0.12943E+07         0.00000E+00
    0.12943E+07        -0.97300E+08         0.00000E+00
    0.00000E+00         0.00000E+00        -0.48005E+08
 
   -0.47851E+08         0.13561E+07         0.00000E+00
    0.13561E+07        -0.97292E+08         0.00000E+00
    0.00000E+00         0.00000E+00        -0.47890E+08
 
   -0.47728E+08         0.14198E+07         0.00000E+00
    0.14198E+07        -0.97286E+08         0.00000E+00
    0.00000E+00         0.00000E+00        -0.47767E+08
 
   -0.47597E+08         0.14851E+07         0.00000E+00
    0.14851E+07        -0.97281E+08         0.00000E+00
    0.00000E+00         0.00000E+00        -0.47638E+08
 
   -0.47459E+08         0.15521E+07         0.00000E+00
    0.15521E+07        -0.97277E+08         0.00000E+00
    0.00000E+00         0.00000E+00        -0.47500E+08
 
   -0.47312E+08         0.16203E+07         0.00000E+00
    0.16203E+07        -0.97275E+08         0.00000E+00
    0.00000E+00         0.00000E+00        -0.47355E+08
 
   -0.47158E+08         0.16897E+07         0.00000E+00
    0.16897E+07        -0.97276E+08         0.00000E+00
    0.00000E+00         0.00000E+00        -0.47201E+08
 
   -0.46994E+08         0.17599E+07         0.00000E+00
    0.17599E+07        -0.97279E+08         0.00000E+00
    0.00000E+00         0.00000E+00        -0.47038E+08
 
   -0.46820E+08         0.18304E+07         0.00000E+00
    0.18304E+07        -0.97285E+08         0.00000E+00
    0.00000E+00         0.00000E+00        -0.46864E+08
 
   -0.46637E+08         0.19010E+07         0.00000E+00
    0.19010E+07        -0.97296E+08         0.00000E+00
    0.00000E+00         0.00000E+00        -0.46681E+08
 
   -0.46443E+08         0.19712E+07         0.00000E+00
    0.19712E+07        -0.97310E+08         0.00000E+00
    0.00000E+00         0.00000E+00        -0.46486E+08
 
   -0.46237E+08         0.20403E+07         0.00000E+00
    0.20403E+07        -0.97330E+08         0.00000E+00
    0.00000E+00         0.00000E+00        -0.46280E+08
 
   -0.46019E+08         0.21077E+07         0.00000E+00
    0.21077E+07        -0.97357E+08         0.00000E+00
    0.00000E+00         0.00000E+00        -0.46061E+08
 
   -0.45788E+08         0.21728E+07         0.00000E+00
    0.21728E+07        -0.97389E+08         0.00000E+00
    0.00000E+00         0.00000E+00        -0.45828E+08
 
   -0.45543E+08         0.22348E+07         0.00000E+00
    0.22348E+07        -0.97430E+08         0.00000E+00
    0.00000E+00         0.00000E+00        -0.45582E+08
 
   -0.45284E+08         0.22928E+07         0.00000E+00
    0.22928E+07        -0.97479E+08         0.00000E+00
    0.00000E+00         0.00000E+00        -0.45320E+08
 
   -0.45008E+08         0.23460E+07         0.00000E+00
    0.23460E+07        -0.97537E+08         0.00000E+00
    0.00000E+00         0.00000E+00        -0.45041E+08
 
   -0.44716E+08         0.23935E+07         0.00000E+00
    0.23935E+07        -0.97606E+08         0.00000E+00
    0.00000E+00         0.00000E+00        -0.44745E+08
 
   -0.44406E+08         0.24343E+07         0.00000E+00
    0.24343E+07        -0.97685E+08         0.00000E+00
    0.00000E+00         0.00000E+00        -0.44431E+08
 
   -0.44076E+08         0.24673E+07         0.00000E+00
    0.24673E+07        -0.97775E+08         0.00000E+00
    0.00000E+00         0.00000E+00        -0.44096E+08
 
   -0.43725E+08         0.24918E+07         0.00000E+00
    0.24918E+07        -0.97876E+08         0.00000E+00
    0.00000E+00         0.00000E+00        -0.43741E+08
 
   -0.43352E+08         0.25066E+07         0.00000E+00
    0.25066E+07        -0.97988E+08         0.00000E+00
    0.00000E+00         0.00000E+00        -0.43362E+08
 
   -0.42955E+08         0.25109E+07         0.00000E+00
    0.25109E+07        -0.98108E+08         0.00000E+00
    0.00000E+00         0.00000E+00        -0.42958E+08
 
   -0.42533E+08         0.25039E+07         0.00000E+00
    0.25039E+07        -0.98234E+08         0.00000E+00
    0.00000E+00         0.00000E+00        -0.42529E+08
 
   -0.42083E+08         0.24845E+07         0.00000E+00
    0.24845E+07        -0.98363E+08         0.00000E+00
    0.00000E+00         0.00000E+00        -0.42071E+08
 
   -0.41603E+08         0.24517E+07         0.00000E+00
    0.24517E+07        -0.98489E+08         0.00000E+00
    0.00000E+00         0.00000E+00        -0.41583E+08
 
   -0.41093E+08         0.24040E+07         0.00000E+00
    0.24040E+07        -0.98605E+08         0.00000E+00
    0.00000E+00         0.00000E+00        -0.41063E+08
 
   -0.40549E+08         0.23392E+07         0.00000E+00
    0.23392E+07        -0.98699E+08         0.00000E+00
    0.00000E+00         0.00000E+00        -0.40508E+08
 
   -0.39971E+08         0.22537E+07         0.00000E+00
    0.22537E+07        -0.98760E+08         0.00000E+00
    0.00000E+00         0.00000E+00        -0.39916E+08
 
   -0.39359E+08         0.21413E+07         0.00000E+00
    0.21413E+07        -0.98772E+08         0.00000E+00
    0.00000E+00         0.00000E+00        -0.39284E+08
 
   -0.38713E+08         0.19921E+07         0.00000E+00
    0.19921E+07        -0.98716E+08         0.00000E+00
    0.00000E+00         0.00000E+00        -0.38611E+08
 
   -0.38034E+08         0.17888E+07         0.00000E+00
    0.17888E+07        -0.98570E+08         0.00000E+00
    0.00000E+00         0.00000E+00        -0.37893E+08
 
   -0.37332E+08         0.15048E+07         0.00000E+00
    0.15048E+07        -0.98313E+08         0.00000E+00
    0.00000E+00         0.00000E+00        -0.37128E+08
 
   -0.36618E+08         0.10798E+07         0.00000E+00
    0.10798E+07        -0.97915E+08         0.00000E+00
    0.00000E+00         0.00000E+00        -0.36313E+08
 
   -0.36026E+08         0.41033E+06         0.00000E+00
    0.41033E+06        -0.97300E+08         0.00000E+00
    0.00000E+00         0.00000E+00        -0.35447E+08
 
   -0.49986E+08         0.44620E+04         0.00000E+00
    0.44620E+04        -0.97582E+08         0.00000E+00
    0.00000E+00         0.00000E+00        -0.49997E+08
 
   -0.49983E+08         0.12736E+05         0.00000E+00
    0.12736E+05        -0.97578E+08         0.00000E+00
    0.00000E+00         0.00000E+00        -0.49991E+08
 
   -0.49978E+08         0.19784E+05         0.00000E+00
    0.19784E+05        -0.97574E+08         0.00000E+00
    0.00000E+00         0.00000E+00        -0.49984E+08
 
   -0.49972E+08         0.25949E+05         0.00000E+00
    0.25949E+05        -0.97572E+08         0.00000E+00
    0.00000E+00         0.00000E+00        -0.49978E+08
 
   -0.49966E+08         0.31613E+05         0.00000E+00
    0.31613E+05        -0.97571E+08         0.00000E+00
    0.00000E+00         0.00000E+00        -0.49972E+08
 
   -0.49960E+08         0.36971E+05         0.00000E+00
    0.36971E+05        -0.97570E+08         0.00000E+00
    0.00000E+00         0.00000E+00        -0.49966E+08
 
   -0.49954E+08         0.42147E+05         0.00000E+00
    0.42147E+05        -0.97570E+08         0.00000E+00
    0.00000E+00         0.00000E+00        -0.49959E+08
 
   -0.49948E+08         0.47221E+05         0.00000E+00
    0.47221E+05        -0.97570E+08         0.00000E+00
    0.00000E+00         0.00000E+00        -0.49953E+08
 
   -0.49941E+08         0.52248E+05         0.00000E+00
    0.52248E+05        -0.97570E+08         0.00000E+00
    0.00000E+00         0.00000E+00        -0.49946E+08
 
   -0.49935E+08         0.57265E+05         0.00000E+00
    0.57265E+05        -0.97570E+08         0.00000E+00
    0.00000E+00         0.00000E+00        -0.49940E+08
 
   -0.49928E+08         0.62301E+05         0.00000E+00
    0.62301E+05        -0.97570E+08         0.00000E+00
    0.00000E+00         0.00000E+00        -0.49933E+08
 
   -0.49921E+08         0.67382E+05         0.00000E+00
    0.67382E+05        -0.97570E+08         0.00000E+00
    0.00000E+00         0.00000E+00        -0.49926E+08
 
   -0.49914E+08         0.72529E+05         0.00000E+00
    0.72529E+05        -0.97570E+08         0.00000E+00
    0.00000E+00         0.00000E+00        -0.49919E+08
 
   -0.49906E+08         0.77765E+05         0.00000E+00
    0.77765E+05        -0.97570E+08         0.00000E+00
    0.00000E+00         0.00000E+00        -0.49912E+08
 
   -0.49899E+08         0.83112E+05         0.00000E+00
    0.83112E+05        -0.97570E+08         0.00000E+00
    0.00000E+00         0.00000E+00        -0.49904E+08
 
   -0.49891E+08         0.88592E+05         0.00000E+00
    0.88592E+05        -0.97570E+08         0.00000E+00
    0.00000E+00         0.00000E+00        -0.49896E+08
 
   -0.49882E+08         0.94230E+05         0.00000E+00
    0.94230E+05        -0.97569E+08         0.00000E+00
    0.00000E+00         0.00000E+00        -0.49888E+08
 
   -0.49873E+08         0.10005E+06         0.00000E+00
    0.10005E+06        -0.97568E+08         0.00000E+00
    0.00000E+00         0.00000E+00        -0.49880E+08
 
   -0.49864E+08         0.10608E+06         0.00000E+00
    0.10608E+06        -0.97568E+08         0.00000E+00
    0.00000E+00         0.00000E+00        -0.49871E+08
 
   -0.49855E+08         0.11234E+06         0.00000E+00
    0.11234E+06        -0.97567E+08         0.00000E+00
    0.00000E+00         0.00000E+00        -0.49861E+08
 
   -0.49845E+08         0.11886E+06         0.00000E+00
    0.11886E+06        -0.97565E+08         0.00000E+00
    0.00000E+00         0.00000E+00        -0.49852E+08
 
   -0.49835E+08         0.12566E+06         0.00000E+00
    0.12566E+06        -0.97564E+08         0.00000E+00
    0.00000E+00         0.00000E+00        -0.49842E+08
 
   -0.49824E+08         0.13278E+06         0.00000E+00
    0.13278E+06        -0.97562E+08         0.00000E+00
    0.00000E+00         0.00000E+00        -0.49831E+08
 
   -0.49812E+08         0.14025E+06         0.00000E+00
    0.14025E+06        -0.97561E+08         0.00000E+00
    0.00000E+00         0.00000E+00        -0.49820E+08
 
   -0.49800E+08         0.14808E+06         0.00000E+00
    0.14808E+06        -0.97559E+08         0.00000E+00
    0.00000E+00         0.00000E+00        -0.49808E+08
 
   -0.49788E+08         0.15631E+06         0.00000E+00
    0.15631E+06        -0.97557E+08         0.00000E+00
    0.00000E+00         0.00000E+00        -0.49796E+08
 
   -0.49774E+08         0.16497E+06         0.00000E+00
    0.16497E+06        -0.97555E+08         0.00000E+00
    0.00000E+00         0.00000E+00        -0.49783E+08
 
   -0.49760E+08         0.17408E+06         0.00000E+00
    0.17408E+06        -0.97552E+08         0.00000E+00
    0.00000E+00         0.00000E+00        -0.49770E+08
 
   -0.49746E+08         0.18369E+06         0.00000E+00
    0.18369E+06        -0.97550E+08         0.00000E+00
    0.00000E+00         0.00000E+00        -0.49756E+08
 
   -0.49730E+08         0.19382E+06         0.00000E+00
    0.19382E+06        -0.97547E+08         0.00000E+00
    0.00000E+00         0.00000E+00        -0.49741E+08
 
   -0.49714E+08         0.20450E+06         0.00000E+00
    0.20450E+06        -0.97544E+08         0.00000E+00
    0.00000E+00         0.00000E+00        -0.49725E+08
 
   -0.49696E+08         0.21577E+06         0.00000E+00
    0.21577E+06        -0.97541E+08         0.00000E+00
    0.00000E+00         0.00000E+00        -0.49708E+08
 
   -0.49678E+08         0.22766E+06         0.00000E+00
    0.22766E+06        -0.97538E+08         0.00000E+00
    0.00000E+00         0.00000E+00        -0.49691E+08
 
   -0.49659E+08         0.24021E+06         0.00000E+00
    0.24021E+06        -0.97535E+08         0.00000E+00
    0.00000E+00         0.00000E+00        -0.49672E+08
 
   -0.49639E+08         0.25346E+06         0.00000E+00
    0.25346E+06        -0.97531E+08         0.00000E+00
    0.00000E+00         0.00000E+00        -0.49653E+08
 
   -0.49617E+08         0.26744E+06         0.00000E+00
    0.26744E+06        -0.97527E+08         0.00000E+00
    0.00000E+00         0.00000E+00        -0.49632E+08
 
   -0.49595E+08         0.28220E+06         0.00000E+00
    0.28220E+06        -0.97523E+08         0.00000E+00
    0.00000E+00         0.00000E+00        -0.49610E+08
 
   -0.49571E+08         0.29777E+06         0.00000E+00
    0.29777E+06        -0.97519E+08         0.00000E+00
    0.00000E+00         0.00000E+00        -0.49588E+08
 
   -0.49546E+08         0.31420E+06         0.00000E+00
    0.31420E+06        -0.97515E+08         0.00000E+00
    0.00000E+00         0.00000E+00        -0.49563E+08
 
   -0.49520E+08         0.33153E+06         0.00000E+00
    0.33153E+06        -0.97510E+08         0.00000E+00
    0.00000E+00         0.00000E+00        -0.49538E+08
 
   -0.49492E+08         0.34982E+06         0.00000E+00
    0.34982E+06        -0.97505E+08         0.00000E+00
    0.00000E+00         0.00000E+00        -0.49511E+08
 
   -0.49462E+08         0.36910E+06         0.00000E+00
    0.36910E+06        -0.97500E+08         0.00000E+00
    0.00000E+00         0.00000E+00        -0.49482E+08
 
   -0.49431E+08         0.38943E+06         0.00000E+00
    0.38943E+06        -0.97495E+08         0.00000E+00
    0.00000E+00         0.00000E+00        -0.49452E+08
 
   -0.49398E+08         0.41086E+06         0.00000E+00
    0.41086E+06        -0.97489E+08         0.00000E+00
    0.00000E+00         0.00000E+00        -0.49420E+08
 
   -0.49363E+08         0.43345E+06         0.00000E+00
    0.43345E+06        -0.97483E+08         0.00000E+00
    0.00000E+00         0.00000E+00        -0.49387E+08
 
   -0.49326E+08         0.45723E+06         0.00000E+00
    0.45723E+06        -0.97477E+08         0.00000E+00
    0.00000E+00         0.00000E+00        -0.49351E+08
 
   -0.49287E+08         0.48229E+06         0.00000E+00
    0.48229E+06        -0.97471E+08         0.00000E+00
    0.00000E+00         0.00000E+00        -0.49314E+08
 
   -0.49246E+08         0.50866E+06         0.00000E+00
    0.50866E+06        -0.97464E+08         0.00000E+00
    0.00000E+00         0.00000E+00        -0.49274E+08
 
   -0.49203E+08         0.53641E+06         0.00000E+00
    0.53641E+06        -0.97457E+08         0.00000E+00
    0.00000E+00         0.00000E+00        -0.49232E+08
 
   -0.49157E+08         0.56560E+06         0.00000E+00
    0.56560E+06        -0.97450E+08         0.00000E+00
    0.00000E+00         0.00000E+00        -0.49188E+08
 
   -0.49108E+08         0.59628E+06         0.00000E+00
    0.59628E+06        -0.97442E+08         0.00000E+00
    0.00000E+00         0.00000E+00        -0.49141E+08
 
   -0.49057E+08         0.62852E+06         0.00000E+00
    0.62852E+06        -0.97435E+08         0.00000E+00
    0.00000E+00         0.00000E+00        -0.49091E+08
 
   -0.49003E+08         0.66238E+06         0.00000E+00
    0.66238E+06        -0.97427E+08         0.00000E+00
    0.00000E+00         0.00000E+00        -0.49039E+08
 
   -0.48946E+08         0.69791E+06         0.00000E+00
    0.69791E+06        -0.97418E+08         0.00000E+00
    0.00000E+00         0.00000E+00        -0.48983E+08
 
   -0.48885E+08         0.73517E+06         0.00000E+00
    0.73517E+06        -0.97410E+08         0.00000E+00
    0.00000E+00         0.00000E+00        -0.48925E+08
 
   -0.48821E+08         0.77423E+06         0.00000E+00
    0.77423E+06        -0.97401E+08         0.00000E+00
    0.00000E+00         0.00000E+00        -0.48862E+08
 
   -0.48754E+08         0.81512E+06         0.00000E+00
    0.81512E+06        -0.97392E+08         0.00000E+00
    0.00000E+00         0.00000E+00        -0.48797E+08
 
   -0.48682E+08         0.85790E+06         0.00000E+00
    0.85790E+06        -0.97383E+08         0.00000E+00
    0.00000E+00         0.00000E+00        -0.48727E+08
 
   -0.48607E+08         0.90262E+06         0.00000E+00
    0.90262E+06        -0.97374E+08         0.00000E+00
    0.00000E+00         0.00000E+00        -0.48654E+08
 
   -0.48527E+08         0.94930E+06         0.00000E+00
    0.94930E+06        -0.97364E+08         0.00000E+00
    0.00000E+00         0.00000E+00        -0.48576E+08
 
   -0.48443E+08         0.99798E+06         0.00000E+00
    0.99798E+06        -0.97355E+08         0.00000E+00
    0.00000E+00         0.00000E+00        -0.48494E+08
 
   -0.48354E+08         0.10487E+07         0.00000E+00
    0.10487E+07        -0.97346E+08         0.00000E+00
    0.00000E+00         0.00000E+00        -0.48407E+08
 
   -0.48259E+08         0.11014E+07         0.00000E+00
    0.11014E+07        -0.97337E+08         0.00000E+00
    0.00000E+00         0.00000E+00        -0.48315E+08
 
   -0.48160E+08         0.11561E+07         0.00000E+00
    0.11561E+07        -0.97328E+08         0.00000E+00
    0.00000E+00         0.00000E+00        -0.48218E+08
 
   -0.48054E+08         0.12128E+07         0.00000E+00
    0.12128E+07        -0.97320E+08         0.00000E+00
    0.00000E+00         0.00000E+00        -0.48114E+08
 
   -0.47943E+08         0.12715E+07         0.00000E+00
    0.12715E+07        -0.97312E+08         0.00000E+00
    0.00000E+00         0.00000E+00        -0.48005E+08
 
   -0.47826E+08         0.13320E+07         0.00000E+00
    0.13320E+07        -0.97305E+08         0.00000E+00
    0.00000E+00         0.00000E+00        -0.47890E+08
 
   -0.47701E+08         0.13943E+07         0.00000E+00
    0.13943E+07        -0.97299E+08         0.00000E+00
    0.00000E+00         0.00000E+00        -0.47767E+08
 
   -0.47570E+08         0.14582E+07         0.00000E+00
    0.14582E+07        -0.97294E+08         0.00000E+00
    0.00000E+00         0.00000E+00        -0.47638E+08
 
   -0.47431E+08         0.15236E+07         0.00000E+00
    0.15236E+07        -0.97290E+08         0.00000E+00
    0.00000E+00         0.00000E+00        -0.47500E+08
 
   -0.47284E+08         0.15902E+07         0.00000E+00
    0.15902E+07        -0.97289E+08         0.00000E+00
    0.00000E+00         0.00000E+00        -0.47355E+08
 
   -0.47129E+08         0.16578E+07         0.00000E+00
    0.16578E+07        -0.97289E+08         0.00000E+00
    0.00000E+00         0.00000E+00        -0.47201E+08
 
   -0.46965E+08         0.17261E+07         0.00000E+00
    0.17261E+07        -0.97293E+08         0.00000E+00
    0.00000E+00         0.00000E+00        -0.47038E+08
 
   -0.46791E+08         0.17948E+07         0.00000E+00
    0.17948E+07        -0.97299E+08         0.00000E+00
    0.00000E+00         0.00000E+00        -0.46864E+08
 
   -0.46608E+08         0.18633E+07         0.00000E+00
    0.18633E+07        -0.97309E+08         0.00000E+00
    0.00000E+00         0.00000E+00        -0.46681E+08
 
   -0.46414E+08         0.19312E+07         0.00000E+00
    0.19312E+07        -0.97324E+08         0.00000E+00
    0.00000E+00         0.00000E+00        -0.46486E+08
 
   -0.46208E+08         0.19980E+07         0.00000E+00
    0.19980E+07        -0.97344E+08         0.00000E+00
    0.00000E+00         0.00000E+00        -0.46280E+08
 
   -0.45991E+08         0.20629E+07         0.00000E+00
    0.20629E+07        -0.97370E+08         0.00000E+00
    0.00000E+00         0.00000E+00        -0.46061E+08
 
   -0.45761E+08         0.21254E+07         0.00000E+00
    0.21254E+07        -0.97402E+08         0.00000E+00
    0.00000E+00         0.00000E+00        -0.45828E+08
 
   -0.45518E+08         0.21845E+07         0.00000E+00
    0.21845E+07        -0.97442E+08         0.00000E+00
    0.00000E+00         0.00000E+00        -0.45582E+08
 
   -0.45260E+08         0.22396E+07         0.00000E+00
    0.22396E+07        -0.97490E+08         0.00000E+00
    0.00000E+00         0.00000E+00        -0.45320E+08
 
   -0.44986E+08         0.22895E+07         0.00000E+00
    0.22895E+07        -0.97547E+08         0.00000E+00
    0.00000E+00         0.00000E+00        -0.45041E+08
 
   -0.44696E+08         0.23336E+07         0.00000E+00
    0.23336E+07        -0.97614E+08         0.00000E+00
    0.00000E+00         0.00000E+00        -0.44745E+08
 
   -0.44389E+08         0.23706E+07         0.00000E+00
    0.23706E+07        -0.97692E+08         0.00000E+00
    0.00000E+00         0.00000E+00        -0.44431E+08
 
   -0.44062E+08         0.23997E+07         0.00000E+00
    0.23997E+07        -0.97780E+08         0.00000E+00
    0.00000E+00         0.00000E+00        -0.44096E+08
 
   -0.43715E+08         0.24199E+07         0.00000E+00
    0.24199E+07        -0.97880E+08         0.00000E+00
    0.00000E+00         0.00000E+00        -0.43741E+08
 
   -0.43347E+08         0.24301E+07         0.00000E+00
    0.24301E+07        -0.97989E+08         0.00000E+00
    0.00000E+00         0.00000E+00        -0.43362E+08
 
   -0.42954E+08         0.24295E+07         0.00000E+00
    0.24295E+07        -0.98107E+08         0.00000E+00
    0.00000E+00         0.00000E+00        -0.42958E+08
 
   -0.42537E+08         0.24172E+07         0.00000E+00
    0.24172E+07        -0.98231E+08         0.00000E+00
    0.00000E+00         0.00000E+00        -0.42529E+08
 
   -0.42092E+08         0.23921E+07         0.00000E+00
    0.23921E+07        -0.98357E+08         0.00000E+00
    0.00000E+00         0.00000E+00        -0.42071E+08
 
   -0.41619E+08         0.23533E+07         0.00000E+00
    0.23533E+07        -0.98481E+08         0.00000E+00
    0.00000E+00         0.00000E+00        -0.41583E+08
 
   -0.41115E+08         0.22993E+07         0.00000E+00
    0.22993E+07        -0.98593E+08         0.00000E+00
    0.00000E+00         0.00000E+00        -0.41063E+08
 
   -0.40580E+08         0.22279E+07         0.00000E+00
    0.22279E+07        -0.98684E+08         0.00000E+00
    0.00000E+00         0.00000E+00        -0.40508E+08
 
   -0.40012E+08         0.21357E+07         0.00000E+00
    0.21357E+07        -0.98740E+08         0.00000E+00
    0.00000E+00         0.00000E+00        -0.39916E+08
 
   -0.39414E+08         0.20168E+07         0.00000E+00
    0.20168E+07        -0.98746E+08         0.00000E+00
    0.00000E+00         0.00000E+00        -0.39285E+08
 
   -0.38786E+08         0.18615E+07         0.00000E+00
    0.18615E+07        -0.98681E+08         0.00000E+00
    0.00000E+00         0.00000E+00        -0.38611E+08
 
   -0.38134E+08         0.16536E+07         0.00000E+00
    0.16536E+07        -0.98523E+08         0.00000E+00
    0.00000E+00         0.00000E+00        -0.37893E+08
 
   -0.37472E+08         0.13670E+07         0.00000E+00
    0.13670E+07        -0.98246E+08         0.00000E+00
    0.00000E+00         0.00000E+00        -0.37128E+08
 
   -0.36830E+08         0.94763E+06         0.00000E+00
    0.94763E+06        -0.97810E+08         0.00000E+00
    0.00000E+00         0.00000E+00        -0.36313E+08
 
   -0.36357E+08         0.34764E+06         0.00000E+00
    0.34764E+06        -0.97152E+08         0.00000E+00
    0.00000E+00         0.00000E+00        -0.35447E+08
 
   -0.49983E+08         0.40943E+04         0.00000E+00
    0.40943E+04        -0.97584E+08         0.00000E+00
    0.00000E+00         0.00000E+00        -0.49997E+08
 
   -0.49980E+08         0.11863E+05         0.00000E+00
    0.11863E+05        -0.97579E+08         0.00000E+00
    0.00000E+00         0.00000E+00        -0.49991E+08
 
   -0.49975E+08         0.18733E+05         0.00000E+00
    0.18733E+05        -0.97576E+08         0.00000E+00
    0.00000E+00         0.00000E+00        -0.49984E+08
 
   -0.49970E+08         0.24824E+05         0.00000E+00
    0.24824E+05        -0.97573E+08         0.00000E+00
    0.00000E+00         0.00000E+00        -0.49978E+08
 
   -0.49964E+08         0.30436E+05         0.00000E+00
    0.30436E+05        -0.97572E+08         0.00000E+00
    0.00000E+00         0.00000E+00        -0.49972E+08
 
   -0.49958E+08         0.35757E+05         0.00000E+00
    0.35757E+05        -0.97571E+08         0.00000E+00
    0.00000E+00         0.00000E+00        -0.49966E+08
 
   -0.49952E+08         0.40901E+05         0.00000E+00
    0.40901E+05        -0.97571E+08         0.00000E+00
    0.00000E+00         0.00000E+00        -0.49959E+08
 
   -0.49946E+08         0.45945E+05         0.00000E+00
    0.45945E+05        -0.97571E+08         0.00000E+00
    0.00000E+00         0.00000E+00        -0.49953E+08
 
   -0.49939E+08         0.50941E+05         0.00000E+00
    0.50941E+05        -0.97571E+08         0.00000E+00
    0.00000E+00         0.00000E+00        -0.49946E+08
 
   -0.49933E+08         0.55924E+05         0.00000E+00
    0.55924E+05        -0.97571E+08         0.00000E+00
    0.00000E+00         0.00000E+00        -0.49940E+08
 
   -0.49926E+08         0.60923E+05         0.00000E+00
    0.60923E+05        -0.97571E+08         0.00000E+00
    0.00000E+00         0.00000E+00        -0.49933E+08
 
   -0.49919E+08         0.65962E+05         0.00000E+00
    0.65962E+05        -0.97571E+08         0.00000E+00
    0.00000E+00         0.00000E+00        -0.49926E+08
 
   -0.49912E+08         0.71062E+05         0.00000E+00
    0.71062E+05        -0.97571E+08         0.00000E+00
    0.00000E+00         0.00000E+00        -0.49919E+08
 
   -0.49904E+08         0.76246E+05         0.00000E+00
    0.76246E+05        -0.97571E+08         0.00000E+00
    0.00000E+00         0.00000E+00        -0.49912E+08
 
   -0.49896E+08         0.81535E+05         0.00000E+00
    0.81535E+05        -0.97571E+08         0.00000E+00
    0.00000E+00         0.00000E+00        -0.49904E+08
 
   -0.49888E+08         0.86952E+05         0.00000E+00
    0.86952E+05        -0.97571E+08         0.00000E+00
    0.00000E+00         0.00000E+00        -0.49896E+08
 
   -0.49880E+08         0.92521E+05         0.00000E+00
    0.92521E+05        -0.97570E+08         0.00000E+00
    0.00000E+00         0.00000E+00        -0.49888E+08
 
   -0.49871E+08         0.98267E+05         0.00000E+00
    0.98267E+05        -0.97570E+08         0.00000E+00
    0.00000E+00         0.00000E+00        -0.49880E+08
 
   -0.49862E+08         0.10421E+06         0.00000E+00
    0.10421E+06        -0.97569E+08         0.00000E+00
    0.00000E+00         0.00000E+00        -0.49871E+08
 
   -0.49852E+08         0.11039E+06         0.00000E+00
    0.11039E+06        -0.97568E+08         0.00000E+00
    0.00000E+00         0.00000E+00        -0.49861E+08
 
   -0.49842E+08         0.11681E+06         0.00000E+00
    0.11681E+06        -0.97567E+08         0.00000E+00
    0.00000E+00         0.00000E+00        -0.49852E+08
 
   -0.49832E+08         0.12352E+06         0.00000E+00
    0.12352E+06        -0.97565E+08         0.00000E+00
    0.00000E+00         0.00000E+00        -0.49842E+08
 
   -0.49821E+08         0.13054E+06         0.00000E+00
    0.13054E+06        -0.97564E+08         0.00000E+00
    0.00000E+00         0.00000E+00        -0.49831E+08
 
   -0.49809E+08         0.13788E+06         0.00000E+00
    0.13788E+06        -0.97562E+08         0.00000E+00
    0.00000E+00         0.00000E+00        -0.49820E+08
 
   -0.49797E+08         0.14560E+06         0.00000E+00
    0.14560E+06        -0.97560E+08         0.00000E+00
    0.00000E+00         0.00000E+00        -0.49808E+08
 
   -0.49784E+08         0.15370E+06         0.00000E+00
    0.15370E+06        -0.97559E+08         0.00000E+00
    0.00000E+00         0.00000E+00        -0.49796E+08
 
   -0.49771E+08         0.16222E+06         0.00000E+00
    0.16222E+06        -0.97556E+08         0.00000E+00
    0.00000E+00         0.00000E+00        -0.49783E+08
 
   -0.49756E+08         0.17119E+06         0.00000E+00
    0.17119E+06        -0.97554E+08         0.00000E+00
    0.00000E+00         0.00000E+00        -0.49770E+08
 
   -0.49742E+08         0.18065E+06         0.00000E+00
    0.18065E+06        -0.97552E+08         0.00000E+00
    0.00000E+00         0.00000E+00        -0.49756E+08
 
   -0.49726E+08         0.19061E+06         0.00000E+00
    0.19061E+06        -0.97549E+08         0.00000E+00
    0.00000E+00         0.00000E+00        -0.49741E+08
 
   -0.49709E+08         0.20112E+06         0.00000E+00
    0.20112E+06        -0.97546E+08         0.00000E+00
    0.00000E+00         0.00000E+00        -0.49725E+08
 
   -0.49692E+08         0.21221E+06         0.00000E+00
    0.21221E+06        -0.97544E+08         0.00000E+00
    0.00000E+00         0.00000E+00        -0.49708E+08
 
   -0.49673E+08         0.22390E+06         0.00000E+00
    0.22390E+06        -0.97541E+08         0.00000E+00
    0.00000E+00         0.00000E+00        -0.49691E+08
 
   -0.49654E+08         0.23625E+06         0.00000E+00
    0.23625E+06        -0.97537E+08         0.00000E+00
    0.00000E+00         0.00000E+00        -0.49672E+08
 
   -0.49633E+08         0.24928E+06         0.00000E+00
    0.24928E+06        -0.97534E+08         0.00000E+00
    0.00000E+00         0.00000E+00        -0.49653E+08
 
   -0.49612E+08         0.26302E+06         0.00000E+00
    0.26302E+06        -0.97530E+08         0.00000E+00
    0.00000E+00         0.00000E+00        -0.49632E+08
 
   -0.49589E+08         0.27754E+06         0.00000E+00
    0.27754E+06        -0.97526E+08         0.00000E+00
    0.00000E+00         0.00000E+00        -0.49610E+08
 
   -0.49565E+08         0.29285E+06         0.00000E+00
    0.29285E+06        -0.97522E+08         0.00000E+00
    0.00000E+00         0.00000E+00        -0.49588E+08
 
   -0.49539E+08         0.30900E+06         0.00000E+00
    0.30900E+06        -0.97518E+08         0.00000E+00
    0.00000E+00         0.00000E+00        -0.49563E+08
 
   -0.49512E+08         0.32605E+06         0.00000E+00
    0.32605E+06        -0.97514E+08         0.00000E+00
    0.00000E+00         0.00000E+00        -0.49538E+08
 
   -0.49484E+08         0.34402E+06         0.00000E+00
    0.34402E+06        -0.97509E+08         0.00000E+00
    0.00000E+00         0.00000E+00        -0.49511E+08
 
   -0.49454E+08         0.36298E+06         0.00000E+00
    0.36298E+06        -0.97504E+08         0.00000E+00
    0.00000E+00         0.00000E+00        -0.49482E+08
 
   -0.49422E+08         0.38297E+06         0.00000E+00
    0.38297E+06        -0.97499E+08         0.00000E+00
    0.00000E+00         0.00000E+00        -0.49452E+08
 
   -0.49389E+08         0.40404E+06         0.00000E+00
    0.40404E+06        -0.97494E+08         0.00000E+00
    0.00000E+00         0.00000E+00        -0.49420E+08
 
   -0.49354E+08         0.42623E+06         0.00000E+00
    0.42623E+06        -0.97488E+08         0.00000E+00
    0.00000E+00         0.00000E+00        -0.49387E+08
 
   -0.49316E+08         0.44962E+06         0.00000E+00
    0.44962E+06        -0.97482E+08         0.00000E+00
    0.00000E+00         0.00000E+00        -0.49351E+08
 
   -0.49277E+08         0.47424E+06         0.00000E+00
    0.47424E+06        -0.97476E+08         0.00000E+00
    0.00000E+00         0.00000E+00        -0.49314E+08
 
   -0.49235E+08         0.50016E+06         0.00000E+00
    0.50016E+06        -0.97469E+08         0.00000E+00
    0.00000E+00         0.00000E+00        -0.49274E+08
 
   -0.49191E+08         0.52742E+06         0.00000E+00
    0.52742E+06        -0.97463E+08         0.00000E+00
    0.00000E+00         0.00000E+00        -0.49232E+08
 
   -0.49145E+08         0.55610E+06         0.00000E+00
    0.55610E+06        -0.97456E+08         0.00000E+00
    0.00000E+00         0.00000E+00        -0.49188E+08
 
   -0.49096E+08         0.58625E+06         0.00000E+00
    0.58625E+06        -0.97449E+08         0.00000E+00
    0.00000E+00         0.00000E+00        -0.49141E+08
 
   -0.49044E+08         0.61792E+06         0.00000E+00
    0.61792E+06        -0.97441E+08         0.00000E+00
    0.00000E+00         0.00000E+00        -0.49091E+08
 
   -0.48989E+08         0.65118E+06         0.00000E+00
    0.65118E+06        -0.97433E+08         0.00000E+00
    0.00000E+00         0.00000E+00        -0.49039E+08
 
   -0.48931E+08         0.68607E+06         0.00000E+00
    0.68607E+06        -0.97425E+08         0.00000E+00
    0.00000E+00         0.00000E+00        -0.48983E+08
 
   -0.48870E+08         0.72267E+06         0.00000E+00
    0.72267E+06        -0.97417E+08         0.00000E+00
    0.00000E+00         0.00000E+00        -0.48925E+08
 
   -0.48805E+08         0.76101E+06         0.00000E+00
    0.76101E+06        -0.97409E+08         0.00000E+00
    0.00000E+00         0.00000E+00        -0.48862E+08
 
   -0.48737E+08         0.80115E+06         0.00000E+00
    0.80115E+06        -0.97400E+08         0.00000E+00
    0.00000E+00         0.00000E+00        -0.48797E+08
 
   -0.48664E+08         0.84314E+06         0.00000E+00
    0.84314E+06        -0.97392E+08         0.00000E+00
    0.00000E+00         0.00000E+00        -0.48727E+08
 
   -0.48588E+08         0.88702E+06         0.00000E+00
    0.88702E+06        -0.97383E+08         0.00000E+00
    0.00000E+00         0.00000E+00        -0.48654E+08
 
   -0.48508E+08         0.93282E+06         0.00000E+00
    0.93282E+06        -0.97374E+08         0.00000E+00
    0.00000E+00         0.00000E+00        -0.48576E+08
 
   -0.48422E+08         0.98057E+06         0.00000E+00
    0.98057E+06        -0.97365E+08         0.00000E+00
    0.00000E+00         0.00000E+00        -0.48494E+08
 
   -0.48332E+08         0.10303E+07         0.00000E+00
    0.10303E+07        -0.97356E+08         0.00000E+00
    0.00000E+00         0.00000E+00        -0.48407E+08
 
   -0.48237E+08         0.10819E+07         0.00000E+00
    0.10819E+07        -0.97347E+08         0.00000E+00
    0.00000E+00         0.00000E+00        -0.48315E+08
 
   -0.48137E+08         0.11356E+07         0.00000E+00
    0.11356E+07        -0.97339E+08         0.00000E+00
    0.00000E+00         0.00000E+00        -0.48218E+08
 
   -0.48031E+08         0.11911E+07         0.00000E+00
    0.11911E+07        -0.97331E+08         0.00000E+00
    0.00000E+00         0.00000E+00        -0.48114E+08
 
   -0.47919E+08         0.12485E+07         0.00000E+00
    0.12485E+07        -0.97324E+08         0.00000E+00
    0.00000E+00         0.00000E+00        -0.48005E+08
 
   -0.47800E+08         0.13078E+07         0.00000E+00
    0.13078E+07        -0.97317E+08         0.00000E+00
    0.00000E+00         0.00000E+00        -0.47890E+08
 
   -0.47675E+08         0.13687E+07         0.00000E+00
    0.13687E+07        -0.97311E+08         0.00000E+00
    0.00000E+00         0.00000E+00        -0.47767E+08
 
   -0.47543E+08         0.14311E+07         0.00000E+00
    0.14311E+07        -0.97306E+08         0.00000E+00
    0.00000E+00         0.00000E+00        -0.47638E+08
 
   -0.47404E+08         0.14950E+07         0.00000E+00
    0.14950E+07        -0.97303E+08         0.00000E+00
    0.00000E+00         0.00000E+00        -0.47500E+08
 
   -0.47256E+08         0.15600E+07         0.00000E+00
    0.15600E+07        -0.97302E+08         0.00000E+00
    0.00000E+00         0.00000E+00        -0.47355E+08
 
   -0.47101E+08         0.16259E+07         0.00000E+00
    0.16259E+07        -0.97303E+08         0.00000E+00
    0.00000E+00         0.00000E+00        -0.47201E+08
 
   -0.46936E+08         0.16924E+07         0.00000E+00
    0.16924E+07        -0.97306E+08         0.00000E+00
    0.00000E+00         0.00000E+00        -0.47037E+08
 
   -0.46763E+08         0.17591E+07         0.00000E+00
    0.17591E+07        -0.97313E+08         0.00000E+00
    0.00000E+00         0.00000E+00        -0.46864E+08
 
   -0.46579E+08         0.18256E+07         0.00000E+00
    0.18256E+07        -0.97323E+08         0.00000E+00
    0.00000E+00         0.00000E+00        -0.46681E+08
 
   -0.46385E+08         0.18913E+07         0.00000E+00
    0.18913E+07        -0.97337E+08         0.00000E+00
    0.00000E+00         0.00000E+00        -0.46486E+08
 
   -0.46180E+08         0.19558E+07         0.00000E+00
    0.19558E+07        -0.97357E+08         0.00000E+00
    0.00000E+00         0.00000E+00        -0.46280E+08
 
   -0.45964E+08         0.20183E+07         0.00000E+00
    0.20183E+07        -0.97382E+08         0.00000E+00
    0.00000E+00         0.00000E+00        -0.46061E+08
 
   -0.45735E+08         0.20782E+07         0.00000E+00
    0.20782E+07        -0.97414E+08         0.00000E+00
    0.00000E+00         0.00000E+00        -0.45828E+08
 
   -0.45492E+08         0.21346E+07         0.00000E+00
    0.21346E+07        -0.97453E+08         0.00000E+00
    0.00000E+00         0.00000E+00        -0.45582E+08
 
   -0.45236E+08         0.21867E+07         0.00000E+00
    0.21867E+07        -0.97500E+08         0.00000E+00
    0.00000E+00         0.00000E+00        -0.45320E+08
 
   -0.44965E+08         0.22335E+07         0.00000E+00
    0.22335E+07        -0.97556E+08         0.00000E+00
    0.00000E+00         0.00000E+00        -0.45041E+08
 
   -0.44677E+08         0.22741E+07         0.00000E+00
    0.22741E+07        -0.97622E+08         0.00000E+00
    0.00000E+00         0.00000E+00        -0.44745E+08
 
   -0.44373E+08         0.23076E+07         0.00000E+00
    0.23076E+07        -0.97698E+08         0.00000E+00
    0.00000E+00         0.00000E+00        -0.44431E+08
 
   -0.44049E+08         0.23328E+07         0.00000E+00
    0.23328E+07        -0.97785E+08         0.00000E+00
    0.00000E+00         0.00000E+00        -0.44096E+08
 
   -0.43706E+08         0.23487E+07         0.00000E+00
    0.23487E+07        -0.97882E+08         0.00000E+00
    0.00000E+00         0.00000E+00        -0.43741E+08
 
   -0.43341E+08         0.23545E+07         0.00000E+00
    0.23545E+07        -0.97990E+08         0.00000E+00
    0.00000E+00         0.00000E+00        -0.43362E+08
 
   -0.42954E+08         0.23491E+07         0.00000E+00
    0.23491E+07        -0.98105E+08         0.00000E+00
    0.00000E+00         0.00000E+00        -0.42958E+08
 
   -0.42541E+08         0.23315E+07         0.00000E+00
    0.23315E+07        -0.98227E+08         0.00000E+00
    0.00000E+00         0.00000E+00        -0.42529E+08
 
   -0.42103E+08         0.23010E+07         0.00000E+00
    0.23010E+07        -0.98351E+08         0.00000E+00
    0.00000E+00         0.00000E+00        -0.42071E+08
 
   -0.41636E+08         0.22563E+07         0.00000E+00
    0.22563E+07        -0.98471E+08         0.00000E+00
    0.00000E+00         0.00000E+00        -0.41583E+08
 
   -0.41139E+08         0.21962E+07         0.00000E+00
    0.21962E+07        -0.98580E+08         0.00000E+00
    0.00000E+00         0.00000E+00        -0.41063E+08
 
   -0.40613E+08         0.21185E+07         0.00000E+00
    0.21185E+07        -0.98667E+08         0.00000E+00
    0.00000E+00         0.00000E+00        -0.40508E+08
 
   -0.40056E+08         0.20201E+07         0.00000E+00
    0.20201E+07        -0.98719E+08         0.00000E+00
    0.00000E+00         0.00000E+00        -0.39916E+08
 
   -0.39472E+08         0.18954E+07         0.00000E+00
    0.18954E+07        -0.98718E+08         0.00000E+00
    0.00000E+00         0.00000E+00        -0.39285E+08
 
   -0.38863E+08         0.17353E+07         0.00000E+00
    0.17353E+07        -0.98645E+08         0.00000E+00
    0.00000E+00         0.00000E+00        -0.38611E+08
 
   -0.38238E+08         0.15248E+07         0.00000E+00
    0.15248E+07        -0.98474E+08         0.00000E+00
    0.00000E+00         0.00000E+00        -0.37893E+08
 
   -0.37616E+08         0.12389E+07         0.00000E+00
    0.12389E+07        -0.98179E+08         0.00000E+00
    0.00000E+00         0.00000E+00        -0.37128E+08
 
   -0.37041E+08         0.83550E+06         0.00000E+00
    0.83550E+06        -0.97712E+08         0.00000E+00
    0.00000E+00         0.00000E+00        -0.36314E+08
 
   -0.36651E+08         0.29900E+06         0.00000E+00
    0.29900E+06        -0.97025E+08         0.00000E+00
    0.00000E+00         0.00000E+00        -0.35447E+08
 
   -0.49979E+08         0.37912E+04         0.00000E+00
    0.37912E+04        -0.97585E+08         0.00000E+00
    0.00000E+00         0.00000E+00        -0.49997E+08
 
   -0.49977E+08         0.11098E+05         0.00000E+00
    0.11098E+05        -0.97580E+08         0.00000E+00
    0.00000E+00         0.00000E+00        -0.49991E+08
 
   -0.49972E+08         0.17748E+05         0.00000E+00
    0.17748E+05        -0.97577E+08         0.00000E+00
    0.00000E+00         0.00000E+00        -0.49984E+08
 
   -0.49967E+08         0.23738E+05         0.00000E+00
    0.23738E+05        -0.97575E+08         0.00000E+00
    0.00000E+00         0.00000E+00        -0.49978E+08
 
   -0.49962E+08         0.29286E+05         0.00000E+00
    0.29286E+05        -0.97573E+08         0.00000E+00
    0.00000E+00         0.00000E+00        -0.49972E+08
 
   -0.49956E+08         0.34560E+05         0.00000E+00
    0.34560E+05        -0.97572E+08         0.00000E+00
    0.00000E+00         0.00000E+00        -0.49966E+08
 
   -0.49950E+08         0.39666E+05         0.00000E+00
    0.39666E+05        -0.97572E+08         0.00000E+00
    0.00000E+00         0.00000E+00        -0.49959E+08
 
   -0.49944E+08         0.44675E+05         0.00000E+00
    0.44675E+05        -0.97572E+08         0.00000E+00
    0.00000E+00         0.00000E+00        -0.49953E+08
 
   -0.49937E+08         0.49636E+05         0.00000E+00
    0.49636E+05        -0.97572E+08         0.00000E+00
    0.00000E+00         0.00000E+00        -0.49946E+08
 
   -0.49931E+08         0.54583E+05         0.00000E+00
    0.54583E+05        -0.97572E+08         0.00000E+00
    0.00000E+00         0.00000E+00        -0.49940E+08
 
   -0.49924E+08         0.59542E+05         0.00000E+00
    0.59542E+05        -0.97572E+08         0.00000E+00
    0.00000E+00         0.00000E+00        -0.49933E+08
 
   -0.49917E+08         0.64537E+05         0.00000E+00
    0.64537E+05        -0.97572E+08         0.00000E+00
    0.00000E+00         0.00000E+00        -0.49926E+08
 
   -0.49910E+08         0.69588E+05         0.00000E+00
    0.69588E+05        -0.97572E+08         0.00000E+00
    0.00000E+00         0.00000E+00        -0.49919E+08
 
   -0.49902E+08         0.74718E+05         0.00000E+00
    0.74718E+05        -0.97572E+08         0.00000E+00
    0.00000E+00         0.00000E+00        -0.49912E+08
 
   -0.49894E+08         0.79947E+05         0.00000E+00
    0.79947E+05        -0.97572E+08         0.00000E+00
    0.00000E+00         0.00000E+00        -0.49904E+08
 
   -0.49886E+08         0.85299E+05         0.00000E+00
    0.85299E+05        -0.97572E+08         0.00000E+00
    0.00000E+00         0.00000E+00        -0.49896E+08
 
   -0.49878E+08         0.90798E+05         0.00000E+00
    0.90798E+05        -0.97571E+08         0.00000E+00
    0.00000E+00         0.00000E+00        -0.49888E+08
 
   -0.49869E+08         0.96467E+05         0.00000E+00
    0.96467E+05        -0.97571E+08         0.00000E+00
    0.00000E+00         0.00000E+00        -0.49880E+08
 
   -0.49859E+08         0.10233E+06         0.00000E+00
    0.10233E+06        -0.97570E+08         0.00000E+00
    0.00000E+00         0.00000E+00        -0.49871E+08
 
   -0.49850E+08         0.10842E+06         0.00000E+00
    0.10842E+06        -0.97569E+08         0.00000E+00
    0.00000E+00         0.00000E+00        -0.49861E+08
 
   -0.49840E+08         0.11475E+06         0.00000E+00
    0.11475E+06        -0.97568E+08         0.00000E+00
    0.00000E+00         0.00000E+00        -0.49852E+08
 
   -0.49829E+08         0.12135E+06         0.00000E+00
    0.12135E+06        -0.97567E+08         0.00000E+00
    0.00000E+00         0.00000E+00        -0.49842E+08
 
   -0.49818E+08         0.12826E+06         0.00000E+00
    0.12826E+06        -0.97565E+08         0.00000E+00
    0.00000E+00         0.00000E+00        -0.49831E+08
 
   -0.49806E+08         0.13549E+06         0.00000E+00
    0.13549E+06        -0.97564E+08         0.00000E+00
    0.00000E+00         0.00000E+00        -0.49820E+08
 
   -0.49794E+08         0.14308E+06         0.00000E+00
    0.14308E+06        -0.97562E+08         0.00000E+00
    0.00000E+00         0.00000E+00        -0.49808E+08
 
   -0.49781E+08         0.15105E+06         0.00000E+00
    0.15105E+06        -0.97560E+08         0.00000E+00
    0.00000E+00         0.00000E+00        -0.49796E+08
 
   -0.49767E+08         0.15944E+06         0.00000E+00
    0.15944E+06        -0.97558E+08         0.00000E+00
    0.00000E+00         0.00000E+00        -0.49783E+08
 
   -0.49753E+08         0.16826E+06         0.00000E+00
    0.16826E+06        -0.97556E+08         0.00000E+00
    0.00000E+00         0.00000E+00        -0.49770E+08
 
   -0.49738E+08         0.17756E+06         0.00000E+00
    0.17756E+06        -0.97554E+08         0.00000E+00
    0.00000E+00         0.00000E+00        -0.49756E+08
 
   -0.49722E+08         0.18736E+06         0.00000E+00
    0.18736E+06        -0.97551E+08         0.00000E+00
    0.00000E+00         0.00000E+00        -0.49741E+08
 
   -0.49705E+08         0.19769E+06         0.00000E+00
    0.19769E+06        -0.97549E+08         0.00000E+00
    0.00000E+00         0.00000E+00        -0.49725E+08
 
   -0.49687E+08         0.20859E+06         0.00000E+00
    0.20859E+06        -0.97546E+08         0.00000E+00
    0.00000E+00         0.00000E+00        -0.49708E+08
 
   -0.49668E+08         0.22009E+06         0.00000E+00
    0.22009E+06        -0.97543E+08         0.00000E+00
    0.00000E+00         0.00000E+00        -0.49691E+08
 
   -0.49649E+08         0.23222E+06         0.00000E+00
    0.23222E+06        -0.97540E+08         0.00000E+00
    0.00000E+00         0.00000E+00        -0.49672E+08
 
   -0.49628E+08         0.24503E+06         0.00000E+00
    0.24503E+06        -0.97536E+08         0.00000E+00
    0.00000E+00         0.00000E+00        -0.49653E+08
 
   -0.49606E+08         0.25855E+06         0.00000E+00
    0.25855E+06        -0.97533E+08         0.00000E+00
    0.00000E+00         0.00000E+00        -0.49632E+08
 
   -0.49583E+08         0.27281E+06         0.00000E+00
    0.27281E+06        -0.97529E+08         0.00000E+00
    0.00000E+00         0.00000E+00        -0.49610E+08
 
   -0.49558E+08         0.28786E+06         0.00000E+00
    0.28786E+06        -0.97525E+08         0.00000E+00
    0.00000E+00         0.00000E+00        -0.49588E+08
 
   -0.49532E+08         0.30373E+06         0.00000E+00
    0.30373E+06        -0.97521E+08         0.00000E+00
    0.00000E+00         0.00000E+00        -0.49563E+08
 
   -0.49505E+08         0.32048E+06         0.00000E+00
    0.32048E+06        -0.97517E+08         0.00000E+00
    0.00000E+00         0.00000E+00        -0.49538E+08
 
   -0.49476E+08         0.33815E+06         0.00000E+00
    0.33815E+06        -0.97513E+08         0.00000E+00
    0.00000E+00         0.00000E+00        -0.49511E+08
 
   -0.49446E+08         0.35678E+06         0.00000E+00
    0.35678E+06        -0.97508E+08         0.00000E+00
    0.00000E+00         0.00000E+00        -0.49482E+08
 
   -0.49414E+08         0.37642E+06         0.00000E+00
    0.37642E+06        -0.97503E+08         0.00000E+00
    0.00000E+00         0.00000E+00        -0.49452E+08
 
   -0.49380E+08         0.39712E+06         0.00000E+00
    0.39712E+06        -0.97498E+08         0.00000E+00
    0.00000E+00         0.00000E+00        -0.49420E+08
 
   -0.49344E+08         0.41893E+06         0.00000E+00
    0.41893E+06        -0.97492E+08         0.00000E+00
    0.00000E+00         0.00000E+00        -0.49387E+08
 
   -0.49306E+08         0.44190E+06         0.00000E+00
    0.44190E+06        -0.97487E+08         0.00000E+00
    0.00000E+00         0.00000E+00        -0.49351E+08
 
   -0.49266E+08         0.46608E+06         0.00000E+00
    0.46608E+06        -0.97481E+08         0.00000E+00
    0.00000E+00         0.00000E+00        -0.49314E+08
 
   -0.49224E+08         0.49154E+06         0.00000E+00
    0.49154E+06        -0.97475E+08         0.00000E+00
    0.00000E+00         0.00000E+00        -0.49274E+08
 
   -0.49180E+08         0.51832E+06         0.00000E+00
    0.51832E+06        -0.97468E+08         0.00000E+00
    0.00000E+00         0.00000E+00        -0.49232E+08
 
   -0.49133E+08         0.54649E+06         0.00000E+00
    0.54649E+06        -0.97462E+08         0.00000E+00
    0.00000E+00         0.00000E+00        -0.49188E+08
 
   -0.49083E+08         0.57609E+06         0.00000E+00
    0.57609E+06        -0.97455E+08         0.00000E+00
    0.00000E+00         0.00000E+00        -0.49141E+08
 
   -0.49030E+08         0.60719E+06         0.00000E+00
    0.60719E+06        -0.97448E+08         0.00000E+00
    0.00000E+00         0.00000E+00        -0.49091E+08
 
   -0.48975E+08         0.63984E+06         0.00000E+00
    0.63984E+06        -0.97440E+08         0.00000E+00
    0.00000E+00         0.00000E+00        -0.49039E+08
 
   -0.48916E+08         0.67410E+06         0.00000E+00
    0.67410E+06        -0.97433E+08         0.00000E+00
    0.00000E+00         0.00000E+00        -0.48983E+08
 
   -0.48854E+08         0.71001E+06         0.00000E+00
    0.71001E+06        -0.97425E+08         0.00000E+00
    0.00000E+00         0.00000E+00        -0.48924E+08
 
   -0.48789E+08         0.74764E+06         0.00000E+00
    0.74764E+06        -0.97417E+08         0.00000E+00
    0.00000E+00         0.00000E+00        -0.48862E+08
 
   -0.48720E+08         0.78703E+06         0.00000E+00
    0.78703E+06        -0.97408E+08         0.00000E+00
    0.00000E+00         0.00000E+00        -0.48797E+08
 
   -0.48647E+08         0.82822E+06         0.00000E+00
    0.82822E+06        -0.97400E+08         0.00000E+00
    0.00000E+00         0.00000E+00        -0.48727E+08
 
   -0.48570E+08         0.87126E+06         0.00000E+00
    0.87126E+06        -0.97392E+08         0.00000E+00
    0.00000E+00         0.00000E+00        -0.48654E+08
 
   -0.48488E+08         0.91617E+06         0.00000E+00
    0.91617E+06        -0.97383E+08         0.00000E+00
    0.00000E+00         0.00000E+00        -0.48576E+08
 
   -0.48402E+08         0.96298E+06         0.00000E+00
    0.96298E+06        -0.97375E+08         0.00000E+00
    0.00000E+00         0.00000E+00        -0.48494E+08
 
   -0.48311E+08         0.10117E+07         0.00000E+00
    0.10117E+07        -0.97366E+08         0.00000E+00
    0.00000E+00         0.00000E+00        -0.48407E+08
 
   -0.48216E+08         0.10623E+07         0.00000E+00
    0.10623E+07        -0.97358E+08         0.00000E+00
    0.00000E+00         0.00000E+00        -0.48315E+08
 
   -0.48114E+08         0.11149E+07         0.00000E+00
    0.11149E+07        -0.97350E+08         0.00000E+00
    0.00000E+00         0.00000E+00        -0.48218E+08
 
   -0.48007E+08         0.11692E+07         0.00000E+00
    0.11692E+07        -0.97342E+08         0.00000E+00
    0.00000E+00         0.00000E+00        -0.48114E+08
 
   -0.47894E+08         0.12254E+07         0.00000E+00
    0.12254E+07        -0.97335E+08         0.00000E+00
    0.00000E+00         0.00000E+00        -0.48005E+08
 
   -0.47775E+08         0.12834E+07         0.00000E+00
    0.12834E+07        -0.97329E+08         0.00000E+00
    0.00000E+00         0.00000E+00        -0.47890E+08
 
   -0.47650E+08         0.13429E+07         0.00000E+00
    0.13429E+07        -0.97323E+08         0.00000E+00
    0.00000E+00         0.00000E+00        -0.47767E+08
 
   -0.47517E+08         0.14039E+07         0.00000E+00
    0.14039E+07        -0.97319E+08         0.00000E+00
    0.00000E+00         0.00000E+00        -0.47638E+08
 
   -0.47377E+08         0.14662E+07         0.00000E+00
    0.14662E+07        -0.97316E+08         0.00000E+00
    0.00000E+00         0.00000E+00        -0.47500E+08
 
   -0.47229E+08         0.15296E+07         0.00000E+00
    0.15296E+07        -0.97315E+08         0.00000E+00
    0.00000E+00         0.00000E+00        -0.47355E+08
 
   -0.47073E+08         0.15939E+07         0.00000E+00
    0.15939E+07        -0.97316E+08         0.00000E+00
    0.00000E+00         0.00000E+00        -0.47201E+08
 
   -0.46908E+08         0.16586E+07         0.00000E+00
    0.16586E+07        -0.97319E+08         0.00000E+00
    0.00000E+00         0.00000E+00        -0.47037E+08
 
   -0.46734E+08         0.17234E+07         0.00000E+00
    0.17234E+07        -0.97326E+08         0.00000E+00
    0.00000E+00         0.00000E+00        -0.46864E+08
 
   -0.46550E+08         0.17879E+07         0.00000E+00
    0.17879E+07        -0.97336E+08         0.00000E+00
    0.00000E+00         0.00000E+00        -0.46681E+08
 
   -0.46357E+08         0.18515E+07         0.00000E+00
    0.18515E+07        -0.97350E+08         0.00000E+00
    0.00000E+00         0.00000E+00        -0.46486E+08
 
   -0.46152E+08         0.19138E+07         0.00000E+00
    0.19138E+07        -0.97369E+08         0.00000E+00
    0.00000E+00         0.00000E+00        -0.46280E+08
 
   -0.45936E+08         0.19739E+07         0.00000E+00
    0.19739E+07        -0.97394E+08         0.00000E+00
    0.00000E+00         0.00000E+00        -0.46061E+08
 
   -0.45708E+08         0.20312E+07         0.00000E+00
    0.20312E+07        -0.97425E+08         0.00000E+00
    0.00000E+00         0.00000E+00        -0.45828E+08
 
   -0.45467E+08         0.20849E+07         0.00000E+00
    0.20849E+07        -0.97463E+08         0.00000E+00
    0.00000E+00         0.00000E+00        -0.45581E+08
 
   -0.45213E+08         0.21341E+07         0.00000E+00
    0.21341E+07        -0.97510E+08         0.00000E+00
    0.00000E+00         0.00000E+00        -0.45319E+08
 
   -0.44943E+08         0.21779E+07         0.00000E+00
    0.21779E+07        -0.97565E+08         0.00000E+00
    0.00000E+00         0.00000E+00        -0.45041E+08
 
   -0.44658E+08         0.22152E+07         0.00000E+00
    0.22152E+07        -0.97629E+08         0.00000E+00
    0.00000E+00         0.00000E+00        -0.44745E+08
 
   -0.44356E+08         0.22451E+07         0.00000E+00
    0.22451E+07        -0.97704E+08         0.00000E+00
    0.00000E+00         0.00000E+00        -0.44431E+08
 
   -0.44036E+08         0.22665E+07         0.00000E+00
    0.22665E+07        -0.97789E+08         0.00000E+00
    0.00000E+00         0.00000E+00        -0.44096E+08
 
   -0.43697E+08         0.22784E+07         0.00000E+00
    0.22784E+07        -0.97884E+08         0.00000E+00
    0.00000E+00         0.00000E+00        -0.43740E+08
 
   -0.43337E+08         0.22798E+07         0.00000E+00
    0.22798E+07        -0.97989E+08         0.00000E+00
    0.00000E+00         0.00000E+00        -0.43362E+08
 
   -0.42954E+08         0.22696E+07         0.00000E+00
    0.22696E+07        -0.98102E+08         0.00000E+00
    0.00000E+00         0.00000E+00        -0.42958E+08
 
   -0.42547E+08         0.22470E+07         0.00000E+00
    0.22470E+07        -0.98221E+08         0.00000E+00
    0.00000E+00         0.00000E+00        -0.42529E+08
 
   -0.42114E+08         0.22110E+07         0.00000E+00
    0.22110E+07        -0.98342E+08         0.00000E+00
    0.00000E+00         0.00000E+00        -0.42071E+08
 
   -0.41654E+08         0.21607E+07         0.00000E+00
    0.21607E+07        -0.98460E+08         0.00000E+00
    0.00000E+00         0.00000E+00        -0.41583E+08
 
   -0.41166E+08         0.20946E+07         0.00000E+00
    0.20946E+07        -0.98565E+08         0.00000E+00
    0.00000E+00         0.00000E+00        -0.41063E+08
 
   -0.40648E+08         0.20111E+07         0.00000E+00
    0.20111E+07        -0.98649E+08         0.00000E+00
    0.00000E+00         0.00000E+00        -0.40508E+08
 
   -0.40103E+08         0.19070E+07         0.00000E+00
    0.19070E+07        -0.98696E+08         0.00000E+00
    0.00000E+00         0.00000E+00        -0.39916E+08
 
   -0.39533E+08         0.17773E+07         0.00000E+00
    0.17773E+07        -0.98690E+08         0.00000E+00
    0.00000E+00         0.00000E+00        -0.39285E+08
 
   -0.38943E+08         0.16136E+07         0.00000E+00
    0.16136E+07        -0.98608E+08         0.00000E+00
    0.00000E+00         0.00000E+00        -0.38612E+08
 
   -0.38345E+08         0.14023E+07         0.00000E+00
    0.14023E+07        -0.98426E+08         0.00000E+00
    0.00000E+00         0.00000E+00        -0.37894E+08
 
   -0.37762E+08         0.11207E+07         0.00000E+00
    0.11207E+07        -0.98112E+08         0.00000E+00
    0.00000E+00         0.00000E+00        -0.37129E+08
 
   -0.37246E+08         0.73917E+06         0.00000E+00
    0.73917E+06        -0.97621E+08         0.00000E+00
    0.00000E+00         0.00000E+00        -0.36314E+08
 
   -0.36918E+08         0.25985E+06         0.00000E+00
    0.25985E+06        -0.96915E+08         0.00000E+00
    0.00000E+00         0.00000E+00        -0.35447E+08
 
   -0.49976E+08         0.35333E+04         0.00000E+00
    0.35333E+04        -0.97587E+08         0.00000E+00
    0.00000E+00         0.00000E+00        -0.49997E+08
 
   -0.49974E+08         0.10418E+05         0.00000E+00
    0.10418E+05        -0.97582E+08         0.00000E+00
    0.00000E+00         0.00000E+00        -0.49991E+08
 
   -0.49970E+08         0.16825E+05         0.00000E+00
    0.16825E+05        -0.97578E+08         0.00000E+00
    0.00000E+00         0.00000E+00        -0.49984E+08
 
   -0.49965E+08         0.22692E+05         0.00000E+00
    0.22692E+05        -0.97576E+08         0.00000E+00
    0.00000E+00         0.00000E+00        -0.49978E+08
 
   -0.49959E+08         0.28162E+05         0.00000E+00
    0.28162E+05        -0.97574E+08         0.00000E+00
    0.00000E+00         0.00000E+00        -0.49972E+08
 
   -0.49954E+08         0.33379E+05         0.00000E+00
    0.33379E+05        -0.97573E+08         0.00000E+00
    0.00000E+00         0.00000E+00        -0.49966E+08
 
   -0.49948E+08         0.38441E+05         0.00000E+00
    0.38441E+05        -0.97573E+08         0.00000E+00
    0.00000E+00         0.00000E+00        -0.49959E+08
 
   -0.49942E+08         0.43412E+05         0.00000E+00
    0.43412E+05        -0.97573E+08         0.00000E+00
    0.00000E+00         0.00000E+00        -0.49953E+08
 
   -0.49935E+08         0.48335E+05         0.00000E+00
    0.48335E+05        -0.97573E+08         0.00000E+00
    0.00000E+00         0.00000E+00        -0.49946E+08
 
   -0.49929E+08         0.53243E+05         0.00000E+00
    0.53243E+05        -0.97573E+08         0.00000E+00
    0.00000E+00         0.00000E+00        -0.49940E+08
 
   -0.49922E+08         0.58159E+05         0.00000E+00
    0.58159E+05        -0.97573E+08         0.00000E+00
    0.00000E+00         0.00000E+00        -0.49933E+08
 
   -0.49915E+08         0.63108E+05         0.00000E+00
    0.63108E+05        -0.97573E+08         0.00000E+00
    0.00000E+00         0.00000E+00        -0.49926E+08
 
   -0.49907E+08         0.68108E+05         0.00000E+00
    0.68108E+05        -0.97573E+08         0.00000E+00
    0.00000E+00         0.00000E+00        -0.49919E+08
 
   -0.49900E+08         0.73181E+05         0.00000E+00
    0.73181E+05        -0.97573E+08         0.00000E+00
    0.00000E+00         0.00000E+00        -0.49912E+08
 
   -0.49892E+08         0.78349E+05         0.00000E+00
    0.78349E+05        -0.97573E+08         0.00000E+00
    0.00000E+00         0.00000E+00        -0.49904E+08
 
   -0.49884E+08         0.83634E+05         0.00000E+00
    0.83634E+05        -0.97573E+08         0.00000E+00
    0.00000E+00         0.00000E+00        -0.49896E+08
 
   -0.49875E+08         0.89060E+05         0.00000E+00
    0.89060E+05        -0.97573E+08         0.00000E+00
    0.00000E+00         0.00000E+00        -0.49888E+08
 
   -0.49866E+08         0.94650E+05         0.00000E+00
    0.94650E+05        -0.97572E+08         0.00000E+00
    0.00000E+00         0.00000E+00        -0.49879E+08
 
   -0.49857E+08         0.10043E+06         0.00000E+00
    0.10043E+06        -0.97571E+08         0.00000E+00
    0.00000E+00         0.00000E+00        -0.49871E+08
 
   -0.49847E+08         0.10642E+06         0.00000E+00
    0.10642E+06        -0.97570E+08         0.00000E+00
    0.00000E+00         0.00000E+00        -0.49861E+08
 
   -0.49837E+08         0.11266E+06         0.00000E+00
    0.11266E+06        -0.97569E+08         0.00000E+00
    0.00000E+00         0.00000E+00        -0.49852E+08
 
   -0.49826E+08         0.11916E+06         0.00000E+00
    0.11916E+06        -0.97568E+08         0.00000E+00
    0.00000E+00         0.00000E+00        -0.49842E+08
 
   -0.49815E+08         0.12596E+06         0.00000E+00
    0.12596E+06        -0.97567E+08         0.00000E+00
    0.00000E+00         0.00000E+00        -0.49831E+08
 
   -0.49803E+08         0.13307E+06         0.00000E+00
    0.13307E+06        -0.97565E+08         0.00000E+00
    0.00000E+00         0.00000E+00        -0.49820E+08
 
   -0.49791E+08         0.14053E+06         0.00000E+00
    0.14053E+06        -0.97564E+08         0.00000E+00
    0.00000E+00         0.00000E+00        -0.49808E+08
 
   -0.49777E+08         0.14837E+06         0.00000E+00
    0.14837E+06        -0.97562E+08         0.00000E+00
    0.00000E+00         0.00000E+00        -0.49796E+08
 
   -0.49764E+08         0.15661E+06         0.00000E+00
    0.15661E+06        -0.97560E+08         0.00000E+00
    0.00000E+00         0.00000E+00        -0.49783E+08
 
   -0.49749E+08         0.16529E+06         0.00000E+00
    0.16529E+06        -0.97558E+08         0.00000E+00
    0.00000E+00         0.00000E+00        -0.49770E+08
 
   -0.49734E+08         0.17443E+06         0.00000E+00
    0.17443E+06        -0.97556E+08         0.00000E+00
    0.00000E+00         0.00000E+00        -0.49756E+08
 
   -0.49717E+08         0.18406E+06         0.00000E+00
    0.18406E+06        -0.97553E+08         0.00000E+00
    0.00000E+00         0.00000E+00        -0.49741E+08
 
   -0.49700E+08         0.19421E+06         0.00000E+00
    0.19421E+06        -0.97551E+08         0.00000E+00
    0.00000E+00         0.00000E+00        -0.49725E+08
 
   -0.49682E+08         0.20492E+06         0.00000E+00
    0.20492E+06        -0.97548E+08         0.00000E+00
    0.00000E+00         0.00000E+00        -0.49708E+08
 
   -0.49664E+08         0.21622E+06         0.00000E+00
    0.21622E+06        -0.97545E+08         0.00000E+00
    0.00000E+00         0.00000E+00        -0.49691E+08
 
   -0.49644E+08         0.22815E+06         0.00000E+00
    0.22815E+06        -0.97542E+08         0.00000E+00
    0.00000E+00         0.00000E+00        -0.49672E+08
 
   -0.49622E+08         0.24073E+06         0.00000E+00
    0.24073E+06        -0.97539E+08         0.00000E+00
    0.00000E+00         0.00000E+00        -0.49653E+08
 
   -0.49600E+08         0.25400E+06         0.00000E+00
    0.25400E+06        -0.97536E+08         0.00000E+00
    0.00000E+00         0.00000E+00        -0.49632E+08
 
   -0.49577E+08         0.26801E+06         0.00000E+00
    0.26801E+06        -0.97532E+08         0.00000E+00
    0.00000E+00         0.00000E+00        -0.49610E+08
 
   -0.49552E+08         0.28280E+06         0.00000E+00
    0.28280E+06        -0.97529E+08         0.00000E+00
    0.00000E+00         0.00000E+00        -0.49588E+08
 
   -0.49526E+08         0.29839E+06         0.00000E+00
    0.29839E+06        -0.97525E+08         0.00000E+00
    0.00000E+00         0.00000E+00        -0.49563E+08
 
   -0.49498E+08         0.31485E+06         0.00000E+00
    0.31485E+06        -0.97521E+08         0.00000E+00
    0.00000E+00         0.00000E+00        -0.49538E+08
 
   -0.49469E+08         0.33220E+06         0.00000E+00
    0.33220E+06        -0.97516E+08         0.00000E+00
    0.00000E+00         0.00000E+00        -0.49511E+08
 
   -0.49438E+08         0.35049E+06         0.00000E+00
    0.35049E+06        -0.97512E+08         0.00000E+00
    0.00000E+00         0.00000E+00        -0.49482E+08
 
   -0.49406E+08         0.36978E+06         0.00000E+00
    0.36978E+06        -0.97507E+08         0.00000E+00
    0.00000E+00         0.00000E+00        -0.49452E+08
 
   -0.49371E+08         0.39011E+06         0.00000E+00
    0.39011E+06        -0.97502E+08         0.00000E+00
    0.00000E+00         0.00000E+00        -0.49420E+08
 
   -0.49335E+08         0.41152E+06         0.00000E+00
    0.41152E+06        -0.97497E+08         0.00000E+00
    0.00000E+00         0.00000E+00        -0.49387E+08
 
   -0.49297E+08         0.43408E+06         0.00000E+00
    0.43408E+06        -0.97491E+08         0.00000E+00
    0.00000E+00         0.00000E+00        -0.49351E+08
 
   -0.49256E+08         0.45782E+06         0.00000E+00
    0.45782E+06        -0.97486E+08         0.00000E+00
    0.00000E+00         0.00000E+00        -0.49314E+08
 
   -0.49213E+08         0.48281E+06         0.00000E+00
    0.48281E+06        -0.97480E+08         0.00000E+00
    0.00000E+00         0.00000E+00        -0.49274E+08
 
   -0.49168E+08         0.50911E+06         0.00000E+00
    0.50911E+06        -0.97474E+08         0.00000E+00
    0.00000E+00         0.00000E+00        -0.49232E+08
 
   -0.49121E+08         0.53675E+06         0.00000E+00
    0.53675E+06        -0.97467E+08         0.00000E+00
    0.00000E+00         0.00000E+00        -0.49188E+08
 
   -0.49070E+08         0.56581E+06         0.00000E+00
    0.56581E+06        -0.97461E+08         0.00000E+00
    0.00000E+00         0.00000E+00        -0.49141E+08
 
   -0.49017E+08         0.59633E+06         0.00000E+00
    0.59633E+06        -0.97454E+08         0.00000E+00
    0.00000E+00         0.00000E+00        -0.49091E+08
 
   -0.48961E+08         0.62837E+06         0.00000E+00
    0.62837E+06        -0.97447E+08         0.00000E+00
    0.00000E+00         0.00000E+00        -0.49039E+08
 
   -0.48902E+08         0.66198E+06         0.00000E+00
    0.66198E+06        -0.97439E+08         0.00000E+00
    0.00000E+00         0.00000E+00        -0.48983E+08
 
   -0.48839E+08         0.69721E+06         0.00000E+00
    0.69721E+06        -0.97432E+08         0.00000E+00
    0.00000E+00         0.00000E+00        -0.48924E+08
 
   -0.48773E+08         0.73412E+06         0.00000E+00
    0.73412E+06        -0.97424E+08         0.00000E+00
    0.00000E+00         0.00000E+00        -0.48862E+08
 
   -0.48703E+08         0.77275E+06         0.00000E+00
    0.77275E+06        -0.97416E+08         0.00000E+00
    0.00000E+00         0.00000E+00        -0.48797E+08
 
   -0.48629E+08         0.81315E+06         0.00000E+00
    0.81315E+06        -0.97408E+08         0.00000E+00
    0.00000E+00         0.00000E+00        -0.48727E+08
 
   -0.48551E+08         0.85534E+06         0.00000E+00
    0.85534E+06        -0.97400E+08         0.00000E+00
    0.00000E+00         0.00000E+00        -0.48654E+08
 
   -0.48469E+08         0.89936E+06         0.00000E+00
    0.89936E+06        -0.97392E+08         0.00000E+00
    0.00000E+00         0.00000E+00        -0.48576E+08
 
   -0.48382E+08         0.94523E+06         0.00000E+00
    0.94523E+06        -0.97384E+08         0.00000E+00
    0.00000E+00         0.00000E+00        -0.48494E+08
 
   -0.48291E+08         0.99296E+06         0.00000E+00
    0.99296E+06        -0.97376E+08         0.00000E+00
    0.00000E+00         0.00000E+00        -0.48407E+08
 
   -0.48194E+08         0.10425E+07         0.00000E+00
    0.10425E+07        -0.97368E+08         0.00000E+00
    0.00000E+00         0.00000E+00        -0.48315E+08
 
   -0.48092E+08         0.10940E+07         0.00000E+00
    0.10940E+07        -0.97360E+08         0.00000E+00
    0.00000E+00         0.00000E+00        -0.48217E+08
 
   -0.47984E+08         0.11472E+07         0.00000E+00
    0.11472E+07        -0.97353E+08         0.00000E+00
    0.00000E+00         0.00000E+00        -0.48114E+08
 
   -0.47870E+08         0.12022E+07         0.00000E+00
    0.12022E+07        -0.97346E+08         0.00000E+00
    0.00000E+00         0.00000E+00        -0.48005E+08
 
   -0.47750E+08         0.12588E+07         0.00000E+00
    0.12588E+07        -0.97340E+08         0.00000E+00
    0.00000E+00         0.00000E+00        -0.47890E+08
 
   -0.47624E+08         0.13170E+07         0.00000E+00
    0.13170E+07        -0.97335E+08         0.00000E+00
    0.00000E+00         0.00000E+00        -0.47767E+08
 
   -0.47490E+08         0.13766E+07         0.00000E+00
    0.13766E+07        -0.97331E+08         0.00000E+00
    0.00000E+00         0.00000E+00        -0.47637E+08
 
   -0.47350E+08         0.14374E+07         0.00000E+00
    0.14374E+07        -0.97328E+08         0.00000E+00
    0.00000E+00         0.00000E+00        -0.47500E+08
 
   -0.47201E+08         0.14992E+07         0.00000E+00
    0.14992E+07        -0.97327E+08         0.00000E+00
    0.00000E+00         0.00000E+00        -0.47355E+08
 
   -0.47045E+08         0.15618E+07         0.00000E+00
    0.15618E+07        -0.97329E+08         0.00000E+00
    0.00000E+00         0.00000E+00        -0.47201E+08
 
   -0.46880E+08         0.16247E+07         0.00000E+00
    0.16247E+07        -0.97332E+08         0.00000E+00
    0.00000E+00         0.00000E+00        -0.47037E+08
 
   -0.46705E+08         0.16877E+07         0.00000E+00
    0.16877E+07        -0.97339E+08         0.00000E+00
    0.00000E+00         0.00000E+00        -0.46864E+08
 
   -0.46522E+08         0.17502E+07         0.00000E+00
    0.17502E+07        -0.97349E+08         0.00000E+00
    0.00000E+00         0.00000E+00        -0.46681E+08
 
   -0.46328E+08         0.18118E+07         0.00000E+00
    0.18118E+07        -0.97363E+08         0.00000E+00
    0.00000E+00         0.00000E+00        -0.46486E+08
 
   -0.46124E+08         0.18718E+07         0.00000E+00
    0.18718E+07        -0.97381E+08         0.00000E+00
    0.00000E+00         0.00000E+00        -0.46280E+08
 
   -0.45909E+08         0.19296E+07         0.00000E+00
    0.19296E+07        -0.97406E+08         0.00000E+00
    0.00000E+00         0.00000E+00        -0.46061E+08
 
   -0.45682E+08         0.19845E+07         0.00000E+00
    0.19845E+07        -0.97436E+08         0.00000E+00
    0.00000E+00         0.00000E+00        -0.45828E+08
 
   -0.45442E+08         0.20355E+07         0.00000E+00
    0.20355E+07        -0.97473E+08         0.00000E+00
    0.00000E+00         0.00000E+00        -0.45581E+08
 
   -0.45189E+08         0.20819E+07         0.00000E+00
    0.20819E+07        -0.97519E+08         0.00000E+00
    0.00000E+00         0.00000E+00        -0.45319E+08
 
   -0.44922E+08         0.21227E+07         0.00000E+00
    0.21227E+07        -0.97572E+08         0.00000E+00
    0.00000E+00         0.00000E+00        -0.45041E+08
 
   -0.44639E+08         0.21569E+07         0.00000E+00
    0.21569E+07        -0.97636E+08         0.00000E+00
    0.00000E+00         0.00000E+00        -0.44745E+08
 
   -0.44340E+08         0.21833E+07         0.00000E+00
    0.21833E+07        -0.97709E+08         0.00000E+00
    0.00000E+00         0.00000E+00        -0.44431E+08
 
   -0.44024E+08         0.22010E+07         0.00000E+00
    0.22010E+07        -0.97792E+08         0.00000E+00
    0.00000E+00         0.00000E+00        -0.44096E+08
 
   -0.43689E+08         0.22089E+07         0.00000E+00
    0.22089E+07        -0.97885E+08         0.00000E+00
    0.00000E+00         0.00000E+00        -0.43740E+08
 
   -0.43333E+08         0.22060E+07         0.00000E+00
    0.22060E+07        -0.97988E+08         0.00000E+00
    0.00000E+00         0.00000E+00        -0.43362E+08
 
   -0.42955E+08         0.21912E+07         0.00000E+00
    0.21912E+07        -0.98099E+08         0.00000E+00
    0.00000E+00         0.00000E+00        -0.42958E+08
 
   -0.42553E+08         0.21637E+07         0.00000E+00
    0.21637E+07        -0.98215E+08         0.00000E+00
    0.00000E+00         0.00000E+00        -0.42529E+08
 
   -0.42127E+08         0.21224E+07         0.00000E+00
    0.21224E+07        -0.98333E+08         0.00000E+00
    0.00000E+00         0.00000E+00        -0.42071E+08
 
   -0.41674E+08         0.20665E+07         0.00000E+00
    0.20665E+07        -0.98448E+08         0.00000E+00
    0.00000E+00         0.00000E+00        -0.41583E+08
 
   -0.41194E+08         0.19949E+07         0.00000E+00
    0.19949E+07        -0.98550E+08         0.00000E+00
    0.00000E+00         0.00000E+00        -0.41063E+08
 
   -0.40686E+08         0.19057E+07         0.00000E+00
    0.19057E+07        -0.98630E+08         0.00000E+00
    0.00000E+00         0.00000E+00        -0.40508E+08
 
   -0.40153E+08         0.17964E+07         0.00000E+00
    0.17964E+07        -0.98673E+08         0.00000E+00
    0.00000E+00         0.00000E+00        -0.39916E+08
 
   -0.39597E+08         0.16625E+07         0.00000E+00
    0.16625E+07        -0.98661E+08         0.00000E+00
    0.00000E+00         0.00000E+00        -0.39285E+08
 
   -0.39026E+08         0.14964E+07         0.00000E+00
    0.14964E+07        -0.98571E+08         0.00000E+00
    0.00000E+00         0.00000E+00        -0.38612E+08
 
   -0.38455E+08         0.12860E+07         0.00000E+00
    0.12860E+07        -0.98378E+08         0.00000E+00
    0.00000E+00         0.00000E+00        -0.37894E+08
 
   -0.37909E+08         0.10120E+07         0.00000E+00
    0.10120E+07        -0.98048E+08         0.00000E+00
    0.00000E+00         0.00000E+00        -0.37129E+08
 
   -0.37444E+08         0.65534E+06         0.00000E+00
    0.65534E+06        -0.97537E+08         0.00000E+00
    0.00000E+00         0.00000E+00        -0.36314E+08
 
   -0.37163E+08         0.22736E+06         0.00000E+00
    0.22736E+06        -0.96818E+08         0.00000E+00
    0.00000E+00         0.00000E+00        -0.35447E+08
 
   -0.49973E+08         0.33081E+04         0.00000E+00
    0.33081E+04        -0.97588E+08         0.00000E+00
    0.00000E+00         0.00000E+00        -0.49997E+08
 
   -0.49971E+08         0.98041E+04         0.00000E+00
    0.98041E+04        -0.97583E+08         0.00000E+00
    0.00000E+00         0.00000E+00        -0.49991E+08
 
   -0.49967E+08         0.15959E+05         0.00000E+00
    0.15959E+05        -0.97579E+08         0.00000E+00
    0.00000E+00         0.00000E+00        -0.49984E+08
 
   -0.49962E+08         0.21684E+05         0.00000E+00
    0.21684E+05        -0.97577E+08         0.00000E+00
    0.00000E+00         0.00000E+00        -0.49978E+08
 
   -0.49957E+08         0.27064E+05         0.00000E+00
    0.27064E+05        -0.97575E+08         0.00000E+00
    0.00000E+00         0.00000E+00        -0.49972E+08
 
   -0.49952E+08         0.32217E+05         0.00000E+00
    0.32217E+05        -0.97574E+08         0.00000E+00
    0.00000E+00         0.00000E+00        -0.49966E+08
 
   -0.49946E+08         0.37228E+05         0.00000E+00
    0.37228E+05        -0.97574E+08         0.00000E+00
    0.00000E+00         0.00000E+00        -0.49959E+08
 
   -0.49940E+08         0.42155E+05         0.00000E+00
    0.42155E+05        -0.97574E+08         0.00000E+00
    0.00000E+00         0.00000E+00        -0.49953E+08
 
   -0.49933E+08         0.47037E+05         0.00000E+00
    0.47037E+05        -0.97574E+08         0.00000E+00
    0.00000E+00         0.00000E+00        -0.49946E+08
 
   -0.49927E+08         0.51903E+05         0.00000E+00
    0.51903E+05        -0.97574E+08         0.00000E+00
    0.00000E+00         0.00000E+00        -0.49940E+08
 
   -0.49920E+08         0.56775E+05         0.00000E+00
    0.56775E+05        -0.97574E+08         0.00000E+00
    0.00000E+00         0.00000E+00        -0.49933E+08
 
   -0.49913E+08         0.61675E+05         0.00000E+00
    0.61675E+05        -0.97574E+08         0.00000E+00
    0.00000E+00         0.00000E+00        -0.49926E+08
 
   -0.49905E+08         0.66622E+05         0.00000E+00
    0.66622E+05        -0.97574E+08         0.00000E+00
    0.00000E+00         0.00000E+00        -0.49919E+08
 
   -0.49898E+08         0.71637E+05         0.00000E+00
    0.71637E+05        -0.97574E+08         0.00000E+00
    0.00000E+00         0.00000E+00        -0.49912E+08
 
   -0.49890E+08         0.76741E+05         0.00000E+00
    0.76741E+05        -0.97574E+08         0.00000E+00
    0.00000E+00         0.00000E+00        -0.49904E+08
 
   -0.49882E+08         0.81957E+05         0.00000E+00
    0.81957E+05        -0.97574E+08         0.00000E+00
    0.00000E+00         0.00000E+00        -0.49896E+08
 
   -0.49873E+08         0.87307E+05         0.00000E+00
    0.87307E+05        -0.97574E+08         0.00000E+00
    0.00000E+00         0.00000E+00        -0.49888E+08
 
   -0.49864E+08         0.92817E+05         0.00000E+00
    0.92817E+05        -0.97573E+08         0.00000E+00
    0.00000E+00         0.00000E+00        -0.49879E+08
 
   -0.49855E+08         0.98509E+05         0.00000E+00
    0.98509E+05        -0.97572E+08         0.00000E+00
    0.00000E+00         0.00000E+00        -0.49871E+08
 
   -0.49845E+08         0.10441E+06         0.00000E+00
    0.10441E+06        -0.97572E+08         0.00000E+00
    0.00000E+00         0.00000E+00        -0.49861E+08
 
   -0.49834E+08         0.11055E+06         0.00000E+00
    0.11055E+06        -0.97571E+08         0.00000E+00
    0.00000E+00         0.00000E+00        -0.49852E+08
 
   -0.49824E+08         0.11694E+06         0.00000E+00
    0.11694E+06        -0.97569E+08         0.00000E+00
    0.00000E+00         0.00000E+00        -0.49842E+08
 
   -0.49812E+08         0.12362E+06         0.00000E+00
    0.12362E+06        -0.97568E+08         0.00000E+00
    0.00000E+00         0.00000E+00        -0.49831E+08
 
   -0.49800E+08         0.13062E+06         0.00000E+00
    0.13062E+06        -0.97567E+08         0.00000E+00
    0.00000E+00         0.00000E+00        -0.49820E+08
 
   -0.49787E+08         0.13796E+06         0.00000E+00
    0.13796E+06        -0.97565E+08         0.00000E+00
    0.00000E+00         0.00000E+00        -0.49808E+08
 
   -0.49774E+08         0.14566E+06         0.00000E+00
    0.14566E+06        -0.97563E+08         0.00000E+00
    0.00000E+00         0.00000E+00        -0.49796E+08
 
   -0.49760E+08         0.15376E+06         0.00000E+00
    0.15376E+06        -0.97562E+08         0.00000E+00
    0.00000E+00         0.00000E+00        -0.49783E+08
 
   -0.49745E+08         0.16228E+06         0.00000E+00
    0.16228E+06        -0.97560E+08         0.00000E+00
    0.00000E+00         0.00000E+00        -0.49770E+08
 
   -0.49730E+08         0.17126E+06         0.00000E+00
    0.17126E+06        -0.97557E+08         0.00000E+00
    0.00000E+00         0.00000E+00        -0.49756E+08
 
   -0.49713E+08         0.18072E+06         0.00000E+00
    0.18072E+06        -0.97555E+08         0.00000E+00
    0.00000E+00         0.00000E+00        -0.49741E+08
 
   -0.49696E+08         0.19069E+06         0.00000E+00
    0.19069E+06        -0.97553E+08         0.00000E+00
    0.00000E+00         0.00000E+00        -0.49725E+08
 
   -0.49678E+08         0.20121E+06         0.00000E+00
    0.20121E+06        -0.97550E+08         0.00000E+00
    0.00000E+00         0.00000E+00        -0.49708E+08
 
   -0.49659E+08         0.21230E+06         0.00000E+00
    0.21230E+06        -0.97548E+08         0.00000E+00
    0.00000E+00         0.00000E+00        -0.49691E+08
 
   -0.49638E+08         0.22401E+06         0.00000E+00
    0.22401E+06        -0.97545E+08         0.00000E+00
    0.00000E+00         0.00000E+00        -0.49672E+08
 
   -0.49617E+08         0.23637E+06         0.00000E+00
    0.23637E+06        -0.97542E+08         0.00000E+00
    0.00000E+00         0.00000E+00        -0.49653E+08
 
   -0.49595E+08         0.24940E+06         0.00000E+00
    0.24940E+06        -0.97538E+08         0.00000E+00
    0.00000E+00         0.00000E+00        -0.49632E+08
 
   -0.49571E+08         0.26316E+06         0.00000E+00
    0.26316E+06        -0.97535E+08         0.00000E+00
    0.00000E+00         0.00000E+00        -0.49610E+08
 
   -0.49546E+08         0.27767E+06         0.00000E+00
    0.27767E+06        -0.97532E+08         0.00000E+00
    0.00000E+00         0.00000E+00        -0.49588E+08
 
   -0.49519E+08         0.29298E+06         0.00000E+00
    0.29298E+06        -0.97528E+08         0.00000E+00
    0.00000E+00         0.00000E+00        -0.49563E+08
 
   -0.49491E+08         0.30913E+06         0.00000E+00
    0.30913E+06        -0.97524E+08         0.00000E+00
    0.00000E+00         0.00000E+00        -0.49538E+08
 
   -0.49462E+08         0.32616E+06         0.00000E+00
    0.32616E+06        -0.97520E+08         0.00000E+00
    0.00000E+00         0.00000E+00        -0.49511E+08
 
   -0.49430E+08         0.34412E+06         0.00000E+00
    0.34412E+06        -0.97515E+08         0.00000E+00
    0.00000E+00         0.00000E+00        -0.49482E+08
 
   -0.49397E+08         0.36305E+06         0.00000E+00
    0.36305E+06        -0.97511E+08         0.00000E+00
    0.00000E+00         0.00000E+00        -0.49452E+08
 
   -0.49363E+08         0.38300E+06         0.00000E+00
    0.38300E+06        -0.97506E+08         0.00000E+00
    0.00000E+00         0.00000E+00        -0.49420E+08
 
   -0.49326E+08         0.40402E+06         0.00000E+00
    0.40402E+06        -0.97501E+08         0.00000E+00
    0.00000E+00         0.00000E+00        -0.49387E+08
 
   -0.49287E+08         0.42615E+06         0.00000E+00
    0.42615E+06        -0.97496E+08         0.00000E+00
    0.00000E+00         0.00000E+00        -0.49351E+08
 
   -0.49246E+08         0.44946E+06         0.00000E+00
    0.44946E+06        -0.97491E+08         0.00000E+00
    0.00000E+00         0.00000E+00        -0.49314E+08
 
   -0.49203E+08         0.47398E+06         0.00000E+00
    0.47398E+06        -0.97485E+08         0.00000E+00
    0.00000E+00         0.00000E+00        -0.49274E+08
 
   -0.49157E+08         0.49977E+06         0.00000E+00
    0.49977E+06        -0.97479E+08         0.00000E+00
    0.00000E+00         0.00000E+00        -0.49232E+08
 
   -0.49109E+08         0.52690E+06         0.00000E+00
    0.52690E+06        -0.97473E+08         0.00000E+00
    0.00000E+00         0.00000E+00        -0.49187E+08
 
   -0.49058E+08         0.55540E+06         0.00000E+00
    0.55540E+06        -0.97467E+08         0.00000E+00
    0.00000E+00         0.00000E+00        -0.49141E+08
 
   -0.49004E+08         0.58533E+06         0.00000E+00
    0.58533E+06        -0.97460E+08         0.00000E+00
    0.00000E+00         0.00000E+00        -0.49091E+08
 
   -0.48947E+08         0.61676E+06         0.00000E+00
    0.61676E+06        -0.97453E+08         0.00000E+00
    0.00000E+00         0.00000E+00        -0.49039E+08
 
   -0.48887E+08         0.64972E+06         0.00000E+00
    0.64972E+06        -0.97446E+08         0.00000E+00
    0.00000E+00         0.00000E+00        -0.48983E+08
 
   -0.48824E+08         0.68427E+06         0.00000E+00
    0.68427E+06        -0.97439E+08         0.00000E+00
    0.00000E+00         0.00000E+00        -0.48924E+08
 
   -0.48757E+08         0.72046E+06         0.00000E+00
    0.72046E+06        -0.97432E+08         0.00000E+00
    0.00000E+00         0.00000E+00        -0.48862E+08
 
   -0.48686E+08         0.75832E+06         0.00000E+00
    0.75832E+06        -0.97424E+08         0.00000E+00
    0.00000E+00         0.00000E+00        -0.48797E+08
 
   -0.48612E+08         0.79791E+06         0.00000E+00
    0.79791E+06        -0.97417E+08         0.00000E+00
    0.00000E+00         0.00000E+00        -0.48727E+08
 
   -0.48533E+08         0.83926E+06         0.00000E+00
    0.83926E+06        -0.97409E+08         0.00000E+00
    0.00000E+00         0.00000E+00        -0.48654E+08
 
   -0.48450E+08         0.88238E+06         0.00000E+00
    0.88238E+06        -0.97401E+08         0.00000E+00
    0.00000E+00         0.00000E+00        -0.48576E+08
 
   -0.48363E+08         0.92731E+06         0.00000E+00
    0.92731E+06        -0.97393E+08         0.00000E+00
    0.00000E+00         0.00000E+00        -0.48494E+08
 
   -0.48270E+08         0.97405E+06         0.00000E+00
    0.97405E+06        -0.97386E+08         0.00000E+00
    0.00000E+00         0.00000E+00        -0.48407E+08
 
   -0.48172E+08         0.10226E+07         0.00000E+00
    0.10226E+07        -0.97378E+08         0.00000E+00
    0.00000E+00         0.00000E+00        -0.48315E+08
 
   -0.48070E+08         0.10729E+07         0.00000E+00
    0.10729E+07        -0.97371E+08         0.00000E+00
    0.00000E+00         0.00000E+00        -0.48217E+08
 
   -0.47961E+08         0.11250E+07         0.00000E+00
    0.11250E+07        -0.97364E+08         0.00000E+00
    0.00000E+00         0.00000E+00        -0.48114E+08
 
   -0.47846E+08         0.11787E+07         0.00000E+00
    0.11787E+07        -0.97357E+08         0.00000E+00
    0.00000E+00         0.00000E+00        -0.48005E+08
 
   -0.47726E+08         0.12341E+07         0.00000E+00
    0.12341E+07        -0.97352E+08         0.00000E+00
    0.00000E+00         0.00000E+00        -0.47889E+08
 
   -0.47598E+08         0.12909E+07         0.00000E+00
    0.12909E+07        -0.97347E+08         0.00000E+00
    0.00000E+00         0.00000E+00        -0.47767E+08
 
   -0.47464E+08         0.13491E+07         0.00000E+00
    0.13491E+07        -0.97343E+08         0.00000E+00
    0.00000E+00         0.00000E+00        -0.47637E+08
 
   -0.47323E+08         0.14084E+07         0.00000E+00
    0.14084E+07        -0.97341E+08         0.00000E+00
    0.00000E+00         0.00000E+00        -0.47500E+08
 
   -0.47174E+08         0.14687E+07         0.00000E+00
    0.14687E+07        -0.97340E+08         0.00000E+00
    0.00000E+00         0.00000E+00        -0.47355E+08
 
   -0.47017E+08         0.15296E+07         0.00000E+00
    0.15296E+07        -0.97341E+08         0.00000E+00
    0.00000E+00         0.00000E+00        -0.47200E+08
 
   -0.46851E+08         0.15908E+07         0.00000E+00
    0.15908E+07        -0.97345E+08         0.00000E+00
    0.00000E+00         0.00000E+00        -0.47037E+08
 
   -0.46677E+08         0.16519E+07         0.00000E+00
    0.16519E+07        -0.97351E+08         0.00000E+00
    0.00000E+00         0.00000E+00        -0.46864E+08
 
   -0.46494E+08         0.17125E+07         0.00000E+00
    0.17125E+07        -0.97361E+08         0.00000E+00
    0.00000E+00         0.00000E+00        -0.46680E+08
 
   -0.46300E+08         0.17721E+07         0.00000E+00
    0.17721E+07        -0.97375E+08         0.00000E+00
    0.00000E+00         0.00000E+00        -0.46486E+08
 
   -0.46097E+08         0.18300E+07         0.00000E+00
    0.18300E+07        -0.97393E+08         0.00000E+00
    0.00000E+00         0.00000E+00        -0.46279E+08
 
   -0.45882E+08         0.18855E+07         0.00000E+00
    0.18855E+07        -0.97417E+08         0.00000E+00
    0.00000E+00         0.00000E+00        -0.46060E+08
 
   -0.45656E+08         0.19379E+07         0.00000E+00
    0.19379E+07        -0.97446E+08         0.00000E+00
    0.00000E+00         0.00000E+00        -0.45828E+08
 
   -0.45417E+08         0.19865E+07         0.00000E+00
    0.19865E+07        -0.97483E+08         0.00000E+00
    0.00000E+00         0.00000E+00        -0.45581E+08
 
   -0.45166E+08         0.20301E+07         0.00000E+00
    0.20301E+07        -0.97527E+08         0.00000E+00
    0.00000E+00         0.00000E+00        -0.45319E+08
 
   -0.44901E+08         0.20680E+07         0.00000E+00
    0.20680E+07        -0.97580E+08         0.00000E+00
    0.00000E+00         0.00000E+00        -0.45041E+08
 
   -0.44621E+08         0.20990E+07         0.00000E+00
    0.20990E+07        -0.97641E+08         0.00000E+00
    0.00000E+00         0.00000E+00        -0.44745E+08
 
   -0.44325E+08         0.21221E+07         0.00000E+00
    0.21221E+07        -0.97713E+08         0.00000E+00
    0.00000E+00         0.00000E+00        -0.44431E+08
 
   -0.44012E+08         0.21363E+07         0.00000E+00
    0.21363E+07        -0.97794E+08         0.00000E+00
    0.00000E+00         0.00000E+00        -0.44096E+08
 
   -0.43680E+08         0.21403E+07         0.00000E+00
    0.21403E+07        -0.97885E+08         0.00000E+00
    0.00000E+00         0.00000E+00        -0.43740E+08
 
   -0.43329E+08         0.21331E+07         0.00000E+00
    0.21331E+07        -0.97986E+08         0.00000E+00
    0.00000E+00         0.00000E+00        -0.43362E+08
 
   -0.42956E+08         0.21139E+07         0.00000E+00
    0.21139E+07        -0.98094E+08         0.00000E+00
    0.00000E+00         0.00000E+00        -0.42958E+08
 
   -0.42561E+08         0.20815E+07         0.00000E+00
    0.20815E+07        -0.98208E+08         0.00000E+00
    0.00000E+00         0.00000E+00        -0.42529E+08
 
   -0.42141E+08         0.20352E+07         0.00000E+00
    0.20352E+07        -0.98323E+08         0.00000E+00
    0.00000E+00         0.00000E+00        -0.42071E+08
 
   -0.41695E+08         0.19740E+07         0.00000E+00
    0.19740E+07        -0.98434E+08         0.00000E+00
    0.00000E+00         0.00000E+00        -0.41583E+08
 
   -0.41224E+08         0.18969E+07         0.00000E+00
    0.18969E+07        -0.98533E+08         0.00000E+00
    0.00000E+00         0.00000E+00        -0.41063E+08
 
   -0.40726E+08         0.18025E+07         0.00000E+00
    0.18025E+07        -0.98610E+08         0.00000E+00
    0.00000E+00         0.00000E+00        -0.40508E+08
 
   -0.40204E+08         0.16885E+07         0.00000E+00
    0.16885E+07        -0.98648E+08         0.00000E+00
    0.00000E+00         0.00000E+00        -0.39917E+08
 
   -0.39664E+08         0.15511E+07         0.00000E+00
    0.15511E+07        -0.98631E+08         0.00000E+00
    0.00000E+00         0.00000E+00        -0.39285E+08
 
   -0.39112E+08         0.13836E+07         0.00000E+00
    0.13836E+07        -0.98534E+08         0.00000E+00
    0.00000E+00         0.00000E+00        -0.38612E+08
 
   -0.38567E+08         0.11757E+07         0.00000E+00
    0.11757E+07        -0.98331E+08         0.00000E+00
    0.00000E+00         0.00000E+00        -0.37894E+08
 
   -0.38055E+08         0.91187E+06         0.00000E+00
    0.91187E+06        -0.97987E+08         0.00000E+00
    0.00000E+00         0.00000E+00        -0.37129E+08
 
   -0.37635E+08         0.58151E+06         0.00000E+00
    0.58151E+06        -0.97461E+08         0.00000E+00
    0.00000E+00         0.00000E+00        -0.36314E+08
 
   -0.37389E+08         0.19970E+06         0.00000E+00
    0.19970E+06        -0.96733E+08         0.00000E+00
    0.00000E+00         0.00000E+00        -0.35447E+08
 
   -0.49970E+08         0.31074E+04         0.00000E+00
    0.31074E+04        -0.97589E+08         0.00000E+00
    0.00000E+00         0.00000E+00        -0.49997E+08
 
   -0.49968E+08         0.92444E+04         0.00000E+00
    0.92444E+04        -0.97584E+08         0.00000E+00
    0.00000E+00         0.00000E+00        -0.49991E+08
 
   -0.49964E+08         0.15144E+05         0.00000E+00
    0.15144E+05        -0.97581E+08         0.00000E+00
    0.00000E+00         0.00000E+00        -0.49984E+08
 
   -0.49960E+08         0.20712E+05         0.00000E+00
    0.20712E+05        -0.97578E+08         0.00000E+00
    0.00000E+00         0.00000E+00        -0.49978E+08
 
   -0.49955E+08         0.25991E+05         0.00000E+00
    0.25991E+05        -0.97576E+08         0.00000E+00
    0.00000E+00         0.00000E+00        -0.49972E+08
 
   -0.49949E+08         0.31072E+05         0.00000E+00
    0.31072E+05        -0.97575E+08         0.00000E+00
    0.00000E+00         0.00000E+00        -0.49966E+08
 
   -0.49944E+08         0.36027E+05         0.00000E+00
    0.36027E+05        -0.97575E+08         0.00000E+00
    0.00000E+00         0.00000E+00        -0.49959E+08
 
   -0.49938E+08         0.40906E+05         0.00000E+00
    0.40906E+05        -0.97575E+08         0.00000E+00
    0.00000E+00         0.00000E+00        -0.49953E+08
 
   -0.49931E+08         0.45744E+05         0.00000E+00
    0.45744E+05        -0.97575E+08         0.00000E+00
    0.00000E+00         0.00000E+00        -0.49946E+08
 
   -0.49925E+08         0.50565E+05         0.00000E+00
    0.50565E+05        -0.97575E+08         0.00000E+00
    0.00000E+00         0.00000E+00        -0.49940E+08
 
   -0.49918E+08         0.55390E+05         0.00000E+00
    0.55390E+05        -0.97575E+08         0.00000E+00
    0.00000E+00         0.00000E+00        -0.49933E+08
 
   -0.49911E+08         0.60238E+05         0.00000E+00
    0.60238E+05        -0.97575E+08         0.00000E+00
    0.00000E+00         0.00000E+00        -0.49926E+08
 
   -0.49903E+08         0.65130E+05         0.00000E+00
    0.65130E+05        -0.97575E+08         0.00000E+00
    0.00000E+00         0.00000E+00        -0.49919E+08
 
   -0.49896E+08         0.70084E+05         0.00000E+00
    0.70084E+05        -0.97575E+08         0.00000E+00
    0.00000E+00         0.00000E+00        -0.49912E+08
 
   -0.49888E+08         0.75123E+05         0.00000E+00
    0.75123E+05        -0.97575E+08         0.00000E+00
    0.00000E+00         0.00000E+00        -0.49904E+08
 
   -0.49880E+08         0.80267E+05         0.00000E+00
    0.80267E+05        -0.97575E+08         0.00000E+00
    0.00000E+00         0.00000E+00        -0.49896E+08
 
   -0.49871E+08         0.85541E+05         0.00000E+00
    0.85541E+05        -0.97575E+08         0.00000E+00
    0.00000E+00         0.00000E+00        -0.49888E+08
 
   -0.49862E+08         0.90967E+05         0.00000E+00
    0.90967E+05        -0.97574E+08         0.00000E+00
    0.00000E+00         0.00000E+00        -0.49879E+08
 
   -0.49852E+08         0.96571E+05         0.00000E+00
    0.96571E+05        -0.97574E+08         0.00000E+00
    0.00000E+00         0.00000E+00        -0.49871E+08
 
   -0.49842E+08         0.10238E+06         0.00000E+00
    0.10238E+06        -0.97573E+08         0.00000E+00
    0.00000E+00         0.00000E+00        -0.49861E+08
 
   -0.49832E+08         0.10841E+06         0.00000E+00
    0.10841E+06        -0.97572E+08         0.00000E+00
    0.00000E+00         0.00000E+00        -0.49852E+08
 
   -0.49821E+08         0.11470E+06         0.00000E+00
    0.11470E+06        -0.97571E+08         0.00000E+00
    0.00000E+00         0.00000E+00        -0.49842E+08
 
   -0.49809E+08         0.12127E+06         0.00000E+00
    0.12127E+06        -0.97569E+08         0.00000E+00
    0.00000E+00         0.00000E+00        -0.49831E+08
 
   -0.49797E+08         0.12814E+06         0.00000E+00
    0.12814E+06        -0.97568E+08         0.00000E+00
    0.00000E+00         0.00000E+00        -0.49820E+08
 
   -0.49784E+08         0.13534E+06         0.00000E+00
    0.13534E+06        -0.97567E+08         0.00000E+00
    0.00000E+00         0.00000E+00        -0.49808E+08
 
   -0.49771E+08         0.14291E+06         0.00000E+00
    0.14291E+06        -0.97565E+08         0.00000E+00
    0.00000E+00         0.00000E+00        -0.49796E+08
 
   -0.49757E+08         0.15086E+06         0.00000E+00
    0.15086E+06        -0.97563E+08         0.00000E+00
    0.00000E+00         0.00000E+00        -0.49783E+08
 
   -0.49742E+08         0.15923E+06         0.00000E+00
    0.15923E+06        -0.97561E+08         0.00000E+00
    0.00000E+00         0.00000E+00        -0.49770E+08
 
   -0.49726E+08         0.16804E+06         0.00000E+00
    0.16804E+06        -0.97559E+08         0.00000E+00
    0.00000E+00         0.00000E+00        -0.49756E+08
 
   -0.49709E+08         0.17733E+06         0.00000E+00
    0.17733E+06        -0.97557E+08         0.00000E+00
    0.00000E+00         0.00000E+00        -0.49741E+08
 
   -0.49692E+08         0.18712E+06         0.00000E+00
    0.18712E+06        -0.97555E+08         0.00000E+00
    0.00000E+00         0.00000E+00        -0.49725E+08
 
   -0.49673E+08         0.19744E+06         0.00000E+00
    0.19744E+06        -0.97552E+08         0.00000E+00
    0.00000E+00         0.00000E+00        -0.49708E+08
 
   -0.49654E+08         0.20833E+06         0.00000E+00
    0.20833E+06        -0.97550E+08         0.00000E+00
    0.00000E+00         0.00000E+00        -0.49691E+08
 
   -0.49633E+08         0.21982E+06         0.00000E+00
    0.21982E+06        -0.97547E+08         0.00000E+00
    0.00000E+00         0.00000E+00        -0.49672E+08
 
   -0.49612E+08         0.23195E+06         0.00000E+00
    0.23195E+06        -0.97544E+08         0.00000E+00
    0.00000E+00         0.00000E+00        -0.49653E+08
 
   -0.49589E+08         0.24474E+06         0.00000E+00
    0.24474E+06        -0.97541E+08         0.00000E+00
    0.00000E+00         0.00000E+00        -0.49632E+08
 
   -0.49565E+08         0.25824E+06         0.00000E+00
    0.25824E+06        -0.97538E+08         0.00000E+00
    0.00000E+00         0.00000E+00        -0.49610E+08
 
   -0.49539E+08         0.27248E+06         0.00000E+00
    0.27248E+06        -0.97534E+08         0.00000E+00
    0.00000E+00         0.00000E+00        -0.49587E+08
 
   -0.49512E+08         0.28750E+06         0.00000E+00
    0.28750E+06        -0.97531E+08         0.00000E+00
    0.00000E+00         0.00000E+00        -0.49563E+08
 
   -0.49484E+08         0.30334E+06         0.00000E+00
    0.30334E+06        -0.97527E+08         0.00000E+00
    0.00000E+00         0.00000E+00        -0.49538E+08
 
   -0.49454E+08         0.32005E+06         0.00000E+00
    0.32005E+06        -0.97523E+08         0.00000E+00
    0.00000E+00         0.00000E+00        -0.49511E+08
 
   -0.49423E+08         0.33767E+06         0.00000E+00
    0.33767E+06        -0.97519E+08         0.00000E+00
    0.00000E+00         0.00000E+00        -0.49482E+08
 
   -0.49389E+08         0.35624E+06         0.00000E+00
    0.35624E+06        -0.97515E+08         0.00000E+00
    0.00000E+00         0.00000E+00        -0.49452E+08
 
   -0.49354E+08         0.37581E+06         0.00000E+00
    0.37581E+06        -0.97510E+08         0.00000E+00
    0.00000E+00         0.00000E+00        -0.49420E+08
 
   -0.49317E+08         0.39642E+06         0.00000E+00
    0.39642E+06        -0.97505E+08         0.00000E+00
    0.00000E+00         0.00000E+00        -0.49387E+08
 
   -0.49278E+08         0.41813E+06         0.00000E+00
    0.41813E+06        -0.97500E+08         0.00000E+00
    0.00000E+00         0.00000E+00        -0.49351E+08
 
   -0.49236E+08         0.44098E+06         0.00000E+00
    0.44098E+06        -0.97495E+08         0.00000E+00
    0.00000E+00         0.00000E+00        -0.49314E+08
 
   -0.49192E+08         0.46503E+06         0.00000E+00
    0.46503E+06        -0.97490E+08         0.00000E+00
    0.00000E+00         0.00000E+00        -0.49274E+08
 
   -0.49146E+08         0.49033E+06         0.00000E+00
    0.49033E+06        -0.97484E+08         0.00000E+00
    0.00000E+00         0.00000E+00        -0.49232E+08
 
   -0.49097E+08         0.51692E+06         0.00000E+00
    0.51692E+06        -0.97478E+08         0.00000E+00
    0.00000E+00         0.00000E+00        -0.49187E+08
 
   -0.49046E+08         0.54487E+06         0.00000E+00
    0.54487E+06        -0.97472E+08         0.00000E+00
    0.00000E+00         0.00000E+00        -0.49141E+08
 
   -0.48991E+08         0.57421E+06         0.00000E+00
    0.57421E+06        -0.97466E+08         0.00000E+00
    0.00000E+00         0.00000E+00        -0.49091E+08
 
   -0.48934E+08         0.60502E+06         0.00000E+00
    0.60502E+06        -0.97460E+08         0.00000E+00
    0.00000E+00         0.00000E+00        -0.49038E+08
 
   -0.48873E+08         0.63732E+06         0.00000E+00
    0.63732E+06        -0.97453E+08         0.00000E+00
    0.00000E+00         0.00000E+00        -0.48983E+08
 
   -0.48809E+08         0.67118E+06         0.00000E+00
    0.67118E+06        -0.97446E+08         0.00000E+00
    0.00000E+00         0.00000E+00        -0.48924E+08
 
   -0.48741E+08         0.70664E+06         0.00000E+00
    0.70664E+06        -0.97439E+08         0.00000E+00
    0.00000E+00         0.00000E+00        -0.48862E+08
 
   -0.48670E+08         0.74374E+06         0.00000E+00
    0.74374E+06        -0.97432E+08         0.00000E+00
    0.00000E+00         0.00000E+00        -0.48797E+08
 
   -0.48595E+08         0.78252E+06         0.00000E+00
    0.78252E+06        -0.97425E+08         0.00000E+00
    0.00000E+00         0.00000E+00        -0.48727E+08
 
   -0.48515E+08         0.82302E+06         0.00000E+00
    0.82302E+06        -0.97417E+08         0.00000E+00
    0.00000E+00         0.00000E+00        -0.48654E+08
 
   -0.48431E+08         0.86525E+06         0.00000E+00
    0.86525E+06        -0.97410E+08         0.00000E+00
    0.00000E+00         0.00000E+00        -0.48576E+08
 
   -0.48343E+08         0.90923E+06         0.00000E+00
    0.90923E+06        -0.97402E+08         0.00000E+00
    0.00000E+00         0.00000E+00        -0.48494E+08
 
   -0.48250E+08         0.95497E+06         0.00000E+00
    0.95497E+06        -0.97395E+08         0.00000E+00
    0.00000E+00         0.00000E+00        -0.48407E+08
 
   -0.48151E+08         0.10025E+07         0.00000E+00
    0.10025E+07        -0.97388E+08         0.00000E+00
    0.00000E+00         0.00000E+00        -0.48315E+08
 
   -0.48047E+08         0.10517E+07         0.00000E+00
    0.10517E+07        -0.97381E+08         0.00000E+00
    0.00000E+00         0.00000E+00        -0.48217E+08
 
   -0.47938E+08         0.11026E+07         0.00000E+00
    0.11026E+07        -0.97374E+08         0.00000E+00
    0.00000E+00         0.00000E+00        -0.48114E+08
 
   -0.47823E+08         0.11551E+07         0.00000E+00
    0.11551E+07        -0.97368E+08         0.00000E+00
    0.00000E+00         0.00000E+00        -0.48005E+08
 
   -0.47701E+08         0.12092E+07         0.00000E+00
    0.12092E+07        -0.97363E+08         0.00000E+00
    0.00000E+00         0.00000E+00        -0.47889E+08
 
   -0.47573E+08         0.12647E+07         0.00000E+00
    0.12647E+07        -0.97358E+08         0.00000E+00
    0.00000E+00         0.00000E+00        -0.47767E+08
 
   -0.47438E+08         0.13215E+07         0.00000E+00
    0.13215E+07        -0.97355E+08         0.00000E+00
    0.00000E+00         0.00000E+00        -0.47637E+08
 
   -0.47296E+08         0.13793E+07         0.00000E+00
    0.13793E+07        -0.97352E+08         0.00000E+00
    0.00000E+00         0.00000E+00        -0.47500E+08
 
   -0.47147E+08         0.14380E+07         0.00000E+00
    0.14380E+07        -0.97352E+08         0.00000E+00
    0.00000E+00         0.00000E+00        -0.47354E+08
 
   -0.46989E+08         0.14973E+07         0.00000E+00
    0.14973E+07        -0.97353E+08         0.00000E+00
    0.00000E+00         0.00000E+00        -0.47200E+08
 
   -0.46824E+08         0.15568E+07         0.00000E+00
    0.15568E+07        -0.97357E+08         0.00000E+00
    0.00000E+00         0.00000E+00        -0.47037E+08
 
   -0.46649E+08         0.16162E+07         0.00000E+00
    0.16162E+07        -0.97363E+08         0.00000E+00
    0.00000E+00         0.00000E+00        -0.46864E+08
 
   -0.46465E+08         0.16749E+07         0.00000E+00
    0.16749E+07        -0.97373E+08         0.00000E+00
    0.00000E+00         0.00000E+00        -0.46680E+08
 
   -0.46272E+08         0.17324E+07         0.00000E+00
    0.17324E+07        -0.97386E+08         0.00000E+00
    0.00000E+00         0.00000E+00        -0.46486E+08
 
   -0.46069E+08         0.17882E+07         0.00000E+00
    0.17882E+07        -0.97404E+08         0.00000E+00
    0.00000E+00         0.00000E+00        -0.46279E+08
 
   -0.45855E+08         0.18415E+07         0.00000E+00
    0.18415E+07        -0.97427E+08         0.00000E+00
    0.00000E+00         0.00000E+00        -0.46060E+08
 
   -0.45630E+08         0.18916E+07         0.00000E+00
    0.18916E+07        -0.97456E+08         0.00000E+00
    0.00000E+00         0.00000E+00        -0.45828E+08
 
   -0.45393E+08         0.19377E+07         0.00000E+00
    0.19377E+07        -0.97492E+08         0.00000E+00
    0.00000E+00         0.00000E+00        -0.45581E+08
 
   -0.45143E+08         0.19787E+07         0.00000E+00
    0.19787E+07        -0.97535E+08         0.00000E+00
    0.00000E+00         0.00000E+00        -0.45319E+08
 
   -0.44880E+08         0.20138E+07         0.00000E+00
    0.20138E+07        -0.97586E+08         0.00000E+00
    0.00000E+00         0.00000E+00        -0.45041E+08
 
   -0.44602E+08         0.20418E+07         0.00000E+00
    0.20418E+07        -0.97647E+08         0.00000E+00
    0.00000E+00         0.00000E+00        -0.44745E+08
 
   -0.44309E+08         0.20616E+07         0.00000E+00
    0.20616E+07        -0.97716E+08         0.00000E+00
    0.00000E+00         0.00000E+00        -0.44430E+08
 
   -0.44000E+08         0.20722E+07         0.00000E+00
    0.20722E+07        -0.97796E+08         0.00000E+00
    0.00000E+00         0.00000E+00        -0.44096E+08
 
   -0.43672E+08         0.20725E+07         0.00000E+00
    0.20725E+07        -0.97885E+08         0.00000E+00
    0.00000E+00         0.00000E+00        -0.43740E+08
 
   -0.43326E+08         0.20613E+07         0.00000E+00
    0.20613E+07        -0.97983E+08         0.00000E+00
    0.00000E+00         0.00000E+00        -0.43362E+08
 
   -0.42958E+08         0.20377E+07         0.00000E+00
    0.20377E+07        -0.98088E+08         0.00000E+00
    0.00000E+00         0.00000E+00        -0.42958E+08
 
   -0.42569E+08         0.20006E+07         0.00000E+00
    0.20006E+07        -0.98199E+08         0.00000E+00
    0.00000E+00         0.00000E+00        -0.42529E+08
 
   -0.42156E+08         0.19494E+07         0.00000E+00
    0.19494E+07        -0.98312E+08         0.00000E+00
    0.00000E+00         0.00000E+00        -0.42071E+08
 
   -0.41718E+08         0.18830E+07         0.00000E+00
    0.18830E+07        -0.98420E+08         0.00000E+00
    0.00000E+00         0.00000E+00        -0.41583E+08
 
   -0.41255E+08         0.18008E+07         0.00000E+00
    0.18008E+07        -0.98516E+08         0.00000E+00
    0.00000E+00         0.00000E+00        -0.41063E+08
 
   -0.40768E+08         0.17015E+07         0.00000E+00
    0.17015E+07        -0.98588E+08         0.00000E+00
    0.00000E+00         0.00000E+00        -0.40508E+08
 
   -0.40258E+08         0.15832E+07         0.00000E+00
    0.15832E+07        -0.98623E+08         0.00000E+00
    0.00000E+00         0.00000E+00        -0.39917E+08
 
   -0.39733E+08         0.14429E+07         0.00000E+00
    0.14429E+07        -0.98600E+08         0.00000E+00
    0.00000E+00         0.00000E+00        -0.39286E+08
 
   -0.39201E+08         0.12752E+07         0.00000E+00
    0.12752E+07        -0.98497E+08         0.00000E+00
    0.00000E+00         0.00000E+00        -0.38612E+08
 
   -0.38679E+08         0.10712E+07         0.00000E+00
    0.10712E+07        -0.98286E+08         0.00000E+00
    0.00000E+00         0.00000E+00        -0.37895E+08
 
   -0.38200E+08         0.81952E+06         0.00000E+00
    0.81952E+06        -0.97929E+08         0.00000E+00
    0.00000E+00         0.00000E+00        -0.37129E+08
 
   -0.37817E+08         0.51572E+06         0.00000E+00
    0.51572E+06        -0.97392E+08         0.00000E+00
    0.00000E+00         0.00000E+00        -0.36315E+08
 
   -0.37600E+08         0.17568E+06         0.00000E+00
    0.17568E+06        -0.96659E+08         0.00000E+00
    0.00000E+00         0.00000E+00        -0.35447E+08
 
   -0.49967E+08         0.29253E+04         0.00000E+00
    0.29253E+04        -0.97591E+08         0.00000E+00
    0.00000E+00         0.00000E+00        -0.49997E+08
 
   -0.49965E+08         0.87283E+04         0.00000E+00
    0.87283E+04        -0.97586E+08         0.00000E+00
    0.00000E+00         0.00000E+00        -0.49991E+08
 
   -0.49962E+08         0.14374E+05         0.00000E+00
    0.14374E+05        -0.97582E+08         0.00000E+00
    0.00000E+00         0.00000E+00        -0.49984E+08
 
   -0.49958E+08         0.19775E+05         0.00000E+00
    0.19775E+05        -0.97579E+08         0.00000E+00
    0.00000E+00         0.00000E+00        -0.49978E+08
 
   -0.49953E+08         0.24943E+05         0.00000E+00
    0.24943E+05        -0.97577E+08         0.00000E+00
    0.00000E+00         0.00000E+00        -0.49972E+08
 
   -0.49947E+08         0.29944E+05         0.00000E+00
    0.29944E+05        -0.97576E+08         0.00000E+00
    0.00000E+00         0.00000E+00        -0.49966E+08
 
   -0.49942E+08         0.34838E+05         0.00000E+00
    0.34838E+05        -0.97576E+08         0.00000E+00
    0.00000E+00         0.00000E+00        -0.49959E+08
 
   -0.49936E+08         0.39666E+05         0.00000E+00
    0.39666E+05        -0.97576E+08         0.00000E+00
    0.00000E+00         0.00000E+00        -0.49953E+08
 
   -0.49929E+08         0.44455E+05         0.00000E+00
    0.44455E+05        -0.97576E+08         0.00000E+00
    0.00000E+00         0.00000E+00        -0.49946E+08
 
   -0.49923E+08         0.49228E+05         0.00000E+00
    0.49228E+05        -0.97576E+08         0.00000E+00
    0.00000E+00         0.00000E+00        -0.49940E+08
 
   -0.49916E+08         0.54004E+05         0.00000E+00
    0.54004E+05        -0.97576E+08         0.00000E+00
    0.00000E+00         0.00000E+00        -0.49933E+08
 
   -0.49909E+08         0.58799E+05         0.00000E+00
    0.58799E+05        -0.97576E+08         0.00000E+00
    0.00000E+00         0.00000E+00        -0.49926E+08
 
   -0.49901E+08         0.63633E+05         0.00000E+00
    0.63633E+05        -0.97576E+08         0.00000E+00
    0.00000E+00         0.00000E+00        -0.49919E+08
 
   -0.49894E+08         0.68525E+05         0.00000E+00
    0.68525E+05        -0.97576E+08         0.00000E+00
    0.00000E+00         0.00000E+00        -0.49912E+08
 
   -0.49886E+08         0.73495E+05         0.00000E+00
    0.73495E+05        -0.97576E+08         0.00000E+00
    0.00000E+00         0.00000E+00        -0.49904E+08
 
   -0.49877E+08         0.78566E+05         0.00000E+00
    0.78566E+05        -0.97576E+08         0.00000E+00
    0.00000E+00         0.00000E+00        -0.49896E+08
 
   -0.49869E+08         0.83760E+05         0.00000E+00
    0.83760E+05        -0.97576E+08         0.00000E+00
    0.00000E+00         0.00000E+00        -0.49888E+08
 
   -0.49860E+08         0.89102E+05         0.00000E+00
    0.89102E+05        -0.97575E+08         0.00000E+00
    0.00000E+00         0.00000E+00        -0.49879E+08
 
   -0.49850E+08         0.94614E+05         0.00000E+00
    0.94614E+05        -0.97575E+08         0.00000E+00
    0.00000E+00         0.00000E+00        -0.49871E+08
 
   -0.49840E+08         0.10032E+06         0.00000E+00
    0.10032E+06        -0.97574E+08         0.00000E+00
    0.00000E+00         0.00000E+00        -0.49861E+08
 
   -0.49829E+08         0.10625E+06         0.00000E+00
    0.10625E+06        -0.97573E+08         0.00000E+00
    0.00000E+00         0.00000E+00        -0.49852E+08
 
   -0.49818E+08         0.11243E+06         0.00000E+00
    0.11243E+06        -0.97572E+08         0.00000E+00
    0.00000E+00         0.00000E+00        -0.49842E+08
 
   -0.49807E+08         0.11888E+06         0.00000E+00
    0.11888E+06        -0.97571E+08         0.00000E+00
    0.00000E+00         0.00000E+00        -0.49831E+08
 
   -0.49794E+08         0.12563E+06         0.00000E+00
    0.12563E+06        -0.97569E+08         0.00000E+00
    0.00000E+00         0.00000E+00        -0.49820E+08
 
   -0.49781E+08         0.13270E+06         0.00000E+00
    0.13270E+06        -0.97568E+08         0.00000E+00
    0.00000E+00         0.00000E+00        -0.49808E+08
 
   -0.49768E+08         0.14013E+06         0.00000E+00
    0.14013E+06        -0.97567E+08         0.00000E+00
    0.00000E+00         0.00000E+00        -0.49796E+08
 
   -0.49753E+08         0.14793E+06         0.00000E+00
    0.14793E+06        -0.97565E+08         0.00000E+00
    0.00000E+00         0.00000E+00        -0.49783E+08
 
   -0.49738E+08         0.15615E+06         0.00000E+00
    0.15615E+06        -0.97563E+08         0.00000E+00
    0.00000E+00         0.00000E+00        -0.49770E+08
 
   -0.49722E+08         0.16479E+06         0.00000E+00
    0.16479E+06        -0.97561E+08         0.00000E+00
    0.00000E+00         0.00000E+00        -0.49756E+08
 
   -0.49705E+08         0.17390E+06         0.00000E+00
    0.17390E+06        -0.97559E+08         0.00000E+00
    0.00000E+00         0.00000E+00        -0.49741E+08
 
   -0.49688E+08         0.18350E+06         0.00000E+00
    0.18350E+06        -0.97557E+08         0.00000E+00
    0.00000E+00         0.00000E+00        -0.49725E+08
 
   -0.49669E+08         0.19363E+06         0.00000E+00
    0.19363E+06        -0.97554E+08         0.00000E+00
    0.00000E+00         0.00000E+00        -0.49708E+08
 
   -0.49649E+08         0.20431E+06         0.00000E+00
    0.20431E+06        -0.97552E+08         0.00000E+00
    0.00000E+00         0.00000E+00        -0.49691E+08
 
   -0.49628E+08         0.21558E+06         0.00000E+00
    0.21558E+06        -0.97549E+08         0.00000E+00
    0.00000E+00         0.00000E+00        -0.49672E+08
 
   -0.49607E+08         0.22747E+06         0.00000E+00
    0.22747E+06        -0.97547E+08         0.00000E+00
    0.00000E+00         0.00000E+00        -0.49653E+08
 
   -0.49583E+08         0.24001E+06         0.00000E+00
    0.24001E+06        -0.97544E+08         0.00000E+00
    0.00000E+00         0.00000E+00        -0.49632E+08
 
   -0.49559E+08         0.25325E+06         0.00000E+00
    0.25325E+06        -0.97541E+08         0.00000E+00
    0.00000E+00         0.00000E+00        -0.49610E+08
 
   -0.49533E+08         0.26721E+06         0.00000E+00
    0.26721E+06        -0.97537E+08         0.00000E+00
    0.00000E+00         0.00000E+00        -0.49587E+08
 
   -0.49506E+08         0.28194E+06         0.00000E+00
    0.28194E+06        -0.97534E+08         0.00000E+00
    0.00000E+00         0.00000E+00        -0.49563E+08
 
   -0.49477E+08         0.29748E+06         0.00000E+00
    0.29748E+06        -0.97530E+08         0.00000E+00
    0.00000E+00         0.00000E+00        -0.49538E+08
 
   -0.49447E+08         0.31386E+06         0.00000E+00
    0.31386E+06        -0.97527E+08         0.00000E+00
    0.00000E+00         0.00000E+00        -0.49511E+08
 
   -0.49415E+08         0.33113E+06         0.00000E+00
    0.33113E+06        -0.97523E+08         0.00000E+00
    0.00000E+00         0.00000E+00        -0.49482E+08
 
   -0.49381E+08         0.34934E+06         0.00000E+00
    0.34934E+06        -0.97519E+08         0.00000E+00
    0.00000E+00         0.00000E+00        -0.49452E+08
 
   -0.49345E+08         0.36852E+06         0.00000E+00
    0.36852E+06        -0.97514E+08         0.00000E+00
    0.00000E+00         0.00000E+00        -0.49420E+08
 
   -0.49308E+08         0.38873E+06         0.00000E+00
    0.38873E+06        -0.97510E+08         0.00000E+00
    0.00000E+00         0.00000E+00        -0.49387E+08
 
   -0.49268E+08         0.41001E+06         0.00000E+00
    0.41001E+06        -0.97505E+08         0.00000E+00
    0.00000E+00         0.00000E+00        -0.49351E+08
 
   -0.49226E+08         0.43241E+06         0.00000E+00
    0.43241E+06        -0.97500E+08         0.00000E+00
    0.00000E+00         0.00000E+00        -0.49313E+08
 
   -0.49182E+08         0.45598E+06         0.00000E+00
    0.45598E+06        -0.97495E+08         0.00000E+00
    0.00000E+00         0.00000E+00        -0.49274E+08
 
   -0.49135E+08         0.48077E+06         0.00000E+00
    0.48077E+06        -0.97489E+08         0.00000E+00
    0.00000E+00         0.00000E+00        -0.49232E+08
 
   -0.49086E+08         0.50683E+06         0.00000E+00
    0.50683E+06        -0.97484E+08         0.00000E+00
    0.00000E+00         0.00000E+00        -0.49187E+08
 
   -0.49033E+08         0.53421E+06         0.00000E+00
    0.53421E+06        -0.97478E+08         0.00000E+00
    0.00000E+00         0.00000E+00        -0.49140E+08
 
   -0.48978E+08         0.56297E+06         0.00000E+00
    0.56297E+06        -0.97472E+08         0.00000E+00
    0.00000E+00         0.00000E+00        -0.49091E+08
 
   -0.48920E+08         0.59314E+06         0.00000E+00
    0.59314E+06        -0.97466E+08         0.00000E+00
    0.00000E+00         0.00000E+00        -0.49038E+08
 
   -0.48859E+08         0.62479E+06         0.00000E+00
    0.62479E+06        -0.97460E+08         0.00000E+00
    0.00000E+00         0.00000E+00        -0.48983E+08
 
   -0.48794E+08         0.65795E+06         0.00000E+00
    0.65795E+06        -0.97453E+08         0.00000E+00
    0.00000E+00         0.00000E+00        -0.48924E+08
 
   -0.48726E+08         0.69268E+06         0.00000E+00
    0.69268E+06        -0.97446E+08         0.00000E+00
    0.00000E+00         0.00000E+00        -0.48862E+08
 
   -0.48654E+08         0.72901E+06         0.00000E+00
    0.72901E+06        -0.97439E+08         0.00000E+00
    0.00000E+00         0.00000E+00        -0.48797E+08
 
   -0.48578E+08         0.76698E+06         0.00000E+00
    0.76698E+06        -0.97432E+08         0.00000E+00
    0.00000E+00         0.00000E+00        -0.48727E+08
 
   -0.48497E+08         0.80662E+06         0.00000E+00
    0.80662E+06        -0.97425E+08         0.00000E+00
    0.00000E+00         0.00000E+00        -0.48654E+08
 
   -0.48413E+08         0.84795E+06         0.00000E+00
    0.84795E+06        -0.97418E+08         0.00000E+00
    0.00000E+00         0.00000E+00        -0.48576E+08
 
   -0.48324E+08         0.89098E+06         0.00000E+00
    0.89098E+06        -0.97411E+08         0.00000E+00
    0.00000E+00         0.00000E+00        -0.48494E+08
 
   -0.48229E+08         0.93573E+06         0.00000E+00
    0.93573E+06        -0.97404E+08         0.00000E+00
    0.00000E+00         0.00000E+00        -0.48407E+08
 
   -0.48130E+08         0.98218E+06         0.00000E+00
    0.98218E+06        -0.97397E+08         0.00000E+00
    0.00000E+00         0.00000E+00        -0.48315E+08
 
   -0.48026E+08         0.10303E+07         0.00000E+00
    0.10303E+07        -0.97391E+08         0.00000E+00
    0.00000E+00         0.00000E+00        -0.48217E+08
 
   -0.47915E+08         0.10801E+07         0.00000E+00
    0.10801E+07        -0.97384E+08         0.00000E+00
    0.00000E+00         0.00000E+00        -0.48114E+08
 
   -0.47799E+08         0.11314E+07         0.00000E+00
    0.11314E+07        -0.97379E+08         0.00000E+00
    0.00000E+00         0.00000E+00        -0.48005E+08
 
   -0.47677E+08         0.11842E+07         0.00000E+00
    0.11842E+07        -0.97374E+08         0.00000E+00
    0.00000E+00         0.00000E+00        -0.47889E+08
 
   -0.47548E+08         0.12384E+07         0.00000E+00
    0.12384E+07        -0.97369E+08         0.00000E+00
    0.00000E+00         0.00000E+00        -0.47767E+08
 
   -0.47413E+08         0.12938E+07         0.00000E+00
    0.12938E+07        -0.97366E+08         0.00000E+00
    0.00000E+00         0.00000E+00        -0.47637E+08
 
   -0.47270E+08         0.13501E+07         0.00000E+00
    0.13501E+07        -0.97364E+08         0.00000E+00
    0.00000E+00         0.00000E+00        -0.47500E+08
 
   -0.47120E+08         0.14073E+07         0.00000E+00
    0.14073E+07        -0.97363E+08         0.00000E+00
    0.00000E+00         0.00000E+00        -0.47354E+08
 
   -0.46962E+08         0.14650E+07         0.00000E+00
    0.14650E+07        -0.97365E+08         0.00000E+00
    0.00000E+00         0.00000E+00        -0.47200E+08
 
   -0.46796E+08         0.15228E+07         0.00000E+00
    0.15228E+07        -0.97368E+08         0.00000E+00
    0.00000E+00         0.00000E+00        -0.47037E+08
 
   -0.46621E+08         0.15804E+07         0.00000E+00
    0.15804E+07        -0.97375E+08         0.00000E+00
    0.00000E+00         0.00000E+00        -0.46864E+08
 
   -0.46437E+08         0.16372E+07         0.00000E+00
    0.16372E+07        -0.97384E+08         0.00000E+00
    0.00000E+00         0.00000E+00        -0.46680E+08
 
   -0.46244E+08         0.16928E+07         0.00000E+00
    0.16928E+07        -0.97397E+08         0.00000E+00
    0.00000E+00         0.00000E+00        -0.46486E+08
 
   -0.46042E+08         0.17466E+07         0.00000E+00
    0.17466E+07        -0.97415E+08         0.00000E+00
    0.00000E+00         0.00000E+00        -0.46279E+08
 
   -0.45828E+08         0.17977E+07         0.00000E+00
    0.17977E+07        -0.97437E+08         0.00000E+00
    0.00000E+00         0.00000E+00        -0.46060E+08
 
   -0.45604E+08         0.18456E+07         0.00000E+00
    0.18456E+07        -0.97466E+08         0.00000E+00
    0.00000E+00         0.00000E+00        -0.45828E+08
 
   -0.45368E+08         0.18892E+07         0.00000E+00
    0.18892E+07        -0.97500E+08         0.00000E+00
    0.00000E+00         0.00000E+00        -0.45581E+08
 
   -0.45120E+08         0.19276E+07         0.00000E+00
    0.19276E+07        -0.97542E+08         0.00000E+00
    0.00000E+00         0.00000E+00        -0.45319E+08
 
   -0.44859E+08         0.19599E+07         0.00000E+00
    0.19599E+07        -0.97592E+08         0.00000E+00
    0.00000E+00         0.00000E+00        -0.45041E+08
 
   -0.44584E+08         0.19850E+07         0.00000E+00
    0.19850E+07        -0.97651E+08         0.00000E+00
    0.00000E+00         0.00000E+00        -0.44745E+08
 
   -0.44294E+08         0.20017E+07         0.00000E+00
    0.20017E+07        -0.97719E+08         0.00000E+00
    0.00000E+00         0.00000E+00        -0.44430E+08
 
   -0.43988E+08         0.20090E+07         0.00000E+00
    0.20090E+07        -0.97796E+08         0.00000E+00
    0.00000E+00         0.00000E+00        -0.44096E+08
 
   -0.43664E+08         0.20056E+07         0.00000E+00
    0.20056E+07        -0.97883E+08         0.00000E+00
    0.00000E+00         0.00000E+00        -0.43740E+08
 
   -0.43323E+08         0.19905E+07         0.00000E+00
    0.19905E+07        -0.97979E+08         0.00000E+00
    0.00000E+00         0.00000E+00        -0.43361E+08
 
   -0.42961E+08         0.19626E+07         0.00000E+00
    0.19626E+07        -0.98082E+08         0.00000E+00
    0.00000E+00         0.00000E+00        -0.42958E+08
 
   -0.42577E+08         0.19211E+07         0.00000E+00
    0.19211E+07        -0.98190E+08         0.00000E+00
    0.00000E+00         0.00000E+00        -0.42529E+08
 
   -0.42171E+08         0.18650E+07         0.00000E+00
    0.18650E+07        -0.98300E+08         0.00000E+00
    0.00000E+00         0.00000E+00        -0.42071E+08
 
   -0.41742E+08         0.17938E+07         0.00000E+00
    0.17938E+07        -0.98405E+08         0.00000E+00
    0.00000E+00         0.00000E+00        -0.41583E+08
 
   -0.41288E+08         0.17066E+07         0.00000E+00
    0.17066E+07        -0.98497E+08         0.00000E+00
    0.00000E+00         0.00000E+00        -0.41063E+08
 
   -0.40811E+08         0.16027E+07         0.00000E+00
    0.16027E+07        -0.98566E+08         0.00000E+00
    0.00000E+00         0.00000E+00        -0.40509E+08
 
   -0.40315E+08         0.14807E+07         0.00000E+00
    0.14807E+07        -0.98597E+08         0.00000E+00
    0.00000E+00         0.00000E+00        -0.39917E+08
 
   -0.39804E+08         0.13382E+07         0.00000E+00
    0.13382E+07        -0.98570E+08         0.00000E+00
    0.00000E+00         0.00000E+00        -0.39286E+08
 
   -0.39291E+08         0.11709E+07         0.00000E+00
    0.11709E+07        -0.98461E+08         0.00000E+00
    0.00000E+00         0.00000E+00        -0.38613E+08
 
   -0.38793E+08         0.97219E+06         0.00000E+00
    0.97219E+06        -0.98241E+08         0.00000E+00
    0.00000E+00         0.00000E+00        -0.37895E+08
 
   -0.38344E+08         0.73407E+06         0.00000E+00
    0.73407E+06        -0.97876E+08         0.00000E+00
    0.00000E+00         0.00000E+00        -0.37130E+08
 
   -0.37992E+08         0.45650E+06         0.00000E+00
    0.45650E+06        -0.97330E+08         0.00000E+00
    0.00000E+00         0.00000E+00        -0.36315E+08
 
   -0.37797E+08         0.15445E+06         0.00000E+00
    0.15445E+06        -0.96593E+08         0.00000E+00
    0.00000E+00         0.00000E+00        -0.35447E+08
 
   -0.49964E+08         0.27577E+04         0.00000E+00
    0.27577E+04        -0.97592E+08         0.00000E+00
    0.00000E+00         0.00000E+00        -0.49997E+08
 
   -0.49962E+08         0.82478E+04         0.00000E+00
    0.82478E+04        -0.97587E+08         0.00000E+00
    0.00000E+00         0.00000E+00        -0.49991E+08
 
   -0.49959E+08         0.13644E+05         0.00000E+00
    0.13644E+05        -0.97583E+08         0.00000E+00
    0.00000E+00         0.00000E+00        -0.49984E+08
 
   -0.49955E+08         0.18870E+05         0.00000E+00
    0.18870E+05        -0.97580E+08         0.00000E+00
    0.00000E+00         0.00000E+00        -0.49978E+08
 
   -0.49950E+08         0.23919E+05         0.00000E+00
    0.23919E+05        -0.97578E+08         0.00000E+00
    0.00000E+00         0.00000E+00        -0.49972E+08
 
   -0.49945E+08         0.28835E+05         0.00000E+00
    0.28835E+05        -0.97577E+08         0.00000E+00
    0.00000E+00         0.00000E+00        -0.49966E+08
 
   -0.49939E+08         0.33662E+05         0.00000E+00
    0.33662E+05        -0.97577E+08         0.00000E+00
    0.00000E+00         0.00000E+00        -0.49959E+08
 
   -0.49933E+08         0.38434E+05         0.00000E+00
    0.38434E+05        -0.97577E+08         0.00000E+00
    0.00000E+00         0.00000E+00        -0.49953E+08
 
   -0.49927E+08         0.43172E+05         0.00000E+00
    0.43172E+05        -0.97577E+08         0.00000E+00
    0.00000E+00         0.00000E+00        -0.49946E+08
 
   -0.49921E+08         0.47894E+05         0.00000E+00
    0.47894E+05        -0.97577E+08         0.00000E+00
    0.00000E+00         0.00000E+00        -0.49940E+08
 
   -0.49914E+08         0.52617E+05         0.00000E+00
    0.52617E+05        -0.97577E+08         0.00000E+00
    0.00000E+00         0.00000E+00        -0.49933E+08
 
   -0.49907E+08         0.57357E+05         0.00000E+00
    0.57357E+05        -0.97577E+08         0.00000E+00
    0.00000E+00         0.00000E+00        -0.49926E+08
 
   -0.49899E+08         0.62131E+05         0.00000E+00
    0.62131E+05        -0.97577E+08         0.00000E+00
    0.00000E+00         0.00000E+00        -0.49919E+08
 
   -0.49892E+08         0.66958E+05         0.00000E+00
    0.66958E+05        -0.97577E+08         0.00000E+00
    0.00000E+00         0.00000E+00        -0.49912E+08
 
   -0.49884E+08         0.71858E+05         0.00000E+00
    0.71858E+05        -0.97577E+08         0.00000E+00
    0.00000E+00         0.00000E+00        -0.49904E+08
 
   -0.49875E+08         0.76853E+05         0.00000E+00
    0.76853E+05        -0.97577E+08         0.00000E+00
    0.00000E+00         0.00000E+00        -0.49896E+08
 
   -0.49867E+08         0.81966E+05         0.00000E+00
    0.81966E+05        -0.97577E+08         0.00000E+00
    0.00000E+00         0.00000E+00        -0.49888E+08
 
   -0.49857E+08         0.87220E+05         0.00000E+00
    0.87220E+05        -0.97576E+08         0.00000E+00
    0.00000E+00         0.00000E+00        -0.49879E+08
 
   -0.49848E+08         0.92640E+05         0.00000E+00
    0.92640E+05        -0.97576E+08         0.00000E+00
    0.00000E+00         0.00000E+00        -0.49871E+08
 
   -0.49837E+08         0.98250E+05         0.00000E+00
    0.98250E+05        -0.97575E+08         0.00000E+00
    0.00000E+00         0.00000E+00        -0.49861E+08
 
   -0.49827E+08         0.10407E+06         0.00000E+00
    0.10407E+06        -0.97574E+08         0.00000E+00
    0.00000E+00         0.00000E+00        -0.49852E+08
 
   -0.49816E+08         0.11014E+06         0.00000E+00
    0.11014E+06        -0.97573E+08         0.00000E+00
    0.00000E+00         0.00000E+00        -0.49842E+08
 
   -0.49804E+08         0.11647E+06         0.00000E+00
    0.11647E+06        -0.97572E+08         0.00000E+00
    0.00000E+00         0.00000E+00        -0.49831E+08
 
   -0.49791E+08         0.12309E+06         0.00000E+00
    0.12309E+06        -0.97571E+08         0.00000E+00
    0.00000E+00         0.00000E+00        -0.49820E+08
 
   -0.49778E+08         0.13003E+06         0.00000E+00
    0.13003E+06        -0.97569E+08         0.00000E+00
    0.00000E+00         0.00000E+00        -0.49808E+08
 
   -0.49764E+08         0.13731E+06         0.00000E+00
    0.13731E+06        -0.97568E+08         0.00000E+00
    0.00000E+00         0.00000E+00        -0.49796E+08
 
   -0.49750E+08         0.14497E+06         0.00000E+00
    0.14497E+06        -0.97566E+08         0.00000E+00
    0.00000E+00         0.00000E+00        -0.49783E+08
 
   -0.49735E+08         0.15302E+06         0.00000E+00
    0.15302E+06        -0.97565E+08         0.00000E+00
    0.00000E+00         0.00000E+00        -0.49770E+08
 
   -0.49718E+08         0.16150E+06         0.00000E+00
    0.16150E+06        -0.97563E+08         0.00000E+00
    0.00000E+00         0.00000E+00        -0.49756E+08
 
   -0.49701E+08         0.17043E+06         0.00000E+00
    0.17043E+06        -0.97561E+08         0.00000E+00
    0.00000E+00         0.00000E+00        -0.49741E+08
 
   -0.49683E+08         0.17984E+06         0.00000E+00
    0.17984E+06        -0.97559E+08         0.00000E+00
    0.00000E+00         0.00000E+00        -0.49725E+08
 
   -0.49665E+08         0.18977E+06         0.00000E+00
    0.18977E+06        -0.97557E+08         0.00000E+00
    0.00000E+00         0.00000E+00        -0.49708E+08
 
   -0.49645E+08         0.20024E+06         0.00000E+00
    0.20024E+06        -0.97554E+08         0.00000E+00
    0.00000E+00         0.00000E+00        -0.49691E+08
 
   -0.49624E+08         0.21128E+06         0.00000E+00
    0.21128E+06        -0.97552E+08         0.00000E+00
    0.00000E+00         0.00000E+00        -0.49672E+08
 
   -0.49601E+08         0.22294E+06         0.00000E+00
    0.22294E+06        -0.97549E+08         0.00000E+00
    0.00000E+00         0.00000E+00        -0.49653E+08
 
   -0.49578E+08         0.23523E+06         0.00000E+00
    0.23523E+06        -0.97546E+08         0.00000E+00
    0.00000E+00         0.00000E+00        -0.49632E+08
 
   -0.49553E+08         0.24820E+06         0.00000E+00
    0.24820E+06        -0.97543E+08         0.00000E+00
    0.00000E+00         0.00000E+00        -0.49610E+08
 
   -0.49527E+08         0.26189E+06         0.00000E+00
    0.26189E+06        -0.97540E+08         0.00000E+00
    0.00000E+00         0.00000E+00        -0.49587E+08
 
   -0.49500E+08         0.27632E+06         0.00000E+00
    0.27632E+06        -0.97537E+08         0.00000E+00
    0.00000E+00         0.00000E+00        -0.49563E+08
 
   -0.49470E+08         0.29154E+06         0.00000E+00
    0.29154E+06        -0.97534E+08         0.00000E+00
    0.00000E+00         0.00000E+00        -0.49538E+08
 
   -0.49440E+08         0.30760E+06         0.00000E+00
    0.30760E+06        -0.97530E+08         0.00000E+00
    0.00000E+00         0.00000E+00        -0.49511E+08
 
   -0.49407E+08         0.32452E+06         0.00000E+00
    0.32452E+06        -0.97526E+08         0.00000E+00
    0.00000E+00         0.00000E+00        -0.49482E+08
 
   -0.49373E+08         0.34236E+06         0.00000E+00
    0.34236E+06        -0.97522E+08         0.00000E+00
    0.00000E+00         0.00000E+00        -0.49452E+08
 
   -0.49337E+08         0.36115E+06         0.00000E+00
    0.36115E+06        -0.97518E+08         0.00000E+00
    0.00000E+00         0.00000E+00        -0.49420E+08
 
   -0.49299E+08         0.38095E+06         0.00000E+00
    0.38095E+06        -0.97514E+08         0.00000E+00
    0.00000E+00         0.00000E+00        -0.49387E+08
 
   -0.49259E+08         0.40179E+06         0.00000E+00
    0.40179E+06        -0.97509E+08         0.00000E+00
    0.00000E+00         0.00000E+00        -0.49351E+08
 
   -0.49216E+08         0.42373E+06         0.00000E+00
    0.42373E+06        -0.97505E+08         0.00000E+00
    0.00000E+00         0.00000E+00        -0.49313E+08
 
   -0.49171E+08         0.44682E+06         0.00000E+00
    0.44682E+06        -0.97500E+08         0.00000E+00
    0.00000E+00         0.00000E+00        -0.49274E+08
 
   -0.49124E+08         0.47110E+06         0.00000E+00
    0.47110E+06        -0.97494E+08         0.00000E+00
    0.00000E+00         0.00000E+00        -0.49232E+08
 
   -0.49074E+08         0.49662E+06         0.00000E+00
    0.49662E+06        -0.97489E+08         0.00000E+00
    0.00000E+00         0.00000E+00        -0.49187E+08
 
   -0.49021E+08         0.52344E+06         0.00000E+00
    0.52344E+06        -0.97484E+08         0.00000E+00
    0.00000E+00         0.00000E+00        -0.49140E+08
 
   -0.48966E+08         0.55159E+06         0.00000E+00
    0.55159E+06        -0.97478E+08         0.00000E+00
    0.00000E+00         0.00000E+00        -0.49091E+08
 
   -0.48907E+08         0.58114E+06         0.00000E+00
    0.58114E+06        -0.97472E+08         0.00000E+00
    0.00000E+00         0.00000E+00        -0.49038E+08
 
   -0.48845E+08         0.61212E+06         0.00000E+00
    0.61212E+06        -0.97466E+08         0.00000E+00
    0.00000E+00         0.00000E+00        -0.48983E+08
 
   -0.48780E+08         0.64459E+06         0.00000E+00
    0.64459E+06        -0.97460E+08         0.00000E+00
    0.00000E+00         0.00000E+00        -0.48924E+08
 
   -0.48710E+08         0.67858E+06         0.00000E+00
    0.67858E+06        -0.97453E+08         0.00000E+00
    0.00000E+00         0.00000E+00        -0.48862E+08
 
   -0.48638E+08         0.71413E+06         0.00000E+00
    0.71413E+06        -0.97447E+08         0.00000E+00
    0.00000E+00         0.00000E+00        -0.48796E+08
 
   -0.48561E+08         0.75128E+06         0.00000E+00
    0.75128E+06        -0.97440E+08         0.00000E+00
    0.00000E+00         0.00000E+00        -0.48727E+08
 
   -0.48480E+08         0.79006E+06         0.00000E+00
    0.79006E+06        -0.97433E+08         0.00000E+00
    0.00000E+00         0.00000E+00        -0.48654E+08
 
   -0.48394E+08         0.83049E+06         0.00000E+00
    0.83049E+06        -0.97427E+08         0.00000E+00
    0.00000E+00         0.00000E+00        -0.48576E+08
 
   -0.48304E+08         0.87258E+06         0.00000E+00
    0.87258E+06        -0.97420E+08         0.00000E+00
    0.00000E+00         0.00000E+00        -0.48494E+08
 
   -0.48209E+08         0.91633E+06         0.00000E+00
    0.91633E+06        -0.97413E+08         0.00000E+00
    0.00000E+00         0.00000E+00        -0.48407E+08
 
   -0.48109E+08         0.96173E+06         0.00000E+00
    0.96173E+06        -0.97407E+08         0.00000E+00
    0.00000E+00         0.00000E+00        -0.48315E+08
 
   -0.48004E+08         0.10088E+07         0.00000E+00
    0.10088E+07        -0.97400E+08         0.00000E+00
    0.00000E+00         0.00000E+00        -0.48217E+08
 
   -0.47893E+08         0.10574E+07         0.00000E+00
    0.10574E+07        -0.97394E+08         0.00000E+00
    0.00000E+00         0.00000E+00        -0.48114E+08
 
   -0.47776E+08         0.11075E+07         0.00000E+00
    0.11075E+07        -0.97389E+08         0.00000E+00
    0.00000E+00         0.00000E+00        -0.48005E+08
 
   -0.47653E+08         0.11590E+07         0.00000E+00
    0.11590E+07        -0.97384E+08         0.00000E+00
    0.00000E+00         0.00000E+00        -0.47889E+08
 
   -0.47523E+08         0.12119E+07         0.00000E+00
    0.12119E+07        -0.97380E+08         0.00000E+00
    0.00000E+00         0.00000E+00        -0.47767E+08
 
   -0.47387E+08         0.12659E+07         0.00000E+00
    0.12659E+07        -0.97377E+08         0.00000E+00
    0.00000E+00         0.00000E+00        -0.47637E+08
 
   -0.47244E+08         0.13208E+07         0.00000E+00
    0.13208E+07        -0.97375E+08         0.00000E+00
    0.00000E+00         0.00000E+00        -0.47500E+08
 
   -0.47093E+08         0.13765E+07         0.00000E+00
    0.13765E+07        -0.97375E+08         0.00000E+00
    0.00000E+00         0.00000E+00        -0.47354E+08
 
   -0.46935E+08         0.14325E+07         0.00000E+00
    0.14325E+07        -0.97376E+08         0.00000E+00
    0.00000E+00         0.00000E+00        -0.47200E+08
 
   -0.46768E+08         0.14887E+07         0.00000E+00
    0.14887E+07        -0.97380E+08         0.00000E+00
    0.00000E+00         0.00000E+00        -0.47037E+08
 
   -0.46593E+08         0.15445E+07         0.00000E+00
    0.15445E+07        -0.97386E+08         0.00000E+00
    0.00000E+00         0.00000E+00        -0.46864E+08
 
   -0.46410E+08         0.15996E+07         0.00000E+00
    0.15996E+07        -0.97395E+08         0.00000E+00
    0.00000E+00         0.00000E+00        -0.46680E+08
 
   -0.46217E+08         0.16533E+07         0.00000E+00
    0.16533E+07        -0.97408E+08         0.00000E+00
    0.00000E+00         0.00000E+00        -0.46485E+08
 
   -0.46014E+08         0.17050E+07         0.00000E+00
    0.17050E+07        -0.97425E+08         0.00000E+00
    0.00000E+00         0.00000E+00        -0.46279E+08
 
   -0.45801E+08         0.17541E+07         0.00000E+00
    0.17541E+07        -0.97447E+08         0.00000E+00
    0.00000E+00         0.00000E+00        -0.46060E+08
 
   -0.45578E+08         0.17997E+07         0.00000E+00
    0.17997E+07        -0.97475E+08         0.00000E+00
    0.00000E+00         0.00000E+00        -0.45827E+08
 
   -0.45343E+08         0.18410E+07         0.00000E+00
    0.18410E+07        -0.97508E+08         0.00000E+00
    0.00000E+00         0.00000E+00        -0.45581E+08
 
   -0.45097E+08         0.18769E+07         0.00000E+00
    0.18769E+07        -0.97549E+08         0.00000E+00
    0.00000E+00         0.00000E+00        -0.45319E+08
 
   -0.44838E+08         0.19066E+07         0.00000E+00
    0.19066E+07        -0.97598E+08         0.00000E+00
    0.00000E+00         0.00000E+00        -0.45040E+08
 
   -0.44565E+08         0.19288E+07         0.00000E+00
    0.19288E+07        -0.97655E+08         0.00000E+00
    0.00000E+00         0.00000E+00        -0.44745E+08
 
   -0.44278E+08         0.19425E+07         0.00000E+00
    0.19425E+07        -0.97721E+08         0.00000E+00
    0.00000E+00         0.00000E+00        -0.44430E+08
 
   -0.43976E+08         0.19465E+07         0.00000E+00
    0.19465E+07        -0.97796E+08         0.00000E+00
    0.00000E+00         0.00000E+00        -0.44096E+08
 
   -0.43657E+08         0.19396E+07         0.00000E+00
    0.19396E+07        -0.97881E+08         0.00000E+00
    0.00000E+00         0.00000E+00        -0.43740E+08
 
   -0.43320E+08         0.19207E+07         0.00000E+00
    0.19207E+07        -0.97974E+08         0.00000E+00
    0.00000E+00         0.00000E+00        -0.43361E+08
 
   -0.42964E+08         0.18887E+07         0.00000E+00
    0.18887E+07        -0.98075E+08         0.00000E+00
    0.00000E+00         0.00000E+00        -0.42958E+08
 
   -0.42587E+08         0.18428E+07         0.00000E+00
    0.18428E+07        -0.98180E+08         0.00000E+00
    0.00000E+00         0.00000E+00        -0.42529E+08
 
   -0.42188E+08         0.17822E+07         0.00000E+00
    0.17822E+07        -0.98287E+08         0.00000E+00
    0.00000E+00         0.00000E+00        -0.42071E+08
 
   -0.41767E+08         0.17062E+07         0.00000E+00
    0.17062E+07        -0.98388E+08         0.00000E+00
    0.00000E+00         0.00000E+00        -0.41584E+08
 
   -0.41322E+08         0.16144E+07         0.00000E+00
    0.16144E+07        -0.98478E+08         0.00000E+00
    0.00000E+00         0.00000E+00        -0.41064E+08
 
   -0.40857E+08         0.15063E+07         0.00000E+00
    0.15063E+07        -0.98543E+08         0.00000E+00
    0.00000E+00         0.00000E+00        -0.40509E+08
 
   -0.40373E+08         0.13809E+07         0.00000E+00
    0.13809E+07        -0.98570E+08         0.00000E+00
    0.00000E+00         0.00000E+00        -0.39917E+08
 
   -0.39877E+08         0.12368E+07         0.00000E+00
    0.12368E+07        -0.98539E+08         0.00000E+00
    0.00000E+00         0.00000E+00        -0.39286E+08
 
   -0.39382E+08         0.10708E+07         0.00000E+00
    0.10708E+07        -0.98425E+08         0.00000E+00
    0.00000E+00         0.00000E+00        -0.38613E+08
 
   -0.38907E+08         0.87836E+06         0.00000E+00
    0.87836E+06        -0.98199E+08         0.00000E+00
    0.00000E+00         0.00000E+00        -0.37895E+08
 
   -0.38485E+08         0.65469E+06         0.00000E+00
    0.65469E+06        -0.97826E+08         0.00000E+00
    0.00000E+00         0.00000E+00        -0.37130E+08
 
   -0.38161E+08         0.40265E+06         0.00000E+00
    0.40265E+06        -0.97275E+08         0.00000E+00
    0.00000E+00         0.00000E+00        -0.36315E+08
 
   -0.37984E+08         0.13541E+06         0.00000E+00
    0.13541E+06        -0.96535E+08         0.00000E+00
    0.00000E+00         0.00000E+00        -0.35447E+08
 
   -0.49961E+08         0.26017E+04         0.00000E+00
    0.26017E+04        -0.97593E+08         0.00000E+00
    0.00000E+00         0.00000E+00        -0.49997E+08
 
   -0.49960E+08         0.77964E+04         0.00000E+00
    0.77964E+04        -0.97588E+08         0.00000E+00
    0.00000E+00         0.00000E+00        -0.49991E+08
 
   -0.49957E+08         0.12948E+05         0.00000E+00
    0.12948E+05        -0.97584E+08         0.00000E+00
    0.00000E+00         0.00000E+00        -0.49984E+08
 
   -0.49953E+08         0.17994E+05         0.00000E+00
    0.17994E+05        -0.97581E+08         0.00000E+00
    0.00000E+00         0.00000E+00        -0.49978E+08
 
   -0.49948E+08         0.22918E+05         0.00000E+00
    0.22918E+05        -0.97579E+08         0.00000E+00
    0.00000E+00         0.00000E+00        -0.49972E+08
 
   -0.49943E+08         0.27743E+05         0.00000E+00
    0.27743E+05        -0.97578E+08         0.00000E+00
    0.00000E+00         0.00000E+00        -0.49965E+08
 
   -0.49937E+08         0.32499E+05         0.00000E+00
    0.32499E+05        -0.97578E+08         0.00000E+00
    0.00000E+00         0.00000E+00        -0.49959E+08
 
   -0.49931E+08         0.37211E+05         0.00000E+00
    0.37211E+05        -0.97578E+08         0.00000E+00
    0.00000E+00         0.00000E+00        -0.49953E+08
 
   -0.49925E+08         0.41894E+05         0.00000E+00
    0.41894E+05        -0.97578E+08         0.00000E+00
    0.00000E+00         0.00000E+00        -0.49946E+08
 
   -0.49919E+08         0.46564E+05         0.00000E+00
    0.46564E+05        -0.97578E+08         0.00000E+00
    0.00000E+00         0.00000E+00        -0.49940E+08
 
   -0.49912E+08         0.51232E+05         0.00000E+00
    0.51232E+05        -0.97578E+08         0.00000E+00
    0.00000E+00         0.00000E+00        -0.49933E+08
 
   -0.49905E+08         0.55913E+05         0.00000E+00
    0.55913E+05        -0.97578E+08         0.00000E+00
    0.00000E+00         0.00000E+00        -0.49926E+08
 
   -0.49898E+08         0.60625E+05         0.00000E+00
    0.60625E+05        -0.97578E+08         0.00000E+00
    0.00000E+00         0.00000E+00        -0.49919E+08
 
   -0.49890E+08         0.65384E+05         0.00000E+00
    0.65384E+05        -0.97578E+08         0.00000E+00
    0.00000E+00         0.00000E+00        -0.49912E+08
 
   -0.49882E+08         0.70212E+05         0.00000E+00
    0.70212E+05        -0.97578E+08         0.00000E+00
    0.00000E+00         0.00000E+00        -0.49904E+08
 
   -0.49873E+08         0.75129E+05         0.00000E+00
    0.75129E+05        -0.97578E+08         0.00000E+00
    0.00000E+00         0.00000E+00        -0.49896E+08
 
   -0.49864E+08         0.80159E+05         0.00000E+00
    0.80159E+05        -0.97578E+08         0.00000E+00
    0.00000E+00         0.00000E+00        -0.49888E+08
 
   -0.49855E+08         0.85324E+05         0.00000E+00
    0.85324E+05        -0.97577E+08         0.00000E+00
    0.00000E+00         0.00000E+00        -0.49879E+08
 
   -0.49845E+08         0.90648E+05         0.00000E+00
    0.90648E+05        -0.97577E+08         0.00000E+00
    0.00000E+00         0.00000E+00        -0.49871E+08
 
   -0.49835E+08         0.96156E+05         0.00000E+00
    0.96156E+05        -0.97576E+08         0.00000E+00
    0.00000E+00         0.00000E+00        -0.49861E+08
 
   -0.49824E+08         0.10187E+06         0.00000E+00
    0.10187E+06        -0.97575E+08         0.00000E+00
    0.00000E+00         0.00000E+00        -0.49852E+08
 
   -0.49813E+08         0.10782E+06         0.00000E+00
    0.10782E+06        -0.97574E+08         0.00000E+00
    0.00000E+00         0.00000E+00        -0.49842E+08
 
   -0.49801E+08         0.11403E+06         0.00000E+00
    0.11403E+06        -0.97573E+08         0.00000E+00
    0.00000E+00         0.00000E+00        -0.49831E+08
 
   -0.49788E+08         0.12053E+06         0.00000E+00
    0.12053E+06        -0.97572E+08         0.00000E+00
    0.00000E+00         0.00000E+00        -0.49820E+08
 
   -0.49775E+08         0.12733E+06         0.00000E+00
    0.12733E+06        -0.97571E+08         0.00000E+00
    0.00000E+00         0.00000E+00        -0.49808E+08
 
   -0.49761E+08         0.13447E+06         0.00000E+00
    0.13447E+06        -0.97569E+08         0.00000E+00
    0.00000E+00         0.00000E+00        -0.49796E+08
 
   -0.49747E+08         0.14197E+06         0.00000E+00
    0.14197E+06        -0.97568E+08         0.00000E+00
    0.00000E+00         0.00000E+00        -0.49783E+08
 
   -0.49731E+08         0.14986E+06         0.00000E+00
    0.14986E+06        -0.97566E+08         0.00000E+00
    0.00000E+00         0.00000E+00        -0.49770E+08
 
   -0.49715E+08         0.15817E+06         0.00000E+00
    0.15817E+06        -0.97565E+08         0.00000E+00
    0.00000E+00         0.00000E+00        -0.49756E+08
 
   -0.49698E+08         0.16692E+06         0.00000E+00
    0.16692E+06        -0.97563E+08         0.00000E+00
    0.00000E+00         0.00000E+00        -0.49741E+08
 
   -0.49679E+08         0.17614E+06         0.00000E+00
    0.17614E+06        -0.97561E+08         0.00000E+00
    0.00000E+00         0.00000E+00        -0.49725E+08
 
   -0.49660E+08         0.18586E+06         0.00000E+00
    0.18586E+06        -0.97559E+08         0.00000E+00
    0.00000E+00         0.00000E+00        -0.49708E+08
 
   -0.49640E+08         0.19612E+06         0.00000E+00
    0.19612E+06        -0.97556E+08         0.00000E+00
    0.00000E+00         0.00000E+00        -0.49691E+08
 
   -0.49619E+08         0.20693E+06         0.00000E+00
    0.20693E+06        -0.97554E+08         0.00000E+00
    0.00000E+00         0.00000E+00        -0.49672E+08
 
   -0.49596E+08         0.21835E+06         0.00000E+00
    0.21835E+06        -0.97551E+08         0.00000E+00
    0.00000E+00         0.00000E+00        -0.49653E+08
 
   -0.49573E+08         0.23039E+06         0.00000E+00
    0.23039E+06        -0.97549E+08         0.00000E+00
    0.00000E+00         0.00000E+00        -0.49632E+08
 
   -0.49547E+08         0.24309E+06         0.00000E+00
    0.24309E+06        -0.97546E+08         0.00000E+00
    0.00000E+00         0.00000E+00        -0.49610E+08
 
   -0.49521E+08         0.25649E+06         0.00000E+00
    0.25649E+06        -0.97543E+08         0.00000E+00
    0.00000E+00         0.00000E+00        -0.49587E+08
 
   -0.49493E+08         0.27063E+06         0.00000E+00
    0.27063E+06        -0.97540E+08         0.00000E+00
    0.00000E+00         0.00000E+00        -0.49563E+08
 
   -0.49464E+08         0.28553E+06         0.00000E+00
    0.28553E+06        -0.97537E+08         0.00000E+00
    0.00000E+00         0.00000E+00        -0.49538E+08
 
   -0.49433E+08         0.30125E+06         0.00000E+00
    0.30125E+06        -0.97533E+08         0.00000E+00
    0.00000E+00         0.00000E+00        -0.49511E+08
 
   -0.49400E+08         0.31782E+06         0.00000E+00
    0.31782E+06        -0.97530E+08         0.00000E+00
    0.00000E+00         0.00000E+00        -0.49482E+08
 
   -0.49365E+08         0.33529E+06         0.00000E+00
    0.33529E+06        -0.97526E+08         0.00000E+00
    0.00000E+00         0.00000E+00        -0.49452E+08
 
   -0.49329E+08         0.35369E+06         0.00000E+00
    0.35369E+06        -0.97522E+08         0.00000E+00
    0.00000E+00         0.00000E+00        -0.49420E+08
 
   -0.49290E+08         0.37307E+06         0.00000E+00
    0.37307E+06        -0.97518E+08         0.00000E+00
    0.00000E+00         0.00000E+00        -0.49386E+08
 
   -0.49250E+08         0.39348E+06         0.00000E+00
    0.39348E+06        -0.97513E+08         0.00000E+00
    0.00000E+00         0.00000E+00        -0.49351E+08
 
   -0.49207E+08         0.41496E+06         0.00000E+00
    0.41496E+06        -0.97509E+08         0.00000E+00
    0.00000E+00         0.00000E+00        -0.49313E+08
 
   -0.49161E+08         0.43756E+06         0.00000E+00
    0.43756E+06        -0.97504E+08         0.00000E+00
    0.00000E+00         0.00000E+00        -0.49274E+08
 
   -0.49113E+08         0.46132E+06         0.00000E+00
    0.46132E+06        -0.97499E+08         0.00000E+00
    0.00000E+00         0.00000E+00        -0.49232E+08
 
   -0.49063E+08         0.48630E+06         0.00000E+00
    0.48630E+06        -0.97494E+08         0.00000E+00
    0.00000E+00         0.00000E+00        -0.49187E+08
 
   -0.49009E+08         0.51254E+06         0.00000E+00
    0.51254E+06        -0.97489E+08         0.00000E+00
    0.00000E+00         0.00000E+00        -0.49140E+08
 
   -0.48953E+08         0.54010E+06         0.00000E+00
    0.54010E+06        -0.97484E+08         0.00000E+00
    0.00000E+00         0.00000E+00        -0.49091E+08
 
   -0.48894E+08         0.56901E+06         0.00000E+00
    0.56901E+06        -0.97478E+08         0.00000E+00
    0.00000E+00         0.00000E+00        -0.49038E+08
 
   -0.48831E+08         0.59932E+06         0.00000E+00
    0.59932E+06        -0.97472E+08         0.00000E+00
    0.00000E+00         0.00000E+00        -0.48983E+08
 
   -0.48765E+08         0.63108E+06         0.00000E+00
    0.63108E+06        -0.97466E+08         0.00000E+00
    0.00000E+00         0.00000E+00        -0.48924E+08
 
   -0.48695E+08         0.66433E+06         0.00000E+00
    0.66433E+06        -0.97460E+08         0.00000E+00
    0.00000E+00         0.00000E+00        -0.48862E+08
 
   -0.48622E+08         0.69910E+06         0.00000E+00
    0.69910E+06        -0.97454E+08         0.00000E+00
    0.00000E+00         0.00000E+00        -0.48796E+08
 
   -0.48544E+08         0.73543E+06         0.00000E+00
    0.73543E+06        -0.97448E+08         0.00000E+00
    0.00000E+00         0.00000E+00        -0.48727E+08
 
   -0.48462E+08         0.77335E+06         0.00000E+00
    0.77335E+06        -0.97441E+08         0.00000E+00
    0.00000E+00         0.00000E+00        -0.48653E+08
 
   -0.48376E+08         0.81287E+06         0.00000E+00
    0.81287E+06        -0.97435E+08         0.00000E+00
    0.00000E+00         0.00000E+00        -0.48576E+08
 
   -0.48285E+08         0.85401E+06         0.00000E+00
    0.85401E+06        -0.97428E+08         0.00000E+00
    0.00000E+00         0.00000E+00        -0.48493E+08
 
   -0.48190E+08         0.89676E+06         0.00000E+00
    0.89676E+06        -0.97422E+08         0.00000E+00
    0.00000E+00         0.00000E+00        -0.48406E+08
 
   -0.48089E+08         0.94112E+06         0.00000E+00
    0.94112E+06        -0.97416E+08         0.00000E+00
    0.00000E+00         0.00000E+00        -0.48314E+08
 
   -0.47982E+08         0.98705E+06         0.00000E+00
    0.98705E+06        -0.97410E+08         0.00000E+00
    0.00000E+00         0.00000E+00        -0.48217E+08
 
   -0.47871E+08         0.10345E+07         0.00000E+00
    0.10345E+07        -0.97404E+08         0.00000E+00
    0.00000E+00         0.00000E+00        -0.48114E+08
 
   -0.47753E+08         0.10834E+07         0.00000E+00
    0.10834E+07        -0.97399E+08         0.00000E+00
    0.00000E+00         0.00000E+00        -0.48005E+08
 
   -0.47629E+08         0.11337E+07         0.00000E+00
    0.11337E+07        -0.97394E+08         0.00000E+00
    0.00000E+00         0.00000E+00        -0.47889E+08
 
   -0.47499E+08         0.11852E+07         0.00000E+00
    0.11852E+07        -0.97391E+08         0.00000E+00
    0.00000E+00         0.00000E+00        -0.47766E+08
 
   -0.47362E+08         0.12379E+07         0.00000E+00
    0.12379E+07        -0.97388E+08         0.00000E+00
    0.00000E+00         0.00000E+00        -0.47637E+08
 
   -0.47218E+08         0.12914E+07         0.00000E+00
    0.12914E+07        -0.97386E+08         0.00000E+00
    0.00000E+00         0.00000E+00        -0.47499E+08
 
   -0.47067E+08         0.13455E+07         0.00000E+00
    0.13455E+07        -0.97386E+08         0.00000E+00
    0.00000E+00         0.00000E+00        -0.47354E+08
 
   -0.46908E+08         0.14000E+07         0.00000E+00
    0.14000E+07        -0.97387E+08         0.00000E+00
    0.00000E+00         0.00000E+00        -0.47200E+08
 
   -0.46741E+08         0.14546E+07         0.00000E+00
    0.14546E+07        -0.97391E+08         0.00000E+00
    0.00000E+00         0.00000E+00        -0.47036E+08
 
   -0.46566E+08         0.15087E+07         0.00000E+00
    0.15087E+07        -0.97397E+08         0.00000E+00
    0.00000E+00         0.00000E+00        -0.46863E+08
 
   -0.46382E+08         0.15619E+07         0.00000E+00
    0.15619E+07        -0.97406E+08         0.00000E+00
    0.00000E+00         0.00000E+00        -0.46680E+08
 
   -0.46189E+08         0.16138E+07         0.00000E+00
    0.16138E+07        -0.97419E+08         0.00000E+00
    0.00000E+00         0.00000E+00        -0.46485E+08
 
   -0.45987E+08         0.16636E+07         0.00000E+00
    0.16636E+07        -0.97435E+08         0.00000E+00
    0.00000E+00         0.00000E+00        -0.46279E+08
 
   -0.45775E+08         0.17106E+07         0.00000E+00
    0.17106E+07        -0.97456E+08         0.00000E+00
    0.00000E+00         0.00000E+00        -0.46060E+08
 
   -0.45552E+08         0.17540E+07         0.00000E+00
    0.17540E+07        -0.97483E+08         0.00000E+00
    0.00000E+00         0.00000E+00        -0.45827E+08
 
   -0.45319E+08         0.17930E+07         0.00000E+00
    0.17930E+07        -0.97516E+08         0.00000E+00
    0.00000E+00         0.00000E+00        -0.45580E+08
 
   -0.45074E+08         0.18266E+07         0.00000E+00
    0.18266E+07        -0.97556E+08         0.00000E+00
    0.00000E+00         0.00000E+00        -0.45318E+08
 
   -0.44817E+08         0.18537E+07         0.00000E+00
    0.18537E+07        -0.97603E+08         0.00000E+00
    0.00000E+00         0.00000E+00        -0.45040E+08
 
   -0.44547E+08         0.18732E+07         0.00000E+00
    0.18732E+07        -0.97658E+08         0.00000E+00
    0.00000E+00         0.00000E+00        -0.44744E+08
 
   -0.44263E+08         0.18840E+07         0.00000E+00
    0.18840E+07        -0.97723E+08         0.00000E+00
    0.00000E+00         0.00000E+00        -0.44430E+08
 
   -0.43964E+08         0.18848E+07         0.00000E+00
    0.18848E+07        -0.97796E+08         0.00000E+00
    0.00000E+00         0.00000E+00        -0.44096E+08
 
   -0.43649E+08         0.18745E+07         0.00000E+00
    0.18745E+07        -0.97878E+08         0.00000E+00
    0.00000E+00         0.00000E+00        -0.43740E+08
 
   -0.43317E+08         0.18519E+07         0.00000E+00
    0.18519E+07        -0.97969E+08         0.00000E+00
    0.00000E+00         0.00000E+00        -0.43361E+08
 
   -0.42967E+08         0.18161E+07         0.00000E+00
    0.18161E+07        -0.98066E+08         0.00000E+00
    0.00000E+00         0.00000E+00        -0.42958E+08
 
   -0.42597E+08         0.17660E+07         0.00000E+00
    0.17660E+07        -0.98169E+08         0.00000E+00
    0.00000E+00         0.00000E+00        -0.42529E+08
 
   -0.42205E+08         0.17010E+07         0.00000E+00
    0.17010E+07        -0.98272E+08         0.00000E+00
    0.00000E+00         0.00000E+00        -0.42071E+08
 
   -0.41793E+08         0.16205E+07         0.00000E+00
    0.16205E+07        -0.98371E+08         0.00000E+00
    0.00000E+00         0.00000E+00        -0.41584E+08
 
   -0.41358E+08         0.15243E+07         0.00000E+00
    0.15243E+07        -0.98457E+08         0.00000E+00
    0.00000E+00         0.00000E+00        -0.41064E+08
 
   -0.40904E+08         0.14122E+07         0.00000E+00
    0.14122E+07        -0.98520E+08         0.00000E+00
    0.00000E+00         0.00000E+00        -0.40509E+08
 
   -0.40433E+08         0.12839E+07         0.00000E+00
    0.12839E+07        -0.98543E+08         0.00000E+00
    0.00000E+00         0.00000E+00        -0.39918E+08
 
   -0.39952E+08         0.11386E+07         0.00000E+00
    0.11386E+07        -0.98508E+08         0.00000E+00
    0.00000E+00         0.00000E+00        -0.39287E+08
 
   -0.39475E+08         0.97473E+06         0.00000E+00
    0.97473E+06        -0.98390E+08         0.00000E+00
    0.00000E+00         0.00000E+00        -0.38614E+08
 
   -0.39022E+08         0.78935E+06         0.00000E+00
    0.78935E+06        -0.98158E+08         0.00000E+00
    0.00000E+00         0.00000E+00        -0.37896E+08
 
   -0.38623E+08         0.58067E+06         0.00000E+00
    0.58067E+06        -0.97780E+08         0.00000E+00
    0.00000E+00         0.00000E+00        -0.37131E+08
 
   -0.38323E+08         0.35328E+06         0.00000E+00
    0.35328E+06        -0.97225E+08         0.00000E+00
    0.00000E+00         0.00000E+00        -0.36315E+08
 
   -0.38160E+08         0.11812E+06         0.00000E+00
    0.11812E+06        -0.96484E+08         0.00000E+00
    0.00000E+00         0.00000E+00        -0.35448E+08
 
   -0.49958E+08         0.24550E+04         0.00000E+00
    0.24550E+04        -0.97594E+08         0.00000E+00
    0.00000E+00         0.00000E+00        -0.49997E+08
 
   -0.49957E+08         0.73693E+04         0.00000E+00
    0.73693E+04        -0.97589E+08         0.00000E+00
    0.00000E+00         0.00000E+00        -0.49991E+08
 
   -0.49954E+08         0.12281E+05         0.00000E+00
    0.12281E+05        -0.97585E+08         0.00000E+00
    0.00000E+00         0.00000E+00        -0.49984E+08
 
   -0.49950E+08         0.17147E+05         0.00000E+00
    0.17147E+05        -0.97582E+08         0.00000E+00
    0.00000E+00         0.00000E+00        -0.49978E+08
 
   -0.49946E+08         0.21939E+05         0.00000E+00
    0.21939E+05        -0.97580E+08         0.00000E+00
    0.00000E+00         0.00000E+00        -0.49972E+08
 
   -0.49941E+08         0.26667E+05         0.00000E+00
    0.26667E+05        -0.97579E+08         0.00000E+00
    0.00000E+00         0.00000E+00        -0.49965E+08
 
   -0.49935E+08         0.31349E+05         0.00000E+00
    0.31349E+05        -0.97579E+08         0.00000E+00
    0.00000E+00         0.00000E+00        -0.49959E+08
 
   -0.49929E+08         0.35997E+05         0.00000E+00
    0.35997E+05        -0.97579E+08         0.00000E+00
    0.00000E+00         0.00000E+00        -0.49953E+08
 
   -0.49923E+08         0.40623E+05         0.00000E+00
    0.40623E+05        -0.97579E+08         0.00000E+00
    0.00000E+00         0.00000E+00        -0.49946E+08
 
   -0.49917E+08         0.45236E+05         0.00000E+00
    0.45236E+05        -0.97579E+08         0.00000E+00
    0.00000E+00         0.00000E+00        -0.49940E+08
 
   -0.49910E+08         0.49847E+05         0.00000E+00
    0.49847E+05        -0.97579E+08         0.00000E+00
    0.00000E+00         0.00000E+00        -0.49933E+08
 
   -0.49903E+08         0.54467E+05         0.00000E+00
    0.54467E+05        -0.97579E+08         0.00000E+00
    0.00000E+00         0.00000E+00        -0.49926E+08
 
   -0.49896E+08         0.59114E+05         0.00000E+00
    0.59114E+05        -0.97579E+08         0.00000E+00
    0.00000E+00         0.00000E+00        -0.49919E+08
 
   -0.49888E+08         0.63804E+05         0.00000E+00
    0.63804E+05        -0.97579E+08         0.00000E+00
    0.00000E+00         0.00000E+00        -0.49912E+08
 
   -0.49880E+08         0.68557E+05         0.00000E+00
    0.68557E+05        -0.97579E+08         0.00000E+00
    0.00000E+00         0.00000E+00        -0.49904E+08
 
   -0.49871E+08         0.73395E+05         0.00000E+00
    0.73395E+05        -0.97579E+08         0.00000E+00
    0.00000E+00         0.00000E+00        -0.49896E+08
 
   -0.49862E+08         0.78338E+05         0.00000E+00
    0.78338E+05        -0.97579E+08         0.00000E+00
    0.00000E+00         0.00000E+00        -0.49888E+08
 
   -0.49853E+08         0.83412E+05         0.00000E+00
    0.83412E+05        -0.97578E+08         0.00000E+00
    0.00000E+00         0.00000E+00        -0.49879E+08
 
   -0.49843E+08         0.88638E+05         0.00000E+00
    0.88638E+05        -0.97578E+08         0.00000E+00
    0.00000E+00         0.00000E+00        -0.49871E+08
 
   -0.49833E+08         0.94043E+05         0.00000E+00
    0.94043E+05        -0.97577E+08         0.00000E+00
    0.00000E+00         0.00000E+00        -0.49861E+08
 
   -0.49822E+08         0.99650E+05         0.00000E+00
    0.99650E+05        -0.97577E+08         0.00000E+00
    0.00000E+00         0.00000E+00        -0.49852E+08
 
   -0.49810E+08         0.10548E+06         0.00000E+00
    0.10548E+06        -0.97576E+08         0.00000E+00
    0.00000E+00         0.00000E+00        -0.49842E+08
 
   -0.49798E+08         0.11157E+06         0.00000E+00
    0.11157E+06        -0.97575E+08         0.00000E+00
    0.00000E+00         0.00000E+00        -0.49831E+08
 
   -0.49786E+08         0.11793E+06         0.00000E+00
    0.11793E+06        -0.97574E+08         0.00000E+00
    0.00000E+00         0.00000E+00        -0.49820E+08
 
   -0.49772E+08         0.12460E+06         0.00000E+00
    0.12460E+06        -0.97572E+08         0.00000E+00
    0.00000E+00         0.00000E+00        -0.49808E+08
 
   -0.49758E+08         0.13159E+06         0.00000E+00
    0.13159E+06        -0.97571E+08         0.00000E+00
    0.00000E+00         0.00000E+00        -0.49796E+08
 
   -0.49743E+08         0.13893E+06         0.00000E+00
    0.13893E+06        -0.97569E+08         0.00000E+00
    0.00000E+00         0.00000E+00        -0.49783E+08
 
   -0.49728E+08         0.14666E+06         0.00000E+00
    0.14666E+06        -0.97568E+08         0.00000E+00
    0.00000E+00         0.00000E+00        -0.49770E+08
 
   -0.49711E+08         0.15479E+06         0.00000E+00
    0.15479E+06        -0.97566E+08         0.00000E+00
    0.00000E+00         0.00000E+00        -0.49756E+08
 
   -0.49694E+08         0.16336E+06         0.00000E+00
    0.16336E+06        -0.97564E+08         0.00000E+00
    0.00000E+00         0.00000E+00        -0.49741E+08
 
   -0.49675E+08         0.17239E+06         0.00000E+00
    0.17239E+06        -0.97563E+08         0.00000E+00
    0.00000E+00         0.00000E+00        -0.49725E+08
 
   -0.49656E+08         0.18191E+06         0.00000E+00
    0.18191E+06        -0.97561E+08         0.00000E+00
    0.00000E+00         0.00000E+00        -0.49708E+08
 
   -0.49635E+08         0.19194E+06         0.00000E+00
    0.19194E+06        -0.97558E+08         0.00000E+00
    0.00000E+00         0.00000E+00        -0.49691E+08
 
   -0.49614E+08         0.20253E+06         0.00000E+00
    0.20253E+06        -0.97556E+08         0.00000E+00
    0.00000E+00         0.00000E+00        -0.49672E+08
 
   -0.49591E+08         0.21370E+06         0.00000E+00
    0.21370E+06        -0.97554E+08         0.00000E+00
    0.00000E+00         0.00000E+00        -0.49653E+08
 
   -0.49567E+08         0.22549E+06         0.00000E+00
    0.22549E+06        -0.97551E+08         0.00000E+00
    0.00000E+00         0.00000E+00        -0.49632E+08
 
   -0.49542E+08         0.23792E+06         0.00000E+00
    0.23792E+06        -0.97549E+08         0.00000E+00
    0.00000E+00         0.00000E+00        -0.49610E+08
 
   -0.49515E+08         0.25103E+06         0.00000E+00
    0.25103E+06        -0.97546E+08         0.00000E+00
    0.00000E+00         0.00000E+00        -0.49587E+08
 
   -0.49487E+08         0.26487E+06         0.00000E+00
    0.26487E+06        -0.97543E+08         0.00000E+00
    0.00000E+00         0.00000E+00        -0.49563E+08
 
   -0.49457E+08         0.27945E+06         0.00000E+00
    0.27945E+06        -0.97540E+08         0.00000E+00
    0.00000E+00         0.00000E+00        -0.49538E+08
 
   -0.49426E+08         0.29484E+06         0.00000E+00
    0.29484E+06        -0.97536E+08         0.00000E+00
    0.00000E+00         0.00000E+00        -0.49511E+08
 
   -0.49393E+08         0.31105E+06         0.00000E+00
    0.31105E+06        -0.97533E+08         0.00000E+00
    0.00000E+00         0.00000E+00        -0.49482E+08
 
   -0.49358E+08         0.32814E+06         0.00000E+00
    0.32814E+06        -0.97529E+08         0.00000E+00
    0.00000E+00         0.00000E+00        -0.49452E+08
 
   -0.49321E+08         0.34614E+06         0.00000E+00
    0.34614E+06        -0.97526E+08         0.00000E+00
    0.00000E+00         0.00000E+00        -0.49420E+08
 
   -0.49282E+08         0.36510E+06         0.00000E+00
    0.36510E+06        -0.97522E+08         0.00000E+00
    0.00000E+00         0.00000E+00        -0.49386E+08
 
   -0.49240E+08         0.38507E+06         0.00000E+00
    0.38507E+06        -0.97518E+08         0.00000E+00
    0.00000E+00         0.00000E+00        -0.49351E+08
 
   -0.49197E+08         0.40608E+06         0.00000E+00
    0.40608E+06        -0.97513E+08         0.00000E+00
    0.00000E+00         0.00000E+00        -0.49313E+08
 
   -0.49151E+08         0.42819E+06         0.00000E+00
    0.42819E+06        -0.97509E+08         0.00000E+00
    0.00000E+00         0.00000E+00        -0.49274E+08
 
   -0.49103E+08         0.45143E+06         0.00000E+00
    0.45143E+06        -0.97504E+08         0.00000E+00
    0.00000E+00         0.00000E+00        -0.49232E+08
 
   -0.49052E+08         0.47586E+06         0.00000E+00
    0.47586E+06        -0.97499E+08         0.00000E+00
    0.00000E+00         0.00000E+00        -0.49187E+08
 
   -0.48998E+08         0.50153E+06         0.00000E+00
    0.50153E+06        -0.97494E+08         0.00000E+00
    0.00000E+00         0.00000E+00        -0.49140E+08
 
   -0.48941E+08         0.52847E+06         0.00000E+00
    0.52847E+06        -0.97489E+08         0.00000E+00
    0.00000E+00         0.00000E+00        -0.49091E+08
 
   -0.48881E+08         0.55674E+06         0.00000E+00
    0.55674E+06        -0.97484E+08         0.00000E+00
    0.00000E+00         0.00000E+00        -0.49038E+08
 
   -0.48817E+08         0.58638E+06         0.00000E+00
    0.58638E+06        -0.97478E+08         0.00000E+00
    0.00000E+00         0.00000E+00        -0.48983E+08
 
   -0.48751E+08         0.61743E+06         0.00000E+00
    0.61743E+06        -0.97473E+08         0.00000E+00
    0.00000E+00         0.00000E+00        -0.48924E+08
 
   -0.48680E+08         0.64993E+06         0.00000E+00
    0.64993E+06        -0.97467E+08         0.00000E+00
    0.00000E+00         0.00000E+00        -0.48862E+08
 
   -0.48606E+08         0.68392E+06         0.00000E+00
    0.68392E+06        -0.97461E+08         0.00000E+00
    0.00000E+00         0.00000E+00        -0.48796E+08
 
   -0.48528E+08         0.71943E+06         0.00000E+00
    0.71943E+06        -0.97455E+08         0.00000E+00
    0.00000E+00         0.00000E+00        -0.48727E+08
 
   -0.48445E+08         0.75648E+06         0.00000E+00
    0.75648E+06        -0.97449E+08         0.00000E+00
    0.00000E+00         0.00000E+00        -0.48653E+08
 
   -0.48358E+08         0.79509E+06         0.00000E+00
    0.79509E+06        -0.97443E+08         0.00000E+00
    0.00000E+00         0.00000E+00        -0.48576E+08
 
   -0.48266E+08         0.83528E+06         0.00000E+00
    0.83528E+06        -0.97437E+08         0.00000E+00
    0.00000E+00         0.00000E+00        -0.48493E+08
 
   -0.48170E+08         0.87703E+06         0.00000E+00
    0.87703E+06        -0.97431E+08         0.00000E+00
    0.00000E+00         0.00000E+00        -0.48406E+08
 
   -0.48068E+08         0.92034E+06         0.00000E+00
    0.92034E+06        -0.97425E+08         0.00000E+00
    0.00000E+00         0.00000E+00        -0.48314E+08
 
   -0.47961E+08         0.96518E+06         0.00000E+00
    0.96518E+06        -0.97419E+08         0.00000E+00
    0.00000E+00         0.00000E+00        -0.48217E+08
 
   -0.47849E+08         0.10115E+07         0.00000E+00
    0.10115E+07        -0.97414E+08         0.00000E+00
    0.00000E+00         0.00000E+00        -0.48114E+08
 
   -0.47730E+08         0.10592E+07         0.00000E+00
    0.10592E+07        -0.97409E+08         0.00000E+00
    0.00000E+00         0.00000E+00        -0.48004E+08
 
   -0.47605E+08         0.11082E+07         0.00000E+00
    0.11082E+07        -0.97405E+08         0.00000E+00
    0.00000E+00         0.00000E+00        -0.47889E+08
 
   -0.47474E+08         0.11585E+07         0.00000E+00
    0.11585E+07        -0.97401E+08         0.00000E+00
    0.00000E+00         0.00000E+00        -0.47766E+08
 
   -0.47337E+08         0.12097E+07         0.00000E+00
    0.12097E+07        -0.97398E+08         0.00000E+00
    0.00000E+00         0.00000E+00        -0.47637E+08
 
   -0.47192E+08         0.12618E+07         0.00000E+00
    0.12618E+07        -0.97397E+08         0.00000E+00
    0.00000E+00         0.00000E+00        -0.47499E+08
 
   -0.47040E+08         0.13145E+07         0.00000E+00
    0.13145E+07        -0.97396E+08         0.00000E+00
    0.00000E+00         0.00000E+00        -0.47354E+08
 
   -0.46881E+08         0.13674E+07         0.00000E+00
    0.13674E+07        -0.97398E+08         0.00000E+00
    0.00000E+00         0.00000E+00        -0.47200E+08
 
   -0.46714E+08         0.14203E+07         0.00000E+00
    0.14203E+07        -0.97402E+08         0.00000E+00
    0.00000E+00         0.00000E+00        -0.47036E+08
 
   -0.46538E+08         0.14728E+07         0.00000E+00
    0.14728E+07        -0.97407E+08         0.00000E+00
    0.00000E+00         0.00000E+00        -0.46863E+08
 
   -0.46354E+08         0.15243E+07         0.00000E+00
    0.15243E+07        -0.97416E+08         0.00000E+00
    0.00000E+00         0.00000E+00        -0.46680E+08
 
   -0.46162E+08         0.15743E+07         0.00000E+00
    0.15743E+07        -0.97429E+08         0.00000E+00
    0.00000E+00         0.00000E+00        -0.46485E+08
 
   -0.45960E+08         0.16222E+07         0.00000E+00
    0.16222E+07        -0.97445E+08         0.00000E+00
    0.00000E+00         0.00000E+00        -0.46278E+08
 
   -0.45748E+08         0.16672E+07         0.00000E+00
    0.16672E+07        -0.97465E+08         0.00000E+00
    0.00000E+00         0.00000E+00        -0.46059E+08
 
   -0.45527E+08         0.17086E+07         0.00000E+00
    0.17086E+07        -0.97491E+08         0.00000E+00
    0.00000E+00         0.00000E+00        -0.45827E+08
 
   -0.45294E+08         0.17454E+07         0.00000E+00
    0.17454E+07        -0.97523E+08         0.00000E+00
    0.00000E+00         0.00000E+00        -0.45580E+08
 
   -0.45051E+08         0.17766E+07         0.00000E+00
    0.17766E+07        -0.97562E+08         0.00000E+00
    0.00000E+00         0.00000E+00        -0.45318E+08
 
   -0.44796E+08         0.18013E+07         0.00000E+00
    0.18013E+07        -0.97607E+08         0.00000E+00
    0.00000E+00         0.00000E+00        -0.45040E+08
 
   -0.44529E+08         0.18181E+07         0.00000E+00
    0.18181E+07        -0.97661E+08         0.00000E+00
    0.00000E+00         0.00000E+00        -0.44744E+08
 
   -0.44248E+08         0.18261E+07         0.00000E+00
    0.18261E+07        -0.97723E+08         0.00000E+00
    0.00000E+00         0.00000E+00        -0.44430E+08
 
   -0.43953E+08         0.18239E+07         0.00000E+00
    0.18239E+07        -0.97795E+08         0.00000E+00
    0.00000E+00         0.00000E+00        -0.44095E+08
 
   -0.43642E+08         0.18103E+07         0.00000E+00
    0.18103E+07        -0.97874E+08         0.00000E+00
    0.00000E+00         0.00000E+00        -0.43740E+08
 
   -0.43315E+08         0.17843E+07         0.00000E+00
    0.17843E+07        -0.97963E+08         0.00000E+00
    0.00000E+00         0.00000E+00        -0.43361E+08
 
   -0.42971E+08         0.17446E+07         0.00000E+00
    0.17446E+07        -0.98058E+08         0.00000E+00
    0.00000E+00         0.00000E+00        -0.42958E+08
 
   -0.42607E+08         0.16906E+07         0.00000E+00
    0.16906E+07        -0.98157E+08         0.00000E+00
    0.00000E+00         0.00000E+00        -0.42529E+08
 
   -0.42224E+08         0.16214E+07         0.00000E+00
    0.16214E+07        -0.98258E+08         0.00000E+00
    0.00000E+00         0.00000E+00        -0.42071E+08
 
   -0.41820E+08         0.15367E+07         0.00000E+00
    0.15367E+07        -0.98353E+08         0.00000E+00
    0.00000E+00         0.00000E+00        -0.41584E+08
 
   -0.41395E+08         0.14363E+07         0.00000E+00
    0.14363E+07        -0.98436E+08         0.00000E+00
    0.00000E+00         0.00000E+00        -0.41064E+08
 
   -0.40952E+08         0.13206E+07         0.00000E+00
    0.13206E+07        -0.98495E+08         0.00000E+00
    0.00000E+00         0.00000E+00        -0.40509E+08
 
   -0.40494E+08         0.11897E+07         0.00000E+00
    0.11897E+07        -0.98516E+08         0.00000E+00
    0.00000E+00         0.00000E+00        -0.39918E+08
 
   -0.40029E+08         0.10438E+07         0.00000E+00
    0.10438E+07        -0.98477E+08         0.00000E+00
    0.00000E+00         0.00000E+00        -0.39287E+08
 
   -0.39569E+08         0.88245E+06         0.00000E+00
    0.88245E+06        -0.98355E+08         0.00000E+00
    0.00000E+00         0.00000E+00        -0.38614E+08
 
   -0.39136E+08         0.70481E+06         0.00000E+00
    0.70481E+06        -0.98120E+08         0.00000E+00
    0.00000E+00         0.00000E+00        -0.37896E+08
 
   -0.38759E+08         0.51135E+06         0.00000E+00
    0.51135E+06        -0.97738E+08         0.00000E+00
    0.00000E+00         0.00000E+00        -0.37131E+08
 
   -0.38479E+08         0.30763E+06         0.00000E+00
    0.30763E+06        -0.97181E+08         0.00000E+00
    0.00000E+00         0.00000E+00        -0.36316E+08
 
   -0.38329E+08         0.10225E+06         0.00000E+00
    0.10225E+06        -0.96440E+08         0.00000E+00
    0.00000E+00         0.00000E+00        -0.35448E+08
 
   -0.49956E+08         0.23158E+04         0.00000E+00
    0.23158E+04        -0.97595E+08         0.00000E+00
    0.00000E+00         0.00000E+00        -0.49997E+08
 
   -0.49954E+08         0.69623E+04         0.00000E+00
    0.69623E+04        -0.97590E+08         0.00000E+00
    0.00000E+00         0.00000E+00        -0.49991E+08
 
   -0.49952E+08         0.11641E+05         0.00000E+00
    0.11641E+05        -0.97586E+08         0.00000E+00
    0.00000E+00         0.00000E+00        -0.49984E+08
 
   -0.49948E+08         0.16324E+05         0.00000E+00
    0.16324E+05        -0.97583E+08         0.00000E+00
    0.00000E+00         0.00000E+00        -0.49978E+08
 
   -0.49944E+08         0.20982E+05         0.00000E+00
    0.20982E+05        -0.97581E+08         0.00000E+00
    0.00000E+00         0.00000E+00        -0.49972E+08
 
   -0.49939E+08         0.25609E+05         0.00000E+00
    0.25609E+05        -0.97580E+08         0.00000E+00
    0.00000E+00         0.00000E+00        -0.49965E+08
 
   -0.49933E+08         0.30212E+05         0.00000E+00
    0.30212E+05        -0.97580E+08         0.00000E+00
    0.00000E+00         0.00000E+00        -0.49959E+08
 
   -0.49927E+08         0.34793E+05         0.00000E+00
    0.34793E+05        -0.97579E+08         0.00000E+00
    0.00000E+00         0.00000E+00        -0.49953E+08
 
   -0.49921E+08         0.39359E+05         0.00000E+00
    0.39359E+05        -0.97580E+08         0.00000E+00
    0.00000E+00         0.00000E+00        -0.49946E+08
 
   -0.49915E+08         0.43913E+05         0.00000E+00
    0.43913E+05        -0.97580E+08         0.00000E+00
    0.00000E+00         0.00000E+00        -0.49940E+08
 
   -0.49908E+08         0.48463E+05         0.00000E+00
    0.48463E+05        -0.97580E+08         0.00000E+00
    0.00000E+00         0.00000E+00        -0.49933E+08
 
   -0.49901E+08         0.53020E+05         0.00000E+00
    0.53020E+05        -0.97580E+08         0.00000E+00
    0.00000E+00         0.00000E+00        -0.49926E+08
 
   -0.49894E+08         0.57600E+05         0.00000E+00
    0.57600E+05        -0.97580E+08         0.00000E+00
    0.00000E+00         0.00000E+00        -0.49919E+08
 
   -0.49886E+08         0.62218E+05         0.00000E+00
    0.62218E+05        -0.97580E+08         0.00000E+00
    0.00000E+00         0.00000E+00        -0.49912E+08
 
   -0.49878E+08         0.66894E+05         0.00000E+00
    0.66894E+05        -0.97580E+08         0.00000E+00
    0.00000E+00         0.00000E+00        -0.49904E+08
 
   -0.49869E+08         0.71649E+05         0.00000E+00
    0.71649E+05        -0.97580E+08         0.00000E+00
    0.00000E+00         0.00000E+00        -0.49896E+08
 
   -0.49860E+08         0.76505E+05         0.00000E+00
    0.76505E+05        -0.97580E+08         0.00000E+00
    0.00000E+00         0.00000E+00        -0.49888E+08
 
   -0.49851E+08         0.81485E+05         0.00000E+00
    0.81485E+05        -0.97579E+08         0.00000E+00
    0.00000E+00         0.00000E+00        -0.49879E+08
 
   -0.49841E+08         0.86612E+05         0.00000E+00
    0.86612E+05        -0.97579E+08         0.00000E+00
    0.00000E+00         0.00000E+00        -0.49871E+08
 
   -0.49830E+08         0.91910E+05         0.00000E+00
    0.91910E+05        -0.97578E+08         0.00000E+00
    0.00000E+00         0.00000E+00        -0.49861E+08
 
   -0.49819E+08         0.97405E+05         0.00000E+00
    0.97405E+05        -0.97578E+08         0.00000E+00
    0.00000E+00         0.00000E+00        -0.49852E+08
 
   -0.49808E+08         0.10312E+06         0.00000E+00
    0.10312E+06        -0.97577E+08         0.00000E+00
    0.00000E+00         0.00000E+00        -0.49842E+08
 
   -0.49796E+08         0.10908E+06         0.00000E+00
    0.10908E+06        -0.97576E+08         0.00000E+00
    0.00000E+00         0.00000E+00        -0.49831E+08
 
   -0.49783E+08         0.11531E+06         0.00000E+00
    0.11531E+06        -0.97575E+08         0.00000E+00
    0.00000E+00         0.00000E+00        -0.49820E+08
 
   -0.49769E+08         0.12183E+06         0.00000E+00
    0.12183E+06        -0.97574E+08         0.00000E+00
    0.00000E+00         0.00000E+00        -0.49808E+08
 
   -0.49755E+08         0.12868E+06         0.00000E+00
    0.12868E+06        -0.97572E+08         0.00000E+00
    0.00000E+00         0.00000E+00        -0.49796E+08
 
   -0.49740E+08         0.13587E+06         0.00000E+00
    0.13587E+06        -0.97571E+08         0.00000E+00
    0.00000E+00         0.00000E+00        -0.49783E+08
 
   -0.49724E+08         0.14343E+06         0.00000E+00
    0.14343E+06        -0.97569E+08         0.00000E+00
    0.00000E+00         0.00000E+00        -0.49770E+08
 
   -0.49707E+08         0.15138E+06         0.00000E+00
    0.15138E+06        -0.97568E+08         0.00000E+00
    0.00000E+00         0.00000E+00        -0.49755E+08
 
   -0.49690E+08         0.15976E+06         0.00000E+00
    0.15976E+06        -0.97566E+08         0.00000E+00
    0.00000E+00         0.00000E+00        -0.49741E+08
 
   -0.49671E+08         0.16859E+06         0.00000E+00
    0.16859E+06        -0.97564E+08         0.00000E+00
    0.00000E+00         0.00000E+00        -0.49725E+08
 
   -0.49652E+08         0.17790E+06         0.00000E+00
    0.17790E+06        -0.97562E+08         0.00000E+00
    0.00000E+00         0.00000E+00        -0.49708E+08
 
   -0.49631E+08         0.18772E+06         0.00000E+00
    0.18772E+06        -0.97560E+08         0.00000E+00
    0.00000E+00         0.00000E+00        -0.49691E+08
 
   -0.49609E+08         0.19808E+06         0.00000E+00
    0.19808E+06        -0.97558E+08         0.00000E+00
    0.00000E+00         0.00000E+00        -0.49672E+08
 
   -0.49586E+08         0.20900E+06         0.00000E+00
    0.20900E+06        -0.97556E+08         0.00000E+00
    0.00000E+00         0.00000E+00        -0.49653E+08
 
   -0.49562E+08         0.22053E+06         0.00000E+00
    0.22053E+06        -0.97554E+08         0.00000E+00
    0.00000E+00         0.00000E+00        -0.49632E+08
 
   -0.49536E+08         0.23269E+06         0.00000E+00
    0.23269E+06        -0.97551E+08         0.00000E+00
    0.00000E+00         0.00000E+00        -0.49610E+08
 
   -0.49509E+08         0.24551E+06         0.00000E+00
    0.24551E+06        -0.97548E+08         0.00000E+00
    0.00000E+00         0.00000E+00        -0.49587E+08
 
   -0.49481E+08         0.25904E+06         0.00000E+00
    0.25904E+06        -0.97546E+08         0.00000E+00
    0.00000E+00         0.00000E+00        -0.49563E+08
 
   -0.49451E+08         0.27330E+06         0.00000E+00
    0.27330E+06        -0.97543E+08         0.00000E+00
    0.00000E+00         0.00000E+00        -0.49538E+08
 
   -0.49419E+08         0.28834E+06         0.00000E+00
    0.28834E+06        -0.97540E+08         0.00000E+00
    0.00000E+00         0.00000E+00        -0.49511E+08
 
   -0.49385E+08         0.30420E+06         0.00000E+00
    0.30420E+06        -0.97536E+08         0.00000E+00
    0.00000E+00         0.00000E+00        -0.49482E+08
 
   -0.49350E+08         0.32090E+06         0.00000E+00
    0.32090E+06        -0.97533E+08         0.00000E+00
    0.00000E+00         0.00000E+00        -0.49452E+08
 
   -0.49312E+08         0.33851E+06         0.00000E+00
    0.33851E+06        -0.97529E+08         0.00000E+00
    0.00000E+00         0.00000E+00        -0.49420E+08
 
   -0.49273E+08         0.35704E+06         0.00000E+00
    0.35704E+06        -0.97526E+08         0.00000E+00
    0.00000E+00         0.00000E+00        -0.49386E+08
 
   -0.49231E+08         0.37656E+06         0.00000E+00
    0.37656E+06        -0.97522E+08         0.00000E+00
    0.00000E+00         0.00000E+00        -0.49351E+08
 
   -0.49187E+08         0.39710E+06         0.00000E+00
    0.39710E+06        -0.97518E+08         0.00000E+00
    0.00000E+00         0.00000E+00        -0.49313E+08
 
   -0.49141E+08         0.41871E+06         0.00000E+00
    0.41871E+06        -0.97513E+08         0.00000E+00
    0.00000E+00         0.00000E+00        -0.49274E+08
 
   -0.49092E+08         0.44143E+06         0.00000E+00
    0.44143E+06        -0.97509E+08         0.00000E+00
    0.00000E+00         0.00000E+00        -0.49232E+08
 
   -0.49040E+08         0.46531E+06         0.00000E+00
    0.46531E+06        -0.97504E+08         0.00000E+00
    0.00000E+00         0.00000E+00        -0.49187E+08
 
   -0.48986E+08         0.49040E+06         0.00000E+00
    0.49040E+06        -0.97500E+08         0.00000E+00
    0.00000E+00         0.00000E+00        -0.49140E+08
 
   -0.48929E+08         0.51673E+06         0.00000E+00
    0.51673E+06        -0.97495E+08         0.00000E+00
    0.00000E+00         0.00000E+00        -0.49091E+08
 
   -0.48868E+08         0.54435E+06         0.00000E+00
    0.54435E+06        -0.97490E+08         0.00000E+00
    0.00000E+00         0.00000E+00        -0.49038E+08
 
   -0.48804E+08         0.57331E+06         0.00000E+00
    0.57331E+06        -0.97484E+08         0.00000E+00
    0.00000E+00         0.00000E+00        -0.48983E+08
 
   -0.48736E+08         0.60365E+06         0.00000E+00
    0.60365E+06        -0.97479E+08         0.00000E+00
    0.00000E+00         0.00000E+00        -0.48924E+08
 
   -0.48665E+08         0.63540E+06         0.00000E+00
    0.63540E+06        -0.97473E+08         0.00000E+00
    0.00000E+00         0.00000E+00        -0.48862E+08
 
   -0.48590E+08         0.66860E+06         0.00000E+00
    0.66860E+06        -0.97468E+08         0.00000E+00
    0.00000E+00         0.00000E+00        -0.48796E+08
 
   -0.48511E+08         0.70328E+06         0.00000E+00
    0.70328E+06        -0.97462E+08         0.00000E+00
    0.00000E+00         0.00000E+00        -0.48727E+08
 
   -0.48428E+08         0.73946E+06         0.00000E+00
    0.73946E+06        -0.97456E+08         0.00000E+00
    0.00000E+00         0.00000E+00        -0.48653E+08
 
   -0.48340E+08         0.77716E+06         0.00000E+00
    0.77716E+06        -0.97451E+08         0.00000E+00
    0.00000E+00         0.00000E+00        -0.48575E+08
 
   -0.48248E+08         0.81639E+06         0.00000E+00
    0.81639E+06        -0.97445E+08         0.00000E+00
    0.00000E+00         0.00000E+00        -0.48493E+08
 
   -0.48150E+08         0.85714E+06         0.00000E+00
    0.85714E+06        -0.97439E+08         0.00000E+00
    0.00000E+00         0.00000E+00        -0.48406E+08
 
   -0.48048E+08         0.89941E+06         0.00000E+00
    0.89941E+06        -0.97433E+08         0.00000E+00
    0.00000E+00         0.00000E+00        -0.48314E+08
 
   -0.47940E+08         0.94314E+06         0.00000E+00
    0.94314E+06        -0.97428E+08         0.00000E+00
    0.00000E+00         0.00000E+00        -0.48217E+08
 
   -0.47827E+08         0.98831E+06         0.00000E+00
    0.98831E+06        -0.97423E+08         0.00000E+00
    0.00000E+00         0.00000E+00        -0.48113E+08
 
   -0.47707E+08         0.10348E+07         0.00000E+00
    0.10348E+07        -0.97418E+08         0.00000E+00
    0.00000E+00         0.00000E+00        -0.48004E+08
 
   -0.47582E+08         0.10826E+07         0.00000E+00
    0.10826E+07        -0.97414E+08         0.00000E+00
    0.00000E+00         0.00000E+00        -0.47889E+08
 
   -0.47450E+08         0.11315E+07         0.00000E+00
    0.11315E+07        -0.97411E+08         0.00000E+00
    0.00000E+00         0.00000E+00        -0.47766E+08
 
   -0.47312E+08         0.11814E+07         0.00000E+00
    0.11814E+07        -0.97408E+08         0.00000E+00
    0.00000E+00         0.00000E+00        -0.47636E+08
 
   -0.47167E+08         0.12321E+07         0.00000E+00
    0.12321E+07        -0.97407E+08         0.00000E+00
    0.00000E+00         0.00000E+00        -0.47499E+08
 
   -0.47014E+08         0.12833E+07         0.00000E+00
    0.12833E+07        -0.97407E+08         0.00000E+00
    0.00000E+00         0.00000E+00        -0.47354E+08
 
   -0.46854E+08         0.13347E+07         0.00000E+00
    0.13347E+07        -0.97408E+08         0.00000E+00
    0.00000E+00         0.00000E+00        -0.47199E+08
 
   -0.46687E+08         0.13861E+07         0.00000E+00
    0.13861E+07        -0.97412E+08         0.00000E+00
    0.00000E+00         0.00000E+00        -0.47036E+08
 
   -0.46511E+08         0.14369E+07         0.00000E+00
    0.14369E+07        -0.97418E+08         0.00000E+00
    0.00000E+00         0.00000E+00        -0.46863E+08
 
   -0.46327E+08         0.14867E+07         0.00000E+00
    0.14867E+07        -0.97426E+08         0.00000E+00
    0.00000E+00         0.00000E+00        -0.46679E+08
 
   -0.46134E+08         0.15349E+07         0.00000E+00
    0.15349E+07        -0.97438E+08         0.00000E+00
    0.00000E+00         0.00000E+00        -0.46485E+08
 
   -0.45933E+08         0.15809E+07         0.00000E+00
    0.15809E+07        -0.97454E+08         0.00000E+00
    0.00000E+00         0.00000E+00        -0.46278E+08
 
   -0.45722E+08         0.16240E+07         0.00000E+00
    0.16240E+07        -0.97474E+08         0.00000E+00
    0.00000E+00         0.00000E+00        -0.46059E+08
 
   -0.45501E+08         0.16633E+07         0.00000E+00
    0.16633E+07        -0.97499E+08         0.00000E+00
    0.00000E+00         0.00000E+00        -0.45827E+08
 
   -0.45270E+08         0.16980E+07         0.00000E+00
    0.16980E+07        -0.97530E+08         0.00000E+00
    0.00000E+00         0.00000E+00        -0.45580E+08
 
   -0.45028E+08         0.17270E+07         0.00000E+00
    0.17270E+07        -0.97567E+08         0.00000E+00
    0.00000E+00         0.00000E+00        -0.45318E+08
 
   -0.44775E+08         0.17493E+07         0.00000E+00
    0.17493E+07        -0.97611E+08         0.00000E+00
    0.00000E+00         0.00000E+00        -0.45040E+08
 
   -0.44510E+08         0.17636E+07         0.00000E+00
    0.17636E+07        -0.97663E+08         0.00000E+00
    0.00000E+00         0.00000E+00        -0.44744E+08
 
   -0.44232E+08         0.17689E+07         0.00000E+00
    0.17689E+07        -0.97724E+08         0.00000E+00
    0.00000E+00         0.00000E+00        -0.44430E+08
 
   -0.43941E+08         0.17638E+07         0.00000E+00
    0.17638E+07        -0.97793E+08         0.00000E+00
    0.00000E+00         0.00000E+00        -0.44095E+08
 
   -0.43635E+08         0.17471E+07         0.00000E+00
    0.17471E+07        -0.97870E+08         0.00000E+00
    0.00000E+00         0.00000E+00        -0.43740E+08
 
   -0.43313E+08         0.17177E+07         0.00000E+00
    0.17177E+07        -0.97956E+08         0.00000E+00
    0.00000E+00         0.00000E+00        -0.43361E+08
 
   -0.42975E+08         0.16745E+07         0.00000E+00
    0.16745E+07        -0.98048E+08         0.00000E+00
    0.00000E+00         0.00000E+00        -0.42958E+08
 
   -0.42618E+08         0.16166E+07         0.00000E+00
    0.16166E+07        -0.98144E+08         0.00000E+00
    0.00000E+00         0.00000E+00        -0.42529E+08
 
   -0.42242E+08         0.15434E+07         0.00000E+00
    0.15434E+07        -0.98242E+08         0.00000E+00
    0.00000E+00         0.00000E+00        -0.42071E+08
 
   -0.41847E+08         0.14547E+07         0.00000E+00
    0.14547E+07        -0.98334E+08         0.00000E+00
    0.00000E+00         0.00000E+00        -0.41584E+08
 
   -0.41433E+08         0.13505E+07         0.00000E+00
    0.13505E+07        -0.98414E+08         0.00000E+00
    0.00000E+00         0.00000E+00        -0.41064E+08
 
   -0.41002E+08         0.12314E+07         0.00000E+00
    0.12314E+07        -0.98470E+08         0.00000E+00
    0.00000E+00         0.00000E+00        -0.40510E+08
 
   -0.40557E+08         0.10982E+07         0.00000E+00
    0.10982E+07        -0.98488E+08         0.00000E+00
    0.00000E+00         0.00000E+00        -0.39918E+08
 
   -0.40106E+08         0.95209E+06         0.00000E+00
    0.95209E+06        -0.98447E+08         0.00000E+00
    0.00000E+00         0.00000E+00        -0.39288E+08
 
   -0.39663E+08         0.79386E+06         0.00000E+00
    0.79386E+06        -0.98322E+08         0.00000E+00
    0.00000E+00         0.00000E+00        -0.38615E+08
 
   -0.39249E+08         0.62441E+06         0.00000E+00
    0.62441E+06        -0.98084E+08         0.00000E+00
    0.00000E+00         0.00000E+00        -0.37897E+08
 
   -0.38893E+08         0.44617E+06         0.00000E+00
    0.44617E+06        -0.97700E+08         0.00000E+00
    0.00000E+00         0.00000E+00        -0.37132E+08
 
   -0.38630E+08         0.26513E+06         0.00000E+00
    0.26513E+06        -0.97143E+08         0.00000E+00
    0.00000E+00         0.00000E+00        -0.36316E+08
 
   -0.38490E+08         0.87545E+05         0.00000E+00
    0.87545E+05        -0.96402E+08         0.00000E+00
    0.00000E+00         0.00000E+00        -0.35448E+08
 
   -0.49953E+08         0.21828E+04         0.00000E+00
    0.21828E+04        -0.97596E+08         0.00000E+00
    0.00000E+00         0.00000E+00        -0.49997E+08
 
   -0.49952E+08         0.65723E+04         0.00000E+00
    0.65723E+04        -0.97591E+08         0.00000E+00
    0.00000E+00         0.00000E+00        -0.49991E+08
 
   -0.49949E+08         0.11024E+05         0.00000E+00
    0.11024E+05        -0.97587E+08         0.00000E+00
    0.00000E+00         0.00000E+00        -0.49984E+08
 
   -0.49946E+08         0.15524E+05         0.00000E+00
    0.15524E+05        -0.97584E+08         0.00000E+00
    0.00000E+00         0.00000E+00        -0.49978E+08
 
   -0.49942E+08         0.20044E+05         0.00000E+00
    0.20044E+05        -0.97582E+08         0.00000E+00
    0.00000E+00         0.00000E+00        -0.49972E+08
 
   -0.49937E+08         0.24568E+05         0.00000E+00
    0.24568E+05        -0.97581E+08         0.00000E+00
    0.00000E+00         0.00000E+00        -0.49965E+08
 
   -0.49931E+08         0.29088E+05         0.00000E+00
    0.29088E+05        -0.97581E+08         0.00000E+00
    0.00000E+00         0.00000E+00        -0.49959E+08
 
   -0.49926E+08         0.33600E+05         0.00000E+00
    0.33600E+05        -0.97580E+08         0.00000E+00
    0.00000E+00         0.00000E+00        -0.49953E+08
 
   -0.49919E+08         0.38101E+05         0.00000E+00
    0.38101E+05        -0.97580E+08         0.00000E+00
    0.00000E+00         0.00000E+00        -0.49946E+08
 
   -0.49913E+08         0.42593E+05         0.00000E+00
    0.42593E+05        -0.97581E+08         0.00000E+00
    0.00000E+00         0.00000E+00        -0.49940E+08
 
   -0.49906E+08         0.47081E+05         0.00000E+00
    0.47081E+05        -0.97581E+08         0.00000E+00
    0.00000E+00         0.00000E+00        -0.49933E+08
 
   -0.49899E+08         0.51573E+05         0.00000E+00
    0.51573E+05        -0.97581E+08         0.00000E+00
    0.00000E+00         0.00000E+00        -0.49926E+08
 
   -0.49892E+08         0.56082E+05         0.00000E+00
    0.56082E+05        -0.97581E+08         0.00000E+00
    0.00000E+00         0.00000E+00        -0.49919E+08
 
   -0.49884E+08         0.60626E+05         0.00000E+00
    0.60626E+05        -0.97581E+08         0.00000E+00
    0.00000E+00         0.00000E+00        -0.49911E+08
 
   -0.49876E+08         0.65223E+05         0.00000E+00
    0.65223E+05        -0.97581E+08         0.00000E+00
    0.00000E+00         0.00000E+00        -0.49904E+08
 
   -0.49867E+08         0.69893E+05         0.00000E+00
    0.69893E+05        -0.97581E+08         0.00000E+00
    0.00000E+00         0.00000E+00        -0.49896E+08
 
   -0.49858E+08         0.74659E+05         0.00000E+00
    0.74659E+05        -0.97581E+08         0.00000E+00
    0.00000E+00         0.00000E+00        -0.49888E+08
 
   -0.49849E+08         0.79543E+05         0.00000E+00
    0.79543E+05        -0.97580E+08         0.00000E+00
    0.00000E+00         0.00000E+00        -0.49879E+08
 
   -0.49839E+08         0.84568E+05         0.00000E+00
    0.84568E+05        -0.97580E+08         0.00000E+00
    0.00000E+00         0.00000E+00        -0.49871E+08
 
   -0.49828E+08         0.89759E+05         0.00000E+00
    0.89759E+05        -0.97579E+08         0.00000E+00
    0.00000E+00         0.00000E+00        -0.49861E+08
 
   -0.49817E+08         0.95139E+05         0.00000E+00
    0.95139E+05        -0.97579E+08         0.00000E+00
    0.00000E+00         0.00000E+00        -0.49852E+08
 
   -0.49805E+08         0.10073E+06         0.00000E+00
    0.10073E+06        -0.97578E+08         0.00000E+00
    0.00000E+00         0.00000E+00        -0.49842E+08
 
   -0.49793E+08         0.10657E+06         0.00000E+00
    0.10657E+06        -0.97577E+08         0.00000E+00
    0.00000E+00         0.00000E+00        -0.49831E+08
 
   -0.49780E+08         0.11266E+06         0.00000E+00
    0.11266E+06        -0.97576E+08         0.00000E+00
    0.00000E+00         0.00000E+00        -0.49820E+08
 
   -0.49766E+08         0.11904E+06         0.00000E+00
    0.11904E+06        -0.97575E+08         0.00000E+00
    0.00000E+00         0.00000E+00        -0.49808E+08
 
   -0.49752E+08         0.12573E+06         0.00000E+00
    0.12573E+06        -0.97574E+08         0.00000E+00
    0.00000E+00         0.00000E+00        -0.49796E+08
 
   -0.49737E+08         0.13276E+06         0.00000E+00
    0.13276E+06        -0.97572E+08         0.00000E+00
    0.00000E+00         0.00000E+00        -0.49783E+08
 
   -0.49721E+08         0.14015E+06         0.00000E+00
    0.14015E+06        -0.97571E+08         0.00000E+00
    0.00000E+00         0.00000E+00        -0.49770E+08
 
   -0.49704E+08         0.14793E+06         0.00000E+00
    0.14793E+06        -0.97570E+08         0.00000E+00
    0.00000E+00         0.00000E+00        -0.49755E+08
 
   -0.49686E+08         0.15612E+06         0.00000E+00
    0.15612E+06        -0.97568E+08         0.00000E+00
    0.00000E+00         0.00000E+00        -0.49740E+08
 
   -0.49667E+08         0.16476E+06         0.00000E+00
    0.16476E+06        -0.97566E+08         0.00000E+00
    0.00000E+00         0.00000E+00        -0.49725E+08
 
   -0.49647E+08         0.17386E+06         0.00000E+00
    0.17386E+06        -0.97564E+08         0.00000E+00
    0.00000E+00         0.00000E+00        -0.49708E+08
 
   -0.49627E+08         0.18345E+06         0.00000E+00
    0.18345E+06        -0.97562E+08         0.00000E+00
    0.00000E+00         0.00000E+00        -0.49691E+08
 
   -0.49604E+08         0.19357E+06         0.00000E+00
    0.19357E+06        -0.97560E+08         0.00000E+00
    0.00000E+00         0.00000E+00        -0.49672E+08
 
   -0.49581E+08         0.20425E+06         0.00000E+00
    0.20425E+06        -0.97558E+08         0.00000E+00
    0.00000E+00         0.00000E+00        -0.49653E+08
 
   -0.49557E+08         0.21551E+06         0.00000E+00
    0.21551E+06        -0.97556E+08         0.00000E+00
    0.00000E+00         0.00000E+00        -0.49632E+08
 
   -0.49531E+08         0.22740E+06         0.00000E+00
    0.22740E+06        -0.97554E+08         0.00000E+00
    0.00000E+00         0.00000E+00        -0.49610E+08
 
   -0.49503E+08         0.23993E+06         0.00000E+00
    0.23993E+06        -0.97551E+08         0.00000E+00
    0.00000E+00         0.00000E+00        -0.49587E+08
 
   -0.49475E+08         0.25314E+06         0.00000E+00
    0.25314E+06        -0.97548E+08         0.00000E+00
    0.00000E+00         0.00000E+00        -0.49563E+08
 
   -0.49444E+08         0.26708E+06         0.00000E+00
    0.26708E+06        -0.97546E+08         0.00000E+00
    0.00000E+00         0.00000E+00        -0.49537E+08
 
   -0.49412E+08         0.28178E+06         0.00000E+00
    0.28178E+06        -0.97543E+08         0.00000E+00
    0.00000E+00         0.00000E+00        -0.49510E+08
 
   -0.49378E+08         0.29727E+06         0.00000E+00
    0.29727E+06        -0.97539E+08         0.00000E+00
    0.00000E+00         0.00000E+00        -0.49482E+08
 
   -0.49342E+08         0.31359E+06         0.00000E+00
    0.31359E+06        -0.97536E+08         0.00000E+00
    0.00000E+00         0.00000E+00        -0.49452E+08
 
   -0.49304E+08         0.33079E+06         0.00000E+00
    0.33079E+06        -0.97533E+08         0.00000E+00
    0.00000E+00         0.00000E+00        -0.49420E+08
 
   -0.49265E+08         0.34890E+06         0.00000E+00
    0.34890E+06        -0.97529E+08         0.00000E+00
    0.00000E+00         0.00000E+00        -0.49386E+08
 
   -0.49222E+08         0.36796E+06         0.00000E+00
    0.36796E+06        -0.97526E+08         0.00000E+00
    0.00000E+00         0.00000E+00        -0.49351E+08
 
   -0.49178E+08         0.38803E+06         0.00000E+00
    0.38803E+06        -0.97522E+08         0.00000E+00
    0.00000E+00         0.00000E+00        -0.49313E+08
 
   -0.49131E+08         0.40913E+06         0.00000E+00
    0.40913E+06        -0.97518E+08         0.00000E+00
    0.00000E+00         0.00000E+00        -0.49273E+08
 
   -0.49082E+08         0.43133E+06         0.00000E+00
    0.43133E+06        -0.97514E+08         0.00000E+00
    0.00000E+00         0.00000E+00        -0.49231E+08
 
   -0.49030E+08         0.45465E+06         0.00000E+00
    0.45465E+06        -0.97509E+08         0.00000E+00
    0.00000E+00         0.00000E+00        -0.49187E+08
 
   -0.48974E+08         0.47915E+06         0.00000E+00
    0.47915E+06        -0.97505E+08         0.00000E+00
    0.00000E+00         0.00000E+00        -0.49140E+08
 
   -0.48916E+08         0.50486E+06         0.00000E+00
    0.50486E+06        -0.97500E+08         0.00000E+00
    0.00000E+00         0.00000E+00        -0.49090E+08
 
   -0.48855E+08         0.53184E+06         0.00000E+00
    0.53184E+06        -0.97495E+08         0.00000E+00
    0.00000E+00         0.00000E+00        -0.49038E+08
 
   -0.48791E+08         0.56011E+06         0.00000E+00
    0.56011E+06        -0.97490E+08         0.00000E+00
    0.00000E+00         0.00000E+00        -0.48982E+08
 
   -0.48722E+08         0.58973E+06         0.00000E+00
    0.58973E+06        -0.97485E+08         0.00000E+00
    0.00000E+00         0.00000E+00        -0.48924E+08
 
   -0.48651E+08         0.62073E+06         0.00000E+00
    0.62073E+06        -0.97480E+08         0.00000E+00
    0.00000E+00         0.00000E+00        -0.48862E+08
 
   -0.48575E+08         0.65314E+06         0.00000E+00
    0.65314E+06        -0.97475E+08         0.00000E+00
    0.00000E+00         0.00000E+00        -0.48796E+08
 
   -0.48495E+08         0.68698E+06         0.00000E+00
    0.68698E+06        -0.97469E+08         0.00000E+00
    0.00000E+00         0.00000E+00        -0.48727E+08
 
   -0.48411E+08         0.72229E+06         0.00000E+00
    0.72229E+06        -0.97464E+08         0.00000E+00
    0.00000E+00         0.00000E+00        -0.48653E+08
 
   -0.48323E+08         0.75907E+06         0.00000E+00
    0.75907E+06        -0.97458E+08         0.00000E+00
    0.00000E+00         0.00000E+00        -0.48575E+08
 
   -0.48229E+08         0.79734E+06         0.00000E+00
    0.79734E+06        -0.97453E+08         0.00000E+00
    0.00000E+00         0.00000E+00        -0.48493E+08
 
   -0.48131E+08         0.83709E+06         0.00000E+00
    0.83709E+06        -0.97447E+08         0.00000E+00
    0.00000E+00         0.00000E+00        -0.48406E+08
 
   -0.48028E+08         0.87830E+06         0.00000E+00
    0.87830E+06        -0.97442E+08         0.00000E+00
    0.00000E+00         0.00000E+00        -0.48314E+08
 
   -0.47919E+08         0.92095E+06         0.00000E+00
    0.92095E+06        -0.97437E+08         0.00000E+00
    0.00000E+00         0.00000E+00        -0.48216E+08
 
   -0.47805E+08         0.96497E+06         0.00000E+00
    0.96497E+06        -0.97432E+08         0.00000E+00
    0.00000E+00         0.00000E+00        -0.48113E+08
 
   -0.47685E+08         0.10103E+07         0.00000E+00
    0.10103E+07        -0.97428E+08         0.00000E+00
    0.00000E+00         0.00000E+00        -0.48004E+08
 
   -0.47559E+08         0.10568E+07         0.00000E+00
    0.10568E+07        -0.97424E+08         0.00000E+00
    0.00000E+00         0.00000E+00        -0.47888E+08
 
   -0.47426E+08         0.11045E+07         0.00000E+00
    0.11045E+07        -0.97421E+08         0.00000E+00
    0.00000E+00         0.00000E+00        -0.47766E+08
 
   -0.47287E+08         0.11530E+07         0.00000E+00
    0.11530E+07        -0.97418E+08         0.00000E+00
    0.00000E+00         0.00000E+00        -0.47636E+08
 
   -0.47141E+08         0.12023E+07         0.00000E+00
    0.12023E+07        -0.97417E+08         0.00000E+00
    0.00000E+00         0.00000E+00        -0.47499E+08
 
   -0.46988E+08         0.12520E+07         0.00000E+00
    0.12520E+07        -0.97417E+08         0.00000E+00
    0.00000E+00         0.00000E+00        -0.47353E+08
 
   -0.46828E+08         0.13020E+07         0.00000E+00
    0.13020E+07        -0.97419E+08         0.00000E+00
    0.00000E+00         0.00000E+00        -0.47199E+08
 
   -0.46660E+08         0.13517E+07         0.00000E+00
    0.13517E+07        -0.97422E+08         0.00000E+00
    0.00000E+00         0.00000E+00        -0.47036E+08
 
   -0.46484E+08         0.14009E+07         0.00000E+00
    0.14009E+07        -0.97428E+08         0.00000E+00
    0.00000E+00         0.00000E+00        -0.46863E+08
 
   -0.46300E+08         0.14490E+07         0.00000E+00
    0.14490E+07        -0.97436E+08         0.00000E+00
    0.00000E+00         0.00000E+00        -0.46679E+08
 
   -0.46107E+08         0.14955E+07         0.00000E+00
    0.14955E+07        -0.97447E+08         0.00000E+00
    0.00000E+00         0.00000E+00        -0.46484E+08
 
   -0.45906E+08         0.15397E+07         0.00000E+00
    0.15397E+07        -0.97463E+08         0.00000E+00
    0.00000E+00         0.00000E+00        -0.46278E+08
 
   -0.45695E+08         0.15809E+07         0.00000E+00
    0.15809E+07        -0.97482E+08         0.00000E+00
    0.00000E+00         0.00000E+00        -0.46059E+08
 
   -0.45475E+08         0.16183E+07         0.00000E+00
    0.16183E+07        -0.97506E+08         0.00000E+00
    0.00000E+00         0.00000E+00        -0.45827E+08
 
   -0.45245E+08         0.16509E+07         0.00000E+00
    0.16509E+07        -0.97536E+08         0.00000E+00
    0.00000E+00         0.00000E+00        -0.45580E+08
 
   -0.45005E+08         0.16777E+07         0.00000E+00
    0.16777E+07        -0.97572E+08         0.00000E+00
    0.00000E+00         0.00000E+00        -0.45318E+08
 
   -0.44754E+08         0.16977E+07         0.00000E+00
    0.16977E+07        -0.97615E+08         0.00000E+00
    0.00000E+00         0.00000E+00        -0.45039E+08
 
   -0.44492E+08         0.17097E+07         0.00000E+00
    0.17097E+07        -0.97665E+08         0.00000E+00
    0.00000E+00         0.00000E+00        -0.44744E+08
 
   -0.44217E+08         0.17123E+07         0.00000E+00
    0.17123E+07        -0.97724E+08         0.00000E+00
    0.00000E+00         0.00000E+00        -0.44429E+08
 
   -0.43929E+08         0.17045E+07         0.00000E+00
    0.17045E+07        -0.97790E+08         0.00000E+00
    0.00000E+00         0.00000E+00        -0.44095E+08
 
   -0.43628E+08         0.16849E+07         0.00000E+00
    0.16849E+07        -0.97865E+08         0.00000E+00
    0.00000E+00         0.00000E+00        -0.43739E+08
 
   -0.43311E+08         0.16523E+07         0.00000E+00
    0.16523E+07        -0.97948E+08         0.00000E+00
    0.00000E+00         0.00000E+00        -0.43361E+08
 
   -0.42979E+08         0.16057E+07         0.00000E+00
    0.16057E+07        -0.98037E+08         0.00000E+00
    0.00000E+00         0.00000E+00        -0.42958E+08
 
   -0.42629E+08         0.15442E+07         0.00000E+00
    0.15442E+07        -0.98131E+08         0.00000E+00
    0.00000E+00         0.00000E+00        -0.42529E+08
 
   -0.42262E+08         0.14672E+07         0.00000E+00
    0.14672E+07        -0.98225E+08         0.00000E+00
    0.00000E+00         0.00000E+00        -0.42071E+08
 
   -0.41876E+08         0.13747E+07         0.00000E+00
    0.13747E+07        -0.98315E+08         0.00000E+00
    0.00000E+00         0.00000E+00        -0.41584E+08
 
   -0.41472E+08         0.12668E+07         0.00000E+00
    0.12668E+07        -0.98391E+08         0.00000E+00
    0.00000E+00         0.00000E+00        -0.41064E+08
 
   -0.41052E+08         0.11447E+07         0.00000E+00
    0.11447E+07        -0.98445E+08         0.00000E+00
    0.00000E+00         0.00000E+00        -0.40510E+08
 
   -0.40621E+08         0.10096E+07         0.00000E+00
    0.10096E+07        -0.98460E+08         0.00000E+00
    0.00000E+00         0.00000E+00        -0.39919E+08
 
   -0.40185E+08         0.86357E+06         0.00000E+00
    0.86357E+06        -0.98416E+08         0.00000E+00
    0.00000E+00         0.00000E+00        -0.39288E+08
 
   -0.39759E+08         0.70879E+06         0.00000E+00
    0.70879E+06        -0.98290E+08         0.00000E+00
    0.00000E+00         0.00000E+00        -0.38615E+08
 
   -0.39362E+08         0.54782E+06         0.00000E+00
    0.54782E+06        -0.98050E+08         0.00000E+00
    0.00000E+00         0.00000E+00        -0.37897E+08
 
   -0.39024E+08         0.38463E+06         0.00000E+00
    0.38463E+06        -0.97665E+08         0.00000E+00
    0.00000E+00         0.00000E+00        -0.37132E+08
 
   -0.38776E+08         0.22530E+06         0.00000E+00
    0.22530E+06        -0.97109E+08         0.00000E+00
    0.00000E+00         0.00000E+00        -0.36317E+08
 
   -0.38645E+08         0.73814E+05         0.00000E+00
    0.73814E+05        -0.96370E+08         0.00000E+00
    0.00000E+00         0.00000E+00        -0.35448E+08
 
   -0.49951E+08         0.20549E+04         0.00000E+00
    0.20549E+04        -0.97597E+08         0.00000E+00
    0.00000E+00         0.00000E+00        -0.49997E+08
 
   -0.49949E+08         0.61964E+04         0.00000E+00
    0.61964E+04        -0.97591E+08         0.00000E+00
    0.00000E+00         0.00000E+00        -0.49991E+08
 
   -0.49947E+08         0.10426E+05         0.00000E+00
    0.10426E+05        -0.97588E+08         0.00000E+00
    0.00000E+00         0.00000E+00        -0.49984E+08
 
   -0.49944E+08         0.14745E+05         0.00000E+00
    0.14745E+05        -0.97585E+08         0.00000E+00
    0.00000E+00         0.00000E+00        -0.49978E+08
 
   -0.49939E+08         0.19126E+05         0.00000E+00
    0.19126E+05        -0.97583E+08         0.00000E+00
    0.00000E+00         0.00000E+00        -0.49972E+08
 
   -0.49935E+08         0.23542E+05         0.00000E+00
    0.23542E+05        -0.97582E+08         0.00000E+00
    0.00000E+00         0.00000E+00        -0.49965E+08
 
   -0.49929E+08         0.27977E+05         0.00000E+00
    0.27977E+05        -0.97581E+08         0.00000E+00
    0.00000E+00         0.00000E+00        -0.49959E+08
 
   -0.49924E+08         0.32416E+05         0.00000E+00
    0.32416E+05        -0.97581E+08         0.00000E+00
    0.00000E+00         0.00000E+00        -0.49953E+08
 
   -0.49917E+08         0.36851E+05         0.00000E+00
    0.36851E+05        -0.97581E+08         0.00000E+00
    0.00000E+00         0.00000E+00        -0.49946E+08
 
   -0.49911E+08         0.41279E+05         0.00000E+00
    0.41279E+05        -0.97581E+08         0.00000E+00
    0.00000E+00         0.00000E+00        -0.49940E+08
 
   -0.49904E+08         0.45700E+05         0.00000E+00
    0.45700E+05        -0.97582E+08         0.00000E+00
    0.00000E+00         0.00000E+00        -0.49933E+08
 
   -0.49897E+08         0.50124E+05         0.00000E+00
    0.50124E+05        -0.97582E+08         0.00000E+00
    0.00000E+00         0.00000E+00        -0.49926E+08
 
   -0.49890E+08         0.54562E+05         0.00000E+00
    0.54562E+05        -0.97582E+08         0.00000E+00
    0.00000E+00         0.00000E+00        -0.49919E+08
 
   -0.49882E+08         0.59029E+05         0.00000E+00
    0.59029E+05        -0.97582E+08         0.00000E+00
    0.00000E+00         0.00000E+00        -0.49911E+08
 
   -0.49874E+08         0.63544E+05         0.00000E+00
    0.63544E+05        -0.97582E+08         0.00000E+00
    0.00000E+00         0.00000E+00        -0.49904E+08
 
   -0.49865E+08         0.68127E+05         0.00000E+00
    0.68127E+05        -0.97582E+08         0.00000E+00
    0.00000E+00         0.00000E+00        -0.49896E+08
 
   -0.49856E+08         0.72800E+05         0.00000E+00
    0.72800E+05        -0.97582E+08         0.00000E+00
    0.00000E+00         0.00000E+00        -0.49888E+08
 
   -0.49847E+08         0.77586E+05         0.00000E+00
    0.77586E+05        -0.97581E+08         0.00000E+00
    0.00000E+00         0.00000E+00        -0.49879E+08
 
   -0.49837E+08         0.82508E+05         0.00000E+00
    0.82508E+05        -0.97581E+08         0.00000E+00
    0.00000E+00         0.00000E+00        -0.49871E+08
 
   -0.49826E+08         0.87589E+05         0.00000E+00
    0.87589E+05        -0.97580E+08         0.00000E+00
    0.00000E+00         0.00000E+00        -0.49861E+08
 
   -0.49815E+08         0.92853E+05         0.00000E+00
    0.92853E+05        -0.97580E+08         0.00000E+00
    0.00000E+00         0.00000E+00        -0.49852E+08
 
   -0.49803E+08         0.98324E+05         0.00000E+00
    0.98324E+05        -0.97579E+08         0.00000E+00
    0.00000E+00         0.00000E+00        -0.49842E+08
 
   -0.49790E+08         0.10403E+06         0.00000E+00
    0.10403E+06        -0.97578E+08         0.00000E+00
    0.00000E+00         0.00000E+00        -0.49831E+08
 
   -0.49777E+08         0.10998E+06         0.00000E+00
    0.10998E+06        -0.97577E+08         0.00000E+00
    0.00000E+00         0.00000E+00        -0.49820E+08
 
   -0.49764E+08         0.11622E+06         0.00000E+00
    0.11622E+06        -0.97576E+08         0.00000E+00
    0.00000E+00         0.00000E+00        -0.49808E+08
 
   -0.49749E+08         0.12276E+06         0.00000E+00
    0.12276E+06        -0.97575E+08         0.00000E+00
    0.00000E+00         0.00000E+00        -0.49796E+08
 
   -0.49734E+08         0.12963E+06         0.00000E+00
    0.12963E+06        -0.97574E+08         0.00000E+00
    0.00000E+00         0.00000E+00        -0.49783E+08
 
   -0.49717E+08         0.13685E+06         0.00000E+00
    0.13685E+06        -0.97573E+08         0.00000E+00
    0.00000E+00         0.00000E+00        -0.49770E+08
 
   -0.49700E+08         0.14444E+06         0.00000E+00
    0.14444E+06        -0.97571E+08         0.00000E+00
    0.00000E+00         0.00000E+00        -0.49755E+08
 
   -0.49682E+08         0.15245E+06         0.00000E+00
    0.15245E+06        -0.97570E+08         0.00000E+00
    0.00000E+00         0.00000E+00        -0.49740E+08
 
   -0.49663E+08         0.16088E+06         0.00000E+00
    0.16088E+06        -0.97568E+08         0.00000E+00
    0.00000E+00         0.00000E+00        -0.49725E+08
 
   -0.49643E+08         0.16976E+06         0.00000E+00
    0.16976E+06        -0.97566E+08         0.00000E+00
    0.00000E+00         0.00000E+00        -0.49708E+08
 
   -0.49622E+08         0.17914E+06         0.00000E+00
    0.17914E+06        -0.97564E+08         0.00000E+00
    0.00000E+00         0.00000E+00        -0.49690E+08
 
   -0.49600E+08         0.18902E+06         0.00000E+00
    0.18902E+06        -0.97562E+08         0.00000E+00
    0.00000E+00         0.00000E+00        -0.49672E+08
 
   -0.49576E+08         0.19945E+06         0.00000E+00
    0.19945E+06        -0.97560E+08         0.00000E+00
    0.00000E+00         0.00000E+00        -0.49652E+08
 
   -0.49552E+08         0.21044E+06         0.00000E+00
    0.21044E+06        -0.97558E+08         0.00000E+00
    0.00000E+00         0.00000E+00        -0.49632E+08
 
   -0.49525E+08         0.22204E+06         0.00000E+00
    0.22204E+06        -0.97556E+08         0.00000E+00
    0.00000E+00         0.00000E+00        -0.49610E+08
 
   -0.49498E+08         0.23428E+06         0.00000E+00
    0.23428E+06        -0.97554E+08         0.00000E+00
    0.00000E+00         0.00000E+00        -0.49587E+08
 
   -0.49468E+08         0.24718E+06         0.00000E+00
    0.24718E+06        -0.97551E+08         0.00000E+00
    0.00000E+00         0.00000E+00        -0.49563E+08
 
   -0.49438E+08         0.26079E+06         0.00000E+00
    0.26079E+06        -0.97548E+08         0.00000E+00
    0.00000E+00         0.00000E+00        -0.49537E+08
 
   -0.49405E+08         0.27514E+06         0.00000E+00
    0.27514E+06        -0.97546E+08         0.00000E+00
    0.00000E+00         0.00000E+00        -0.49510E+08
 
   -0.49371E+08         0.29026E+06         0.00000E+00
    0.29026E+06        -0.97543E+08         0.00000E+00
    0.00000E+00         0.00000E+00        -0.49482E+08
 
   -0.49335E+08         0.30619E+06         0.00000E+00
    0.30619E+06        -0.97540E+08         0.00000E+00
    0.00000E+00         0.00000E+00        -0.49452E+08
 
   -0.49297E+08         0.32298E+06         0.00000E+00
    0.32298E+06        -0.97536E+08         0.00000E+00
    0.00000E+00         0.00000E+00        -0.49420E+08
 
   -0.49256E+08         0.34066E+06         0.00000E+00
    0.34066E+06        -0.97533E+08         0.00000E+00
    0.00000E+00         0.00000E+00        -0.49386E+08
 
   -0.49214E+08         0.35927E+06         0.00000E+00
    0.35927E+06        -0.97529E+08         0.00000E+00
    0.00000E+00         0.00000E+00        -0.49351E+08
 
   -0.49169E+08         0.37886E+06         0.00000E+00
    0.37886E+06        -0.97526E+08         0.00000E+00
    0.00000E+00         0.00000E+00        -0.49313E+08
 
   -0.49121E+08         0.39946E+06         0.00000E+00
    0.39946E+06        -0.97522E+08         0.00000E+00
    0.00000E+00         0.00000E+00        -0.49273E+08
 
   -0.49071E+08         0.42112E+06         0.00000E+00
    0.42112E+06        -0.97518E+08         0.00000E+00
    0.00000E+00         0.00000E+00        -0.49231E+08
 
   -0.49019E+08         0.44388E+06         0.00000E+00
    0.44388E+06        -0.97514E+08         0.00000E+00
    0.00000E+00         0.00000E+00        -0.49187E+08
 
   -0.48963E+08         0.46778E+06         0.00000E+00
    0.46778E+06        -0.97510E+08         0.00000E+00
    0.00000E+00         0.00000E+00        -0.49140E+08
 
   -0.48904E+08         0.49288E+06         0.00000E+00
    0.49288E+06        -0.97505E+08         0.00000E+00
    0.00000E+00         0.00000E+00        -0.49090E+08
 
   -0.48843E+08         0.51920E+06         0.00000E+00
    0.51920E+06        -0.97501E+08         0.00000E+00
    0.00000E+00         0.00000E+00        -0.49038E+08
 
   -0.48777E+08         0.54679E+06         0.00000E+00
    0.54679E+06        -0.97496E+08         0.00000E+00
    0.00000E+00         0.00000E+00        -0.48982E+08
 
   -0.48709E+08         0.57568E+06         0.00000E+00
    0.57568E+06        -0.97491E+08         0.00000E+00
    0.00000E+00         0.00000E+00        -0.48924E+08
 
   -0.48636E+08         0.60592E+06         0.00000E+00
    0.60592E+06        -0.97486E+08         0.00000E+00
    0.00000E+00         0.00000E+00        -0.48862E+08
 
   -0.48560E+08         0.63753E+06         0.00000E+00
    0.63753E+06        -0.97481E+08         0.00000E+00
    0.00000E+00         0.00000E+00        -0.48796E+08
 
   -0.48479E+08         0.67053E+06         0.00000E+00
    0.67053E+06        -0.97476E+08         0.00000E+00
    0.00000E+00         0.00000E+00        -0.48726E+08
 
   -0.48394E+08         0.70497E+06         0.00000E+00
    0.70497E+06        -0.97471E+08         0.00000E+00
    0.00000E+00         0.00000E+00        -0.48653E+08
 
   -0.48305E+08         0.74083E+06         0.00000E+00
    0.74083E+06        -0.97466E+08         0.00000E+00
    0.00000E+00         0.00000E+00        -0.48575E+08
 
   -0.48211E+08         0.77814E+06         0.00000E+00
    0.77814E+06        -0.97460E+08         0.00000E+00
    0.00000E+00         0.00000E+00        -0.48493E+08
 
   -0.48112E+08         0.81688E+06         0.00000E+00
    0.81688E+06        -0.97455E+08         0.00000E+00
    0.00000E+00         0.00000E+00        -0.48406E+08
 
   -0.48008E+08         0.85704E+06         0.00000E+00
    0.85704E+06        -0.97450E+08         0.00000E+00
    0.00000E+00         0.00000E+00        -0.48314E+08
 
   -0.47899E+08         0.89859E+06         0.00000E+00
    0.89859E+06        -0.97445E+08         0.00000E+00
    0.00000E+00         0.00000E+00        -0.48216E+08
 
   -0.47784E+08         0.94146E+06         0.00000E+00
    0.94146E+06        -0.97441E+08         0.00000E+00
    0.00000E+00         0.00000E+00        -0.48113E+08
 
   -0.47663E+08         0.98560E+06         0.00000E+00
    0.98560E+06        -0.97437E+08         0.00000E+00
    0.00000E+00         0.00000E+00        -0.48004E+08
 
   -0.47536E+08         0.10309E+07         0.00000E+00
    0.10309E+07        -0.97433E+08         0.00000E+00
    0.00000E+00         0.00000E+00        -0.47888E+08
 
   -0.47402E+08         0.10772E+07         0.00000E+00
    0.10772E+07        -0.97430E+08         0.00000E+00
    0.00000E+00         0.00000E+00        -0.47766E+08
 
   -0.47263E+08         0.11244E+07         0.00000E+00
    0.11244E+07        -0.97428E+08         0.00000E+00
    0.00000E+00         0.00000E+00        -0.47636E+08
 
   -0.47116E+08         0.11723E+07         0.00000E+00
    0.11723E+07        -0.97427E+08         0.00000E+00
    0.00000E+00         0.00000E+00        -0.47499E+08
 
   -0.46962E+08         0.12206E+07         0.00000E+00
    0.12206E+07        -0.97427E+08         0.00000E+00
    0.00000E+00         0.00000E+00        -0.47353E+08
 
   -0.46801E+08         0.12691E+07         0.00000E+00
    0.12691E+07        -0.97428E+08         0.00000E+00
    0.00000E+00         0.00000E+00        -0.47199E+08
 
   -0.46633E+08         0.13173E+07         0.00000E+00
    0.13173E+07        -0.97432E+08         0.00000E+00
    0.00000E+00         0.00000E+00        -0.47036E+08
 
   -0.46457E+08         0.13649E+07         0.00000E+00
    0.13649E+07        -0.97437E+08         0.00000E+00
    0.00000E+00         0.00000E+00        -0.46862E+08
 
   -0.46272E+08         0.14114E+07         0.00000E+00
    0.14114E+07        -0.97445E+08         0.00000E+00
    0.00000E+00         0.00000E+00        -0.46679E+08
 
   -0.46080E+08         0.14562E+07         0.00000E+00
    0.14562E+07        -0.97456E+08         0.00000E+00
    0.00000E+00         0.00000E+00        -0.46484E+08
 
   -0.45879E+08         0.14986E+07         0.00000E+00
    0.14986E+07        -0.97471E+08         0.00000E+00
    0.00000E+00         0.00000E+00        -0.46278E+08
 
   -0.45669E+08         0.15380E+07         0.00000E+00
    0.15380E+07        -0.97490E+08         0.00000E+00
    0.00000E+00         0.00000E+00        -0.46059E+08
 
   -0.45449E+08         0.15734E+07         0.00000E+00
    0.15734E+07        -0.97513E+08         0.00000E+00
    0.00000E+00         0.00000E+00        -0.45826E+08
 
   -0.45221E+08         0.16041E+07         0.00000E+00
    0.16041E+07        -0.97542E+08         0.00000E+00
    0.00000E+00         0.00000E+00        -0.45579E+08
 
   -0.44982E+08         0.16288E+07         0.00000E+00
    0.16288E+07        -0.97576E+08         0.00000E+00
    0.00000E+00         0.00000E+00        -0.45317E+08
 
   -0.44733E+08         0.16466E+07         0.00000E+00
    0.16466E+07        -0.97618E+08         0.00000E+00
    0.00000E+00         0.00000E+00        -0.45039E+08
 
   -0.44473E+08         0.16563E+07         0.00000E+00
    0.16563E+07        -0.97666E+08         0.00000E+00
    0.00000E+00         0.00000E+00        -0.44743E+08
 
   -0.44201E+08         0.16565E+07         0.00000E+00
    0.16565E+07        -0.97723E+08         0.00000E+00
    0.00000E+00         0.00000E+00        -0.44429E+08
 
   -0.43917E+08         0.16460E+07         0.00000E+00
    0.16460E+07        -0.97787E+08         0.00000E+00
    0.00000E+00         0.00000E+00        -0.44095E+08
 
   -0.43620E+08         0.16236E+07         0.00000E+00
    0.16236E+07        -0.97860E+08         0.00000E+00
    0.00000E+00         0.00000E+00        -0.43739E+08
 
   -0.43309E+08         0.15880E+07         0.00000E+00
    0.15880E+07        -0.97940E+08         0.00000E+00
    0.00000E+00         0.00000E+00        -0.43361E+08
 
   -0.42983E+08         0.15381E+07         0.00000E+00
    0.15381E+07        -0.98026E+08         0.00000E+00
    0.00000E+00         0.00000E+00        -0.42958E+08
 
   -0.42641E+08         0.14732E+07         0.00000E+00
    0.14732E+07        -0.98117E+08         0.00000E+00
    0.00000E+00         0.00000E+00        -0.42529E+08
 
   -0.42281E+08         0.13927E+07         0.00000E+00
    0.13927E+07        -0.98208E+08         0.00000E+00
    0.00000E+00         0.00000E+00        -0.42072E+08
 
   -0.41905E+08         0.12966E+07         0.00000E+00
    0.12966E+07        -0.98294E+08         0.00000E+00
    0.00000E+00         0.00000E+00        -0.41584E+08
 
   -0.41512E+08         0.11854E+07         0.00000E+00
    0.11854E+07        -0.98368E+08         0.00000E+00
    0.00000E+00         0.00000E+00        -0.41065E+08
 
   -0.41104E+08         0.10605E+07         0.00000E+00
    0.10605E+07        -0.98419E+08         0.00000E+00
    0.00000E+00         0.00000E+00        -0.40510E+08
 
   -0.40686E+08         0.92375E+06         0.00000E+00
    0.92375E+06        -0.98431E+08         0.00000E+00
    0.00000E+00         0.00000E+00        -0.39919E+08
 
   -0.40265E+08         0.77815E+06         0.00000E+00
    0.77815E+06        -0.98386E+08         0.00000E+00
    0.00000E+00         0.00000E+00        -0.39288E+08
 
   -0.39854E+08         0.62710E+06         0.00000E+00
    0.62710E+06        -0.98259E+08         0.00000E+00
    0.00000E+00         0.00000E+00        -0.38616E+08
 
   -0.39475E+08         0.47473E+06         0.00000E+00
    0.47473E+06        -0.98019E+08         0.00000E+00
    0.00000E+00         0.00000E+00        -0.37898E+08
 
   -0.39153E+08         0.32632E+06         0.00000E+00
    0.32632E+06        -0.97635E+08         0.00000E+00
    0.00000E+00         0.00000E+00        -0.37133E+08
 
   -0.38918E+08         0.18774E+06         0.00000E+00
    0.18774E+06        -0.97080E+08         0.00000E+00
    0.00000E+00         0.00000E+00        -0.36317E+08
 
   -0.38794E+08         0.60897E+05         0.00000E+00
    0.60897E+05        -0.96343E+08         0.00000E+00
    0.00000E+00         0.00000E+00        -0.35448E+08
 
   -0.49948E+08         0.19312E+04         0.00000E+00
    0.19312E+04        -0.97597E+08         0.00000E+00
    0.00000E+00         0.00000E+00        -0.49997E+08
 
   -0.49947E+08         0.58326E+04         0.00000E+00
    0.58326E+04        -0.97592E+08         0.00000E+00
    0.00000E+00         0.00000E+00        -0.49991E+08
 
   -0.49945E+08         0.98459E+04         0.00000E+00
    0.98459E+04        -0.97588E+08         0.00000E+00
    0.00000E+00         0.00000E+00        -0.49984E+08
 
   -0.49941E+08         0.13986E+05         0.00000E+00
    0.13986E+05        -0.97586E+08         0.00000E+00
    0.00000E+00         0.00000E+00        -0.49978E+08
 
   -0.49937E+08         0.18225E+05         0.00000E+00
    0.18225E+05        -0.97584E+08         0.00000E+00
    0.00000E+00         0.00000E+00        -0.49972E+08
 
   -0.49932E+08         0.22533E+05         0.00000E+00
    0.22533E+05        -0.97583E+08         0.00000E+00
    0.00000E+00         0.00000E+00        -0.49965E+08
 
   -0.49927E+08         0.26880E+05         0.00000E+00
    0.26880E+05        -0.97582E+08         0.00000E+00
    0.00000E+00         0.00000E+00        -0.49959E+08
 
   -0.49922E+08         0.31243E+05         0.00000E+00
    0.31243E+05        -0.97582E+08         0.00000E+00
    0.00000E+00         0.00000E+00        -0.49953E+08
 
   -0.49916E+08         0.35609E+05         0.00000E+00
    0.35609E+05        -0.97582E+08         0.00000E+00
    0.00000E+00         0.00000E+00        -0.49946E+08
 
   -0.49909E+08         0.39969E+05         0.00000E+00
    0.39969E+05        -0.97582E+08         0.00000E+00
    0.00000E+00         0.00000E+00        -0.49940E+08
 
   -0.49903E+08         0.44323E+05         0.00000E+00
    0.44323E+05        -0.97583E+08         0.00000E+00
    0.00000E+00         0.00000E+00        -0.49933E+08
 
   -0.49895E+08         0.48675E+05         0.00000E+00
    0.48675E+05        -0.97583E+08         0.00000E+00
    0.00000E+00         0.00000E+00        -0.49926E+08
 
   -0.49888E+08         0.53038E+05         0.00000E+00
    0.53038E+05        -0.97583E+08         0.00000E+00
    0.00000E+00         0.00000E+00        -0.49919E+08
 
   -0.49880E+08         0.57426E+05         0.00000E+00
    0.57426E+05        -0.97583E+08         0.00000E+00
    0.00000E+00         0.00000E+00        -0.49911E+08
 
   -0.49872E+08         0.61857E+05         0.00000E+00
    0.61857E+05        -0.97583E+08         0.00000E+00
    0.00000E+00         0.00000E+00        -0.49904E+08
 
   -0.49863E+08         0.66351E+05         0.00000E+00
    0.66351E+05        -0.97583E+08         0.00000E+00
    0.00000E+00         0.00000E+00        -0.49896E+08
 
   -0.49854E+08         0.70930E+05         0.00000E+00
    0.70930E+05        -0.97583E+08         0.00000E+00
    0.00000E+00         0.00000E+00        -0.49888E+08
 
   -0.49845E+08         0.75615E+05         0.00000E+00
    0.75615E+05        -0.97582E+08         0.00000E+00
    0.00000E+00         0.00000E+00        -0.49879E+08
 
   -0.49834E+08         0.80431E+05         0.00000E+00
    0.80431E+05        -0.97582E+08         0.00000E+00
    0.00000E+00         0.00000E+00        -0.49871E+08
 
   -0.49824E+08         0.85400E+05         0.00000E+00
    0.85400E+05        -0.97581E+08         0.00000E+00
    0.00000E+00         0.00000E+00        -0.49861E+08
 
   -0.49812E+08         0.90545E+05         0.00000E+00
    0.90545E+05        -0.97581E+08         0.00000E+00
    0.00000E+00         0.00000E+00        -0.49852E+08
 
   -0.49800E+08         0.95891E+05         0.00000E+00
    0.95891E+05        -0.97580E+08         0.00000E+00
    0.00000E+00         0.00000E+00        -0.49842E+08
 
   -0.49788E+08         0.10146E+06         0.00000E+00
    0.10146E+06        -0.97579E+08         0.00000E+00
    0.00000E+00         0.00000E+00        -0.49831E+08
 
   -0.49775E+08         0.10728E+06         0.00000E+00
    0.10728E+06        -0.97578E+08         0.00000E+00
    0.00000E+00         0.00000E+00        -0.49820E+08
 
   -0.49761E+08         0.11337E+06         0.00000E+00
    0.11337E+06        -0.97578E+08         0.00000E+00
    0.00000E+00         0.00000E+00        -0.49808E+08
 
   -0.49746E+08         0.11975E+06         0.00000E+00
    0.11975E+06        -0.97576E+08         0.00000E+00
    0.00000E+00         0.00000E+00        -0.49796E+08
 
   -0.49731E+08         0.12646E+06         0.00000E+00
    0.12646E+06        -0.97575E+08         0.00000E+00
    0.00000E+00         0.00000E+00        -0.49783E+08
 
   -0.49714E+08         0.13350E+06         0.00000E+00
    0.13350E+06        -0.97574E+08         0.00000E+00
    0.00000E+00         0.00000E+00        -0.49770E+08
 
   -0.49697E+08         0.14092E+06         0.00000E+00
    0.14092E+06        -0.97573E+08         0.00000E+00
    0.00000E+00         0.00000E+00        -0.49755E+08
 
   -0.49679E+08         0.14873E+06         0.00000E+00
    0.14873E+06        -0.97571E+08         0.00000E+00
    0.00000E+00         0.00000E+00        -0.49740E+08
 
   -0.49659E+08         0.15695E+06         0.00000E+00
    0.15695E+06        -0.97570E+08         0.00000E+00
    0.00000E+00         0.00000E+00        -0.49725E+08
 
   -0.49639E+08         0.16563E+06         0.00000E+00
    0.16563E+06        -0.97568E+08         0.00000E+00
    0.00000E+00         0.00000E+00        -0.49708E+08
 
   -0.49618E+08         0.17477E+06         0.00000E+00
    0.17477E+06        -0.97566E+08         0.00000E+00
    0.00000E+00         0.00000E+00        -0.49690E+08
 
   -0.49595E+08         0.18441E+06         0.00000E+00
    0.18441E+06        -0.97564E+08         0.00000E+00
    0.00000E+00         0.00000E+00        -0.49672E+08
 
   -0.49572E+08         0.19459E+06         0.00000E+00
    0.19459E+06        -0.97562E+08         0.00000E+00
    0.00000E+00         0.00000E+00        -0.49652E+08
 
   -0.49546E+08         0.20532E+06         0.00000E+00
    0.20532E+06        -0.97560E+08         0.00000E+00
    0.00000E+00         0.00000E+00        -0.49632E+08
 
   -0.49520E+08         0.21663E+06         0.00000E+00
    0.21663E+06        -0.97558E+08         0.00000E+00
    0.00000E+00         0.00000E+00        -0.49610E+08
 
   -0.49492E+08         0.22857E+06         0.00000E+00
    0.22857E+06        -0.97556E+08         0.00000E+00
    0.00000E+00         0.00000E+00        -0.49587E+08
 
   -0.49463E+08         0.24116E+06         0.00000E+00
    0.24116E+06        -0.97554E+08         0.00000E+00
    0.00000E+00         0.00000E+00        -0.49563E+08
 
   -0.49431E+08         0.25443E+06         0.00000E+00
    0.25443E+06        -0.97551E+08         0.00000E+00
    0.00000E+00         0.00000E+00        -0.49537E+08
 
   -0.49399E+08         0.26843E+06         0.00000E+00
    0.26843E+06        -0.97548E+08         0.00000E+00
    0.00000E+00         0.00000E+00        -0.49510E+08
 
   -0.49364E+08         0.28318E+06         0.00000E+00
    0.28318E+06        -0.97546E+08         0.00000E+00
    0.00000E+00         0.00000E+00        -0.49482E+08
 
   -0.49327E+08         0.29872E+06         0.00000E+00
    0.29872E+06        -0.97543E+08         0.00000E+00
    0.00000E+00         0.00000E+00        -0.49452E+08
 
   -0.49289E+08         0.31509E+06         0.00000E+00
    0.31509E+06        -0.97540E+08         0.00000E+00
    0.00000E+00         0.00000E+00        -0.49420E+08
 
   -0.49248E+08         0.33234E+06         0.00000E+00
    0.33234E+06        -0.97537E+08         0.00000E+00
    0.00000E+00         0.00000E+00        -0.49386E+08
 
   -0.49205E+08         0.35049E+06         0.00000E+00
    0.35049E+06        -0.97533E+08         0.00000E+00
    0.00000E+00         0.00000E+00        -0.49351E+08
 
   -0.49160E+08         0.36959E+06         0.00000E+00
    0.36959E+06        -0.97530E+08         0.00000E+00
    0.00000E+00         0.00000E+00        -0.49313E+08
 
   -0.49112E+08         0.38968E+06         0.00000E+00
    0.38968E+06        -0.97526E+08         0.00000E+00
    0.00000E+00         0.00000E+00        -0.49273E+08
 
   -0.49061E+08         0.41080E+06         0.00000E+00
    0.41080E+06        -0.97522E+08         0.00000E+00
    0.00000E+00         0.00000E+00        -0.49231E+08
 
   -0.49008E+08         0.43300E+06         0.00000E+00
    0.43300E+06        -0.97519E+08         0.00000E+00
    0.00000E+00         0.00000E+00        -0.49187E+08
 
   -0.48952E+08         0.45631E+06         0.00000E+00
    0.45631E+06        -0.97514E+08         0.00000E+00
    0.00000E+00         0.00000E+00        -0.49140E+08
 
   -0.48893E+08         0.48077E+06         0.00000E+00
    0.48077E+06        -0.97510E+08         0.00000E+00
    0.00000E+00         0.00000E+00        -0.49090E+08
 
   -0.48830E+08         0.50643E+06         0.00000E+00
    0.50643E+06        -0.97506E+08         0.00000E+00
    0.00000E+00         0.00000E+00        -0.49038E+08
 
   -0.48764E+08         0.53333E+06         0.00000E+00
    0.53333E+06        -0.97501E+08         0.00000E+00
    0.00000E+00         0.00000E+00        -0.48982E+08
 
   -0.48695E+08         0.56149E+06         0.00000E+00
    0.56149E+06        -0.97497E+08         0.00000E+00
    0.00000E+00         0.00000E+00        -0.48924E+08
 
   -0.48622E+08         0.59097E+06         0.00000E+00
    0.59097E+06        -0.97492E+08         0.00000E+00
    0.00000E+00         0.00000E+00        -0.48861E+08
 
   -0.48545E+08         0.62177E+06         0.00000E+00
    0.62177E+06        -0.97487E+08         0.00000E+00
    0.00000E+00         0.00000E+00        -0.48796E+08
 
   -0.48463E+08         0.65394E+06         0.00000E+00
    0.65394E+06        -0.97483E+08         0.00000E+00
    0.00000E+00         0.00000E+00        -0.48726E+08
 
   -0.48378E+08         0.68749E+06         0.00000E+00
    0.68749E+06        -0.97478E+08         0.00000E+00
    0.00000E+00         0.00000E+00        -0.48653E+08
 
   -0.48288E+08         0.72243E+06         0.00000E+00
    0.72243E+06        -0.97473E+08         0.00000E+00
    0.00000E+00         0.00000E+00        -0.48575E+08
 
   -0.48193E+08         0.75878E+06         0.00000E+00
    0.75878E+06        -0.97468E+08         0.00000E+00
    0.00000E+00         0.00000E+00        -0.48493E+08
 
   -0.48093E+08         0.79651E+06         0.00000E+00
    0.79651E+06        -0.97463E+08         0.00000E+00
    0.00000E+00         0.00000E+00        -0.48406E+08
 
   -0.47988E+08         0.83562E+06         0.00000E+00
    0.83562E+06        -0.97458E+08         0.00000E+00
    0.00000E+00         0.00000E+00        -0.48314E+08
 
   -0.47878E+08         0.87607E+06         0.00000E+00
    0.87607E+06        -0.97454E+08         0.00000E+00
    0.00000E+00         0.00000E+00        -0.48216E+08
 
   -0.47762E+08         0.91780E+06         0.00000E+00
    0.91780E+06        -0.97450E+08         0.00000E+00
    0.00000E+00         0.00000E+00        -0.48113E+08
 
   -0.47641E+08         0.96075E+06         0.00000E+00
    0.96075E+06        -0.97446E+08         0.00000E+00
    0.00000E+00         0.00000E+00        -0.48004E+08
 
   -0.47513E+08         0.10048E+07         0.00000E+00
    0.10048E+07        -0.97442E+08         0.00000E+00
    0.00000E+00         0.00000E+00        -0.47888E+08
 
   -0.47379E+08         0.10499E+07         0.00000E+00
    0.10499E+07        -0.97439E+08         0.00000E+00
    0.00000E+00         0.00000E+00        -0.47766E+08
 
   -0.47238E+08         0.10957E+07         0.00000E+00
    0.10957E+07        -0.97437E+08         0.00000E+00
    0.00000E+00         0.00000E+00        -0.47636E+08
 
   -0.47091E+08         0.11422E+07         0.00000E+00
    0.11422E+07        -0.97436E+08         0.00000E+00
    0.00000E+00         0.00000E+00        -0.47498E+08
 
   -0.46937E+08         0.11891E+07         0.00000E+00
    0.11891E+07        -0.97436E+08         0.00000E+00
    0.00000E+00         0.00000E+00        -0.47353E+08
 
   -0.46775E+08         0.12361E+07         0.00000E+00
    0.12361E+07        -0.97438E+08         0.00000E+00
    0.00000E+00         0.00000E+00        -0.47199E+08
 
   -0.46606E+08         0.12828E+07         0.00000E+00
    0.12828E+07        -0.97441E+08         0.00000E+00
    0.00000E+00         0.00000E+00        -0.47035E+08
 
   -0.46430E+08         0.13288E+07         0.00000E+00
    0.13288E+07        -0.97446E+08         0.00000E+00
    0.00000E+00         0.00000E+00        -0.46862E+08
 
   -0.46245E+08         0.13737E+07         0.00000E+00
    0.13737E+07        -0.97454E+08         0.00000E+00
    0.00000E+00         0.00000E+00        -0.46679E+08
 
   -0.46052E+08         0.14168E+07         0.00000E+00
    0.14168E+07        -0.97465E+08         0.00000E+00
    0.00000E+00         0.00000E+00        -0.46484E+08
 
   -0.45852E+08         0.14575E+07         0.00000E+00
    0.14575E+07        -0.97479E+08         0.00000E+00
    0.00000E+00         0.00000E+00        -0.46277E+08
 
   -0.45642E+08         0.14951E+07         0.00000E+00
    0.14951E+07        -0.97497E+08         0.00000E+00
    0.00000E+00         0.00000E+00        -0.46058E+08
 
   -0.45424E+08         0.15288E+07         0.00000E+00
    0.15288E+07        -0.97519E+08         0.00000E+00
    0.00000E+00         0.00000E+00        -0.45826E+08
 
   -0.45196E+08         0.15575E+07         0.00000E+00
    0.15575E+07        -0.97547E+08         0.00000E+00
    0.00000E+00         0.00000E+00        -0.45579E+08
 
   -0.44959E+08         0.15803E+07         0.00000E+00
    0.15803E+07        -0.97580E+08         0.00000E+00
    0.00000E+00         0.00000E+00        -0.45317E+08
 
   -0.44712E+08         0.15960E+07         0.00000E+00
    0.15960E+07        -0.97620E+08         0.00000E+00
    0.00000E+00         0.00000E+00        -0.45039E+08
 
   -0.44454E+08         0.16034E+07         0.00000E+00
    0.16034E+07        -0.97667E+08         0.00000E+00
    0.00000E+00         0.00000E+00        -0.44743E+08
 
   -0.44186E+08         0.16013E+07         0.00000E+00
    0.16013E+07        -0.97722E+08         0.00000E+00
    0.00000E+00         0.00000E+00        -0.44429E+08
 
   -0.43906E+08         0.15884E+07         0.00000E+00
    0.15884E+07        -0.97784E+08         0.00000E+00
    0.00000E+00         0.00000E+00        -0.44095E+08
 
   -0.43613E+08         0.15633E+07         0.00000E+00
    0.15633E+07        -0.97854E+08         0.00000E+00
    0.00000E+00         0.00000E+00        -0.43739E+08
 
   -0.43307E+08         0.15248E+07         0.00000E+00
    0.15248E+07        -0.97931E+08         0.00000E+00
    0.00000E+00         0.00000E+00        -0.43361E+08
 
   -0.42987E+08         0.14720E+07         0.00000E+00
    0.14720E+07        -0.98015E+08         0.00000E+00
    0.00000E+00         0.00000E+00        -0.42958E+08
 
   -0.42652E+08         0.14039E+07         0.00000E+00
    0.14039E+07        -0.98102E+08         0.00000E+00
    0.00000E+00         0.00000E+00        -0.42529E+08
 
   -0.42301E+08         0.13201E+07         0.00000E+00
    0.13201E+07        -0.98190E+08         0.00000E+00
    0.00000E+00         0.00000E+00        -0.42072E+08
 
   -0.41935E+08         0.12206E+07         0.00000E+00
    0.12206E+07        -0.98273E+08         0.00000E+00
    0.00000E+00         0.00000E+00        -0.41584E+08
 
   -0.41553E+08         0.11063E+07         0.00000E+00
    0.11063E+07        -0.98344E+08         0.00000E+00
    0.00000E+00         0.00000E+00        -0.41065E+08
 
   -0.41157E+08         0.97879E+06         0.00000E+00
    0.97879E+06        -0.98392E+08         0.00000E+00
    0.00000E+00         0.00000E+00        -0.40511E+08
 
   -0.40752E+08         0.84071E+06         0.00000E+00
    0.84071E+06        -0.98403E+08         0.00000E+00
    0.00000E+00         0.00000E+00        -0.39920E+08
 
   -0.40345E+08         0.69576E+06         0.00000E+00
    0.69576E+06        -0.98357E+08         0.00000E+00
    0.00000E+00         0.00000E+00        -0.39289E+08
 
   -0.39951E+08         0.54863E+06         0.00000E+00
    0.54863E+06        -0.98229E+08         0.00000E+00
    0.00000E+00         0.00000E+00        -0.38616E+08
 
   -0.39587E+08         0.40488E+06         0.00000E+00
    0.40488E+06        -0.97989E+08         0.00000E+00
    0.00000E+00         0.00000E+00        -0.37899E+08
 
   -0.39279E+08         0.27087E+06         0.00000E+00
    0.27087E+06        -0.97607E+08         0.00000E+00
    0.00000E+00         0.00000E+00        -0.37133E+08
 
   -0.39056E+08         0.15215E+06         0.00000E+00
    0.15215E+06        -0.97056E+08         0.00000E+00
    0.00000E+00         0.00000E+00        -0.36318E+08
 
   -0.38938E+08         0.48667E+05         0.00000E+00
    0.48667E+05        -0.96321E+08         0.00000E+00
    0.00000E+00         0.00000E+00        -0.35448E+08
 
   -0.49946E+08         0.18110E+04         0.00000E+00
    0.18110E+04        -0.97598E+08         0.00000E+00
    0.00000E+00         0.00000E+00        -0.49997E+08
 
   -0.49945E+08         0.54790E+04         0.00000E+00
    0.54790E+04        -0.97593E+08         0.00000E+00
    0.00000E+00         0.00000E+00        -0.49991E+08
 
   -0.49942E+08         0.92808E+04         0.00000E+00
    0.92808E+04        -0.97589E+08         0.00000E+00
    0.00000E+00         0.00000E+00        -0.49984E+08
 
   -0.49939E+08         0.13243E+05         0.00000E+00
    0.13243E+05        -0.97587E+08         0.00000E+00
    0.00000E+00         0.00000E+00        -0.49978E+08
 
   -0.49935E+08         0.17342E+05         0.00000E+00
    0.17342E+05        -0.97585E+08         0.00000E+00
    0.00000E+00         0.00000E+00        -0.49972E+08
 
   -0.49930E+08         0.21539E+05         0.00000E+00
    0.21539E+05        -0.97584E+08         0.00000E+00
    0.00000E+00         0.00000E+00        -0.49965E+08
 
   -0.49925E+08         0.25796E+05         0.00000E+00
    0.25796E+05        -0.97583E+08         0.00000E+00
    0.00000E+00         0.00000E+00        -0.49959E+08
 
   -0.49920E+08         0.30082E+05         0.00000E+00
    0.30082E+05        -0.97583E+08         0.00000E+00
    0.00000E+00         0.00000E+00        -0.49953E+08
 
   -0.49914E+08         0.34375E+05         0.00000E+00
    0.34375E+05        -0.97583E+08         0.00000E+00
    0.00000E+00         0.00000E+00        -0.49946E+08
 
   -0.49907E+08         0.38665E+05         0.00000E+00
    0.38665E+05        -0.97583E+08         0.00000E+00
    0.00000E+00         0.00000E+00        -0.49940E+08
 
   -0.49901E+08         0.42948E+05         0.00000E+00
    0.42948E+05        -0.97583E+08         0.00000E+00
    0.00000E+00         0.00000E+00        -0.49933E+08
 
   -0.49894E+08         0.47227E+05         0.00000E+00
    0.47227E+05        -0.97584E+08         0.00000E+00
    0.00000E+00         0.00000E+00        -0.49926E+08
 
   -0.49886E+08         0.51512E+05         0.00000E+00
    0.51512E+05        -0.97584E+08         0.00000E+00
    0.00000E+00         0.00000E+00        -0.49919E+08
 
   -0.49878E+08         0.55819E+05         0.00000E+00
    0.55819E+05        -0.97584E+08         0.00000E+00
    0.00000E+00         0.00000E+00        -0.49911E+08
 
   -0.49870E+08         0.60163E+05         0.00000E+00
    0.60163E+05        -0.97584E+08         0.00000E+00
    0.00000E+00         0.00000E+00        -0.49904E+08
 
   -0.49861E+08         0.64565E+05         0.00000E+00
    0.64565E+05        -0.97584E+08         0.00000E+00
    0.00000E+00         0.00000E+00        -0.49896E+08
 
   -0.49852E+08         0.69047E+05         0.00000E+00
    0.69047E+05        -0.97584E+08         0.00000E+00
    0.00000E+00         0.00000E+00        -0.49888E+08
 
   -0.49842E+08         0.73630E+05         0.00000E+00
    0.73630E+05        -0.97583E+08         0.00000E+00
    0.00000E+00         0.00000E+00        -0.49879E+08
 
   -0.49832E+08         0.78338E+05         0.00000E+00
    0.78338E+05        -0.97583E+08         0.00000E+00
    0.00000E+00         0.00000E+00        -0.49871E+08
 
   -0.49821E+08         0.83192E+05         0.00000E+00
    0.83192E+05        -0.97582E+08         0.00000E+00
    0.00000E+00         0.00000E+00        -0.49861E+08
 
   -0.49810E+08         0.88218E+05         0.00000E+00
    0.88218E+05        -0.97582E+08         0.00000E+00
    0.00000E+00         0.00000E+00        -0.49852E+08
 
   -0.49798E+08         0.93437E+05         0.00000E+00
    0.93437E+05        -0.97581E+08         0.00000E+00
    0.00000E+00         0.00000E+00        -0.49842E+08
 
   -0.49785E+08         0.98873E+05         0.00000E+00
    0.98873E+05        -0.97581E+08         0.00000E+00
    0.00000E+00         0.00000E+00        -0.49831E+08
 
   -0.49772E+08         0.10455E+06         0.00000E+00
    0.10455E+06        -0.97580E+08         0.00000E+00
    0.00000E+00         0.00000E+00        -0.49820E+08
 
   -0.49758E+08         0.11049E+06         0.00000E+00
    0.11049E+06        -0.97579E+08         0.00000E+00
    0.00000E+00         0.00000E+00        -0.49808E+08
 
   -0.49743E+08         0.11672E+06         0.00000E+00
    0.11672E+06        -0.97578E+08         0.00000E+00
    0.00000E+00         0.00000E+00        -0.49796E+08
 
   -0.49727E+08         0.12325E+06         0.00000E+00
    0.12325E+06        -0.97577E+08         0.00000E+00
    0.00000E+00         0.00000E+00        -0.49783E+08
 
   -0.49711E+08         0.13013E+06         0.00000E+00
    0.13013E+06        -0.97575E+08         0.00000E+00
    0.00000E+00         0.00000E+00        -0.49770E+08
 
   -0.49693E+08         0.13736E+06         0.00000E+00
    0.13736E+06        -0.97574E+08         0.00000E+00
    0.00000E+00         0.00000E+00        -0.49755E+08
 
   -0.49675E+08         0.14497E+06         0.00000E+00
    0.14497E+06        -0.97573E+08         0.00000E+00
    0.00000E+00         0.00000E+00        -0.49740E+08
 
   -0.49656E+08         0.15299E+06         0.00000E+00
    0.15299E+06        -0.97571E+08         0.00000E+00
    0.00000E+00         0.00000E+00        -0.49725E+08
 
   -0.49635E+08         0.16144E+06         0.00000E+00
    0.16144E+06        -0.97570E+08         0.00000E+00
    0.00000E+00         0.00000E+00        -0.49708E+08
 
   -0.49614E+08         0.17036E+06         0.00000E+00
    0.17036E+06        -0.97568E+08         0.00000E+00
    0.00000E+00         0.00000E+00        -0.49690E+08
 
   -0.49591E+08         0.17976E+06         0.00000E+00
    0.17976E+06        -0.97566E+08         0.00000E+00
    0.00000E+00         0.00000E+00        -0.49672E+08
 
   -0.49567E+08         0.18967E+06         0.00000E+00
    0.18967E+06        -0.97565E+08         0.00000E+00
    0.00000E+00         0.00000E+00        -0.49652E+08
 
   -0.49541E+08         0.20013E+06         0.00000E+00
    0.20013E+06        -0.97563E+08         0.00000E+00
    0.00000E+00         0.00000E+00        -0.49632E+08
 
   -0.49515E+08         0.21116E+06         0.00000E+00
    0.21116E+06        -0.97561E+08         0.00000E+00
    0.00000E+00         0.00000E+00        -0.49610E+08
 
   -0.49486E+08         0.22280E+06         0.00000E+00
    0.22280E+06        -0.97558E+08         0.00000E+00
    0.00000E+00         0.00000E+00        -0.49587E+08
 
   -0.49457E+08         0.23507E+06         0.00000E+00
    0.23507E+06        -0.97556E+08         0.00000E+00
    0.00000E+00         0.00000E+00        -0.49563E+08
 
   -0.49425E+08         0.24801E+06         0.00000E+00
    0.24801E+06        -0.97554E+08         0.00000E+00
    0.00000E+00         0.00000E+00        -0.49537E+08
 
   -0.49392E+08         0.26165E+06         0.00000E+00
    0.26165E+06        -0.97551E+08         0.00000E+00
    0.00000E+00         0.00000E+00        -0.49510E+08
 
   -0.49357E+08         0.27602E+06         0.00000E+00
    0.27602E+06        -0.97549E+08         0.00000E+00
    0.00000E+00         0.00000E+00        -0.49482E+08
 
   -0.49320E+08         0.29117E+06         0.00000E+00
    0.29117E+06        -0.97546E+08         0.00000E+00
    0.00000E+00         0.00000E+00        -0.49452E+08
 
   -0.49281E+08         0.30712E+06         0.00000E+00
    0.30712E+06        -0.97543E+08         0.00000E+00
    0.00000E+00         0.00000E+00        -0.49420E+08
 
   -0.49240E+08         0.32393E+06         0.00000E+00
    0.32393E+06        -0.97540E+08         0.00000E+00
    0.00000E+00         0.00000E+00        -0.49386E+08
 
   -0.49196E+08         0.34161E+06         0.00000E+00
    0.34161E+06        -0.97537E+08         0.00000E+00
    0.00000E+00         0.00000E+00        -0.49351E+08
 
   -0.49151E+08         0.36023E+06         0.00000E+00
    0.36023E+06        -0.97534E+08         0.00000E+00
    0.00000E+00         0.00000E+00        -0.49313E+08
 
   -0.49102E+08         0.37980E+06         0.00000E+00
    0.37980E+06        -0.97530E+08         0.00000E+00
    0.00000E+00         0.00000E+00        -0.49273E+08
 
   -0.49051E+08         0.40038E+06         0.00000E+00
    0.40038E+06        -0.97527E+08         0.00000E+00
    0.00000E+00         0.00000E+00        -0.49231E+08
 
   -0.48997E+08         0.42201E+06         0.00000E+00
    0.42201E+06        -0.97523E+08         0.00000E+00
    0.00000E+00         0.00000E+00        -0.49187E+08
 
   -0.48941E+08         0.44472E+06         0.00000E+00
    0.44472E+06        -0.97519E+08         0.00000E+00
    0.00000E+00         0.00000E+00        -0.49140E+08
 
   -0.48881E+08         0.46855E+06         0.00000E+00
    0.46855E+06        -0.97515E+08         0.00000E+00
    0.00000E+00         0.00000E+00        -0.49090E+08
 
   -0.48818E+08         0.49355E+06         0.00000E+00
    0.49355E+06        -0.97511E+08         0.00000E+00
    0.00000E+00         0.00000E+00        -0.49038E+08
 
   -0.48751E+08         0.51974E+06         0.00000E+00
    0.51974E+06        -0.97507E+08         0.00000E+00
    0.00000E+00         0.00000E+00        -0.48982E+08
 
   -0.48681E+08         0.54718E+06         0.00000E+00
    0.54718E+06        -0.97503E+08         0.00000E+00
    0.00000E+00         0.00000E+00        -0.48923E+08
 
   -0.48607E+08         0.57588E+06         0.00000E+00
    0.57588E+06        -0.97498E+08         0.00000E+00
    0.00000E+00         0.00000E+00        -0.48861E+08
 
   -0.48530E+08         0.60588E+06         0.00000E+00
    0.60588E+06        -0.97494E+08         0.00000E+00
    0.00000E+00         0.00000E+00        -0.48796E+08
 
   -0.48448E+08         0.63720E+06         0.00000E+00
    0.63720E+06        -0.97489E+08         0.00000E+00
    0.00000E+00         0.00000E+00        -0.48726E+08
 
   -0.48362E+08         0.66987E+06         0.00000E+00
    0.66987E+06        -0.97484E+08         0.00000E+00
    0.00000E+00         0.00000E+00        -0.48653E+08
 
   -0.48271E+08         0.70388E+06         0.00000E+00
    0.70388E+06        -0.97480E+08         0.00000E+00
    0.00000E+00         0.00000E+00        -0.48575E+08
 
   -0.48175E+08         0.73926E+06         0.00000E+00
    0.73926E+06        -0.97475E+08         0.00000E+00
    0.00000E+00         0.00000E+00        -0.48493E+08
 
   -0.48075E+08         0.77598E+06         0.00000E+00
    0.77598E+06        -0.97471E+08         0.00000E+00
    0.00000E+00         0.00000E+00        -0.48406E+08
 
   -0.47969E+08         0.81404E+06         0.00000E+00
    0.81404E+06        -0.97466E+08         0.00000E+00
    0.00000E+00         0.00000E+00        -0.48313E+08
 
   -0.47858E+08         0.85338E+06         0.00000E+00
    0.85338E+06        -0.97462E+08         0.00000E+00
    0.00000E+00         0.00000E+00        -0.48216E+08
 
   -0.47741E+08         0.89397E+06         0.00000E+00
    0.89397E+06        -0.97458E+08         0.00000E+00
    0.00000E+00         0.00000E+00        -0.48113E+08
 
   -0.47619E+08         0.93573E+06         0.00000E+00
    0.93573E+06        -0.97454E+08         0.00000E+00
    0.00000E+00         0.00000E+00        -0.48003E+08
 
   -0.47490E+08         0.97856E+06         0.00000E+00
    0.97856E+06        -0.97451E+08         0.00000E+00
    0.00000E+00         0.00000E+00        -0.47888E+08
 
   -0.47355E+08         0.10223E+07         0.00000E+00
    0.10223E+07        -0.97448E+08         0.00000E+00
    0.00000E+00         0.00000E+00        -0.47765E+08
 
   -0.47214E+08         0.10669E+07         0.00000E+00
    0.10669E+07        -0.97446E+08         0.00000E+00
    0.00000E+00         0.00000E+00        -0.47636E+08
 
   -0.47066E+08         0.11120E+07         0.00000E+00
    0.11120E+07        -0.97446E+08         0.00000E+00
    0.00000E+00         0.00000E+00        -0.47498E+08
 
   -0.46911E+08         0.11575E+07         0.00000E+00
    0.11575E+07        -0.97446E+08         0.00000E+00
    0.00000E+00         0.00000E+00        -0.47353E+08
 
   -0.46749E+08         0.12030E+07         0.00000E+00
    0.12030E+07        -0.97447E+08         0.00000E+00
    0.00000E+00         0.00000E+00        -0.47198E+08
 
   -0.46580E+08         0.12482E+07         0.00000E+00
    0.12482E+07        -0.97450E+08         0.00000E+00
    0.00000E+00         0.00000E+00        -0.47035E+08
 
   -0.46403E+08         0.12927E+07         0.00000E+00
    0.12927E+07        -0.97455E+08         0.00000E+00
    0.00000E+00         0.00000E+00        -0.46862E+08
 
   -0.46218E+08         0.13360E+07         0.00000E+00
    0.13360E+07        -0.97463E+08         0.00000E+00
    0.00000E+00         0.00000E+00        -0.46678E+08
 
   -0.46025E+08         0.13775E+07         0.00000E+00
    0.13775E+07        -0.97473E+08         0.00000E+00
    0.00000E+00         0.00000E+00        -0.46484E+08
 
   -0.45825E+08         0.14165E+07         0.00000E+00
    0.14165E+07        -0.97487E+08         0.00000E+00
    0.00000E+00         0.00000E+00        -0.46277E+08
 
   -0.45615E+08         0.14524E+07         0.00000E+00
    0.14524E+07        -0.97504E+08         0.00000E+00
    0.00000E+00         0.00000E+00        -0.46058E+08
 
   -0.45398E+08         0.14843E+07         0.00000E+00
    0.14843E+07        -0.97526E+08         0.00000E+00
    0.00000E+00         0.00000E+00        -0.45826E+08
 
   -0.45171E+08         0.15112E+07         0.00000E+00
    0.15112E+07        -0.97552E+08         0.00000E+00
    0.00000E+00         0.00000E+00        -0.45579E+08
 
   -0.44936E+08         0.15320E+07         0.00000E+00
    0.15320E+07        -0.97584E+08         0.00000E+00
    0.00000E+00         0.00000E+00        -0.45317E+08
 
   -0.44690E+08         0.15458E+07         0.00000E+00
    0.15458E+07        -0.97623E+08         0.00000E+00
    0.00000E+00         0.00000E+00        -0.45039E+08
 
   -0.44435E+08         0.15511E+07         0.00000E+00
    0.15511E+07        -0.97668E+08         0.00000E+00
    0.00000E+00         0.00000E+00        -0.44743E+08
 
   -0.44170E+08         0.15468E+07         0.00000E+00
    0.15468E+07        -0.97720E+08         0.00000E+00
    0.00000E+00         0.00000E+00        -0.44429E+08
 
   -0.43893E+08         0.15315E+07         0.00000E+00
    0.15315E+07        -0.97780E+08         0.00000E+00
    0.00000E+00         0.00000E+00        -0.44094E+08
 
   -0.43605E+08         0.15040E+07         0.00000E+00
    0.15040E+07        -0.97847E+08         0.00000E+00
    0.00000E+00         0.00000E+00        -0.43739E+08
 
   -0.43305E+08         0.14629E+07         0.00000E+00
    0.14629E+07        -0.97922E+08         0.00000E+00
    0.00000E+00         0.00000E+00        -0.43361E+08
 
   -0.42991E+08         0.14072E+07         0.00000E+00
    0.14072E+07        -0.98002E+08         0.00000E+00
    0.00000E+00         0.00000E+00        -0.42958E+08
 
   -0.42664E+08         0.13361E+07         0.00000E+00
    0.13361E+07        -0.98086E+08         0.00000E+00
    0.00000E+00         0.00000E+00        -0.42529E+08
 
   -0.42322E+08         0.12492E+07         0.00000E+00
    0.12492E+07        -0.98171E+08         0.00000E+00
    0.00000E+00         0.00000E+00        -0.42072E+08
 
   -0.41965E+08         0.11467E+07         0.00000E+00
    0.11467E+07        -0.98251E+08         0.00000E+00
    0.00000E+00         0.00000E+00        -0.41584E+08
 
   -0.41594E+08         0.10295E+07         0.00000E+00
    0.10295E+07        -0.98320E+08         0.00000E+00
    0.00000E+00         0.00000E+00        -0.41065E+08
 
   -0.41210E+08         0.89970E+06         0.00000E+00
    0.89970E+06        -0.98365E+08         0.00000E+00
    0.00000E+00         0.00000E+00        -0.40511E+08
 
   -0.40819E+08         0.76047E+06         0.00000E+00
    0.76047E+06        -0.98374E+08         0.00000E+00
    0.00000E+00         0.00000E+00        -0.39920E+08
 
   -0.40427E+08         0.61636E+06         0.00000E+00
    0.61636E+06        -0.98328E+08         0.00000E+00
    0.00000E+00         0.00000E+00        -0.39290E+08
 
   -0.40047E+08         0.47324E+06         0.00000E+00
    0.47324E+06        -0.98200E+08         0.00000E+00
    0.00000E+00         0.00000E+00        -0.38617E+08
 
   -0.39698E+08         0.33802E+06         0.00000E+00
    0.33802E+06        -0.97963E+08         0.00000E+00
    0.00000E+00         0.00000E+00        -0.37899E+08
 
   -0.39404E+08         0.21797E+06         0.00000E+00
    0.21797E+06        -0.97584E+08         0.00000E+00
    0.00000E+00         0.00000E+00        -0.37134E+08
 
   -0.39190E+08         0.11824E+06         0.00000E+00
    0.11824E+06        -0.97036E+08         0.00000E+00
    0.00000E+00         0.00000E+00        -0.36318E+08
 
   -0.39078E+08         0.37020E+05         0.00000E+00
    0.37020E+05        -0.96303E+08         0.00000E+00
    0.00000E+00         0.00000E+00        -0.35448E+08
 
   -0.49943E+08         0.16938E+04         0.00000E+00
    0.16938E+04        -0.97599E+08         0.00000E+00
    0.00000E+00         0.00000E+00        -0.49997E+08
 
   -0.49942E+08         0.51340E+04         0.00000E+00
    0.51340E+04        -0.97594E+08         0.00000E+00
    0.00000E+00         0.00000E+00        -0.49990E+08
 
   -0.49940E+08         0.87291E+04         0.00000E+00
    0.87291E+04        -0.97590E+08         0.00000E+00
    0.00000E+00         0.00000E+00        -0.49984E+08
 
   -0.49937E+08         0.12517E+05         0.00000E+00
    0.12517E+05        -0.97587E+08         0.00000E+00
    0.00000E+00         0.00000E+00        -0.49978E+08
 
   -0.49933E+08         0.16475E+05         0.00000E+00
    0.16475E+05        -0.97586E+08         0.00000E+00
    0.00000E+00         0.00000E+00        -0.49972E+08
 
   -0.49928E+08         0.20560E+05         0.00000E+00
    0.20560E+05        -0.97585E+08         0.00000E+00
    0.00000E+00         0.00000E+00        -0.49965E+08
 
   -0.49923E+08         0.24725E+05         0.00000E+00
    0.24725E+05        -0.97584E+08         0.00000E+00
    0.00000E+00         0.00000E+00        -0.49959E+08
 
   -0.49918E+08         0.28931E+05         0.00000E+00
    0.28931E+05        -0.97584E+08         0.00000E+00
    0.00000E+00         0.00000E+00        -0.49953E+08
 
   -0.49912E+08         0.33150E+05         0.00000E+00
    0.33150E+05        -0.97584E+08         0.00000E+00
    0.00000E+00         0.00000E+00        -0.49946E+08
 
   -0.49906E+08         0.37367E+05         0.00000E+00
    0.37367E+05        -0.97584E+08         0.00000E+00
    0.00000E+00         0.00000E+00        -0.49940E+08
 
   -0.49899E+08         0.41576E+05         0.00000E+00
    0.41576E+05        -0.97584E+08         0.00000E+00
    0.00000E+00         0.00000E+00        -0.49933E+08
 
   -0.49892E+08         0.45779E+05         0.00000E+00
    0.45779E+05        -0.97584E+08         0.00000E+00
    0.00000E+00         0.00000E+00        -0.49926E+08
 
   -0.49884E+08         0.49984E+05         0.00000E+00
    0.49984E+05        -0.97585E+08         0.00000E+00
    0.00000E+00         0.00000E+00        -0.49919E+08
 
   -0.49877E+08         0.54206E+05         0.00000E+00
    0.54206E+05        -0.97585E+08         0.00000E+00
    0.00000E+00         0.00000E+00        -0.49911E+08
 
   -0.49868E+08         0.58462E+05         0.00000E+00
    0.58462E+05        -0.97585E+08         0.00000E+00
    0.00000E+00         0.00000E+00        -0.49904E+08
 
   -0.49860E+08         0.62770E+05         0.00000E+00
    0.62770E+05        -0.97585E+08         0.00000E+00
    0.00000E+00         0.00000E+00        -0.49896E+08
 
   -0.49850E+08         0.67153E+05         0.00000E+00
    0.67153E+05        -0.97585E+08         0.00000E+00
    0.00000E+00         0.00000E+00        -0.49888E+08
 
   -0.49840E+08         0.71631E+05         0.00000E+00
    0.71631E+05        -0.97584E+08         0.00000E+00
    0.00000E+00         0.00000E+00        -0.49879E+08
 
   -0.49830E+08         0.76228E+05         0.00000E+00
    0.76228E+05        -0.97584E+08         0.00000E+00
    0.00000E+00         0.00000E+00        -0.49871E+08
 
   -0.49819E+08         0.80967E+05         0.00000E+00
    0.80967E+05        -0.97583E+08         0.00000E+00
    0.00000E+00         0.00000E+00        -0.49861E+08
 
   -0.49808E+08         0.85870E+05         0.00000E+00
    0.85870E+05        -0.97583E+08         0.00000E+00
    0.00000E+00         0.00000E+00        -0.49852E+08
 
   -0.49796E+08         0.90960E+05         0.00000E+00
    0.90960E+05        -0.97582E+08         0.00000E+00
    0.00000E+00         0.00000E+00        -0.49842E+08
 
   -0.49783E+08         0.96260E+05         0.00000E+00
    0.96260E+05        -0.97582E+08         0.00000E+00
    0.00000E+00         0.00000E+00        -0.49831E+08
 
   -0.49769E+08         0.10179E+06         0.00000E+00
    0.10179E+06        -0.97581E+08         0.00000E+00
    0.00000E+00         0.00000E+00        -0.49820E+08
 
   -0.49755E+08         0.10758E+06         0.00000E+00
    0.10758E+06        -0.97580E+08         0.00000E+00
    0.00000E+00         0.00000E+00        -0.49808E+08
 
   -0.49740E+08         0.11365E+06         0.00000E+00
    0.11365E+06        -0.97579E+08         0.00000E+00
    0.00000E+00         0.00000E+00        -0.49796E+08
 
   -0.49724E+08         0.12002E+06         0.00000E+00
    0.12002E+06        -0.97578E+08         0.00000E+00
    0.00000E+00         0.00000E+00        -0.49783E+08
 
   -0.49708E+08         0.12671E+06         0.00000E+00
    0.12671E+06        -0.97577E+08         0.00000E+00
    0.00000E+00         0.00000E+00        -0.49770E+08
 
   -0.49690E+08         0.13376E+06         0.00000E+00
    0.13376E+06        -0.97576E+08         0.00000E+00
    0.00000E+00         0.00000E+00        -0.49755E+08
 
   -0.49672E+08         0.14117E+06         0.00000E+00
    0.14117E+06        -0.97574E+08         0.00000E+00
    0.00000E+00         0.00000E+00        -0.49740E+08
 
   -0.49652E+08         0.14899E+06         0.00000E+00
    0.14899E+06        -0.97573E+08         0.00000E+00
    0.00000E+00         0.00000E+00        -0.49725E+08
 
   -0.49631E+08         0.15722E+06         0.00000E+00
    0.15722E+06        -0.97571E+08         0.00000E+00
    0.00000E+00         0.00000E+00        -0.49708E+08
 
   -0.49609E+08         0.16590E+06         0.00000E+00
    0.16590E+06        -0.97570E+08         0.00000E+00
    0.00000E+00         0.00000E+00        -0.49690E+08
 
   -0.49586E+08         0.17506E+06         0.00000E+00
    0.17506E+06        -0.97568E+08         0.00000E+00
    0.00000E+00         0.00000E+00        -0.49672E+08
 
   -0.49562E+08         0.18471E+06         0.00000E+00
    0.18471E+06        -0.97567E+08         0.00000E+00
    0.00000E+00         0.00000E+00        -0.49652E+08
 
   -0.49536E+08         0.19490E+06         0.00000E+00
    0.19490E+06        -0.97565E+08         0.00000E+00
    0.00000E+00         0.00000E+00        -0.49632E+08
 
   -0.49509E+08         0.20564E+06         0.00000E+00
    0.20564E+06        -0.97563E+08         0.00000E+00
    0.00000E+00         0.00000E+00        -0.49610E+08
 
   -0.49481E+08         0.21697E+06         0.00000E+00
    0.21697E+06        -0.97561E+08         0.00000E+00
    0.00000E+00         0.00000E+00        -0.49587E+08
 
   -0.49451E+08         0.22892E+06         0.00000E+00
    0.22892E+06        -0.97559E+08         0.00000E+00
    0.00000E+00         0.00000E+00        -0.49563E+08
 
   -0.49419E+08         0.24151E+06         0.00000E+00
    0.24151E+06        -0.97556E+08         0.00000E+00
    0.00000E+00         0.00000E+00        -0.49537E+08
 
   -0.49385E+08         0.25479E+06         0.00000E+00
    0.25479E+06        -0.97554E+08         0.00000E+00
    0.00000E+00         0.00000E+00        -0.49510E+08
 
   -0.49350E+08         0.26879E+06         0.00000E+00
    0.26879E+06        -0.97552E+08         0.00000E+00
    0.00000E+00         0.00000E+00        -0.49482E+08
 
   -0.49313E+08         0.28354E+06         0.00000E+00
    0.28354E+06        -0.97549E+08         0.00000E+00
    0.00000E+00         0.00000E+00        -0.49452E+08
 
   -0.49273E+08         0.29907E+06         0.00000E+00
    0.29907E+06        -0.97546E+08         0.00000E+00
    0.00000E+00         0.00000E+00        -0.49420E+08
 
   -0.49232E+08         0.31543E+06         0.00000E+00
    0.31543E+06        -0.97543E+08         0.00000E+00
    0.00000E+00         0.00000E+00        -0.49386E+08
 
   -0.49188E+08         0.33265E+06         0.00000E+00
    0.33265E+06        -0.97540E+08         0.00000E+00
    0.00000E+00         0.00000E+00        -0.49350E+08
 
   -0.49142E+08         0.35077E+06         0.00000E+00
    0.35077E+06        -0.97537E+08         0.00000E+00
    0.00000E+00         0.00000E+00        -0.49313E+08
 
   -0.49093E+08         0.36983E+06         0.00000E+00
    0.36983E+06        -0.97534E+08         0.00000E+00
    0.00000E+00         0.00000E+00        -0.49273E+08
 
   -0.49041E+08         0.38986E+06         0.00000E+00
    0.38986E+06        -0.97531E+08         0.00000E+00
    0.00000E+00         0.00000E+00        -0.49231E+08
 
   -0.48987E+08         0.41091E+06         0.00000E+00
    0.41091E+06        -0.97527E+08         0.00000E+00
    0.00000E+00         0.00000E+00        -0.49187E+08
 
   -0.48930E+08         0.43301E+06         0.00000E+00
    0.43301E+06        -0.97524E+08         0.00000E+00
    0.00000E+00         0.00000E+00        -0.49140E+08
 
   -0.48869E+08         0.45621E+06         0.00000E+00
    0.45621E+06        -0.97520E+08         0.00000E+00
    0.00000E+00         0.00000E+00        -0.49090E+08
 
   -0.48806E+08         0.48054E+06         0.00000E+00
    0.48054E+06        -0.97516E+08         0.00000E+00
    0.00000E+00         0.00000E+00        -0.49038E+08
 
   -0.48739E+08         0.50603E+06         0.00000E+00
    0.50603E+06        -0.97512E+08         0.00000E+00
    0.00000E+00         0.00000E+00        -0.48982E+08
 
   -0.48668E+08         0.53273E+06         0.00000E+00
    0.53273E+06        -0.97508E+08         0.00000E+00
    0.00000E+00         0.00000E+00        -0.48923E+08
 
   -0.48593E+08         0.56066E+06         0.00000E+00
    0.56066E+06        -0.97504E+08         0.00000E+00
    0.00000E+00         0.00000E+00        -0.48861E+08
 
   -0.48515E+08         0.58985E+06         0.00000E+00
    0.58985E+06        -0.97500E+08         0.00000E+00
    0.00000E+00         0.00000E+00        -0.48796E+08
 
   -0.48432E+08         0.62032E+06         0.00000E+00
    0.62032E+06        -0.97495E+08         0.00000E+00
    0.00000E+00         0.00000E+00        -0.48726E+08
 
   -0.48345E+08         0.65209E+06         0.00000E+00
    0.65209E+06        -0.97491E+08         0.00000E+00
    0.00000E+00         0.00000E+00        -0.48653E+08
 
   -0.48254E+08         0.68518E+06         0.00000E+00
    0.68518E+06        -0.97487E+08         0.00000E+00
    0.00000E+00         0.00000E+00        -0.48575E+08
 
   -0.48157E+08         0.71959E+06         0.00000E+00
    0.71959E+06        -0.97482E+08         0.00000E+00
    0.00000E+00         0.00000E+00        -0.48493E+08
 
   -0.48056E+08         0.75530E+06         0.00000E+00
    0.75530E+06        -0.97478E+08         0.00000E+00
    0.00000E+00         0.00000E+00        -0.48405E+08
 
   -0.47950E+08         0.79229E+06         0.00000E+00
    0.79229E+06        -0.97474E+08         0.00000E+00
    0.00000E+00         0.00000E+00        -0.48313E+08
 
   -0.47838E+08         0.83054E+06         0.00000E+00
    0.83054E+06        -0.97470E+08         0.00000E+00
    0.00000E+00         0.00000E+00        -0.48216E+08
 
   -0.47720E+08         0.86999E+06         0.00000E+00
    0.86999E+06        -0.97466E+08         0.00000E+00
    0.00000E+00         0.00000E+00        -0.48113E+08
 
   -0.47597E+08         0.91056E+06         0.00000E+00
    0.91056E+06        -0.97463E+08         0.00000E+00
    0.00000E+00         0.00000E+00        -0.48003E+08
 
   -0.47468E+08         0.95216E+06         0.00000E+00
    0.95216E+06        -0.97460E+08         0.00000E+00
    0.00000E+00         0.00000E+00        -0.47888E+08
 
   -0.47332E+08         0.99465E+06         0.00000E+00
    0.99465E+06        -0.97457E+08         0.00000E+00
    0.00000E+00         0.00000E+00        -0.47765E+08
 
   -0.47190E+08         0.10379E+07         0.00000E+00
    0.10379E+07        -0.97455E+08         0.00000E+00
    0.00000E+00         0.00000E+00        -0.47635E+08
 
   -0.47041E+08         0.10817E+07         0.00000E+00
    0.10817E+07        -0.97454E+08         0.00000E+00
    0.00000E+00         0.00000E+00        -0.47498E+08
 
   -0.46886E+08         0.11257E+07         0.00000E+00
    0.11257E+07        -0.97455E+08         0.00000E+00
    0.00000E+00         0.00000E+00        -0.47352E+08
 
   -0.46723E+08         0.11698E+07         0.00000E+00
    0.11698E+07        -0.97456E+08         0.00000E+00
    0.00000E+00         0.00000E+00        -0.47198E+08
 
   -0.46553E+08         0.12136E+07         0.00000E+00
    0.12136E+07        -0.97459E+08         0.00000E+00
    0.00000E+00         0.00000E+00        -0.47035E+08
 
   -0.46376E+08         0.12565E+07         0.00000E+00
    0.12565E+07        -0.97464E+08         0.00000E+00
    0.00000E+00         0.00000E+00        -0.46862E+08
 
   -0.46191E+08         0.12983E+07         0.00000E+00
    0.12983E+07        -0.97471E+08         0.00000E+00
    0.00000E+00         0.00000E+00        -0.46678E+08
 
   -0.45998E+08         0.13382E+07         0.00000E+00
    0.13382E+07        -0.97481E+08         0.00000E+00
    0.00000E+00         0.00000E+00        -0.46483E+08
 
   -0.45798E+08         0.13756E+07         0.00000E+00
    0.13756E+07        -0.97494E+08         0.00000E+00
    0.00000E+00         0.00000E+00        -0.46277E+08
 
   -0.45589E+08         0.14098E+07         0.00000E+00
    0.14098E+07        -0.97511E+08         0.00000E+00
    0.00000E+00         0.00000E+00        -0.46058E+08
 
   -0.45372E+08         0.14400E+07         0.00000E+00
    0.14400E+07        -0.97531E+08         0.00000E+00
    0.00000E+00         0.00000E+00        -0.45825E+08
 
   -0.45146E+08         0.14651E+07         0.00000E+00
    0.14651E+07        -0.97557E+08         0.00000E+00
    0.00000E+00         0.00000E+00        -0.45579E+08
 
   -0.44912E+08         0.14842E+07         0.00000E+00
    0.14842E+07        -0.97587E+08         0.00000E+00
    0.00000E+00         0.00000E+00        -0.45317E+08
 
   -0.44669E+08         0.14960E+07         0.00000E+00
    0.14960E+07        -0.97624E+08         0.00000E+00
    0.00000E+00         0.00000E+00        -0.45038E+08
 
   -0.44416E+08         0.14994E+07         0.00000E+00
    0.14994E+07        -0.97668E+08         0.00000E+00
    0.00000E+00         0.00000E+00        -0.44743E+08
 
   -0.44154E+08         0.14930E+07         0.00000E+00
    0.14930E+07        -0.97718E+08         0.00000E+00
    0.00000E+00         0.00000E+00        -0.44428E+08
 
   -0.43881E+08         0.14755E+07         0.00000E+00
    0.14755E+07        -0.97775E+08         0.00000E+00
    0.00000E+00         0.00000E+00        -0.44094E+08
 
   -0.43598E+08         0.14456E+07         0.00000E+00
    0.14456E+07        -0.97840E+08         0.00000E+00
    0.00000E+00         0.00000E+00        -0.43739E+08
 
   -0.43303E+08         0.14021E+07         0.00000E+00
    0.14021E+07        -0.97912E+08         0.00000E+00
    0.00000E+00         0.00000E+00        -0.43360E+08
 
   -0.42996E+08         0.13438E+07         0.00000E+00
    0.13438E+07        -0.97989E+08         0.00000E+00
    0.00000E+00         0.00000E+00        -0.42958E+08
 
   -0.42676E+08         0.12699E+07         0.00000E+00
    0.12699E+07        -0.98070E+08         0.00000E+00
    0.00000E+00         0.00000E+00        -0.42529E+08
 
   -0.42342E+08         0.11802E+07         0.00000E+00
    0.11802E+07        -0.98152E+08         0.00000E+00
    0.00000E+00         0.00000E+00        -0.42072E+08
 
   -0.41995E+08         0.10749E+07         0.00000E+00
    0.10749E+07        -0.98229E+08         0.00000E+00
    0.00000E+00         0.00000E+00        -0.41585E+08
 
   -0.41636E+08         0.95508E+06         0.00000E+00
    0.95508E+06        -0.98295E+08         0.00000E+00
    0.00000E+00         0.00000E+00        -0.41065E+08
 
   -0.41265E+08         0.82321E+06         0.00000E+00
    0.82321E+06        -0.98338E+08         0.00000E+00
    0.00000E+00         0.00000E+00        -0.40511E+08
 
   -0.40887E+08         0.68302E+06         0.00000E+00
    0.68302E+06        -0.98346E+08         0.00000E+00
    0.00000E+00         0.00000E+00        -0.39920E+08
 
   -0.40509E+08         0.53990E+06         0.00000E+00
    0.53990E+06        -0.98299E+08         0.00000E+00
    0.00000E+00         0.00000E+00        -0.39290E+08
 
   -0.40144E+08         0.40082E+06         0.00000E+00
    0.40082E+06        -0.98173E+08         0.00000E+00
    0.00000E+00         0.00000E+00        -0.38617E+08
 
   -0.39808E+08         0.27394E+06         0.00000E+00
    0.27394E+06        -0.97938E+08         0.00000E+00
    0.00000E+00         0.00000E+00        -0.37900E+08
 
   -0.39527E+08         0.16734E+06         0.00000E+00
    0.16734E+06        -0.97563E+08         0.00000E+00
    0.00000E+00         0.00000E+00        -0.37135E+08
 
   -0.39322E+08         0.85801E+05         0.00000E+00
    0.85801E+05        -0.97020E+08         0.00000E+00
    0.00000E+00         0.00000E+00        -0.36318E+08
 
   -0.39215E+08         0.25871E+05         0.00000E+00
    0.25871E+05        -0.96291E+08         0.00000E+00
    0.00000E+00         0.00000E+00        -0.35449E+08
 
   -0.49941E+08         0.15791E+04         0.00000E+00
    0.15791E+04        -0.97600E+08         0.00000E+00
    0.00000E+00         0.00000E+00        -0.49997E+08
 
   -0.49940E+08         0.47965E+04         0.00000E+00
    0.47965E+04        -0.97594E+08         0.00000E+00
    0.00000E+00         0.00000E+00        -0.49990E+08
 
   -0.49938E+08         0.81891E+04         0.00000E+00
    0.81891E+04        -0.97591E+08         0.00000E+00
    0.00000E+00         0.00000E+00        -0.49984E+08
 
   -0.49935E+08         0.11805E+05         0.00000E+00
    0.11805E+05        -0.97588E+08         0.00000E+00
    0.00000E+00         0.00000E+00        -0.49978E+08
 
   -0.49931E+08         0.15624E+05         0.00000E+00
    0.15624E+05        -0.97586E+08         0.00000E+00
    0.00000E+00         0.00000E+00        -0.49972E+08
 
   -0.49926E+08         0.19597E+05         0.00000E+00
    0.19597E+05        -0.97585E+08         0.00000E+00
    0.00000E+00         0.00000E+00        -0.49965E+08
 
   -0.49921E+08         0.23668E+05         0.00000E+00
    0.23668E+05        -0.97585E+08         0.00000E+00
    0.00000E+00         0.00000E+00        -0.49959E+08
 
   -0.49916E+08         0.27791E+05         0.00000E+00
    0.27791E+05        -0.97585E+08         0.00000E+00
    0.00000E+00         0.00000E+00        -0.49953E+08
 
   -0.49910E+08         0.31934E+05         0.00000E+00
    0.31934E+05        -0.97585E+08         0.00000E+00
    0.00000E+00         0.00000E+00        -0.49946E+08
 
   -0.49904E+08         0.36076E+05         0.00000E+00
    0.36076E+05        -0.97585E+08         0.00000E+00
    0.00000E+00         0.00000E+00        -0.49940E+08
 
   -0.49897E+08         0.40208E+05         0.00000E+00
    0.40208E+05        -0.97585E+08         0.00000E+00
    0.00000E+00         0.00000E+00        -0.49933E+08
 
   -0.49890E+08         0.44331E+05         0.00000E+00
    0.44331E+05        -0.97585E+08         0.00000E+00
    0.00000E+00         0.00000E+00        -0.49926E+08
 
   -0.49883E+08         0.48454E+05         0.00000E+00
    0.48454E+05        -0.97585E+08         0.00000E+00
    0.00000E+00         0.00000E+00        -0.49919E+08
 
   -0.49875E+08         0.52589E+05         0.00000E+00
    0.52589E+05        -0.97586E+08         0.00000E+00
    0.00000E+00         0.00000E+00        -0.49911E+08
 
   -0.49866E+08         0.56754E+05         0.00000E+00
    0.56754E+05        -0.97586E+08         0.00000E+00
    0.00000E+00         0.00000E+00        -0.49904E+08
 
   -0.49858E+08         0.60966E+05         0.00000E+00
    0.60966E+05        -0.97586E+08         0.00000E+00
    0.00000E+00         0.00000E+00        -0.49896E+08
 
   -0.49848E+08         0.65247E+05         0.00000E+00
    0.65247E+05        -0.97585E+08         0.00000E+00
    0.00000E+00         0.00000E+00        -0.49888E+08
 
   -0.49839E+08         0.69619E+05         0.00000E+00
    0.69619E+05        -0.97585E+08         0.00000E+00
    0.00000E+00         0.00000E+00        -0.49879E+08
 
   -0.49828E+08         0.74103E+05         0.00000E+00
    0.74103E+05        -0.97585E+08         0.00000E+00
    0.00000E+00         0.00000E+00        -0.49870E+08
 
   -0.49817E+08         0.78724E+05         0.00000E+00
    0.78724E+05        -0.97584E+08         0.00000E+00
    0.00000E+00         0.00000E+00        -0.49861E+08
 
   -0.49806E+08         0.83502E+05         0.00000E+00
    0.83502E+05        -0.97584E+08         0.00000E+00
    0.00000E+00         0.00000E+00        -0.49852E+08
 
   -0.49793E+08         0.88461E+05         0.00000E+00
    0.88461E+05        -0.97583E+08         0.00000E+00
    0.00000E+00         0.00000E+00        -0.49842E+08
 
   -0.49781E+08         0.93623E+05         0.00000E+00
    0.93623E+05        -0.97583E+08         0.00000E+00
    0.00000E+00         0.00000E+00        -0.49831E+08
 
   -0.49767E+08         0.99011E+05         0.00000E+00
    0.99011E+05        -0.97582E+08         0.00000E+00
    0.00000E+00         0.00000E+00        -0.49820E+08
 
   -0.49753E+08         0.10465E+06         0.00000E+00
    0.10465E+06        -0.97581E+08         0.00000E+00
    0.00000E+00         0.00000E+00        -0.49808E+08
 
   -0.49737E+08         0.11055E+06         0.00000E+00
    0.11055E+06        -0.97580E+08         0.00000E+00
    0.00000E+00         0.00000E+00        -0.49796E+08
 
   -0.49721E+08         0.11675E+06         0.00000E+00
    0.11675E+06        -0.97579E+08         0.00000E+00
    0.00000E+00         0.00000E+00        -0.49783E+08
 
   -0.49705E+08         0.12327E+06         0.00000E+00
    0.12327E+06        -0.97578E+08         0.00000E+00
    0.00000E+00         0.00000E+00        -0.49770E+08
 
   -0.49687E+08         0.13012E+06         0.00000E+00
    0.13012E+06        -0.97577E+08         0.00000E+00
    0.00000E+00         0.00000E+00        -0.49755E+08
 
   -0.49668E+08         0.13734E+06         0.00000E+00
    0.13734E+06        -0.97576E+08         0.00000E+00
    0.00000E+00         0.00000E+00        -0.49740E+08
 
   -0.49648E+08         0.14494E+06         0.00000E+00
    0.14494E+06        -0.97575E+08         0.00000E+00
    0.00000E+00         0.00000E+00        -0.49725E+08
 
   -0.49627E+08         0.15295E+06         0.00000E+00
    0.15295E+06        -0.97573E+08         0.00000E+00
    0.00000E+00         0.00000E+00        -0.49708E+08
 
   -0.49605E+08         0.16140E+06         0.00000E+00
    0.16140E+06        -0.97572E+08         0.00000E+00
    0.00000E+00         0.00000E+00        -0.49690E+08
 
   -0.49582E+08         0.17030E+06         0.00000E+00
    0.17030E+06        -0.97570E+08         0.00000E+00
    0.00000E+00         0.00000E+00        -0.49672E+08
 
   -0.49557E+08         0.17970E+06         0.00000E+00
    0.17970E+06        -0.97569E+08         0.00000E+00
    0.00000E+00         0.00000E+00        -0.49652E+08
 
   -0.49532E+08         0.18961E+06         0.00000E+00
    0.18961E+06        -0.97567E+08         0.00000E+00
    0.00000E+00         0.00000E+00        -0.49632E+08
 
   -0.49504E+08         0.20006E+06         0.00000E+00
    0.20006E+06        -0.97565E+08         0.00000E+00
    0.00000E+00         0.00000E+00        -0.49610E+08
 
   -0.49475E+08         0.21108E+06         0.00000E+00
    0.21108E+06        -0.97563E+08         0.00000E+00
    0.00000E+00         0.00000E+00        -0.49587E+08
 
   -0.49445E+08         0.22270E+06         0.00000E+00
    0.22270E+06        -0.97561E+08         0.00000E+00
    0.00000E+00         0.00000E+00        -0.49563E+08
 
   -0.49413E+08         0.23495E+06         0.00000E+00
    0.23495E+06        -0.97559E+08         0.00000E+00
    0.00000E+00         0.00000E+00        -0.49537E+08
 
   -0.49379E+08         0.24787E+06         0.00000E+00
    0.24787E+06        -0.97557E+08         0.00000E+00
    0.00000E+00         0.00000E+00        -0.49510E+08
 
   -0.49343E+08         0.26149E+06         0.00000E+00
    0.26149E+06        -0.97554E+08         0.00000E+00
    0.00000E+00         0.00000E+00        -0.49482E+08
 
   -0.49306E+08         0.27583E+06         0.00000E+00
    0.27583E+06        -0.97552E+08         0.00000E+00
    0.00000E+00         0.00000E+00        -0.49452E+08
 
   -0.49266E+08         0.29094E+06         0.00000E+00
    0.29094E+06        -0.97549E+08         0.00000E+00
    0.00000E+00         0.00000E+00        -0.49420E+08
 
   -0.49224E+08         0.30685E+06         0.00000E+00
    0.30685E+06        -0.97547E+08         0.00000E+00
    0.00000E+00         0.00000E+00        -0.49386E+08
 
   -0.49180E+08         0.32360E+06         0.00000E+00
    0.32360E+06        -0.97544E+08         0.00000E+00
    0.00000E+00         0.00000E+00        -0.49350E+08
 
   -0.49133E+08         0.34122E+06         0.00000E+00
    0.34122E+06        -0.97541E+08         0.00000E+00
    0.00000E+00         0.00000E+00        -0.49313E+08
 
   -0.49084E+08         0.35975E+06         0.00000E+00
    0.35975E+06        -0.97538E+08         0.00000E+00
    0.00000E+00         0.00000E+00        -0.49273E+08
 
   -0.49032E+08         0.37924E+06         0.00000E+00
    0.37924E+06        -0.97535E+08         0.00000E+00
    0.00000E+00         0.00000E+00        -0.49231E+08
 
   -0.48977E+08         0.39970E+06         0.00000E+00
    0.39970E+06        -0.97532E+08         0.00000E+00
    0.00000E+00         0.00000E+00        -0.49187E+08
 
   -0.48919E+08         0.42120E+06         0.00000E+00
    0.42120E+06        -0.97528E+08         0.00000E+00
    0.00000E+00         0.00000E+00        -0.49140E+08
 
   -0.48858E+08         0.44375E+06         0.00000E+00
    0.44375E+06        -0.97525E+08         0.00000E+00
    0.00000E+00         0.00000E+00        -0.49090E+08
 
   -0.48794E+08         0.46741E+06         0.00000E+00
    0.46741E+06        -0.97521E+08         0.00000E+00
    0.00000E+00         0.00000E+00        -0.49037E+08
 
   -0.48726E+08         0.49220E+06         0.00000E+00
    0.49220E+06        -0.97517E+08         0.00000E+00
    0.00000E+00         0.00000E+00        -0.48982E+08
 
   -0.48655E+08         0.51815E+06         0.00000E+00
    0.51815E+06        -0.97514E+08         0.00000E+00
    0.00000E+00         0.00000E+00        -0.48923E+08
 
   -0.48580E+08         0.54530E+06         0.00000E+00
    0.54530E+06        -0.97510E+08         0.00000E+00
    0.00000E+00         0.00000E+00        -0.48861E+08
 
   -0.48500E+08         0.57367E+06         0.00000E+00
    0.57367E+06        -0.97506E+08         0.00000E+00
    0.00000E+00         0.00000E+00        -0.48795E+08
 
   -0.48417E+08         0.60329E+06         0.00000E+00
    0.60329E+06        -0.97502E+08         0.00000E+00
    0.00000E+00         0.00000E+00        -0.48726E+08
 
   -0.48329E+08         0.63418E+06         0.00000E+00
    0.63418E+06        -0.97497E+08         0.00000E+00
    0.00000E+00         0.00000E+00        -0.48652E+08
 
   -0.48237E+08         0.66633E+06         0.00000E+00
    0.66633E+06        -0.97493E+08         0.00000E+00
    0.00000E+00         0.00000E+00        -0.48575E+08
 
   -0.48140E+08         0.69976E+06         0.00000E+00
    0.69976E+06        -0.97489E+08         0.00000E+00
    0.00000E+00         0.00000E+00        -0.48492E+08
 
   -0.48038E+08         0.73445E+06         0.00000E+00
    0.73445E+06        -0.97485E+08         0.00000E+00
    0.00000E+00         0.00000E+00        -0.48405E+08
 
   -0.47931E+08         0.77039E+06         0.00000E+00
    0.77039E+06        -0.97481E+08         0.00000E+00
    0.00000E+00         0.00000E+00        -0.48313E+08
 
   -0.47818E+08         0.80754E+06         0.00000E+00
    0.80754E+06        -0.97477E+08         0.00000E+00
    0.00000E+00         0.00000E+00        -0.48216E+08
 
   -0.47700E+08         0.84584E+06         0.00000E+00
    0.84584E+06        -0.97474E+08         0.00000E+00
    0.00000E+00         0.00000E+00        -0.48112E+08
 
   -0.47576E+08         0.88522E+06         0.00000E+00
    0.88522E+06        -0.97471E+08         0.00000E+00
    0.00000E+00         0.00000E+00        -0.48003E+08
 
   -0.47445E+08         0.92559E+06         0.00000E+00
    0.92559E+06        -0.97468E+08         0.00000E+00
    0.00000E+00         0.00000E+00        -0.47887E+08
 
   -0.47309E+08         0.96682E+06         0.00000E+00
    0.96682E+06        -0.97466E+08         0.00000E+00
    0.00000E+00         0.00000E+00        -0.47765E+08
 
   -0.47166E+08         0.10088E+07         0.00000E+00
    0.10088E+07        -0.97464E+08         0.00000E+00
    0.00000E+00         0.00000E+00        -0.47635E+08
 
   -0.47017E+08         0.10512E+07         0.00000E+00
    0.10512E+07        -0.97463E+08         0.00000E+00
    0.00000E+00         0.00000E+00        -0.47498E+08
 
   -0.46861E+08         0.10939E+07         0.00000E+00
    0.10939E+07        -0.97463E+08         0.00000E+00
    0.00000E+00         0.00000E+00        -0.47352E+08
 
   -0.46697E+08         0.11365E+07         0.00000E+00
    0.11365E+07        -0.97465E+08         0.00000E+00
    0.00000E+00         0.00000E+00        -0.47198E+08
 
   -0.46527E+08         0.11788E+07         0.00000E+00
    0.11788E+07        -0.97468E+08         0.00000E+00
    0.00000E+00         0.00000E+00        -0.47035E+08
 
   -0.46349E+08         0.12203E+07         0.00000E+00
    0.12203E+07        -0.97472E+08         0.00000E+00
    0.00000E+00         0.00000E+00        -0.46861E+08
 
   -0.46164E+08         0.12605E+07         0.00000E+00
    0.12605E+07        -0.97479E+08         0.00000E+00
    0.00000E+00         0.00000E+00        -0.46678E+08
 
   -0.45971E+08         0.12989E+07         0.00000E+00
    0.12989E+07        -0.97489E+08         0.00000E+00
    0.00000E+00         0.00000E+00        -0.46483E+08
 
   -0.45771E+08         0.13347E+07         0.00000E+00
    0.13347E+07        -0.97501E+08         0.00000E+00
    0.00000E+00         0.00000E+00        -0.46277E+08
 
   -0.45562E+08         0.13673E+07         0.00000E+00
    0.13673E+07        -0.97517E+08         0.00000E+00
    0.00000E+00         0.00000E+00        -0.46057E+08
 
   -0.45346E+08         0.13958E+07         0.00000E+00
    0.13958E+07        -0.97537E+08         0.00000E+00
    0.00000E+00         0.00000E+00        -0.45825E+08
 
   -0.45121E+08         0.14193E+07         0.00000E+00
    0.14193E+07        -0.97561E+08         0.00000E+00
    0.00000E+00         0.00000E+00        -0.45578E+08
 
   -0.44888E+08         0.14366E+07         0.00000E+00
    0.14366E+07        -0.97590E+08         0.00000E+00
    0.00000E+00         0.00000E+00        -0.45316E+08
 
   -0.44647E+08         0.14466E+07         0.00000E+00
    0.14466E+07        -0.97626E+08         0.00000E+00
    0.00000E+00         0.00000E+00        -0.45038E+08
 
   -0.44397E+08         0.14482E+07         0.00000E+00
    0.14482E+07        -0.97667E+08         0.00000E+00
    0.00000E+00         0.00000E+00        -0.44742E+08
 
   -0.44137E+08         0.14399E+07         0.00000E+00
    0.14399E+07        -0.97715E+08         0.00000E+00
    0.00000E+00         0.00000E+00        -0.44428E+08
 
   -0.43869E+08         0.14204E+07         0.00000E+00
    0.14204E+07        -0.97771E+08         0.00000E+00
    0.00000E+00         0.00000E+00        -0.44094E+08
 
   -0.43590E+08         0.13883E+07         0.00000E+00
    0.13883E+07        -0.97833E+08         0.00000E+00
    0.00000E+00         0.00000E+00        -0.43738E+08
 
   -0.43300E+08         0.13425E+07         0.00000E+00
    0.13425E+07        -0.97901E+08         0.00000E+00
    0.00000E+00         0.00000E+00        -0.43360E+08
 
   -0.43000E+08         0.12818E+07         0.00000E+00
    0.12818E+07        -0.97976E+08         0.00000E+00
    0.00000E+00         0.00000E+00        -0.42958E+08
 
   -0.42687E+08         0.12054E+07         0.00000E+00
    0.12054E+07        -0.98054E+08         0.00000E+00
    0.00000E+00         0.00000E+00        -0.42529E+08
 
   -0.42363E+08         0.11131E+07         0.00000E+00
    0.11131E+07        -0.98132E+08         0.00000E+00
    0.00000E+00         0.00000E+00        -0.42072E+08
 
   -0.42026E+08         0.10052E+07         0.00000E+00
    0.10052E+07        -0.98206E+08         0.00000E+00
    0.00000E+00         0.00000E+00        -0.41585E+08
 
   -0.41678E+08         0.88303E+06         0.00000E+00
    0.88303E+06        -0.98269E+08         0.00000E+00
    0.00000E+00         0.00000E+00        -0.41065E+08
 
   -0.41319E+08         0.74934E+06         0.00000E+00
    0.74934E+06        -0.98311E+08         0.00000E+00
    0.00000E+00         0.00000E+00        -0.40512E+08
 
   -0.40955E+08         0.60838E+06         0.00000E+00
    0.60838E+06        -0.98317E+08         0.00000E+00
    0.00000E+00         0.00000E+00        -0.39921E+08
 
   -0.40592E+08         0.46633E+06         0.00000E+00
    0.46633E+06        -0.98270E+08         0.00000E+00
    0.00000E+00         0.00000E+00        -0.39291E+08
 
   -0.40240E+08         0.33124E+06         0.00000E+00
    0.33124E+06        -0.98146E+08         0.00000E+00
    0.00000E+00         0.00000E+00        -0.38618E+08
 
   -0.39919E+08         0.21244E+06         0.00000E+00
    0.21244E+06        -0.97915E+08         0.00000E+00
    0.00000E+00         0.00000E+00        -0.37901E+08
 
   -0.39648E+08         0.11875E+06         0.00000E+00
    0.11875E+06        -0.97546E+08         0.00000E+00
    0.00000E+00         0.00000E+00        -0.37135E+08
 
   -0.39452E+08         0.54639E+05         0.00000E+00
    0.54639E+05        -0.97009E+08         0.00000E+00
    0.00000E+00         0.00000E+00        -0.36319E+08
 
   -0.39348E+08         0.15149E+05         0.00000E+00
    0.15149E+05        -0.96282E+08         0.00000E+00
    0.00000E+00         0.00000E+00        -0.35449E+08
 
   -0.49939E+08         0.14664E+04         0.00000E+00
    0.14664E+04        -0.97600E+08         0.00000E+00
    0.00000E+00         0.00000E+00        -0.49997E+08
 
   -0.49938E+08         0.44653E+04         0.00000E+00
    0.44653E+04        -0.97595E+08         0.00000E+00
    0.00000E+00         0.00000E+00        -0.49990E+08
 
   -0.49936E+08         0.76597E+04         0.00000E+00
    0.76597E+04        -0.97591E+08         0.00000E+00
    0.00000E+00         0.00000E+00        -0.49984E+08
 
   -0.49933E+08         0.11106E+05         0.00000E+00
    0.11106E+05        -0.97589E+08         0.00000E+00
    0.00000E+00         0.00000E+00        -0.49978E+08
 
   -0.49929E+08         0.14788E+05         0.00000E+00
    0.14788E+05        -0.97587E+08         0.00000E+00
    0.00000E+00         0.00000E+00        -0.49972E+08
 
   -0.49924E+08         0.18648E+05         0.00000E+00
    0.18648E+05        -0.97586E+08         0.00000E+00
    0.00000E+00         0.00000E+00        -0.49965E+08
 
   -0.49919E+08         0.22625E+05         0.00000E+00
    0.22625E+05        -0.97586E+08         0.00000E+00
    0.00000E+00         0.00000E+00        -0.49959E+08
 
   -0.49914E+08         0.26664E+05         0.00000E+00
    0.26664E+05        -0.97586E+08         0.00000E+00
    0.00000E+00         0.00000E+00        -0.49953E+08
 
   -0.49908E+08         0.30727E+05         0.00000E+00
    0.30727E+05        -0.97586E+08         0.00000E+00
    0.00000E+00         0.00000E+00        -0.49946E+08
 
   -0.49902E+08         0.34790E+05         0.00000E+00
    0.34790E+05        -0.97586E+08         0.00000E+00
    0.00000E+00         0.00000E+00        -0.49940E+08
 
   -0.49895E+08         0.38843E+05         0.00000E+00
    0.38843E+05        -0.97586E+08         0.00000E+00
    0.00000E+00         0.00000E+00        -0.49933E+08
 
   -0.49888E+08         0.42885E+05         0.00000E+00
    0.42885E+05        -0.97586E+08         0.00000E+00
    0.00000E+00         0.00000E+00        -0.49926E+08
 
   -0.49881E+08         0.46923E+05         0.00000E+00
    0.46923E+05        -0.97586E+08         0.00000E+00
    0.00000E+00         0.00000E+00        -0.49919E+08
 
   -0.49873E+08         0.50968E+05         0.00000E+00
    0.50968E+05        -0.97586E+08         0.00000E+00
    0.00000E+00         0.00000E+00        -0.49911E+08
 
   -0.49865E+08         0.55039E+05         0.00000E+00
    0.55039E+05        -0.97586E+08         0.00000E+00
    0.00000E+00         0.00000E+00        -0.49904E+08
 
   -0.49856E+08         0.59152E+05         0.00000E+00
    0.59152E+05        -0.97586E+08         0.00000E+00
    0.00000E+00         0.00000E+00        -0.49896E+08
 
   -0.49846E+08         0.63330E+05         0.00000E+00
    0.63330E+05        -0.97586E+08         0.00000E+00
    0.00000E+00         0.00000E+00        -0.49888E+08
 
   -0.49837E+08         0.67592E+05         0.00000E+00
    0.67592E+05        -0.97586E+08         0.00000E+00
    0.00000E+00         0.00000E+00        -0.49879E+08
 
   -0.49826E+08         0.71963E+05         0.00000E+00
    0.71963E+05        -0.97586E+08         0.00000E+00
    0.00000E+00         0.00000E+00        -0.49870E+08
 
   -0.49815E+08         0.76463E+05         0.00000E+00
    0.76463E+05        -0.97585E+08         0.00000E+00
    0.00000E+00         0.00000E+00        -0.49861E+08
 
   -0.49803E+08         0.81114E+05         0.00000E+00
    0.81114E+05        -0.97585E+08         0.00000E+00
    0.00000E+00         0.00000E+00        -0.49852E+08
 
   -0.49791E+08         0.85941E+05         0.00000E+00
    0.85941E+05        -0.97584E+08         0.00000E+00
    0.00000E+00         0.00000E+00        -0.49841E+08
 
   -0.49778E+08         0.90963E+05         0.00000E+00
    0.90963E+05        -0.97584E+08         0.00000E+00
    0.00000E+00         0.00000E+00        -0.49831E+08
 
   -0.49764E+08         0.96204E+05         0.00000E+00
    0.96204E+05        -0.97583E+08         0.00000E+00
    0.00000E+00         0.00000E+00        -0.49820E+08
 
   -0.49750E+08         0.10168E+06         0.00000E+00
    0.10168E+06        -0.97582E+08         0.00000E+00
    0.00000E+00         0.00000E+00        -0.49808E+08
 
   -0.49735E+08         0.10743E+06         0.00000E+00
    0.10743E+06        -0.97581E+08         0.00000E+00
    0.00000E+00         0.00000E+00        -0.49796E+08
 
   -0.49718E+08         0.11346E+06         0.00000E+00
    0.11346E+06        -0.97580E+08         0.00000E+00
    0.00000E+00         0.00000E+00        -0.49783E+08
 
   -0.49701E+08         0.11979E+06         0.00000E+00
    0.11979E+06        -0.97579E+08         0.00000E+00
    0.00000E+00         0.00000E+00        -0.49770E+08
 
   -0.49683E+08         0.12645E+06         0.00000E+00
    0.12645E+06        -0.97578E+08         0.00000E+00
    0.00000E+00         0.00000E+00        -0.49755E+08
 
   -0.49665E+08         0.13346E+06         0.00000E+00
    0.13346E+06        -0.97577E+08         0.00000E+00
    0.00000E+00         0.00000E+00        -0.49740E+08
 
   -0.49645E+08         0.14085E+06         0.00000E+00
    0.14085E+06        -0.97576E+08         0.00000E+00
    0.00000E+00         0.00000E+00        -0.49725E+08
 
   -0.49623E+08         0.14864E+06         0.00000E+00
    0.14864E+06        -0.97575E+08         0.00000E+00
    0.00000E+00         0.00000E+00        -0.49708E+08
 
   -0.49601E+08         0.15685E+06         0.00000E+00
    0.15685E+06        -0.97573E+08         0.00000E+00
    0.00000E+00         0.00000E+00        -0.49690E+08
 
   -0.49578E+08         0.16550E+06         0.00000E+00
    0.16550E+06        -0.97572E+08         0.00000E+00
    0.00000E+00         0.00000E+00        -0.49672E+08
 
   -0.49553E+08         0.17463E+06         0.00000E+00
    0.17463E+06        -0.97570E+08         0.00000E+00
    0.00000E+00         0.00000E+00        -0.49652E+08
 
   -0.49527E+08         0.18426E+06         0.00000E+00
    0.18426E+06        -0.97569E+08         0.00000E+00
    0.00000E+00         0.00000E+00        -0.49632E+08
 
   -0.49499E+08         0.19442E+06         0.00000E+00
    0.19442E+06        -0.97567E+08         0.00000E+00
    0.00000E+00         0.00000E+00        -0.49610E+08
 
   -0.49470E+08         0.20513E+06         0.00000E+00
    0.20513E+06        -0.97565E+08         0.00000E+00
    0.00000E+00         0.00000E+00        -0.49587E+08
 
   -0.49439E+08         0.21642E+06         0.00000E+00
    0.21642E+06        -0.97563E+08         0.00000E+00
    0.00000E+00         0.00000E+00        -0.49563E+08
 
   -0.49407E+08         0.22833E+06         0.00000E+00
    0.22833E+06        -0.97561E+08         0.00000E+00
    0.00000E+00         0.00000E+00        -0.49537E+08
 
   -0.49373E+08         0.24088E+06         0.00000E+00
    0.24088E+06        -0.97559E+08         0.00000E+00
    0.00000E+00         0.00000E+00        -0.49510E+08
 
   -0.49337E+08         0.25411E+06         0.00000E+00
    0.25411E+06        -0.97557E+08         0.00000E+00
    0.00000E+00         0.00000E+00        -0.49482E+08
 
   -0.49299E+08         0.26805E+06         0.00000E+00
    0.26805E+06        -0.97555E+08         0.00000E+00
    0.00000E+00         0.00000E+00        -0.49451E+08
 
   -0.49258E+08         0.28273E+06         0.00000E+00
    0.28273E+06        -0.97552E+08         0.00000E+00
    0.00000E+00         0.00000E+00        -0.49420E+08
 
   -0.49216E+08         0.29819E+06         0.00000E+00
    0.29819E+06        -0.97550E+08         0.00000E+00
    0.00000E+00         0.00000E+00        -0.49386E+08
 
   -0.49171E+08         0.31446E+06         0.00000E+00
    0.31446E+06        -0.97547E+08         0.00000E+00
    0.00000E+00         0.00000E+00        -0.49350E+08
 
   -0.49124E+08         0.33158E+06         0.00000E+00
    0.33158E+06        -0.97545E+08         0.00000E+00
    0.00000E+00         0.00000E+00        -0.49313E+08
 
   -0.49074E+08         0.34959E+06         0.00000E+00
    0.34959E+06        -0.97542E+08         0.00000E+00
    0.00000E+00         0.00000E+00        -0.49273E+08
 
   -0.49022E+08         0.36851E+06         0.00000E+00
    0.36851E+06        -0.97539E+08         0.00000E+00
    0.00000E+00         0.00000E+00        -0.49231E+08
 
   -0.48967E+08         0.38840E+06         0.00000E+00
    0.38840E+06        -0.97536E+08         0.00000E+00
    0.00000E+00         0.00000E+00        -0.49187E+08
 
   -0.48908E+08         0.40928E+06         0.00000E+00
    0.40928E+06        -0.97533E+08         0.00000E+00
    0.00000E+00         0.00000E+00        -0.49140E+08
 
   -0.48847E+08         0.43119E+06         0.00000E+00
    0.43119E+06        -0.97529E+08         0.00000E+00
    0.00000E+00         0.00000E+00        -0.49090E+08
 
   -0.48782E+08         0.45416E+06         0.00000E+00
    0.45416E+06        -0.97526E+08         0.00000E+00
    0.00000E+00         0.00000E+00        -0.49037E+08
 
   -0.48714E+08         0.47824E+06         0.00000E+00
    0.47824E+06        -0.97522E+08         0.00000E+00
    0.00000E+00         0.00000E+00        -0.48982E+08
 
   -0.48642E+08         0.50344E+06         0.00000E+00
    0.50344E+06        -0.97519E+08         0.00000E+00
    0.00000E+00         0.00000E+00        -0.48923E+08
 
   -0.48566E+08         0.52981E+06         0.00000E+00
    0.52981E+06        -0.97515E+08         0.00000E+00
    0.00000E+00         0.00000E+00        -0.48861E+08
 
   -0.48486E+08         0.55736E+06         0.00000E+00
    0.55736E+06        -0.97511E+08         0.00000E+00
    0.00000E+00         0.00000E+00        -0.48795E+08
 
   -0.48402E+08         0.58613E+06         0.00000E+00
    0.58613E+06        -0.97507E+08         0.00000E+00
    0.00000E+00         0.00000E+00        -0.48726E+08
 
   -0.48314E+08         0.61611E+06         0.00000E+00
    0.61611E+06        -0.97504E+08         0.00000E+00
    0.00000E+00         0.00000E+00        -0.48652E+08
 
   -0.48221E+08         0.64733E+06         0.00000E+00
    0.64733E+06        -0.97500E+08         0.00000E+00
    0.00000E+00         0.00000E+00        -0.48574E+08
 
   -0.48123E+08         0.67978E+06         0.00000E+00
    0.67978E+06        -0.97496E+08         0.00000E+00
    0.00000E+00         0.00000E+00        -0.48492E+08
 
   -0.48020E+08         0.71345E+06         0.00000E+00
    0.71345E+06        -0.97492E+08         0.00000E+00
    0.00000E+00         0.00000E+00        -0.48405E+08
 
   -0.47912E+08         0.74833E+06         0.00000E+00
    0.74833E+06        -0.97488E+08         0.00000E+00
    0.00000E+00         0.00000E+00        -0.48313E+08
 
   -0.47798E+08         0.78437E+06         0.00000E+00
    0.78437E+06        -0.97485E+08         0.00000E+00
    0.00000E+00         0.00000E+00        -0.48215E+08
 
   -0.47679E+08         0.82153E+06         0.00000E+00
    0.82153E+06        -0.97482E+08         0.00000E+00
    0.00000E+00         0.00000E+00        -0.48112E+08
 
   -0.47554E+08         0.85973E+06         0.00000E+00
    0.85973E+06        -0.97479E+08         0.00000E+00
    0.00000E+00         0.00000E+00        -0.48003E+08
 
   -0.47423E+08         0.89887E+06         0.00000E+00
    0.89887E+06        -0.97476E+08         0.00000E+00
    0.00000E+00         0.00000E+00        -0.47887E+08
 
   -0.47286E+08         0.93884E+06         0.00000E+00
    0.93884E+06        -0.97474E+08         0.00000E+00
    0.00000E+00         0.00000E+00        -0.47765E+08
 
   -0.47143E+08         0.97946E+06         0.00000E+00
    0.97946E+06        -0.97472E+08         0.00000E+00
    0.00000E+00         0.00000E+00        -0.47635E+08
 
   -0.46992E+08         0.10206E+07         0.00000E+00
    0.10206E+07        -0.97471E+08         0.00000E+00
    0.00000E+00         0.00000E+00        -0.47497E+08
 
   -0.46836E+08         0.10619E+07         0.00000E+00
    0.10619E+07        -0.97472E+08         0.00000E+00
    0.00000E+00         0.00000E+00        -0.47352E+08
 
   -0.46672E+08         0.11031E+07         0.00000E+00
    0.11031E+07        -0.97473E+08         0.00000E+00
    0.00000E+00         0.00000E+00        -0.47198E+08
 
   -0.46501E+08         0.11440E+07         0.00000E+00
    0.11440E+07        -0.97476E+08         0.00000E+00
    0.00000E+00         0.00000E+00        -0.47034E+08
 
   -0.46323E+08         0.11840E+07         0.00000E+00
    0.11840E+07        -0.97480E+08         0.00000E+00
    0.00000E+00         0.00000E+00        -0.46861E+08
 
   -0.46137E+08         0.12227E+07         0.00000E+00
    0.12227E+07        -0.97487E+08         0.00000E+00
    0.00000E+00         0.00000E+00        -0.46677E+08
 
   -0.45944E+08         0.12595E+07         0.00000E+00
    0.12595E+07        -0.97496E+08         0.00000E+00
    0.00000E+00         0.00000E+00        -0.46483E+08
 
   -0.45744E+08         0.12939E+07         0.00000E+00
    0.12939E+07        -0.97508E+08         0.00000E+00
    0.00000E+00         0.00000E+00        -0.46276E+08
 
   -0.45536E+08         0.13249E+07         0.00000E+00
    0.13249E+07        -0.97523E+08         0.00000E+00
    0.00000E+00         0.00000E+00        -0.46057E+08
 
   -0.45320E+08         0.13518E+07         0.00000E+00
    0.13518E+07        -0.97542E+08         0.00000E+00
    0.00000E+00         0.00000E+00        -0.45825E+08
 
   -0.45096E+08         0.13736E+07         0.00000E+00
    0.13736E+07        -0.97565E+08         0.00000E+00
    0.00000E+00         0.00000E+00        -0.45578E+08
 
   -0.44865E+08         0.13893E+07         0.00000E+00
    0.13893E+07        -0.97593E+08         0.00000E+00
    0.00000E+00         0.00000E+00        -0.45316E+08
 
   -0.44625E+08         0.13977E+07         0.00000E+00
    0.13977E+07        -0.97627E+08         0.00000E+00
    0.00000E+00         0.00000E+00        -0.45038E+08
 
   -0.44377E+08         0.13975E+07         0.00000E+00
    0.13975E+07        -0.97666E+08         0.00000E+00
    0.00000E+00         0.00000E+00        -0.44742E+08
 
   -0.44121E+08         0.13874E+07         0.00000E+00
    0.13874E+07        -0.97712E+08         0.00000E+00
    0.00000E+00         0.00000E+00        -0.44428E+08
 
   -0.43856E+08         0.13660E+07         0.00000E+00
    0.13660E+07        -0.97765E+08         0.00000E+00
    0.00000E+00         0.00000E+00        -0.44094E+08
 
   -0.43581E+08         0.13320E+07         0.00000E+00
    0.13320E+07        -0.97825E+08         0.00000E+00
    0.00000E+00         0.00000E+00        -0.43738E+08
 
   -0.43297E+08         0.12841E+07         0.00000E+00
    0.12841E+07        -0.97891E+08         0.00000E+00
    0.00000E+00         0.00000E+00        -0.43360E+08
 
   -0.43003E+08         0.12212E+07         0.00000E+00
    0.12212E+07        -0.97962E+08         0.00000E+00
    0.00000E+00         0.00000E+00        -0.42957E+08
 
   -0.42699E+08         0.11426E+07         0.00000E+00
    0.11426E+07        -0.98037E+08         0.00000E+00
    0.00000E+00         0.00000E+00        -0.42529E+08
 
   -0.42383E+08         0.10479E+07         0.00000E+00
    0.10479E+07        -0.98112E+08         0.00000E+00
    0.00000E+00         0.00000E+00        -0.42072E+08
 
   -0.42057E+08         0.93767E+06         0.00000E+00
    0.93767E+06        -0.98183E+08         0.00000E+00
    0.00000E+00         0.00000E+00        -0.41585E+08
 
   -0.41720E+08         0.81342E+06         0.00000E+00
    0.81342E+06        -0.98243E+08         0.00000E+00
    0.00000E+00         0.00000E+00        -0.41066E+08
 
   -0.41375E+08         0.67812E+06         0.00000E+00
    0.67812E+06        -0.98283E+08         0.00000E+00
    0.00000E+00         0.00000E+00        -0.40512E+08
 
   -0.41024E+08         0.53655E+06         0.00000E+00
    0.53655E+06        -0.98289E+08         0.00000E+00
    0.00000E+00         0.00000E+00        -0.39921E+08
 
   -0.40675E+08         0.39562E+06         0.00000E+00
    0.39562E+06        -0.98243E+08         0.00000E+00
    0.00000E+00         0.00000E+00        -0.39291E+08
 
   -0.40337E+08         0.26440E+06         0.00000E+00
    0.26440E+06        -0.98121E+08         0.00000E+00
    0.00000E+00         0.00000E+00        -0.38619E+08
 
   -0.40028E+08         0.15335E+06         0.00000E+00
    0.15335E+06        -0.97895E+08         0.00000E+00
    0.00000E+00         0.00000E+00        -0.37901E+08
 
   -0.39768E+08         0.72010E+05         0.00000E+00
    0.72010E+05        -0.97531E+08         0.00000E+00
    0.00000E+00         0.00000E+00        -0.37136E+08
 
   -0.39579E+08         0.24597E+05         0.00000E+00
    0.24597E+05        -0.97000E+08         0.00000E+00
    0.00000E+00         0.00000E+00        -0.36319E+08
 
   -0.39479E+08         0.47931E+04         0.00000E+00
    0.47931E+04        -0.96278E+08         0.00000E+00
    0.00000E+00         0.00000E+00        -0.35449E+08
 
   -0.49937E+08         0.13554E+04         0.00000E+00
    0.13554E+04        -0.97601E+08         0.00000E+00
    0.00000E+00         0.00000E+00        -0.49997E+08
 
   -0.49936E+08         0.41395E+04         0.00000E+00
    0.41395E+04        -0.97596E+08         0.00000E+00
    0.00000E+00         0.00000E+00        -0.49990E+08
 
   -0.49933E+08         0.71396E+04         0.00000E+00
    0.71396E+04        -0.97592E+08         0.00000E+00
    0.00000E+00         0.00000E+00        -0.49984E+08
 
   -0.49930E+08         0.10421E+05         0.00000E+00
    0.10421E+05        -0.97590E+08         0.00000E+00
    0.00000E+00         0.00000E+00        -0.49978E+08
 
   -0.49927E+08         0.13966E+05         0.00000E+00
    0.13966E+05        -0.97588E+08         0.00000E+00
    0.00000E+00         0.00000E+00        -0.49972E+08
 
   -0.49922E+08         0.17715E+05         0.00000E+00
    0.17715E+05        -0.97587E+08         0.00000E+00
    0.00000E+00         0.00000E+00        -0.49965E+08
 
   -0.49917E+08         0.21596E+05         0.00000E+00
    0.21596E+05        -0.97586E+08         0.00000E+00
    0.00000E+00         0.00000E+00        -0.49959E+08
 
   -0.49912E+08         0.25548E+05         0.00000E+00
    0.25548E+05        -0.97586E+08         0.00000E+00
    0.00000E+00         0.00000E+00        -0.49953E+08
 
   -0.49906E+08         0.29530E+05         0.00000E+00
    0.29530E+05        -0.97586E+08         0.00000E+00
    0.00000E+00         0.00000E+00        -0.49946E+08
 
   -0.49900E+08         0.33512E+05         0.00000E+00
    0.33512E+05        -0.97587E+08         0.00000E+00
    0.00000E+00         0.00000E+00        -0.49940E+08
 
   -0.49894E+08         0.37483E+05         0.00000E+00
    0.37483E+05        -0.97587E+08         0.00000E+00
    0.00000E+00         0.00000E+00        -0.49933E+08
 
   -0.49887E+08         0.41440E+05         0.00000E+00
    0.41440E+05        -0.97587E+08         0.00000E+00
    0.00000E+00         0.00000E+00        -0.49926E+08
 
   -0.49879E+08         0.45390E+05         0.00000E+00
    0.45390E+05        -0.97587E+08         0.00000E+00
    0.00000E+00         0.00000E+00        -0.49919E+08
 
   -0.49871E+08         0.49343E+05         0.00000E+00
    0.49343E+05        -0.97587E+08         0.00000E+00
    0.00000E+00         0.00000E+00        -0.49911E+08
 
   -0.49863E+08         0.53317E+05         0.00000E+00
    0.53317E+05        -0.97587E+08         0.00000E+00
    0.00000E+00         0.00000E+00        -0.49904E+08
 
   -0.49854E+08         0.57330E+05         0.00000E+00
    0.57330E+05        -0.97587E+08         0.00000E+00
    0.00000E+00         0.00000E+00        -0.49896E+08
 
   -0.49845E+08         0.61401E+05         0.00000E+00
    0.61401E+05        -0.97587E+08         0.00000E+00
    0.00000E+00         0.00000E+00        -0.49888E+08
 
   -0.49835E+08         0.65553E+05         0.00000E+00
    0.65553E+05        -0.97587E+08         0.00000E+00
    0.00000E+00         0.00000E+00        -0.49879E+08
 
   -0.49824E+08         0.69807E+05         0.00000E+00
    0.69807E+05        -0.97587E+08         0.00000E+00
    0.00000E+00         0.00000E+00        -0.49870E+08
 
   -0.49813E+08         0.74184E+05         0.00000E+00
    0.74184E+05        -0.97586E+08         0.00000E+00
    0.00000E+00         0.00000E+00        -0.49861E+08
 
   -0.49801E+08         0.78708E+05         0.00000E+00
    0.78708E+05        -0.97586E+08         0.00000E+00
    0.00000E+00         0.00000E+00        -0.49852E+08
 
   -0.49789E+08         0.83399E+05         0.00000E+00
    0.83399E+05        -0.97585E+08         0.00000E+00
    0.00000E+00         0.00000E+00        -0.49841E+08
 
   -0.49776E+08         0.88279E+05         0.00000E+00
    0.88279E+05        -0.97585E+08         0.00000E+00
    0.00000E+00         0.00000E+00        -0.49831E+08
 
   -0.49762E+08         0.93371E+05         0.00000E+00
    0.93371E+05        -0.97584E+08         0.00000E+00
    0.00000E+00         0.00000E+00        -0.49820E+08
 
   -0.49747E+08         0.98695E+05         0.00000E+00
    0.98695E+05        -0.97583E+08         0.00000E+00
    0.00000E+00         0.00000E+00        -0.49808E+08
 
   -0.49732E+08         0.10427E+06         0.00000E+00
    0.10427E+06        -0.97583E+08         0.00000E+00
    0.00000E+00         0.00000E+00        -0.49796E+08
 
   -0.49716E+08         0.11013E+06         0.00000E+00
    0.11013E+06        -0.97582E+08         0.00000E+00
    0.00000E+00         0.00000E+00        -0.49783E+08
 
   -0.49698E+08         0.11628E+06         0.00000E+00
    0.11628E+06        -0.97581E+08         0.00000E+00
    0.00000E+00         0.00000E+00        -0.49770E+08
 
   -0.49680E+08         0.12274E+06         0.00000E+00
    0.12274E+06        -0.97580E+08         0.00000E+00
    0.00000E+00         0.00000E+00        -0.49755E+08
 
   -0.49661E+08         0.12955E+06         0.00000E+00
    0.12955E+06        -0.97579E+08         0.00000E+00
    0.00000E+00         0.00000E+00        -0.49740E+08
 
   -0.49641E+08         0.13673E+06         0.00000E+00
    0.13673E+06        -0.97578E+08         0.00000E+00
    0.00000E+00         0.00000E+00        -0.49724E+08
 
   -0.49620E+08         0.14429E+06         0.00000E+00
    0.14429E+06        -0.97576E+08         0.00000E+00
    0.00000E+00         0.00000E+00        -0.49708E+08
 
   -0.49597E+08         0.15226E+06         0.00000E+00
    0.15226E+06        -0.97575E+08         0.00000E+00
    0.00000E+00         0.00000E+00        -0.49690E+08
 
   -0.49573E+08         0.16066E+06         0.00000E+00
    0.16066E+06        -0.97574E+08         0.00000E+00
    0.00000E+00         0.00000E+00        -0.49672E+08
 
   -0.49548E+08         0.16952E+06         0.00000E+00
    0.16952E+06        -0.97572E+08         0.00000E+00
    0.00000E+00         0.00000E+00        -0.49652E+08
 
   -0.49522E+08         0.17887E+06         0.00000E+00
    0.17887E+06        -0.97571E+08         0.00000E+00
    0.00000E+00         0.00000E+00        -0.49632E+08
 
   -0.49494E+08         0.18872E+06         0.00000E+00
    0.18872E+06        -0.97569E+08         0.00000E+00
    0.00000E+00         0.00000E+00        -0.49610E+08
 
   -0.49465E+08         0.19912E+06         0.00000E+00
    0.19912E+06        -0.97567E+08         0.00000E+00
    0.00000E+00         0.00000E+00        -0.49587E+08
 
   -0.49434E+08         0.21008E+06         0.00000E+00
    0.21008E+06        -0.97566E+08         0.00000E+00
    0.00000E+00         0.00000E+00        -0.49563E+08
 
   -0.49401E+08         0.22164E+06         0.00000E+00
    0.22164E+06        -0.97564E+08         0.00000E+00
    0.00000E+00         0.00000E+00        -0.49537E+08
 
   -0.49367E+08         0.23382E+06         0.00000E+00
    0.23382E+06        -0.97562E+08         0.00000E+00
    0.00000E+00         0.00000E+00        -0.49510E+08
 
   -0.49330E+08         0.24666E+06         0.00000E+00
    0.24666E+06        -0.97560E+08         0.00000E+00
    0.00000E+00         0.00000E+00        -0.49482E+08
 
   -0.49292E+08         0.26019E+06         0.00000E+00
    0.26019E+06        -0.97558E+08         0.00000E+00
    0.00000E+00         0.00000E+00        -0.49451E+08
 
   -0.49251E+08         0.27444E+06         0.00000E+00
    0.27444E+06        -0.97555E+08         0.00000E+00
    0.00000E+00         0.00000E+00        -0.49420E+08
 
   -0.49208E+08         0.28944E+06         0.00000E+00
    0.28944E+06        -0.97553E+08         0.00000E+00
    0.00000E+00         0.00000E+00        -0.49386E+08
 
   -0.49163E+08         0.30524E+06         0.00000E+00
    0.30524E+06        -0.97551E+08         0.00000E+00
    0.00000E+00         0.00000E+00        -0.49350E+08
 
   -0.49116E+08         0.32185E+06         0.00000E+00
    0.32185E+06        -0.97548E+08         0.00000E+00
    0.00000E+00         0.00000E+00        -0.49313E+08
 
   -0.49065E+08         0.33932E+06         0.00000E+00
    0.33932E+06        -0.97545E+08         0.00000E+00
    0.00000E+00         0.00000E+00        -0.49273E+08
 
   -0.49012E+08         0.35769E+06         0.00000E+00
    0.35769E+06        -0.97543E+08         0.00000E+00
    0.00000E+00         0.00000E+00        -0.49231E+08
 
   -0.48957E+08         0.37698E+06         0.00000E+00
    0.37698E+06        -0.97540E+08         0.00000E+00
    0.00000E+00         0.00000E+00        -0.49186E+08
 
   -0.48898E+08         0.39725E+06         0.00000E+00
    0.39725E+06        -0.97537E+08         0.00000E+00
    0.00000E+00         0.00000E+00        -0.49139E+08
 
   -0.48836E+08         0.41850E+06         0.00000E+00
    0.41850E+06        -0.97534E+08         0.00000E+00
    0.00000E+00         0.00000E+00        -0.49090E+08
 
   -0.48770E+08         0.44080E+06         0.00000E+00
    0.44080E+06        -0.97531E+08         0.00000E+00
    0.00000E+00         0.00000E+00        -0.49037E+08
 
   -0.48701E+08         0.46416E+06         0.00000E+00
    0.46416E+06        -0.97527E+08         0.00000E+00
    0.00000E+00         0.00000E+00        -0.48982E+08
 
   -0.48629E+08         0.48861E+06         0.00000E+00
    0.48861E+06        -0.97524E+08         0.00000E+00
    0.00000E+00         0.00000E+00        -0.48923E+08
 
   -0.48552E+08         0.51419E+06         0.00000E+00
    0.51419E+06        -0.97520E+08         0.00000E+00
    0.00000E+00         0.00000E+00        -0.48861E+08
 
   -0.48472E+08         0.54092E+06         0.00000E+00
    0.54092E+06        -0.97517E+08         0.00000E+00
    0.00000E+00         0.00000E+00        -0.48795E+08
 
   -0.48387E+08         0.56882E+06         0.00000E+00
    0.56882E+06        -0.97513E+08         0.00000E+00
    0.00000E+00         0.00000E+00        -0.48726E+08
 
   -0.48298E+08         0.59790E+06         0.00000E+00
    0.59790E+06        -0.97510E+08         0.00000E+00
    0.00000E+00         0.00000E+00        -0.48652E+08
 
   -0.48204E+08         0.62817E+06         0.00000E+00
    0.62817E+06        -0.97506E+08         0.00000E+00
    0.00000E+00         0.00000E+00        -0.48574E+08
 
   -0.48106E+08         0.65964E+06         0.00000E+00
    0.65964E+06        -0.97502E+08         0.00000E+00
    0.00000E+00         0.00000E+00        -0.48492E+08
 
   -0.48002E+08         0.69229E+06         0.00000E+00
    0.69229E+06        -0.97499E+08         0.00000E+00
    0.00000E+00         0.00000E+00        -0.48405E+08
 
   -0.47893E+08         0.72610E+06         0.00000E+00
    0.72610E+06        -0.97495E+08         0.00000E+00
    0.00000E+00         0.00000E+00        -0.48313E+08
 
   -0.47779E+08         0.76104E+06         0.00000E+00
    0.76104E+06        -0.97492E+08         0.00000E+00
    0.00000E+00         0.00000E+00        -0.48215E+08
 
   -0.47659E+08         0.79706E+06         0.00000E+00
    0.79706E+06        -0.97489E+08         0.00000E+00
    0.00000E+00         0.00000E+00        -0.48112E+08
 
   -0.47533E+08         0.83407E+06         0.00000E+00
    0.83407E+06        -0.97486E+08         0.00000E+00
    0.00000E+00         0.00000E+00        -0.48003E+08
 
   -0.47402E+08         0.87199E+06         0.00000E+00
    0.87199E+06        -0.97484E+08         0.00000E+00
    0.00000E+00         0.00000E+00        -0.47887E+08
 
   -0.47264E+08         0.91069E+06         0.00000E+00
    0.91069E+06        -0.97482E+08         0.00000E+00
    0.00000E+00         0.00000E+00        -0.47764E+08
 
   -0.47119E+08         0.95002E+06         0.00000E+00
    0.95002E+06        -0.97480E+08         0.00000E+00
    0.00000E+00         0.00000E+00        -0.47635E+08
 
   -0.46968E+08         0.98978E+06         0.00000E+00
    0.98978E+06        -0.97480E+08         0.00000E+00
    0.00000E+00         0.00000E+00        -0.47497E+08
 
   -0.46811E+08         0.10297E+07         0.00000E+00
    0.10297E+07        -0.97480E+08         0.00000E+00
    0.00000E+00         0.00000E+00        -0.47352E+08
 
   -0.46646E+08         0.10696E+07         0.00000E+00
    0.10696E+07        -0.97481E+08         0.00000E+00
    0.00000E+00         0.00000E+00        -0.47197E+08
 
   -0.46475E+08         0.11090E+07         0.00000E+00
    0.11090E+07        -0.97484E+08         0.00000E+00
    0.00000E+00         0.00000E+00        -0.47034E+08
 
   -0.46296E+08         0.11476E+07         0.00000E+00
    0.11476E+07        -0.97488E+08         0.00000E+00
    0.00000E+00         0.00000E+00        -0.46861E+08
 
   -0.46110E+08         0.11848E+07         0.00000E+00
    0.11848E+07        -0.97494E+08         0.00000E+00
    0.00000E+00         0.00000E+00        -0.46677E+08
 
   -0.45917E+08         0.12202E+07         0.00000E+00
    0.12202E+07        -0.97503E+08         0.00000E+00
    0.00000E+00         0.00000E+00        -0.46482E+08
 
   -0.45717E+08         0.12530E+07         0.00000E+00
    0.12530E+07        -0.97514E+08         0.00000E+00
    0.00000E+00         0.00000E+00        -0.46276E+08
 
   -0.45509E+08         0.12826E+07         0.00000E+00
    0.12826E+07        -0.97529E+08         0.00000E+00
    0.00000E+00         0.00000E+00        -0.46057E+08
 
   -0.45294E+08         0.13080E+07         0.00000E+00
    0.13080E+07        -0.97546E+08         0.00000E+00
    0.00000E+00         0.00000E+00        -0.45824E+08
 
   -0.45071E+08         0.13282E+07         0.00000E+00
    0.13282E+07        -0.97569E+08         0.00000E+00
    0.00000E+00         0.00000E+00        -0.45578E+08
 
   -0.44841E+08         0.13424E+07         0.00000E+00
    0.13424E+07        -0.97595E+08         0.00000E+00
    0.00000E+00         0.00000E+00        -0.45316E+08
 
   -0.44603E+08         0.13492E+07         0.00000E+00
    0.13492E+07        -0.97627E+08         0.00000E+00
    0.00000E+00         0.00000E+00        -0.45037E+08
 
   -0.44357E+08         0.13474E+07         0.00000E+00
    0.13474E+07        -0.97665E+08         0.00000E+00
    0.00000E+00         0.00000E+00        -0.44742E+08
 
   -0.44104E+08         0.13356E+07         0.00000E+00
    0.13356E+07        -0.97709E+08         0.00000E+00
    0.00000E+00         0.00000E+00        -0.44428E+08
 
   -0.43842E+08         0.13125E+07         0.00000E+00
    0.13125E+07        -0.97760E+08         0.00000E+00
    0.00000E+00         0.00000E+00        -0.44093E+08
 
   -0.43572E+08         0.12767E+07         0.00000E+00
    0.12767E+07        -0.97816E+08         0.00000E+00
    0.00000E+00         0.00000E+00        -0.43738E+08
 
   -0.43294E+08         0.12270E+07         0.00000E+00
    0.12270E+07        -0.97879E+08         0.00000E+00
    0.00000E+00         0.00000E+00        -0.43360E+08
 
   -0.43007E+08         0.11621E+07         0.00000E+00
    0.11621E+07        -0.97948E+08         0.00000E+00
    0.00000E+00         0.00000E+00        -0.42957E+08
 
   -0.42710E+08         0.10814E+07         0.00000E+00
    0.10814E+07        -0.98019E+08         0.00000E+00
    0.00000E+00         0.00000E+00        -0.42529E+08
 
   -0.42404E+08         0.98466E+06         0.00000E+00
    0.98466E+06        -0.98091E+08         0.00000E+00
    0.00000E+00         0.00000E+00        -0.42072E+08
 
   -0.42088E+08         0.87237E+06         0.00000E+00
    0.87237E+06        -0.98159E+08         0.00000E+00
    0.00000E+00         0.00000E+00        -0.41585E+08
 
   -0.41763E+08         0.74627E+06         0.00000E+00
    0.74627E+06        -0.98217E+08         0.00000E+00
    0.00000E+00         0.00000E+00        -0.41066E+08
 
   -0.41430E+08         0.60958E+06         0.00000E+00
    0.60958E+06        -0.98255E+08         0.00000E+00
    0.00000E+00         0.00000E+00        -0.40512E+08
 
   -0.41093E+08         0.46753E+06         0.00000E+00
    0.46753E+06        -0.98260E+08         0.00000E+00
    0.00000E+00         0.00000E+00        -0.39922E+08
 
   -0.40758E+08         0.32774E+06         0.00000E+00
    0.32774E+06        -0.98215E+08         0.00000E+00
    0.00000E+00         0.00000E+00        -0.39292E+08
 
   -0.40435E+08         0.20024E+06         0.00000E+00
    0.20024E+06        -0.98097E+08         0.00000E+00
    0.00000E+00         0.00000E+00        -0.38620E+08
 
   -0.40138E+08         0.96548E+05         0.00000E+00
    0.96548E+05        -0.97876E+08         0.00000E+00
    0.00000E+00         0.00000E+00        -0.37902E+08
 
   -0.39887E+08         0.26956E+05         0.00000E+00
    0.26956E+05        -0.97520E+08         0.00000E+00
    0.00000E+00         0.00000E+00        -0.37136E+08
 
   -0.39705E+08        -0.44602E+04         0.00000E+00
   -0.44602E+04        -0.96996E+08         0.00000E+00
    0.00000E+00         0.00000E+00        -0.36320E+08
 
   -0.39608E+08        -0.52473E+04         0.00000E+00
   -0.52473E+04        -0.96278E+08         0.00000E+00
    0.00000E+00         0.00000E+00        -0.35449E+08
 
   -0.49934E+08         0.12458E+04         0.00000E+00
    0.12458E+04        -0.97601E+08         0.00000E+00
    0.00000E+00         0.00000E+00        -0.49997E+08
 
   -0.49933E+08         0.38184E+04         0.00000E+00
    0.38184E+04        -0.97596E+08         0.00000E+00
    0.00000E+00         0.00000E+00        -0.49990E+08
 
   -0.49931E+08         0.66279E+04         0.00000E+00
    0.66279E+04        -0.97593E+08         0.00000E+00
    0.00000E+00         0.00000E+00        -0.49984E+08
 
   -0.49928E+08         0.97471E+04         0.00000E+00
    0.97471E+04        -0.97590E+08         0.00000E+00
    0.00000E+00         0.00000E+00        -0.49978E+08
 
   -0.49925E+08         0.13159E+05         0.00000E+00
    0.13159E+05        -0.97589E+08         0.00000E+00
    0.00000E+00         0.00000E+00        -0.49972E+08
 
   -0.49920E+08         0.16796E+05         0.00000E+00
    0.16796E+05        -0.97588E+08         0.00000E+00
    0.00000E+00         0.00000E+00        -0.49965E+08
 
   -0.49916E+08         0.20580E+05         0.00000E+00
    0.20580E+05        -0.97587E+08         0.00000E+00
    0.00000E+00         0.00000E+00        -0.49959E+08
 
   -0.49910E+08         0.24445E+05         0.00000E+00
    0.24445E+05        -0.97587E+08         0.00000E+00
    0.00000E+00         0.00000E+00        -0.49953E+08
 
   -0.49905E+08         0.28342E+05         0.00000E+00
    0.28342E+05        -0.97587E+08         0.00000E+00
    0.00000E+00         0.00000E+00        -0.49946E+08
 
   -0.49898E+08         0.32241E+05         0.00000E+00
    0.32241E+05        -0.97587E+08         0.00000E+00
    0.00000E+00         0.00000E+00        -0.49940E+08
 
   -0.49892E+08         0.36127E+05         0.00000E+00
    0.36127E+05        -0.97588E+08         0.00000E+00
    0.00000E+00         0.00000E+00        -0.49933E+08
 
   -0.49885E+08         0.39997E+05         0.00000E+00
    0.39997E+05        -0.97588E+08         0.00000E+00
    0.00000E+00         0.00000E+00        -0.49926E+08
 
   -0.49878E+08         0.43856E+05         0.00000E+00
    0.43856E+05        -0.97588E+08         0.00000E+00
    0.00000E+00         0.00000E+00        -0.49919E+08
 
   -0.49870E+08         0.47715E+05         0.00000E+00
    0.47715E+05        -0.97588E+08         0.00000E+00
    0.00000E+00         0.00000E+00        -0.49911E+08
 
   -0.49861E+08         0.51590E+05         0.00000E+00
    0.51590E+05        -0.97588E+08         0.00000E+00
    0.00000E+00         0.00000E+00        -0.49904E+08
 
   -0.49852E+08         0.55499E+05         0.00000E+00
    0.55499E+05        -0.97588E+08         0.00000E+00
    0.00000E+00         0.00000E+00        -0.49896E+08
 
   -0.49843E+08         0.59462E+05         0.00000E+00
    0.59462E+05        -0.97588E+08         0.00000E+00
    0.00000E+00         0.00000E+00        -0.49888E+08
 
   -0.49833E+08         0.63500E+05         0.00000E+00
    0.63500E+05        -0.97588E+08         0.00000E+00
    0.00000E+00         0.00000E+00        -0.49879E+08
 
   -0.49822E+08         0.67635E+05         0.00000E+00
    0.67635E+05        -0.97587E+08         0.00000E+00
    0.00000E+00         0.00000E+00        -0.49870E+08
 
   -0.49811E+08         0.71889E+05         0.00000E+00
    0.71889E+05        -0.97587E+08         0.00000E+00
    0.00000E+00         0.00000E+00        -0.49861E+08
 
   -0.49799E+08         0.76282E+05         0.00000E+00
    0.76282E+05        -0.97587E+08         0.00000E+00
    0.00000E+00         0.00000E+00        -0.49852E+08
 
   -0.49787E+08         0.80836E+05         0.00000E+00
    0.80836E+05        -0.97586E+08         0.00000E+00
    0.00000E+00         0.00000E+00        -0.49841E+08
 
   -0.49773E+08         0.85573E+05         0.00000E+00
    0.85573E+05        -0.97586E+08         0.00000E+00
    0.00000E+00         0.00000E+00        -0.49831E+08
 
   -0.49759E+08         0.90513E+05         0.00000E+00
    0.90513E+05        -0.97585E+08         0.00000E+00
    0.00000E+00         0.00000E+00        -0.49820E+08
 
   -0.49745E+08         0.95678E+05         0.00000E+00
    0.95678E+05        -0.97584E+08         0.00000E+00
    0.00000E+00         0.00000E+00        -0.49808E+08
 
   -0.49729E+08         0.10109E+06         0.00000E+00
    0.10109E+06        -0.97584E+08         0.00000E+00
    0.00000E+00         0.00000E+00        -0.49796E+08
 
   -0.49713E+08         0.10677E+06         0.00000E+00
    0.10677E+06        -0.97583E+08         0.00000E+00
    0.00000E+00         0.00000E+00        -0.49783E+08
 
   -0.49695E+08         0.11273E+06         0.00000E+00
    0.11273E+06        -0.97582E+08         0.00000E+00
    0.00000E+00         0.00000E+00        -0.49769E+08
 
   -0.49677E+08         0.11900E+06         0.00000E+00
    0.11900E+06        -0.97581E+08         0.00000E+00
    0.00000E+00         0.00000E+00        -0.49755E+08
 
   -0.49658E+08         0.12561E+06         0.00000E+00
    0.12561E+06        -0.97580E+08         0.00000E+00
    0.00000E+00         0.00000E+00        -0.49740E+08
 
   -0.49637E+08         0.13256E+06         0.00000E+00
    0.13256E+06        -0.97579E+08         0.00000E+00
    0.00000E+00         0.00000E+00        -0.49724E+08
 
   -0.49616E+08         0.13989E+06         0.00000E+00
    0.13989E+06        -0.97578E+08         0.00000E+00
    0.00000E+00         0.00000E+00        -0.49708E+08
 
   -0.49593E+08         0.14762E+06         0.00000E+00
    0.14762E+06        -0.97577E+08         0.00000E+00
    0.00000E+00         0.00000E+00        -0.49690E+08
 
   -0.49569E+08         0.15577E+06         0.00000E+00
    0.15577E+06        -0.97575E+08         0.00000E+00
    0.00000E+00         0.00000E+00        -0.49672E+08
 
   -0.49544E+08         0.16436E+06         0.00000E+00
    0.16436E+06        -0.97574E+08         0.00000E+00
    0.00000E+00         0.00000E+00        -0.49652E+08
 
   -0.49517E+08         0.17342E+06         0.00000E+00
    0.17342E+06        -0.97573E+08         0.00000E+00
    0.00000E+00         0.00000E+00        -0.49632E+08
 
   -0.49489E+08         0.18298E+06         0.00000E+00
    0.18298E+06        -0.97571E+08         0.00000E+00
    0.00000E+00         0.00000E+00        -0.49610E+08
 
   -0.49460E+08         0.19306E+06         0.00000E+00
    0.19306E+06        -0.97570E+08         0.00000E+00
    0.00000E+00         0.00000E+00        -0.49587E+08
 
   -0.49428E+08         0.20368E+06         0.00000E+00
    0.20368E+06        -0.97568E+08         0.00000E+00
    0.00000E+00         0.00000E+00        -0.49563E+08
 
   -0.49395E+08         0.21489E+06         0.00000E+00
    0.21489E+06        -0.97566E+08         0.00000E+00
    0.00000E+00         0.00000E+00        -0.49537E+08
 
   -0.49360E+08         0.22670E+06         0.00000E+00
    0.22670E+06        -0.97564E+08         0.00000E+00
    0.00000E+00         0.00000E+00        -0.49510E+08
 
   -0.49324E+08         0.23915E+06         0.00000E+00
    0.23915E+06        -0.97562E+08         0.00000E+00
    0.00000E+00         0.00000E+00        -0.49481E+08
 
   -0.49285E+08         0.25226E+06         0.00000E+00
    0.25226E+06        -0.97560E+08         0.00000E+00
    0.00000E+00         0.00000E+00        -0.49451E+08
 
   -0.49244E+08         0.26607E+06         0.00000E+00
    0.26607E+06        -0.97558E+08         0.00000E+00
    0.00000E+00         0.00000E+00        -0.49419E+08
 
   -0.49201E+08         0.28062E+06         0.00000E+00
    0.28062E+06        -0.97556E+08         0.00000E+00
    0.00000E+00         0.00000E+00        -0.49386E+08
 
   -0.49155E+08         0.29593E+06         0.00000E+00
    0.29593E+06        -0.97554E+08         0.00000E+00
    0.00000E+00         0.00000E+00        -0.49350E+08
 
   -0.49107E+08         0.31203E+06         0.00000E+00
    0.31203E+06        -0.97551E+08         0.00000E+00
    0.00000E+00         0.00000E+00        -0.49313E+08
 
   -0.49057E+08         0.32897E+06         0.00000E+00
    0.32897E+06        -0.97549E+08         0.00000E+00
    0.00000E+00         0.00000E+00        -0.49273E+08
 
   -0.49003E+08         0.34677E+06         0.00000E+00
    0.34677E+06        -0.97546E+08         0.00000E+00
    0.00000E+00         0.00000E+00        -0.49231E+08
 
   -0.48947E+08         0.36547E+06         0.00000E+00
    0.36547E+06        -0.97544E+08         0.00000E+00
    0.00000E+00         0.00000E+00        -0.49186E+08
 
   -0.48887E+08         0.38511E+06         0.00000E+00
    0.38511E+06        -0.97541E+08         0.00000E+00
    0.00000E+00         0.00000E+00        -0.49139E+08
 
   -0.48825E+08         0.40571E+06         0.00000E+00
    0.40571E+06        -0.97538E+08         0.00000E+00
    0.00000E+00         0.00000E+00        -0.49090E+08
 
   -0.48759E+08         0.42732E+06         0.00000E+00
    0.42732E+06        -0.97535E+08         0.00000E+00
    0.00000E+00         0.00000E+00        -0.49037E+08
 
   -0.48689E+08         0.44995E+06         0.00000E+00
    0.44995E+06        -0.97532E+08         0.00000E+00
    0.00000E+00         0.00000E+00        -0.48982E+08
 
   -0.48616E+08         0.47365E+06         0.00000E+00
    0.47365E+06        -0.97529E+08         0.00000E+00
    0.00000E+00         0.00000E+00        -0.48923E+08
 
   -0.48539E+08         0.49844E+06         0.00000E+00
    0.49844E+06        -0.97526E+08         0.00000E+00
    0.00000E+00         0.00000E+00        -0.48861E+08
 
   -0.48458E+08         0.52434E+06         0.00000E+00
    0.52434E+06        -0.97522E+08         0.00000E+00
    0.00000E+00         0.00000E+00        -0.48795E+08
 
   -0.48373E+08         0.55137E+06         0.00000E+00
    0.55137E+06        -0.97519E+08         0.00000E+00
    0.00000E+00         0.00000E+00        -0.48726E+08
 
   -0.48283E+08         0.57954E+06         0.00000E+00
    0.57954E+06        -0.97515E+08         0.00000E+00
    0.00000E+00         0.00000E+00        -0.48652E+08
 
   -0.48188E+08         0.60887E+06         0.00000E+00
    0.60887E+06        -0.97512E+08         0.00000E+00
    0.00000E+00         0.00000E+00        -0.48574E+08
 
   -0.48089E+08         0.63935E+06         0.00000E+00
    0.63935E+06        -0.97509E+08         0.00000E+00
    0.00000E+00         0.00000E+00        -0.48492E+08
 
   -0.47984E+08         0.67098E+06         0.00000E+00
    0.67098E+06        -0.97505E+08         0.00000E+00
    0.00000E+00         0.00000E+00        -0.48405E+08
 
   -0.47875E+08         0.70372E+06         0.00000E+00
    0.70372E+06        -0.97502E+08         0.00000E+00
    0.00000E+00         0.00000E+00        -0.48313E+08
 
   -0.47760E+08         0.73756E+06         0.00000E+00
    0.73756E+06        -0.97499E+08         0.00000E+00
    0.00000E+00         0.00000E+00        -0.48215E+08
 
   -0.47639E+08         0.77242E+06         0.00000E+00
    0.77242E+06        -0.97496E+08         0.00000E+00
    0.00000E+00         0.00000E+00        -0.48112E+08
 
   -0.47512E+08         0.80825E+06         0.00000E+00
    0.80825E+06        -0.97494E+08         0.00000E+00
    0.00000E+00         0.00000E+00        -0.48002E+08
 
   -0.47380E+08         0.84495E+06         0.00000E+00
    0.84495E+06        -0.97491E+08         0.00000E+00
    0.00000E+00         0.00000E+00        -0.47887E+08
 
   -0.47241E+08         0.88239E+06         0.00000E+00
    0.88239E+06        -0.97489E+08         0.00000E+00
    0.00000E+00         0.00000E+00        -0.47764E+08
 
   -0.47096E+08         0.92043E+06         0.00000E+00
    0.92043E+06        -0.97488E+08         0.00000E+00
    0.00000E+00         0.00000E+00        -0.47634E+08
 
   -0.46944E+08         0.95886E+06         0.00000E+00
    0.95886E+06        -0.97487E+08         0.00000E+00
    0.00000E+00         0.00000E+00        -0.47497E+08
 
   -0.46786E+08         0.99746E+06         0.00000E+00
    0.99746E+06        -0.97488E+08         0.00000E+00
    0.00000E+00         0.00000E+00        -0.47351E+08
 
   -0.46621E+08         0.10359E+07         0.00000E+00
    0.10359E+07        -0.97489E+08         0.00000E+00
    0.00000E+00         0.00000E+00        -0.47197E+08
 
   -0.46449E+08         0.10740E+07         0.00000E+00
    0.10740E+07        -0.97492E+08         0.00000E+00
    0.00000E+00         0.00000E+00        -0.47034E+08
 
   -0.46270E+08         0.11111E+07         0.00000E+00
    0.11111E+07        -0.97496E+08         0.00000E+00
    0.00000E+00         0.00000E+00        -0.46860E+08
 
   -0.46083E+08         0.11469E+07         0.00000E+00
    0.11469E+07        -0.97502E+08         0.00000E+00
    0.00000E+00         0.00000E+00        -0.46677E+08
 
   -0.45890E+08         0.11808E+07         0.00000E+00
    0.11808E+07        -0.97510E+08         0.00000E+00
    0.00000E+00         0.00000E+00        -0.46482E+08
 
   -0.45690E+08         0.12122E+07         0.00000E+00
    0.12122E+07        -0.97520E+08         0.00000E+00
    0.00000E+00         0.00000E+00        -0.46276E+08
 
   -0.45482E+08         0.12403E+07         0.00000E+00
    0.12403E+07        -0.97534E+08         0.00000E+00
    0.00000E+00         0.00000E+00        -0.46057E+08
 
   -0.45267E+08         0.12642E+07         0.00000E+00
    0.12642E+07        -0.97551E+08         0.00000E+00
    0.00000E+00         0.00000E+00        -0.45824E+08
 
   -0.45045E+08         0.12831E+07         0.00000E+00
    0.12831E+07        -0.97572E+08         0.00000E+00
    0.00000E+00         0.00000E+00        -0.45577E+08
 
   -0.44816E+08         0.12957E+07         0.00000E+00
    0.12957E+07        -0.97597E+08         0.00000E+00
    0.00000E+00         0.00000E+00        -0.45315E+08
 
   -0.44580E+08         0.13010E+07         0.00000E+00
    0.13010E+07        -0.97628E+08         0.00000E+00
    0.00000E+00         0.00000E+00        -0.45037E+08
 
   -0.44337E+08         0.12977E+07         0.00000E+00
    0.12977E+07        -0.97664E+08         0.00000E+00
    0.00000E+00         0.00000E+00        -0.44741E+08
 
   -0.44086E+08         0.12845E+07         0.00000E+00
    0.12845E+07        -0.97706E+08         0.00000E+00
    0.00000E+00         0.00000E+00        -0.44427E+08
 
   -0.43828E+08         0.12598E+07         0.00000E+00
    0.12598E+07        -0.97754E+08         0.00000E+00
    0.00000E+00         0.00000E+00        -0.44093E+08
 
   -0.43563E+08         0.12224E+07         0.00000E+00
    0.12224E+07        -0.97808E+08         0.00000E+00
    0.00000E+00         0.00000E+00        -0.43738E+08
 
   -0.43290E+08         0.11710E+07         0.00000E+00
    0.11710E+07        -0.97868E+08         0.00000E+00
    0.00000E+00         0.00000E+00        -0.43360E+08
 
   -0.43010E+08         0.11044E+07         0.00000E+00
    0.11044E+07        -0.97933E+08         0.00000E+00
    0.00000E+00         0.00000E+00        -0.42957E+08
 
   -0.42721E+08         0.10220E+07         0.00000E+00
    0.10220E+07        -0.98001E+08         0.00000E+00
    0.00000E+00         0.00000E+00        -0.42529E+08
 
   -0.42424E+08         0.92338E+06         0.00000E+00
    0.92338E+06        -0.98070E+08         0.00000E+00
    0.00000E+00         0.00000E+00        -0.42072E+08
 
   -0.42118E+08         0.80932E+06         0.00000E+00
    0.80932E+06        -0.98135E+08         0.00000E+00
    0.00000E+00         0.00000E+00        -0.41585E+08
 
   -0.41805E+08         0.68162E+06         0.00000E+00
    0.68162E+06        -0.98190E+08         0.00000E+00
    0.00000E+00         0.00000E+00        -0.41066E+08
 
   -0.41486E+08         0.54374E+06         0.00000E+00
    0.54374E+06        -0.98227E+08         0.00000E+00
    0.00000E+00         0.00000E+00        -0.40513E+08
 
   -0.41163E+08         0.40135E+06         0.00000E+00
    0.40135E+06        -0.98232E+08         0.00000E+00
    0.00000E+00         0.00000E+00        -0.39922E+08
 
   -0.40842E+08         0.26269E+06         0.00000E+00
    0.26269E+06        -0.98188E+08         0.00000E+00
    0.00000E+00         0.00000E+00        -0.39292E+08
 
   -0.40532E+08         0.13869E+06         0.00000E+00
    0.13869E+06        -0.98074E+08         0.00000E+00
    0.00000E+00         0.00000E+00        -0.38620E+08
 
   -0.40247E+08         0.41913E+05         0.00000E+00
    0.41913E+05        -0.97859E+08         0.00000E+00
    0.00000E+00         0.00000E+00        -0.37903E+08
 
   -0.40006E+08        -0.16554E+05         0.00000E+00
   -0.16554E+05        -0.97511E+08         0.00000E+00
    0.00000E+00         0.00000E+00        -0.37137E+08
 
   -0.39829E+08        -0.32646E+05         0.00000E+00
   -0.32646E+05        -0.96995E+08         0.00000E+00
    0.00000E+00         0.00000E+00        -0.36320E+08
 
   -0.39735E+08        -0.15016E+05         0.00000E+00
   -0.15016E+05        -0.96282E+08         0.00000E+00
    0.00000E+00         0.00000E+00        -0.35449E+08
 
   -0.49932E+08         0.11374E+04         0.00000E+00
    0.11374E+04        -0.97602E+08         0.00000E+00
    0.00000E+00         0.00000E+00        -0.49997E+08
 
   -0.49931E+08         0.35012E+04         0.00000E+00
    0.35012E+04        -0.97597E+08         0.00000E+00
    0.00000E+00         0.00000E+00        -0.49990E+08
 
   -0.49929E+08         0.61240E+04         0.00000E+00
    0.61240E+04        -0.97593E+08         0.00000E+00
    0.00000E+00         0.00000E+00        -0.49984E+08
 
   -0.49926E+08         0.90848E+04         0.00000E+00
    0.90848E+04        -0.97591E+08         0.00000E+00
    0.00000E+00         0.00000E+00        -0.49978E+08
 
   -0.49923E+08         0.12365E+05         0.00000E+00
    0.12365E+05        -0.97589E+08         0.00000E+00
    0.00000E+00         0.00000E+00        -0.49972E+08
 
   -0.49918E+08         0.15892E+05         0.00000E+00
    0.15892E+05        -0.97588E+08         0.00000E+00
    0.00000E+00         0.00000E+00        -0.49965E+08
 
   -0.49914E+08         0.19579E+05         0.00000E+00
    0.19579E+05        -0.97588E+08         0.00000E+00
    0.00000E+00         0.00000E+00        -0.49959E+08
 
   -0.49909E+08         0.23355E+05         0.00000E+00
    0.23355E+05        -0.97588E+08         0.00000E+00
    0.00000E+00         0.00000E+00        -0.49953E+08
 
   -0.49903E+08         0.27165E+05         0.00000E+00
    0.27165E+05        -0.97588E+08         0.00000E+00
    0.00000E+00         0.00000E+00        -0.49946E+08
 
   -0.49897E+08         0.30978E+05         0.00000E+00
    0.30978E+05        -0.97588E+08         0.00000E+00
    0.00000E+00         0.00000E+00        -0.49940E+08
 
   -0.49890E+08         0.34776E+05         0.00000E+00
    0.34776E+05        -0.97588E+08         0.00000E+00
    0.00000E+00         0.00000E+00        -0.49933E+08
 
   -0.49883E+08         0.38556E+05         0.00000E+00
    0.38556E+05        -0.97588E+08         0.00000E+00
    0.00000E+00         0.00000E+00        -0.49926E+08
 
   -0.49876E+08         0.42321E+05         0.00000E+00
    0.42321E+05        -0.97589E+08         0.00000E+00
    0.00000E+00         0.00000E+00        -0.49919E+08
 
   -0.49868E+08         0.46082E+05         0.00000E+00
    0.46082E+05        -0.97589E+08         0.00000E+00
    0.00000E+00         0.00000E+00        -0.49911E+08
 
   -0.49860E+08         0.49856E+05         0.00000E+00
    0.49856E+05        -0.97589E+08         0.00000E+00
    0.00000E+00         0.00000E+00        -0.49904E+08
 
   -0.49851E+08         0.53659E+05         0.00000E+00
    0.53659E+05        -0.97589E+08         0.00000E+00
    0.00000E+00         0.00000E+00        -0.49896E+08
 
   -0.49841E+08         0.57512E+05         0.00000E+00
    0.57512E+05        -0.97589E+08         0.00000E+00
    0.00000E+00         0.00000E+00        -0.49888E+08
 
   -0.49831E+08         0.61435E+05         0.00000E+00
    0.61435E+05        -0.97589E+08         0.00000E+00
    0.00000E+00         0.00000E+00        -0.49879E+08
 
   -0.49820E+08         0.65449E+05         0.00000E+00
    0.65449E+05        -0.97588E+08         0.00000E+00
    0.00000E+00         0.00000E+00        -0.49870E+08
 
   -0.49809E+08         0.69576E+05         0.00000E+00
    0.69576E+05        -0.97588E+08         0.00000E+00
    0.00000E+00         0.00000E+00        -0.49861E+08
 
   -0.49797E+08         0.73837E+05         0.00000E+00
    0.73837E+05        -0.97588E+08         0.00000E+00
    0.00000E+00         0.00000E+00        -0.49852E+08
 
   -0.49784E+08         0.78252E+05         0.00000E+00
    0.78252E+05        -0.97587E+08         0.00000E+00
    0.00000E+00         0.00000E+00        -0.49841E+08
 
   -0.49771E+08         0.82843E+05         0.00000E+00
    0.82843E+05        -0.97587E+08         0.00000E+00
    0.00000E+00         0.00000E+00        -0.49831E+08
 
   -0.49757E+08         0.87631E+05         0.00000E+00
    0.87631E+05        -0.97586E+08         0.00000E+00
    0.00000E+00         0.00000E+00        -0.49820E+08
 
   -0.49742E+08         0.92635E+05         0.00000E+00
    0.92635E+05        -0.97585E+08         0.00000E+00
    0.00000E+00         0.00000E+00        -0.49808E+08
 
   -0.49726E+08         0.97877E+05         0.00000E+00
    0.97877E+05        -0.97585E+08         0.00000E+00
    0.00000E+00         0.00000E+00        -0.49796E+08
 
   -0.49710E+08         0.10338E+06         0.00000E+00
    0.10338E+06        -0.97584E+08         0.00000E+00
    0.00000E+00         0.00000E+00        -0.49783E+08
 
   -0.49692E+08         0.10915E+06         0.00000E+00
    0.10915E+06        -0.97583E+08         0.00000E+00
    0.00000E+00         0.00000E+00        -0.49769E+08
 
   -0.49674E+08         0.11523E+06         0.00000E+00
    0.11523E+06        -0.97582E+08         0.00000E+00
    0.00000E+00         0.00000E+00        -0.49755E+08
 
   -0.49654E+08         0.12162E+06         0.00000E+00
    0.12162E+06        -0.97581E+08         0.00000E+00
    0.00000E+00         0.00000E+00        -0.49740E+08
 
   -0.49634E+08         0.12836E+06         0.00000E+00
    0.12836E+06        -0.97580E+08         0.00000E+00
    0.00000E+00         0.00000E+00        -0.49724E+08
 
   -0.49612E+08         0.13546E+06         0.00000E+00
    0.13546E+06        -0.97579E+08         0.00000E+00
    0.00000E+00         0.00000E+00        -0.49708E+08
 
   -0.49589E+08         0.14294E+06         0.00000E+00
    0.14294E+06        -0.97578E+08         0.00000E+00
    0.00000E+00         0.00000E+00        -0.49690E+08
 
   -0.49565E+08         0.15083E+06         0.00000E+00
    0.15083E+06        -0.97577E+08         0.00000E+00
    0.00000E+00         0.00000E+00        -0.49672E+08
 
   -0.49540E+08         0.15915E+06         0.00000E+00
    0.15915E+06        -0.97576E+08         0.00000E+00
    0.00000E+00         0.00000E+00        -0.49652E+08
 
   -0.49513E+08         0.16792E+06         0.00000E+00
    0.16792E+06        -0.97574E+08         0.00000E+00
    0.00000E+00         0.00000E+00        -0.49632E+08
 
   -0.49484E+08         0.17718E+06         0.00000E+00
    0.17718E+06        -0.97573E+08         0.00000E+00
    0.00000E+00         0.00000E+00        -0.49610E+08
 
   -0.49455E+08         0.18693E+06         0.00000E+00
    0.18693E+06        -0.97572E+08         0.00000E+00
    0.00000E+00         0.00000E+00        -0.49587E+08
 
   -0.49423E+08         0.19723E+06         0.00000E+00
    0.19723E+06        -0.97570E+08         0.00000E+00
    0.00000E+00         0.00000E+00        -0.49563E+08
 
   -0.49390E+08         0.20807E+06         0.00000E+00
    0.20807E+06        -0.97568E+08         0.00000E+00
    0.00000E+00         0.00000E+00        -0.49537E+08
 
   -0.49354E+08         0.21951E+06         0.00000E+00
    0.21951E+06        -0.97567E+08         0.00000E+00
    0.00000E+00         0.00000E+00        -0.49510E+08
 
   -0.49317E+08         0.23156E+06         0.00000E+00
    0.23156E+06        -0.97565E+08         0.00000E+00
    0.00000E+00         0.00000E+00        -0.49481E+08
 
   -0.49278E+08         0.24426E+06         0.00000E+00
    0.24426E+06        -0.97563E+08         0.00000E+00
    0.00000E+00         0.00000E+00        -0.49451E+08
 
   -0.49237E+08         0.25763E+06         0.00000E+00
    0.25763E+06        -0.97561E+08         0.00000E+00
    0.00000E+00         0.00000E+00        -0.49419E+08
 
   -0.49193E+08         0.27171E+06         0.00000E+00
    0.27171E+06        -0.97559E+08         0.00000E+00
    0.00000E+00         0.00000E+00        -0.49386E+08
 
   -0.49147E+08         0.28653E+06         0.00000E+00
    0.28653E+06        -0.97557E+08         0.00000E+00
    0.00000E+00         0.00000E+00        -0.49350E+08
 
   -0.49099E+08         0.30212E+06         0.00000E+00
    0.30212E+06        -0.97555E+08         0.00000E+00
    0.00000E+00         0.00000E+00        -0.49312E+08
 
   -0.49048E+08         0.31852E+06         0.00000E+00
    0.31852E+06        -0.97552E+08         0.00000E+00
    0.00000E+00         0.00000E+00        -0.49273E+08
 
   -0.48994E+08         0.33575E+06         0.00000E+00
    0.33575E+06        -0.97550E+08         0.00000E+00
    0.00000E+00         0.00000E+00        -0.49231E+08
 
   -0.48937E+08         0.35386E+06         0.00000E+00
    0.35386E+06        -0.97547E+08         0.00000E+00
    0.00000E+00         0.00000E+00        -0.49186E+08
 
   -0.48877E+08         0.37286E+06         0.00000E+00
    0.37286E+06        -0.97545E+08         0.00000E+00
    0.00000E+00         0.00000E+00        -0.49139E+08
 
   -0.48814E+08         0.39281E+06         0.00000E+00
    0.39281E+06        -0.97542E+08         0.00000E+00
    0.00000E+00         0.00000E+00        -0.49090E+08
 
   -0.48748E+08         0.41372E+06         0.00000E+00
    0.41372E+06        -0.97539E+08         0.00000E+00
    0.00000E+00         0.00000E+00        -0.49037E+08
 
   -0.48677E+08         0.43563E+06         0.00000E+00
    0.43563E+06        -0.97536E+08         0.00000E+00
    0.00000E+00         0.00000E+00        -0.48981E+08
 
   -0.48604E+08         0.45857E+06         0.00000E+00
    0.45857E+06        -0.97534E+08         0.00000E+00
    0.00000E+00         0.00000E+00        -0.48923E+08
 
   -0.48526E+08         0.48256E+06         0.00000E+00
    0.48256E+06        -0.97531E+08         0.00000E+00
    0.00000E+00         0.00000E+00        -0.48861E+08
 
   -0.48444E+08         0.50762E+06         0.00000E+00
    0.50762E+06        -0.97527E+08         0.00000E+00
    0.00000E+00         0.00000E+00        -0.48795E+08
 
   -0.48358E+08         0.53378E+06         0.00000E+00
    0.53378E+06        -0.97524E+08         0.00000E+00
    0.00000E+00         0.00000E+00        -0.48725E+08
 
   -0.48267E+08         0.56104E+06         0.00000E+00
    0.56104E+06        -0.97521E+08         0.00000E+00
    0.00000E+00         0.00000E+00        -0.48652E+08
 
   -0.48172E+08         0.58942E+06         0.00000E+00
    0.58942E+06        -0.97518E+08         0.00000E+00
    0.00000E+00         0.00000E+00        -0.48574E+08
 
   -0.48072E+08         0.61891E+06         0.00000E+00
    0.61891E+06        -0.97515E+08         0.00000E+00
    0.00000E+00         0.00000E+00        -0.48492E+08
 
   -0.47967E+08         0.64951E+06         0.00000E+00
    0.64951E+06        -0.97512E+08         0.00000E+00
    0.00000E+00         0.00000E+00        -0.48405E+08
 
   -0.47857E+08         0.68118E+06         0.00000E+00
    0.68118E+06        -0.97509E+08         0.00000E+00
    0.00000E+00         0.00000E+00        -0.48312E+08
 
   -0.47741E+08         0.71391E+06         0.00000E+00
    0.71391E+06        -0.97506E+08         0.00000E+00
    0.00000E+00         0.00000E+00        -0.48215E+08
 
   -0.47619E+08         0.74763E+06         0.00000E+00
    0.74763E+06        -0.97503E+08         0.00000E+00
    0.00000E+00         0.00000E+00        -0.48112E+08
 
   -0.47492E+08         0.78227E+06         0.00000E+00
    0.78227E+06        -0.97501E+08         0.00000E+00
    0.00000E+00         0.00000E+00        -0.48002E+08
 
   -0.47358E+08         0.81775E+06         0.00000E+00
    0.81775E+06        -0.97499E+08         0.00000E+00
    0.00000E+00         0.00000E+00        -0.47886E+08
 
   -0.47219E+08         0.85393E+06         0.00000E+00
    0.85393E+06        -0.97497E+08         0.00000E+00
    0.00000E+00         0.00000E+00        -0.47764E+08
 
   -0.47073E+08         0.89068E+06         0.00000E+00
    0.89068E+06        -0.97496E+08         0.00000E+00
    0.00000E+00         0.00000E+00        -0.47634E+08
 
   -0.46920E+08         0.92779E+06         0.00000E+00
    0.92779E+06        -0.97495E+08         0.00000E+00
    0.00000E+00         0.00000E+00        -0.47497E+08
 
   -0.46761E+08         0.96504E+06         0.00000E+00
    0.96504E+06        -0.97495E+08         0.00000E+00
    0.00000E+00         0.00000E+00        -0.47351E+08
 
   -0.46596E+08         0.10022E+07         0.00000E+00
    0.10022E+07        -0.97497E+08         0.00000E+00
    0.00000E+00         0.00000E+00        -0.47197E+08
 
   -0.46423E+08         0.10388E+07         0.00000E+00
    0.10388E+07        -0.97499E+08         0.00000E+00
    0.00000E+00         0.00000E+00        -0.47033E+08
 
   -0.46243E+08         0.10746E+07         0.00000E+00
    0.10746E+07        -0.97503E+08         0.00000E+00
    0.00000E+00         0.00000E+00        -0.46860E+08
 
   -0.46057E+08         0.11090E+07         0.00000E+00
    0.11090E+07        -0.97508E+08         0.00000E+00
    0.00000E+00         0.00000E+00        -0.46676E+08
 
   -0.45863E+08         0.11415E+07         0.00000E+00
    0.11415E+07        -0.97516E+08         0.00000E+00
    0.00000E+00         0.00000E+00        -0.46482E+08
 
   -0.45663E+08         0.11714E+07         0.00000E+00
    0.11714E+07        -0.97526E+08         0.00000E+00
    0.00000E+00         0.00000E+00        -0.46275E+08
 
   -0.45455E+08         0.11981E+07         0.00000E+00
    0.11981E+07        -0.97539E+08         0.00000E+00
    0.00000E+00         0.00000E+00        -0.46056E+08
 
   -0.45241E+08         0.12206E+07         0.00000E+00
    0.12206E+07        -0.97555E+08         0.00000E+00
    0.00000E+00         0.00000E+00        -0.45824E+08
 
   -0.45019E+08         0.12381E+07         0.00000E+00
    0.12381E+07        -0.97575E+08         0.00000E+00
    0.00000E+00         0.00000E+00        -0.45577E+08
 
   -0.44792E+08         0.12493E+07         0.00000E+00
    0.12493E+07        -0.97599E+08         0.00000E+00
    0.00000E+00         0.00000E+00        -0.45315E+08
 
   -0.44557E+08         0.12533E+07         0.00000E+00
    0.12533E+07        -0.97628E+08         0.00000E+00
    0.00000E+00         0.00000E+00        -0.45037E+08
 
   -0.44316E+08         0.12486E+07         0.00000E+00
    0.12486E+07        -0.97662E+08         0.00000E+00
    0.00000E+00         0.00000E+00        -0.44741E+08
 
   -0.44068E+08         0.12340E+07         0.00000E+00
    0.12340E+07        -0.97702E+08         0.00000E+00
    0.00000E+00         0.00000E+00        -0.44427E+08
 
   -0.43814E+08         0.12079E+07         0.00000E+00
    0.12079E+07        -0.97747E+08         0.00000E+00
    0.00000E+00         0.00000E+00        -0.44093E+08
 
   -0.43553E+08         0.11692E+07         0.00000E+00
    0.11692E+07        -0.97799E+08         0.00000E+00
    0.00000E+00         0.00000E+00        -0.43738E+08
 
   -0.43286E+08         0.11163E+07         0.00000E+00
    0.11163E+07        -0.97856E+08         0.00000E+00
    0.00000E+00         0.00000E+00        -0.43359E+08
 
   -0.43012E+08         0.10482E+07         0.00000E+00
    0.10482E+07        -0.97918E+08         0.00000E+00
    0.00000E+00         0.00000E+00        -0.42957E+08
 
   -0.42731E+08         0.96422E+06         0.00000E+00
    0.96422E+06        -0.97983E+08         0.00000E+00
    0.00000E+00         0.00000E+00        -0.42528E+08
 
   -0.42443E+08         0.86410E+06         0.00000E+00
    0.86410E+06        -0.98049E+08         0.00000E+00
    0.00000E+00         0.00000E+00        -0.42072E+08
 
   -0.42149E+08         0.74854E+06         0.00000E+00
    0.74854E+06        -0.98111E+08         0.00000E+00
    0.00000E+00         0.00000E+00        -0.41585E+08
 
   -0.41848E+08         0.61949E+06         0.00000E+00
    0.61949E+06        -0.98163E+08         0.00000E+00
    0.00000E+00         0.00000E+00        -0.41067E+08
 
   -0.41541E+08         0.48065E+06         0.00000E+00
    0.48065E+06        -0.98198E+08         0.00000E+00
    0.00000E+00         0.00000E+00        -0.40513E+08
 
   -0.41233E+08         0.33803E+06         0.00000E+00
    0.33803E+06        -0.98203E+08         0.00000E+00
    0.00000E+00         0.00000E+00        -0.39923E+08
 
   -0.40926E+08         0.20045E+06         0.00000E+00
    0.20045E+06        -0.98162E+08         0.00000E+00
    0.00000E+00         0.00000E+00        -0.39293E+08
 
   -0.40630E+08         0.79704E+05         0.00000E+00
    0.79704E+05        -0.98052E+08         0.00000E+00
    0.00000E+00         0.00000E+00        -0.38621E+08
 
   -0.40356E+08        -0.10639E+05         0.00000E+00
   -0.10639E+05        -0.97844E+08         0.00000E+00
    0.00000E+00         0.00000E+00        -0.37903E+08
 
   -0.40124E+08        -0.58632E+05         0.00000E+00
   -0.58632E+05        -0.97505E+08         0.00000E+00
    0.00000E+00         0.00000E+00        -0.37138E+08
 
   -0.39952E+08        -0.60057E+05         0.00000E+00
   -0.60057E+05        -0.96997E+08         0.00000E+00
    0.00000E+00         0.00000E+00        -0.36321E+08
 
   -0.39861E+08        -0.24551E+05         0.00000E+00
   -0.24551E+05        -0.96289E+08         0.00000E+00
    0.00000E+00         0.00000E+00        -0.35450E+08
 
   -0.49930E+08         0.10299E+04         0.00000E+00
    0.10299E+04        -0.97602E+08         0.00000E+00
    0.00000E+00         0.00000E+00        -0.49997E+08
 
   -0.49929E+08         0.31876E+04         0.00000E+00
    0.31876E+04        -0.97597E+08         0.00000E+00
    0.00000E+00         0.00000E+00        -0.49990E+08
 
   -0.49927E+08         0.56272E+04         0.00000E+00
    0.56272E+04        -0.97594E+08         0.00000E+00
    0.00000E+00         0.00000E+00        -0.49984E+08
 
   -0.49924E+08         0.84335E+04         0.00000E+00
    0.84335E+04        -0.97591E+08         0.00000E+00
    0.00000E+00         0.00000E+00        -0.49978E+08
 
   -0.49921E+08         0.11586E+05         0.00000E+00
    0.11586E+05        -0.97590E+08         0.00000E+00
    0.00000E+00         0.00000E+00        -0.49972E+08
 
   -0.49916E+08         0.15003E+05         0.00000E+00
    0.15003E+05        -0.97589E+08         0.00000E+00
    0.00000E+00         0.00000E+00        -0.49965E+08
 
   -0.49912E+08         0.18593E+05         0.00000E+00
    0.18593E+05        -0.97589E+08         0.00000E+00
    0.00000E+00         0.00000E+00        -0.49959E+08
 
   -0.49907E+08         0.22277E+05         0.00000E+00
    0.22277E+05        -0.97589E+08         0.00000E+00
    0.00000E+00         0.00000E+00        -0.49953E+08
 
   -0.49901E+08         0.25999E+05         0.00000E+00
    0.25999E+05        -0.97589E+08         0.00000E+00
    0.00000E+00         0.00000E+00        -0.49946E+08
 
   -0.49895E+08         0.29723E+05         0.00000E+00
    0.29723E+05        -0.97589E+08         0.00000E+00
    0.00000E+00         0.00000E+00        -0.49939E+08
 
   -0.49889E+08         0.33430E+05         0.00000E+00
    0.33430E+05        -0.97589E+08         0.00000E+00
    0.00000E+00         0.00000E+00        -0.49933E+08
 
   -0.49882E+08         0.37116E+05         0.00000E+00
    0.37116E+05        -0.97589E+08         0.00000E+00
    0.00000E+00         0.00000E+00        -0.49926E+08
 
   -0.49874E+08         0.40785E+05         0.00000E+00
    0.40785E+05        -0.97589E+08         0.00000E+00
    0.00000E+00         0.00000E+00        -0.49919E+08
 
   -0.49866E+08         0.44447E+05         0.00000E+00
    0.44447E+05        -0.97589E+08         0.00000E+00
    0.00000E+00         0.00000E+00        -0.49911E+08
 
   -0.49858E+08         0.48116E+05         0.00000E+00
    0.48116E+05        -0.97590E+08         0.00000E+00
    0.00000E+00         0.00000E+00        -0.49904E+08
 
   -0.49849E+08         0.51811E+05         0.00000E+00
    0.51811E+05        -0.97590E+08         0.00000E+00
    0.00000E+00         0.00000E+00        -0.49896E+08
 
   -0.49839E+08         0.55551E+05         0.00000E+00
    0.55551E+05        -0.97589E+08         0.00000E+00
    0.00000E+00         0.00000E+00        -0.49888E+08
 
   -0.49829E+08         0.59357E+05         0.00000E+00
    0.59357E+05        -0.97589E+08         0.00000E+00
    0.00000E+00         0.00000E+00        -0.49879E+08
 
   -0.49818E+08         0.63248E+05         0.00000E+00
    0.63248E+05        -0.97589E+08         0.00000E+00
    0.00000E+00         0.00000E+00        -0.49870E+08
 
   -0.49807E+08         0.67246E+05         0.00000E+00
    0.67246E+05        -0.97589E+08         0.00000E+00
    0.00000E+00         0.00000E+00        -0.49861E+08
 
   -0.49795E+08         0.71373E+05         0.00000E+00
    0.71373E+05        -0.97588E+08         0.00000E+00
    0.00000E+00         0.00000E+00        -0.49852E+08
 
   -0.49782E+08         0.75648E+05         0.00000E+00
    0.75648E+05        -0.97588E+08         0.00000E+00
    0.00000E+00         0.00000E+00        -0.49841E+08
 
   -0.49769E+08         0.80092E+05         0.00000E+00
    0.80092E+05        -0.97588E+08         0.00000E+00
    0.00000E+00         0.00000E+00        -0.49831E+08
 
   -0.49755E+08         0.84724E+05         0.00000E+00
    0.84724E+05        -0.97587E+08         0.00000E+00
    0.00000E+00         0.00000E+00        -0.49820E+08
 
   -0.49740E+08         0.89566E+05         0.00000E+00
    0.89566E+05        -0.97586E+08         0.00000E+00
    0.00000E+00         0.00000E+00        -0.49808E+08
 
   -0.49724E+08         0.94637E+05         0.00000E+00
    0.94637E+05        -0.97586E+08         0.00000E+00
    0.00000E+00         0.00000E+00        -0.49796E+08
 
   -0.49707E+08         0.99956E+05         0.00000E+00
    0.99956E+05        -0.97585E+08         0.00000E+00
    0.00000E+00         0.00000E+00        -0.49783E+08
 
   -0.49690E+08         0.10554E+06         0.00000E+00
    0.10554E+06        -0.97584E+08         0.00000E+00
    0.00000E+00         0.00000E+00        -0.49769E+08
 
   -0.49671E+08         0.11142E+06         0.00000E+00
    0.11142E+06        -0.97584E+08         0.00000E+00
    0.00000E+00         0.00000E+00        -0.49755E+08
 
   -0.49651E+08         0.11760E+06         0.00000E+00
    0.11760E+06        -0.97583E+08         0.00000E+00
    0.00000E+00         0.00000E+00        -0.49740E+08
 
   -0.49630E+08         0.12412E+06         0.00000E+00
    0.12412E+06        -0.97582E+08         0.00000E+00
    0.00000E+00         0.00000E+00        -0.49724E+08
 
   -0.49609E+08         0.13098E+06         0.00000E+00
    0.13098E+06        -0.97581E+08         0.00000E+00
    0.00000E+00         0.00000E+00        -0.49708E+08
 
   -0.49586E+08         0.13822E+06         0.00000E+00
    0.13822E+06        -0.97580E+08         0.00000E+00
    0.00000E+00         0.00000E+00        -0.49690E+08
 
   -0.49561E+08         0.14585E+06         0.00000E+00
    0.14585E+06        -0.97579E+08         0.00000E+00
    0.00000E+00         0.00000E+00        -0.49672E+08
 
   -0.49535E+08         0.15389E+06         0.00000E+00
    0.15389E+06        -0.97577E+08         0.00000E+00
    0.00000E+00         0.00000E+00        -0.49652E+08
 
   -0.49508E+08         0.16237E+06         0.00000E+00
    0.16237E+06        -0.97576E+08         0.00000E+00
    0.00000E+00         0.00000E+00        -0.49632E+08
 
   -0.49480E+08         0.17132E+06         0.00000E+00
    0.17132E+06        -0.97575E+08         0.00000E+00
    0.00000E+00         0.00000E+00        -0.49610E+08
 
   -0.49449E+08         0.18076E+06         0.00000E+00
    0.18076E+06        -0.97574E+08         0.00000E+00
    0.00000E+00         0.00000E+00        -0.49587E+08
 
   -0.49418E+08         0.19071E+06         0.00000E+00
    0.19071E+06        -0.97572E+08         0.00000E+00
    0.00000E+00         0.00000E+00        -0.49563E+08
 
   -0.49384E+08         0.20120E+06         0.00000E+00
    0.20120E+06        -0.97571E+08         0.00000E+00
    0.00000E+00         0.00000E+00        -0.49537E+08
 
   -0.49349E+08         0.21226E+06         0.00000E+00
    0.21226E+06        -0.97569E+08         0.00000E+00
    0.00000E+00         0.00000E+00        -0.49510E+08
 
   -0.49311E+08         0.22391E+06         0.00000E+00
    0.22391E+06        -0.97567E+08         0.00000E+00
    0.00000E+00         0.00000E+00        -0.49481E+08
 
   -0.49272E+08         0.23618E+06         0.00000E+00
    0.23618E+06        -0.97566E+08         0.00000E+00
    0.00000E+00         0.00000E+00        -0.49451E+08
 
   -0.49230E+08         0.24911E+06         0.00000E+00
    0.24911E+06        -0.97564E+08         0.00000E+00
    0.00000E+00         0.00000E+00        -0.49419E+08
 
   -0.49186E+08         0.26273E+06         0.00000E+00
    0.26273E+06        -0.97562E+08         0.00000E+00
    0.00000E+00         0.00000E+00        -0.49386E+08
 
   -0.49140E+08         0.27705E+06         0.00000E+00
    0.27705E+06        -0.97560E+08         0.00000E+00
    0.00000E+00         0.00000E+00        -0.49350E+08
 
   -0.49091E+08         0.29213E+06         0.00000E+00
    0.29213E+06        -0.97558E+08         0.00000E+00
    0.00000E+00         0.00000E+00        -0.49312E+08
 
   -0.49039E+08         0.30798E+06         0.00000E+00
    0.30798E+06        -0.97556E+08         0.00000E+00
    0.00000E+00         0.00000E+00        -0.49273E+08
 
   -0.48985E+08         0.32464E+06         0.00000E+00
    0.32464E+06        -0.97553E+08         0.00000E+00
    0.00000E+00         0.00000E+00        -0.49231E+08
 
   -0.48928E+08         0.34214E+06         0.00000E+00
    0.34214E+06        -0.97551E+08         0.00000E+00
    0.00000E+00         0.00000E+00        -0.49186E+08
 
   -0.48867E+08         0.36052E+06         0.00000E+00
    0.36052E+06        -0.97549E+08         0.00000E+00
    0.00000E+00         0.00000E+00        -0.49139E+08
 
   -0.48803E+08         0.37980E+06         0.00000E+00
    0.37980E+06        -0.97546E+08         0.00000E+00
    0.00000E+00         0.00000E+00        -0.49089E+08
 
   -0.48736E+08         0.40001E+06         0.00000E+00
    0.40001E+06        -0.97544E+08         0.00000E+00
    0.00000E+00         0.00000E+00        -0.49037E+08
 
   -0.48666E+08         0.42119E+06         0.00000E+00
    0.42119E+06        -0.97541E+08         0.00000E+00
    0.00000E+00         0.00000E+00        -0.48981E+08
 
   -0.48591E+08         0.44336E+06         0.00000E+00
    0.44336E+06        -0.97538E+08         0.00000E+00
    0.00000E+00         0.00000E+00        -0.48923E+08
 
   -0.48513E+08         0.46655E+06         0.00000E+00
    0.46655E+06        -0.97535E+08         0.00000E+00
    0.00000E+00         0.00000E+00        -0.48860E+08
 
   -0.48431E+08         0.49077E+06         0.00000E+00
    0.49077E+06        -0.97532E+08         0.00000E+00
    0.00000E+00         0.00000E+00        -0.48795E+08
 
   -0.48344E+08         0.51605E+06         0.00000E+00
    0.51605E+06        -0.97530E+08         0.00000E+00
    0.00000E+00         0.00000E+00        -0.48725E+08
 
   -0.48252E+08         0.54240E+06         0.00000E+00
    0.54240E+06        -0.97527E+08         0.00000E+00
    0.00000E+00         0.00000E+00        -0.48652E+08
 
   -0.48157E+08         0.56982E+06         0.00000E+00
    0.56982E+06        -0.97524E+08         0.00000E+00
    0.00000E+00         0.00000E+00        -0.48574E+08
 
   -0.48056E+08         0.59832E+06         0.00000E+00
    0.59832E+06        -0.97521E+08         0.00000E+00
    0.00000E+00         0.00000E+00        -0.48492E+08
 
   -0.47950E+08         0.62788E+06         0.00000E+00
    0.62788E+06        -0.97518E+08         0.00000E+00
    0.00000E+00         0.00000E+00        -0.48404E+08
 
   -0.47839E+08         0.65849E+06         0.00000E+00
    0.65849E+06        -0.97515E+08         0.00000E+00
    0.00000E+00         0.00000E+00        -0.48312E+08
 
   -0.47722E+08         0.69010E+06         0.00000E+00
    0.69010E+06        -0.97512E+08         0.00000E+00
    0.00000E+00         0.00000E+00        -0.48215E+08
 
   -0.47600E+08         0.72267E+06         0.00000E+00
    0.72267E+06        -0.97510E+08         0.00000E+00
    0.00000E+00         0.00000E+00        -0.48111E+08
 
   -0.47471E+08         0.75613E+06         0.00000E+00
    0.75613E+06        -0.97508E+08         0.00000E+00
    0.00000E+00         0.00000E+00        -0.48002E+08
 
   -0.47337E+08         0.79038E+06         0.00000E+00
    0.79038E+06        -0.97506E+08         0.00000E+00
    0.00000E+00         0.00000E+00        -0.47886E+08
 
   -0.47197E+08         0.82531E+06         0.00000E+00
    0.82531E+06        -0.97504E+08         0.00000E+00
    0.00000E+00         0.00000E+00        -0.47764E+08
 
   -0.47050E+08         0.86077E+06         0.00000E+00
    0.86077E+06        -0.97503E+08         0.00000E+00
    0.00000E+00         0.00000E+00        -0.47634E+08
 
   -0.46897E+08         0.89657E+06         0.00000E+00
    0.89657E+06        -0.97502E+08         0.00000E+00
    0.00000E+00         0.00000E+00        -0.47496E+08
 
   -0.46737E+08         0.93249E+06         0.00000E+00
    0.93249E+06        -0.97503E+08         0.00000E+00
    0.00000E+00         0.00000E+00        -0.47351E+08
 
   -0.46570E+08         0.96824E+06         0.00000E+00
    0.96824E+06        -0.97504E+08         0.00000E+00
    0.00000E+00         0.00000E+00        -0.47197E+08
 
   -0.46397E+08         0.10035E+07         0.00000E+00
    0.10035E+07        -0.97506E+08         0.00000E+00
    0.00000E+00         0.00000E+00        -0.47033E+08
 
   -0.46217E+08         0.10379E+07         0.00000E+00
    0.10379E+07        -0.97510E+08         0.00000E+00
    0.00000E+00         0.00000E+00        -0.46860E+08
 
   -0.46030E+08         0.10709E+07         0.00000E+00
    0.10709E+07        -0.97515E+08         0.00000E+00
    0.00000E+00         0.00000E+00        -0.46676E+08
 
   -0.45836E+08         0.11020E+07         0.00000E+00
    0.11020E+07        -0.97522E+08         0.00000E+00
    0.00000E+00         0.00000E+00        -0.46481E+08
 
   -0.45635E+08         0.11306E+07         0.00000E+00
    0.11306E+07        -0.97532E+08         0.00000E+00
    0.00000E+00         0.00000E+00        -0.46275E+08
 
   -0.45428E+08         0.11559E+07         0.00000E+00
    0.11559E+07        -0.97544E+08         0.00000E+00
    0.00000E+00         0.00000E+00        -0.46056E+08
 
   -0.45214E+08         0.11771E+07         0.00000E+00
    0.11771E+07        -0.97559E+08         0.00000E+00
    0.00000E+00         0.00000E+00        -0.45823E+08
 
   -0.44993E+08         0.11933E+07         0.00000E+00
    0.11933E+07        -0.97578E+08         0.00000E+00
    0.00000E+00         0.00000E+00        -0.45577E+08
 
   -0.44767E+08         0.12032E+07         0.00000E+00
    0.12032E+07        -0.97601E+08         0.00000E+00
    0.00000E+00         0.00000E+00        -0.45315E+08
 
   -0.44534E+08         0.12059E+07         0.00000E+00
    0.12059E+07        -0.97628E+08         0.00000E+00
    0.00000E+00         0.00000E+00        -0.45036E+08
 
   -0.44295E+08         0.12000E+07         0.00000E+00
    0.12000E+07        -0.97660E+08         0.00000E+00
    0.00000E+00         0.00000E+00        -0.44741E+08
 
   -0.44050E+08         0.11841E+07         0.00000E+00
    0.11841E+07        -0.97698E+08         0.00000E+00
    0.00000E+00         0.00000E+00        -0.44427E+08
 
   -0.43799E+08         0.11569E+07         0.00000E+00
    0.11569E+07        -0.97741E+08         0.00000E+00
    0.00000E+00         0.00000E+00        -0.44093E+08
 
   -0.43543E+08         0.11169E+07         0.00000E+00
    0.11169E+07        -0.97790E+08         0.00000E+00
    0.00000E+00         0.00000E+00        -0.43737E+08
 
   -0.43281E+08         0.10628E+07         0.00000E+00
    0.10628E+07        -0.97844E+08         0.00000E+00
    0.00000E+00         0.00000E+00        -0.43359E+08
 
   -0.43014E+08         0.99347E+06         0.00000E+00
    0.99347E+06        -0.97903E+08         0.00000E+00
    0.00000E+00         0.00000E+00        -0.42957E+08
 
   -0.42741E+08         0.90821E+06         0.00000E+00
    0.90821E+06        -0.97964E+08         0.00000E+00
    0.00000E+00         0.00000E+00        -0.42528E+08
 
   -0.42462E+08         0.80683E+06         0.00000E+00
    0.80683E+06        -0.98027E+08         0.00000E+00
    0.00000E+00         0.00000E+00        -0.42072E+08
 
   -0.42179E+08         0.69006E+06         0.00000E+00
    0.69006E+06        -0.98086E+08         0.00000E+00
    0.00000E+00         0.00000E+00        -0.41585E+08
 
   -0.41890E+08         0.55994E+06         0.00000E+00
    0.55994E+06        -0.98136E+08         0.00000E+00
    0.00000E+00         0.00000E+00        -0.41067E+08
 
   -0.41597E+08         0.42035E+06         0.00000E+00
    0.42035E+06        -0.98170E+08         0.00000E+00
    0.00000E+00         0.00000E+00        -0.40514E+08
 
   -0.41303E+08         0.27760E+06         0.00000E+00
    0.27760E+06        -0.98175E+08         0.00000E+00
    0.00000E+00         0.00000E+00        -0.39923E+08
 
   -0.41010E+08         0.14105E+06         0.00000E+00
    0.14105E+06        -0.98136E+08         0.00000E+00
    0.00000E+00         0.00000E+00        -0.39294E+08
 
   -0.40728E+08         0.23267E+05         0.00000E+00
    0.23267E+05        -0.98031E+08         0.00000E+00
    0.00000E+00         0.00000E+00        -0.38622E+08
 
   -0.40466E+08        -0.61170E+05         0.00000E+00
   -0.61170E+05        -0.97831E+08         0.00000E+00
    0.00000E+00         0.00000E+00        -0.37904E+08
 
   -0.40242E+08        -0.99366E+05         0.00000E+00
   -0.99366E+05        -0.97501E+08         0.00000E+00
    0.00000E+00         0.00000E+00        -0.37139E+08
 
   -0.40075E+08        -0.86774E+05         0.00000E+00
   -0.86774E+05        -0.97003E+08         0.00000E+00
    0.00000E+00         0.00000E+00        -0.36321E+08
 
   -0.39986E+08        -0.33885E+05         0.00000E+00
   -0.33885E+05        -0.96301E+08         0.00000E+00
    0.00000E+00         0.00000E+00        -0.35450E+08
 
   -0.49928E+08         0.92314E+03         0.00000E+00
    0.92314E+03        -0.97603E+08         0.00000E+00
    0.00000E+00         0.00000E+00        -0.49997E+08
 
   -0.49927E+08         0.28769E+04         0.00000E+00
    0.28769E+04        -0.97598E+08         0.00000E+00
    0.00000E+00         0.00000E+00        -0.49990E+08
 
   -0.49925E+08         0.51370E+04         0.00000E+00
    0.51370E+04        -0.97594E+08         0.00000E+00
    0.00000E+00         0.00000E+00        -0.49984E+08
 
   -0.49922E+08         0.77931E+04         0.00000E+00
    0.77931E+04        -0.97592E+08         0.00000E+00
    0.00000E+00         0.00000E+00        -0.49978E+08
 
   -0.49919E+08         0.10820E+05         0.00000E+00
    0.10820E+05        -0.97591E+08         0.00000E+00
    0.00000E+00         0.00000E+00        -0.49972E+08
 
   -0.49915E+08         0.14129E+05         0.00000E+00
    0.14129E+05        -0.97590E+08         0.00000E+00
    0.00000E+00         0.00000E+00        -0.49965E+08
 
   -0.49910E+08         0.17622E+05         0.00000E+00
    0.17622E+05        -0.97589E+08         0.00000E+00
    0.00000E+00         0.00000E+00        -0.49959E+08
 
   -0.49905E+08         0.21213E+05         0.00000E+00
    0.21213E+05        -0.97589E+08         0.00000E+00
    0.00000E+00         0.00000E+00        -0.49953E+08
 
   -0.49899E+08         0.24843E+05         0.00000E+00
    0.24843E+05        -0.97589E+08         0.00000E+00
    0.00000E+00         0.00000E+00        -0.49946E+08
 
   -0.49893E+08         0.28475E+05         0.00000E+00
    0.28475E+05        -0.97590E+08         0.00000E+00
    0.00000E+00         0.00000E+00        -0.49939E+08
 
   -0.49887E+08         0.32090E+05         0.00000E+00
    0.32090E+05        -0.97590E+08         0.00000E+00
    0.00000E+00         0.00000E+00        -0.49933E+08
 
   -0.49880E+08         0.35680E+05         0.00000E+00
    0.35680E+05        -0.97590E+08         0.00000E+00
    0.00000E+00         0.00000E+00        -0.49926E+08
 
   -0.49873E+08         0.39249E+05         0.00000E+00
    0.39249E+05        -0.97590E+08         0.00000E+00
    0.00000E+00         0.00000E+00        -0.49919E+08
 
   -0.49865E+08         0.42808E+05         0.00000E+00
    0.42808E+05        -0.97590E+08         0.00000E+00
    0.00000E+00         0.00000E+00        -0.49911E+08
 
   -0.49856E+08         0.46371E+05         0.00000E+00
    0.46371E+05        -0.97590E+08         0.00000E+00
    0.00000E+00         0.00000E+00        -0.49904E+08
 
   -0.49847E+08         0.49955E+05         0.00000E+00
    0.49955E+05        -0.97590E+08         0.00000E+00
    0.00000E+00         0.00000E+00        -0.49896E+08
 
   -0.49838E+08         0.53580E+05         0.00000E+00
    0.53580E+05        -0.97590E+08         0.00000E+00
    0.00000E+00         0.00000E+00        -0.49888E+08
 
   -0.49827E+08         0.57266E+05         0.00000E+00
    0.57266E+05        -0.97590E+08         0.00000E+00
    0.00000E+00         0.00000E+00        -0.49879E+08
 
   -0.49817E+08         0.61032E+05         0.00000E+00
    0.61032E+05        -0.97590E+08         0.00000E+00
    0.00000E+00         0.00000E+00        -0.49870E+08
 
   -0.49805E+08         0.64900E+05         0.00000E+00
    0.64900E+05        -0.97590E+08         0.00000E+00
    0.00000E+00         0.00000E+00        -0.49861E+08
 
   -0.49793E+08         0.68891E+05         0.00000E+00
    0.68891E+05        -0.97589E+08         0.00000E+00
    0.00000E+00         0.00000E+00        -0.49851E+08
 
   -0.49780E+08         0.73023E+05         0.00000E+00
    0.73023E+05        -0.97589E+08         0.00000E+00
    0.00000E+00         0.00000E+00        -0.49841E+08
 
   -0.49767E+08         0.77318E+05         0.00000E+00
    0.77318E+05        -0.97588E+08         0.00000E+00
    0.00000E+00         0.00000E+00        -0.49831E+08
 
   -0.49752E+08         0.81794E+05         0.00000E+00
    0.81794E+05        -0.97588E+08         0.00000E+00
    0.00000E+00         0.00000E+00        -0.49820E+08
 
   -0.49737E+08         0.86471E+05         0.00000E+00
    0.86471E+05        -0.97587E+08         0.00000E+00
    0.00000E+00         0.00000E+00        -0.49808E+08
 
   -0.49721E+08         0.91369E+05         0.00000E+00
    0.91369E+05        -0.97587E+08         0.00000E+00
    0.00000E+00         0.00000E+00        -0.49796E+08
 
   -0.49704E+08         0.96506E+05         0.00000E+00
    0.96506E+05        -0.97586E+08         0.00000E+00
    0.00000E+00         0.00000E+00        -0.49783E+08
 
   -0.49687E+08         0.10190E+06         0.00000E+00
    0.10190E+06        -0.97585E+08         0.00000E+00
    0.00000E+00         0.00000E+00        -0.49769E+08
 
   -0.49668E+08         0.10758E+06         0.00000E+00
    0.10758E+06        -0.97585E+08         0.00000E+00
    0.00000E+00         0.00000E+00        -0.49755E+08
 
   -0.49648E+08         0.11355E+06         0.00000E+00
    0.11355E+06        -0.97584E+08         0.00000E+00
    0.00000E+00         0.00000E+00        -0.49740E+08
 
   -0.49627E+08         0.11984E+06         0.00000E+00
    0.11984E+06        -0.97583E+08         0.00000E+00
    0.00000E+00         0.00000E+00        -0.49724E+08
 
   -0.49605E+08         0.12647E+06         0.00000E+00
    0.12647E+06        -0.97582E+08         0.00000E+00
    0.00000E+00         0.00000E+00        -0.49708E+08
 
   -0.49582E+08         0.13345E+06         0.00000E+00
    0.13345E+06        -0.97581E+08         0.00000E+00
    0.00000E+00         0.00000E+00        -0.49690E+08
 
   -0.49557E+08         0.14082E+06         0.00000E+00
    0.14082E+06        -0.97580E+08         0.00000E+00
    0.00000E+00         0.00000E+00        -0.49672E+08
 
   -0.49531E+08         0.14859E+06         0.00000E+00
    0.14859E+06        -0.97579E+08         0.00000E+00
    0.00000E+00         0.00000E+00        -0.49652E+08
 
   -0.49504E+08         0.15678E+06         0.00000E+00
    0.15678E+06        -0.97578E+08         0.00000E+00
    0.00000E+00         0.00000E+00        -0.49631E+08
 
   -0.49475E+08         0.16542E+06         0.00000E+00
    0.16542E+06        -0.97577E+08         0.00000E+00
    0.00000E+00         0.00000E+00        -0.49610E+08
 
   -0.49445E+08         0.17453E+06         0.00000E+00
    0.17453E+06        -0.97575E+08         0.00000E+00
    0.00000E+00         0.00000E+00        -0.49587E+08
 
   -0.49412E+08         0.18413E+06         0.00000E+00
    0.18413E+06        -0.97574E+08         0.00000E+00
    0.00000E+00         0.00000E+00        -0.49563E+08
 
   -0.49378E+08         0.19426E+06         0.00000E+00
    0.19426E+06        -0.97573E+08         0.00000E+00
    0.00000E+00         0.00000E+00        -0.49537E+08
 
   -0.49343E+08         0.20494E+06         0.00000E+00
    0.20494E+06        -0.97571E+08         0.00000E+00
    0.00000E+00         0.00000E+00        -0.49510E+08
 
   -0.49305E+08         0.21619E+06         0.00000E+00
    0.21619E+06        -0.97570E+08         0.00000E+00
    0.00000E+00         0.00000E+00        -0.49481E+08
 
   -0.49265E+08         0.22804E+06         0.00000E+00
    0.22804E+06        -0.97568E+08         0.00000E+00
    0.00000E+00         0.00000E+00        -0.49451E+08
 
   -0.49223E+08         0.24052E+06         0.00000E+00
    0.24052E+06        -0.97566E+08         0.00000E+00
    0.00000E+00         0.00000E+00        -0.49419E+08
 
   -0.49179E+08         0.25366E+06         0.00000E+00
    0.25366E+06        -0.97565E+08         0.00000E+00
    0.00000E+00         0.00000E+00        -0.49386E+08
 
   -0.49132E+08         0.26750E+06         0.00000E+00
    0.26750E+06        -0.97563E+08         0.00000E+00
    0.00000E+00         0.00000E+00        -0.49350E+08
 
   -0.49083E+08         0.28205E+06         0.00000E+00
    0.28205E+06        -0.97561E+08         0.00000E+00
    0.00000E+00         0.00000E+00        -0.49312E+08
 
   -0.49031E+08         0.29735E+06         0.00000E+00
    0.29735E+06        -0.97559E+08         0.00000E+00
    0.00000E+00         0.00000E+00        -0.49273E+08
 
   -0.48976E+08         0.31343E+06         0.00000E+00
    0.31343E+06        -0.97557E+08         0.00000E+00
    0.00000E+00         0.00000E+00        -0.49230E+08
 
   -0.48918E+08         0.33033E+06         0.00000E+00
    0.33033E+06        -0.97555E+08         0.00000E+00
    0.00000E+00         0.00000E+00        -0.49186E+08
 
   -0.48857E+08         0.34806E+06         0.00000E+00
    0.34806E+06        -0.97552E+08         0.00000E+00
    0.00000E+00         0.00000E+00        -0.49139E+08
 
   -0.48793E+08         0.36668E+06         0.00000E+00
    0.36668E+06        -0.97550E+08         0.00000E+00
    0.00000E+00         0.00000E+00        -0.49089E+08
 
   -0.48725E+08         0.38619E+06         0.00000E+00
    0.38619E+06        -0.97548E+08         0.00000E+00
    0.00000E+00         0.00000E+00        -0.49037E+08
 
   -0.48654E+08         0.40663E+06         0.00000E+00
    0.40663E+06        -0.97545E+08         0.00000E+00
    0.00000E+00         0.00000E+00        -0.48981E+08
 
   -0.48579E+08         0.42803E+06         0.00000E+00
    0.42803E+06        -0.97543E+08         0.00000E+00
    0.00000E+00         0.00000E+00        -0.48922E+08
 
   -0.48500E+08         0.45041E+06         0.00000E+00
    0.45041E+06        -0.97540E+08         0.00000E+00
    0.00000E+00         0.00000E+00        -0.48860E+08
 
   -0.48417E+08         0.47379E+06         0.00000E+00
    0.47379E+06        -0.97537E+08         0.00000E+00
    0.00000E+00         0.00000E+00        -0.48795E+08
 
   -0.48330E+08         0.49819E+06         0.00000E+00
    0.49819E+06        -0.97535E+08         0.00000E+00
    0.00000E+00         0.00000E+00        -0.48725E+08
 
   -0.48238E+08         0.52362E+06         0.00000E+00
    0.52362E+06        -0.97532E+08         0.00000E+00
    0.00000E+00         0.00000E+00        -0.48652E+08
 
   -0.48141E+08         0.55008E+06         0.00000E+00
    0.55008E+06        -0.97529E+08         0.00000E+00
    0.00000E+00         0.00000E+00        -0.48574E+08
 
   -0.48039E+08         0.57758E+06         0.00000E+00
    0.57758E+06        -0.97526E+08         0.00000E+00
    0.00000E+00         0.00000E+00        -0.48491E+08
 
   -0.47933E+08         0.60610E+06         0.00000E+00
    0.60610E+06        -0.97524E+08         0.00000E+00
    0.00000E+00         0.00000E+00        -0.48404E+08
 
   -0.47821E+08         0.63563E+06         0.00000E+00
    0.63563E+06        -0.97521E+08         0.00000E+00
    0.00000E+00         0.00000E+00        -0.48312E+08
 
   -0.47703E+08         0.66613E+06         0.00000E+00
    0.66613E+06        -0.97519E+08         0.00000E+00
    0.00000E+00         0.00000E+00        -0.48214E+08
 
   -0.47580E+08         0.69755E+06         0.00000E+00
    0.69755E+06        -0.97516E+08         0.00000E+00
    0.00000E+00         0.00000E+00        -0.48111E+08
 
   -0.47451E+08         0.72981E+06         0.00000E+00
    0.72981E+06        -0.97514E+08         0.00000E+00
    0.00000E+00         0.00000E+00        -0.48002E+08
 
   -0.47316E+08         0.76285E+06         0.00000E+00
    0.76285E+06        -0.97512E+08         0.00000E+00
    0.00000E+00         0.00000E+00        -0.47886E+08
 
   -0.47175E+08         0.79652E+06         0.00000E+00
    0.79652E+06        -0.97511E+08         0.00000E+00
    0.00000E+00         0.00000E+00        -0.47763E+08
 
   -0.47027E+08         0.83070E+06         0.00000E+00
    0.83070E+06        -0.97510E+08         0.00000E+00
    0.00000E+00         0.00000E+00        -0.47634E+08
 
   -0.46873E+08         0.86519E+06         0.00000E+00
    0.86519E+06        -0.97509E+08         0.00000E+00
    0.00000E+00         0.00000E+00        -0.47496E+08
 
   -0.46713E+08         0.89978E+06         0.00000E+00
    0.89978E+06        -0.97510E+08         0.00000E+00
    0.00000E+00         0.00000E+00        -0.47351E+08
 
   -0.46545E+08         0.93419E+06         0.00000E+00
    0.93419E+06        -0.97511E+08         0.00000E+00
    0.00000E+00         0.00000E+00        -0.47196E+08
 
   -0.46371E+08         0.96810E+06         0.00000E+00
    0.96810E+06        -0.97513E+08         0.00000E+00
    0.00000E+00         0.00000E+00        -0.47033E+08
 
   -0.46191E+08         0.10011E+07         0.00000E+00
    0.10011E+07        -0.97516E+08         0.00000E+00
    0.00000E+00         0.00000E+00        -0.46860E+08
 
   -0.46003E+08         0.10328E+07         0.00000E+00
    0.10328E+07        -0.97521E+08         0.00000E+00
    0.00000E+00         0.00000E+00        -0.46676E+08
 
   -0.45809E+08         0.10626E+07         0.00000E+00
    0.10626E+07        -0.97528E+08         0.00000E+00
    0.00000E+00         0.00000E+00        -0.46481E+08
 
   -0.45608E+08         0.10898E+07         0.00000E+00
    0.10898E+07        -0.97537E+08         0.00000E+00
    0.00000E+00         0.00000E+00        -0.46275E+08
 
   -0.45401E+08         0.11138E+07         0.00000E+00
    0.11138E+07        -0.97548E+08         0.00000E+00
    0.00000E+00         0.00000E+00        -0.46055E+08
 
   -0.45187E+08         0.11337E+07         0.00000E+00
    0.11337E+07        -0.97563E+08         0.00000E+00
    0.00000E+00         0.00000E+00        -0.45823E+08
 
   -0.44967E+08         0.11486E+07         0.00000E+00
    0.11486E+07        -0.97580E+08         0.00000E+00
    0.00000E+00         0.00000E+00        -0.45576E+08
 
   -0.44741E+08         0.11574E+07         0.00000E+00
    0.11574E+07        -0.97602E+08         0.00000E+00
    0.00000E+00         0.00000E+00        -0.45314E+08
 
   -0.44510E+08         0.11589E+07         0.00000E+00
    0.11589E+07        -0.97627E+08         0.00000E+00
    0.00000E+00         0.00000E+00        -0.45036E+08
 
   -0.44273E+08         0.11519E+07         0.00000E+00
    0.11519E+07        -0.97658E+08         0.00000E+00
    0.00000E+00         0.00000E+00        -0.44740E+08
 
   -0.44031E+08         0.11349E+07         0.00000E+00
    0.11349E+07        -0.97693E+08         0.00000E+00
    0.00000E+00         0.00000E+00        -0.44426E+08
 
   -0.43784E+08         0.11066E+07         0.00000E+00
    0.11066E+07        -0.97734E+08         0.00000E+00
    0.00000E+00         0.00000E+00        -0.44092E+08
 
   -0.43532E+08         0.10656E+07         0.00000E+00
    0.10656E+07        -0.97780E+08         0.00000E+00
    0.00000E+00         0.00000E+00        -0.43737E+08
 
   -0.43275E+08         0.10105E+07         0.00000E+00
    0.10105E+07        -0.97831E+08         0.00000E+00
    0.00000E+00         0.00000E+00        -0.43359E+08
 
   -0.43015E+08         0.94017E+06         0.00000E+00
    0.94017E+06        -0.97887E+08         0.00000E+00
    0.00000E+00         0.00000E+00        -0.42957E+08
 
   -0.42750E+08         0.85393E+06         0.00000E+00
    0.85393E+06        -0.97946E+08         0.00000E+00
    0.00000E+00         0.00000E+00        -0.42528E+08
 
   -0.42481E+08         0.75158E+06         0.00000E+00
    0.75158E+06        -0.98005E+08         0.00000E+00
    0.00000E+00         0.00000E+00        -0.42072E+08
 
   -0.42208E+08         0.63390E+06         0.00000E+00
    0.63390E+06        -0.98061E+08         0.00000E+00
    0.00000E+00         0.00000E+00        -0.41586E+08
 
   -0.41931E+08         0.50299E+06         0.00000E+00
    0.50299E+06        -0.98109E+08         0.00000E+00
    0.00000E+00         0.00000E+00        -0.41067E+08
 
   -0.41652E+08         0.36286E+06         0.00000E+00
    0.36286E+06        -0.98141E+08         0.00000E+00
    0.00000E+00         0.00000E+00        -0.40514E+08
 
   -0.41372E+08         0.22010E+06         0.00000E+00
    0.22010E+06        -0.98147E+08         0.00000E+00
    0.00000E+00         0.00000E+00        -0.39924E+08
 
   -0.41095E+08         0.84515E+05         0.00000E+00
    0.84515E+05        -0.98110E+08         0.00000E+00
    0.00000E+00         0.00000E+00        -0.39294E+08
 
   -0.40826E+08        -0.30621E+05         0.00000E+00
   -0.30621E+05        -0.98010E+08         0.00000E+00
    0.00000E+00         0.00000E+00        -0.38622E+08
 
   -0.40576E+08        -0.10972E+06         0.00000E+00
   -0.10972E+06        -0.97819E+08         0.00000E+00
    0.00000E+00         0.00000E+00        -0.37905E+08
 
   -0.40360E+08        -0.13882E+06         0.00000E+00
   -0.13882E+06        -0.97500E+08         0.00000E+00
    0.00000E+00         0.00000E+00        -0.37139E+08
 
   -0.40198E+08        -0.11286E+06         0.00000E+00
   -0.11286E+06        -0.97012E+08         0.00000E+00
    0.00000E+00         0.00000E+00        -0.36322E+08
 
   -0.40110E+08        -0.43046E+05         0.00000E+00
   -0.43046E+05        -0.96316E+08         0.00000E+00
    0.00000E+00         0.00000E+00        -0.35450E+08
 
   -0.49926E+08         0.81698E+03         0.00000E+00
    0.81698E+03        -0.97603E+08         0.00000E+00
    0.00000E+00         0.00000E+00        -0.49997E+08
 
   -0.49925E+08         0.25690E+04         0.00000E+00
    0.25690E+04        -0.97598E+08         0.00000E+00
    0.00000E+00         0.00000E+00        -0.49990E+08
 
   -0.49923E+08         0.46534E+04         0.00000E+00
    0.46534E+04        -0.97595E+08         0.00000E+00
    0.00000E+00         0.00000E+00        -0.49984E+08
 
   -0.49920E+08         0.71634E+04         0.00000E+00
    0.71634E+04        -0.97593E+08         0.00000E+00
    0.00000E+00         0.00000E+00        -0.49978E+08
 
   -0.49917E+08         0.10068E+05         0.00000E+00
    0.10068E+05        -0.97591E+08         0.00000E+00
    0.00000E+00         0.00000E+00        -0.49972E+08
 
   -0.49913E+08         0.13271E+05         0.00000E+00
    0.13271E+05        -0.97591E+08         0.00000E+00
    0.00000E+00         0.00000E+00        -0.49965E+08
 
   -0.49908E+08         0.16666E+05         0.00000E+00
    0.16666E+05        -0.97590E+08         0.00000E+00
    0.00000E+00         0.00000E+00        -0.49959E+08
 
   -0.49903E+08         0.20163E+05         0.00000E+00
    0.20163E+05        -0.97590E+08         0.00000E+00
    0.00000E+00         0.00000E+00        -0.49953E+08
 
   -0.49898E+08         0.23700E+05         0.00000E+00
    0.23700E+05        -0.97590E+08         0.00000E+00
    0.00000E+00         0.00000E+00        -0.49946E+08
 
   -0.49892E+08         0.27237E+05         0.00000E+00
    0.27237E+05        -0.97590E+08         0.00000E+00
    0.00000E+00         0.00000E+00        -0.49939E+08
 
   -0.49885E+08         0.30754E+05         0.00000E+00
    0.30754E+05        -0.97590E+08         0.00000E+00
    0.00000E+00         0.00000E+00        -0.49933E+08
 
   -0.49879E+08         0.34245E+05         0.00000E+00
    0.34245E+05        -0.97591E+08         0.00000E+00
    0.00000E+00         0.00000E+00        -0.49926E+08
 
   -0.49871E+08         0.37713E+05         0.00000E+00
    0.37713E+05        -0.97591E+08         0.00000E+00
    0.00000E+00         0.00000E+00        -0.49919E+08
 
   -0.49863E+08         0.41166E+05         0.00000E+00
    0.41166E+05        -0.97591E+08         0.00000E+00
    0.00000E+00         0.00000E+00        -0.49911E+08
 
   -0.49855E+08         0.44620E+05         0.00000E+00
    0.44620E+05        -0.97591E+08         0.00000E+00
    0.00000E+00         0.00000E+00        -0.49904E+08
 
   -0.49846E+08         0.48091E+05         0.00000E+00
    0.48091E+05        -0.97591E+08         0.00000E+00
    0.00000E+00         0.00000E+00        -0.49896E+08
 
   -0.49836E+08         0.51599E+05         0.00000E+00
    0.51599E+05        -0.97591E+08         0.00000E+00
    0.00000E+00         0.00000E+00        -0.49888E+08
 
   -0.49826E+08         0.55162E+05         0.00000E+00
    0.55162E+05        -0.97591E+08         0.00000E+00
    0.00000E+00         0.00000E+00        -0.49879E+08
 
   -0.49815E+08         0.58802E+05         0.00000E+00
    0.58802E+05        -0.97591E+08         0.00000E+00
    0.00000E+00         0.00000E+00        -0.49870E+08
 
   -0.49803E+08         0.62538E+05         0.00000E+00
    0.62538E+05        -0.97590E+08         0.00000E+00
    0.00000E+00         0.00000E+00        -0.49861E+08
 
   -0.49791E+08         0.66390E+05         0.00000E+00
    0.66390E+05        -0.97590E+08         0.00000E+00
    0.00000E+00         0.00000E+00        -0.49851E+08
 
   -0.49778E+08         0.70378E+05         0.00000E+00
    0.70378E+05        -0.97590E+08         0.00000E+00
    0.00000E+00         0.00000E+00        -0.49841E+08
 
   -0.49765E+08         0.74522E+05         0.00000E+00
    0.74522E+05        -0.97589E+08         0.00000E+00
    0.00000E+00         0.00000E+00        -0.49831E+08
 
   -0.49750E+08         0.78840E+05         0.00000E+00
    0.78840E+05        -0.97589E+08         0.00000E+00
    0.00000E+00         0.00000E+00        -0.49820E+08
 
   -0.49735E+08         0.83351E+05         0.00000E+00
    0.83351E+05        -0.97588E+08         0.00000E+00
    0.00000E+00         0.00000E+00        -0.49808E+08
 
   -0.49719E+08         0.88074E+05         0.00000E+00
    0.88074E+05        -0.97588E+08         0.00000E+00
    0.00000E+00         0.00000E+00        -0.49796E+08
 
   -0.49702E+08         0.93028E+05         0.00000E+00
    0.93028E+05        -0.97587E+08         0.00000E+00
    0.00000E+00         0.00000E+00        -0.49783E+08
 
   -0.49684E+08         0.98231E+05         0.00000E+00
    0.98231E+05        -0.97587E+08         0.00000E+00
    0.00000E+00         0.00000E+00        -0.49769E+08
 
   -0.49665E+08         0.10370E+06         0.00000E+00
    0.10370E+06        -0.97586E+08         0.00000E+00
    0.00000E+00         0.00000E+00        -0.49755E+08
 
   -0.49645E+08         0.10946E+06         0.00000E+00
    0.10946E+06        -0.97585E+08         0.00000E+00
    0.00000E+00         0.00000E+00        -0.49740E+08
 
   -0.49624E+08         0.11552E+06         0.00000E+00
    0.11552E+06        -0.97584E+08         0.00000E+00
    0.00000E+00         0.00000E+00        -0.49724E+08
 
   -0.49602E+08         0.12191E+06         0.00000E+00
    0.12191E+06        -0.97584E+08         0.00000E+00
    0.00000E+00         0.00000E+00        -0.49708E+08
 
   -0.49578E+08         0.12865E+06         0.00000E+00
    0.12865E+06        -0.97583E+08         0.00000E+00
    0.00000E+00         0.00000E+00        -0.49690E+08
 
   -0.49553E+08         0.13575E+06         0.00000E+00
    0.13575E+06        -0.97582E+08         0.00000E+00
    0.00000E+00         0.00000E+00        -0.49672E+08
 
   -0.49527E+08         0.14324E+06         0.00000E+00
    0.14324E+06        -0.97581E+08         0.00000E+00
    0.00000E+00         0.00000E+00        -0.49652E+08
 
   -0.49500E+08         0.15113E+06         0.00000E+00
    0.15113E+06        -0.97580E+08         0.00000E+00
    0.00000E+00         0.00000E+00        -0.49631E+08
 
   -0.49470E+08         0.15946E+06         0.00000E+00
    0.15946E+06        -0.97578E+08         0.00000E+00
    0.00000E+00         0.00000E+00        -0.49610E+08
 
   -0.49440E+08         0.16824E+06         0.00000E+00
    0.16824E+06        -0.97577E+08         0.00000E+00
    0.00000E+00         0.00000E+00        -0.49587E+08
 
   -0.49407E+08         0.17750E+06         0.00000E+00
    0.17750E+06        -0.97576E+08         0.00000E+00
    0.00000E+00         0.00000E+00        -0.49562E+08
 
   -0.49373E+08         0.18727E+06         0.00000E+00
    0.18727E+06        -0.97575E+08         0.00000E+00
    0.00000E+00         0.00000E+00        -0.49537E+08
 
   -0.49337E+08         0.19756E+06         0.00000E+00
    0.19756E+06        -0.97573E+08         0.00000E+00
    0.00000E+00         0.00000E+00        -0.49510E+08
 
   -0.49299E+08         0.20840E+06         0.00000E+00
    0.20840E+06        -0.97572E+08         0.00000E+00
    0.00000E+00         0.00000E+00        -0.49481E+08
 
   -0.49259E+08         0.21982E+06         0.00000E+00
    0.21982E+06        -0.97571E+08         0.00000E+00
    0.00000E+00         0.00000E+00        -0.49451E+08
 
   -0.49216E+08         0.23186E+06         0.00000E+00
    0.23186E+06        -0.97569E+08         0.00000E+00
    0.00000E+00         0.00000E+00        -0.49419E+08
 
   -0.49172E+08         0.24452E+06         0.00000E+00
    0.24452E+06        -0.97567E+08         0.00000E+00
    0.00000E+00         0.00000E+00        -0.49385E+08
 
   -0.49125E+08         0.25786E+06         0.00000E+00
    0.25786E+06        -0.97566E+08         0.00000E+00
    0.00000E+00         0.00000E+00        -0.49350E+08
 
   -0.49075E+08         0.27188E+06         0.00000E+00
    0.27188E+06        -0.97564E+08         0.00000E+00
    0.00000E+00         0.00000E+00        -0.49312E+08
 
   -0.49022E+08         0.28663E+06         0.00000E+00
    0.28663E+06        -0.97562E+08         0.00000E+00
    0.00000E+00         0.00000E+00        -0.49272E+08
 
   -0.48967E+08         0.30213E+06         0.00000E+00
    0.30213E+06        -0.97560E+08         0.00000E+00
    0.00000E+00         0.00000E+00        -0.49230E+08
 
   -0.48909E+08         0.31842E+06         0.00000E+00
    0.31842E+06        -0.97558E+08         0.00000E+00
    0.00000E+00         0.00000E+00        -0.49186E+08
 
   -0.48847E+08         0.33551E+06         0.00000E+00
    0.33551E+06        -0.97556E+08         0.00000E+00
    0.00000E+00         0.00000E+00        -0.49139E+08
 
   -0.48783E+08         0.35345E+06         0.00000E+00
    0.35345E+06        -0.97554E+08         0.00000E+00
    0.00000E+00         0.00000E+00        -0.49089E+08
 
   -0.48715E+08         0.37225E+06         0.00000E+00
    0.37225E+06        -0.97552E+08         0.00000E+00
    0.00000E+00         0.00000E+00        -0.49037E+08
 
   -0.48643E+08         0.39196E+06         0.00000E+00
    0.39196E+06        -0.97549E+08         0.00000E+00
    0.00000E+00         0.00000E+00        -0.48981E+08
 
   -0.48567E+08         0.41258E+06         0.00000E+00
    0.41258E+06        -0.97547E+08         0.00000E+00
    0.00000E+00         0.00000E+00        -0.48922E+08
 
   -0.48488E+08         0.43415E+06         0.00000E+00
    0.43415E+06        -0.97544E+08         0.00000E+00
    0.00000E+00         0.00000E+00        -0.48860E+08
 
   -0.48404E+08         0.45668E+06         0.00000E+00
    0.45668E+06        -0.97542E+08         0.00000E+00
    0.00000E+00         0.00000E+00        -0.48794E+08
 
   -0.48316E+08         0.48019E+06         0.00000E+00
    0.48019E+06        -0.97540E+08         0.00000E+00
    0.00000E+00         0.00000E+00        -0.48725E+08
 
   -0.48223E+08         0.50469E+06         0.00000E+00
    0.50469E+06        -0.97537E+08         0.00000E+00
    0.00000E+00         0.00000E+00        -0.48651E+08
 
   -0.48126E+08         0.53019E+06         0.00000E+00
    0.53019E+06        -0.97534E+08         0.00000E+00
    0.00000E+00         0.00000E+00        -0.48574E+08
 
   -0.48023E+08         0.55669E+06         0.00000E+00
    0.55669E+06        -0.97532E+08         0.00000E+00
    0.00000E+00         0.00000E+00        -0.48491E+08
 
   -0.47916E+08         0.58417E+06         0.00000E+00
    0.58417E+06        -0.97529E+08         0.00000E+00
    0.00000E+00         0.00000E+00        -0.48404E+08
 
   -0.47803E+08         0.61262E+06         0.00000E+00
    0.61262E+06        -0.97527E+08         0.00000E+00
    0.00000E+00         0.00000E+00        -0.48312E+08
 
   -0.47685E+08         0.64200E+06         0.00000E+00
    0.64200E+06        -0.97525E+08         0.00000E+00
    0.00000E+00         0.00000E+00        -0.48214E+08
 
   -0.47561E+08         0.67226E+06         0.00000E+00
    0.67226E+06        -0.97523E+08         0.00000E+00
    0.00000E+00         0.00000E+00        -0.48111E+08
 
   -0.47431E+08         0.70334E+06         0.00000E+00
    0.70334E+06        -0.97521E+08         0.00000E+00
    0.00000E+00         0.00000E+00        -0.48002E+08
 
   -0.47295E+08         0.73515E+06         0.00000E+00
    0.73515E+06        -0.97519E+08         0.00000E+00
    0.00000E+00         0.00000E+00        -0.47886E+08
 
   -0.47153E+08         0.76757E+06         0.00000E+00
    0.76757E+06        -0.97518E+08         0.00000E+00
    0.00000E+00         0.00000E+00        -0.47763E+08
 
   -0.47005E+08         0.80046E+06         0.00000E+00
    0.80046E+06        -0.97517E+08         0.00000E+00
    0.00000E+00         0.00000E+00        -0.47633E+08
 
   -0.46850E+08         0.83365E+06         0.00000E+00
    0.83365E+06        -0.97516E+08         0.00000E+00
    0.00000E+00         0.00000E+00        -0.47496E+08
 
   -0.46689E+08         0.86692E+06         0.00000E+00
    0.86692E+06        -0.97516E+08         0.00000E+00
    0.00000E+00         0.00000E+00        -0.47350E+08
 
   -0.46521E+08         0.90000E+06         0.00000E+00
    0.90000E+06        -0.97517E+08         0.00000E+00
    0.00000E+00         0.00000E+00        -0.47196E+08
 
   -0.46346E+08         0.93257E+06         0.00000E+00
    0.93257E+06        -0.97520E+08         0.00000E+00
    0.00000E+00         0.00000E+00        -0.47032E+08
 
   -0.46164E+08         0.96424E+06         0.00000E+00
    0.96424E+06        -0.97523E+08         0.00000E+00
    0.00000E+00         0.00000E+00        -0.46859E+08
 
   -0.45976E+08         0.99458E+06         0.00000E+00
    0.99458E+06        -0.97527E+08         0.00000E+00
    0.00000E+00         0.00000E+00        -0.46676E+08
 
   -0.45782E+08         0.10230E+07         0.00000E+00
    0.10230E+07        -0.97534E+08         0.00000E+00
    0.00000E+00         0.00000E+00        -0.46481E+08
 
   -0.45581E+08         0.10490E+07         0.00000E+00
    0.10490E+07        -0.97542E+08         0.00000E+00
    0.00000E+00         0.00000E+00        -0.46274E+08
 
   -0.45373E+08         0.10717E+07         0.00000E+00
    0.10717E+07        -0.97553E+08         0.00000E+00
    0.00000E+00         0.00000E+00        -0.46055E+08
 
   -0.45160E+08         0.10904E+07         0.00000E+00
    0.10904E+07        -0.97566E+08         0.00000E+00
    0.00000E+00         0.00000E+00        -0.45823E+08
 
   -0.44941E+08         0.11041E+07         0.00000E+00
    0.11041E+07        -0.97583E+08         0.00000E+00
    0.00000E+00         0.00000E+00        -0.45576E+08
 
   -0.44716E+08         0.11118E+07         0.00000E+00
    0.11118E+07        -0.97603E+08         0.00000E+00
    0.00000E+00         0.00000E+00        -0.45314E+08
 
   -0.44486E+08         0.11122E+07         0.00000E+00
    0.11122E+07        -0.97627E+08         0.00000E+00
    0.00000E+00         0.00000E+00        -0.45036E+08
 
   -0.44251E+08         0.11042E+07         0.00000E+00
    0.11042E+07        -0.97655E+08         0.00000E+00
    0.00000E+00         0.00000E+00        -0.44740E+08
 
   -0.44011E+08         0.10863E+07         0.00000E+00
    0.10863E+07        -0.97689E+08         0.00000E+00
    0.00000E+00         0.00000E+00        -0.44426E+08
 
   -0.43767E+08         0.10571E+07         0.00000E+00
    0.10571E+07        -0.97727E+08         0.00000E+00
    0.00000E+00         0.00000E+00        -0.44092E+08
 
   -0.43520E+08         0.10152E+07         0.00000E+00
    0.10152E+07        -0.97770E+08         0.00000E+00
    0.00000E+00         0.00000E+00        -0.43737E+08
 
   -0.43269E+08         0.95937E+06         0.00000E+00
    0.95937E+06        -0.97819E+08         0.00000E+00
    0.00000E+00         0.00000E+00        -0.43359E+08
 
   -0.43015E+08         0.88834E+06         0.00000E+00
    0.88834E+06        -0.97871E+08         0.00000E+00
    0.00000E+00         0.00000E+00        -0.42957E+08
 
   -0.42758E+08         0.80139E+06         0.00000E+00
    0.80139E+06        -0.97927E+08         0.00000E+00
    0.00000E+00         0.00000E+00        -0.42528E+08
 
   -0.42499E+08         0.69838E+06         0.00000E+00
    0.69838E+06        -0.97983E+08         0.00000E+00
    0.00000E+00         0.00000E+00        -0.42072E+08
 
   -0.42237E+08         0.58009E+06         0.00000E+00
    0.58009E+06        -0.98036E+08         0.00000E+00
    0.00000E+00         0.00000E+00        -0.41586E+08
 
   -0.41973E+08         0.44867E+06         0.00000E+00
    0.44867E+06        -0.98082E+08         0.00000E+00
    0.00000E+00         0.00000E+00        -0.41067E+08
 
   -0.41708E+08         0.30824E+06         0.00000E+00
    0.30824E+06        -0.98113E+08         0.00000E+00
    0.00000E+00         0.00000E+00        -0.40514E+08
 
   -0.41442E+08         0.16558E+06         0.00000E+00
    0.16558E+06        -0.98118E+08         0.00000E+00
    0.00000E+00         0.00000E+00        -0.39925E+08
 
   -0.41180E+08         0.30880E+05         0.00000E+00
    0.30880E+05        -0.98084E+08         0.00000E+00
    0.00000E+00         0.00000E+00        -0.39295E+08
 
   -0.40925E+08        -0.81938E+05         0.00000E+00
   -0.81938E+05        -0.97990E+08         0.00000E+00
    0.00000E+00         0.00000E+00        -0.38623E+08
 
   -0.40686E+08        -0.15629E+06         0.00000E+00
   -0.15629E+06        -0.97808E+08         0.00000E+00
    0.00000E+00         0.00000E+00        -0.37906E+08
 
   -0.40478E+08        -0.17705E+06         0.00000E+00
   -0.17705E+06        -0.97501E+08         0.00000E+00
    0.00000E+00         0.00000E+00        -0.37140E+08
 
   -0.40321E+08        -0.13838E+06         0.00000E+00
   -0.13838E+06        -0.97024E+08         0.00000E+00
    0.00000E+00         0.00000E+00        -0.36323E+08
 
   -0.40235E+08        -0.52058E+05         0.00000E+00
   -0.52058E+05        -0.96334E+08         0.00000E+00
    0.00000E+00         0.00000E+00        -0.35450E+08
 
   -0.49924E+08         0.71126E+03         0.00000E+00
    0.71126E+03        -0.97603E+08         0.00000E+00
    0.00000E+00         0.00000E+00        -0.49997E+08
 
   -0.49923E+08         0.22634E+04         0.00000E+00
    0.22634E+04        -0.97598E+08         0.00000E+00
    0.00000E+00         0.00000E+00        -0.49990E+08
 
   -0.49921E+08         0.41760E+04         0.00000E+00
    0.41760E+04        -0.97595E+08         0.00000E+00
    0.00000E+00         0.00000E+00        -0.49984E+08
 
   -0.49918E+08         0.65446E+04         0.00000E+00
    0.65446E+04        -0.97593E+08         0.00000E+00
    0.00000E+00         0.00000E+00        -0.49978E+08
 
   -0.49915E+08         0.93311E+04         0.00000E+00
    0.93311E+04        -0.97592E+08         0.00000E+00
    0.00000E+00         0.00000E+00        -0.49972E+08
 
   -0.49911E+08         0.12430E+05         0.00000E+00
    0.12430E+05        -0.97591E+08         0.00000E+00
    0.00000E+00         0.00000E+00        -0.49965E+08
 
   -0.49906E+08         0.15726E+05         0.00000E+00
    0.15726E+05        -0.97591E+08         0.00000E+00
    0.00000E+00         0.00000E+00        -0.49959E+08
 
   -0.49902E+08         0.19127E+05         0.00000E+00
    0.19127E+05        -0.97591E+08         0.00000E+00
    0.00000E+00         0.00000E+00        -0.49953E+08
 
   -0.49896E+08         0.22567E+05         0.00000E+00
    0.22567E+05        -0.97591E+08         0.00000E+00
    0.00000E+00         0.00000E+00        -0.49946E+08
 
   -0.49890E+08         0.26007E+05         0.00000E+00
    0.26007E+05        -0.97591E+08         0.00000E+00
    0.00000E+00         0.00000E+00        -0.49939E+08
 
   -0.49884E+08         0.29425E+05         0.00000E+00
    0.29425E+05        -0.97591E+08         0.00000E+00
    0.00000E+00         0.00000E+00        -0.49933E+08
 
   -0.49877E+08         0.32814E+05         0.00000E+00
    0.32814E+05        -0.97591E+08         0.00000E+00
    0.00000E+00         0.00000E+00        -0.49926E+08
 
   -0.49870E+08         0.36176E+05         0.00000E+00
    0.36176E+05        -0.97591E+08         0.00000E+00
    0.00000E+00         0.00000E+00        -0.49919E+08
 
   -0.49862E+08         0.39521E+05         0.00000E+00
    0.39521E+05        -0.97592E+08         0.00000E+00
    0.00000E+00         0.00000E+00        -0.49911E+08
 
   -0.49853E+08         0.42863E+05         0.00000E+00
    0.42863E+05        -0.97592E+08         0.00000E+00
    0.00000E+00         0.00000E+00        -0.49904E+08
 
   -0.49844E+08         0.46219E+05         0.00000E+00
    0.46219E+05        -0.97592E+08         0.00000E+00
    0.00000E+00         0.00000E+00        -0.49896E+08
 
   -0.49834E+08         0.49607E+05         0.00000E+00
    0.49607E+05        -0.97592E+08         0.00000E+00
    0.00000E+00         0.00000E+00        -0.49888E+08
 
   -0.49824E+08         0.53047E+05         0.00000E+00
    0.53047E+05        -0.97591E+08         0.00000E+00
    0.00000E+00         0.00000E+00        -0.49879E+08
 
   -0.49813E+08         0.56558E+05         0.00000E+00
    0.56558E+05        -0.97591E+08         0.00000E+00
    0.00000E+00         0.00000E+00        -0.49870E+08
 
   -0.49802E+08         0.60159E+05         0.00000E+00
    0.60159E+05        -0.97591E+08         0.00000E+00
    0.00000E+00         0.00000E+00        -0.49861E+08
 
   -0.49789E+08         0.63872E+05         0.00000E+00
    0.63872E+05        -0.97591E+08         0.00000E+00
    0.00000E+00         0.00000E+00        -0.49851E+08
 
   -0.49776E+08         0.67714E+05         0.00000E+00
    0.67714E+05        -0.97591E+08         0.00000E+00
    0.00000E+00         0.00000E+00        -0.49841E+08
 
   -0.49762E+08         0.71704E+05         0.00000E+00
    0.71704E+05        -0.97590E+08         0.00000E+00
    0.00000E+00         0.00000E+00        -0.49831E+08
 
   -0.49748E+08         0.75862E+05         0.00000E+00
    0.75862E+05        -0.97590E+08         0.00000E+00
    0.00000E+00         0.00000E+00        -0.49820E+08
 
   -0.49733E+08         0.80205E+05         0.00000E+00
    0.80205E+05        -0.97589E+08         0.00000E+00
    0.00000E+00         0.00000E+00        -0.49808E+08
 
   -0.49716E+08         0.84752E+05         0.00000E+00
    0.84752E+05        -0.97589E+08         0.00000E+00
    0.00000E+00         0.00000E+00        -0.49796E+08
 
   -0.49699E+08         0.89521E+05         0.00000E+00
    0.89521E+05        -0.97588E+08         0.00000E+00
    0.00000E+00         0.00000E+00        -0.49783E+08
 
   -0.49681E+08         0.94529E+05         0.00000E+00
    0.94529E+05        -0.97588E+08         0.00000E+00
    0.00000E+00         0.00000E+00        -0.49769E+08
 
   -0.49662E+08         0.99794E+05         0.00000E+00
    0.99794E+05        -0.97587E+08         0.00000E+00
    0.00000E+00         0.00000E+00        -0.49755E+08
 
   -0.49642E+08         0.10534E+06         0.00000E+00
    0.10534E+06        -0.97586E+08         0.00000E+00
    0.00000E+00         0.00000E+00        -0.49740E+08
 
   -0.49621E+08         0.11117E+06         0.00000E+00
    0.11117E+06        -0.97586E+08         0.00000E+00
    0.00000E+00         0.00000E+00        -0.49724E+08
 
   -0.49598E+08         0.11732E+06         0.00000E+00
    0.11732E+06        -0.97585E+08         0.00000E+00
    0.00000E+00         0.00000E+00        -0.49708E+08
 
   -0.49574E+08         0.12380E+06         0.00000E+00
    0.12380E+06        -0.97584E+08         0.00000E+00
    0.00000E+00         0.00000E+00        -0.49690E+08
 
   -0.49549E+08         0.13064E+06         0.00000E+00
    0.13064E+06        -0.97583E+08         0.00000E+00
    0.00000E+00         0.00000E+00        -0.49672E+08
 
   -0.49523E+08         0.13784E+06         0.00000E+00
    0.13784E+06        -0.97582E+08         0.00000E+00
    0.00000E+00         0.00000E+00        -0.49652E+08
 
   -0.49495E+08         0.14544E+06         0.00000E+00
    0.14544E+06        -0.97581E+08         0.00000E+00
    0.00000E+00         0.00000E+00        -0.49631E+08
 
   -0.49466E+08         0.15345E+06         0.00000E+00
    0.15345E+06        -0.97580E+08         0.00000E+00
    0.00000E+00         0.00000E+00        -0.49610E+08
 
   -0.49435E+08         0.16191E+06         0.00000E+00
    0.16191E+06        -0.97579E+08         0.00000E+00
    0.00000E+00         0.00000E+00        -0.49587E+08
 
   -0.49402E+08         0.17082E+06         0.00000E+00
    0.17082E+06        -0.97578E+08         0.00000E+00
    0.00000E+00         0.00000E+00        -0.49562E+08
 
   -0.49368E+08         0.18021E+06         0.00000E+00
    0.18021E+06        -0.97577E+08         0.00000E+00
    0.00000E+00         0.00000E+00        -0.49537E+08
 
   -0.49331E+08         0.19011E+06         0.00000E+00
    0.19011E+06        -0.97576E+08         0.00000E+00
    0.00000E+00         0.00000E+00        -0.49510E+08
 
   -0.49293E+08         0.20055E+06         0.00000E+00
    0.20055E+06        -0.97574E+08         0.00000E+00
    0.00000E+00         0.00000E+00        -0.49481E+08
 
   -0.49252E+08         0.21154E+06         0.00000E+00
    0.21154E+06        -0.97573E+08         0.00000E+00
    0.00000E+00         0.00000E+00        -0.49451E+08
 
   -0.49210E+08         0.22312E+06         0.00000E+00
    0.22312E+06        -0.97571E+08         0.00000E+00
    0.00000E+00         0.00000E+00        -0.49419E+08
 
   -0.49165E+08         0.23531E+06         0.00000E+00
    0.23531E+06        -0.97570E+08         0.00000E+00
    0.00000E+00         0.00000E+00        -0.49385E+08
 
   -0.49117E+08         0.24814E+06         0.00000E+00
    0.24814E+06        -0.97568E+08         0.00000E+00
    0.00000E+00         0.00000E+00        -0.49350E+08
 
   -0.49067E+08         0.26163E+06         0.00000E+00
    0.26163E+06        -0.97567E+08         0.00000E+00
    0.00000E+00         0.00000E+00        -0.49312E+08
 
   -0.49014E+08         0.27583E+06         0.00000E+00
    0.27583E+06        -0.97565E+08         0.00000E+00
    0.00000E+00         0.00000E+00        -0.49272E+08
 
   -0.48959E+08         0.29074E+06         0.00000E+00
    0.29074E+06        -0.97563E+08         0.00000E+00
    0.00000E+00         0.00000E+00        -0.49230E+08
 
   -0.48900E+08         0.30641E+06         0.00000E+00
    0.30641E+06        -0.97561E+08         0.00000E+00
    0.00000E+00         0.00000E+00        -0.49186E+08
 
   -0.48838E+08         0.32286E+06         0.00000E+00
    0.32286E+06        -0.97559E+08         0.00000E+00
    0.00000E+00         0.00000E+00        -0.49139E+08
 
   -0.48773E+08         0.34012E+06         0.00000E+00
    0.34012E+06        -0.97557E+08         0.00000E+00
    0.00000E+00         0.00000E+00        -0.49089E+08
 
   -0.48704E+08         0.35821E+06         0.00000E+00
    0.35821E+06        -0.97555E+08         0.00000E+00
    0.00000E+00         0.00000E+00        -0.49037E+08
 
   -0.48632E+08         0.37717E+06         0.00000E+00
    0.37717E+06        -0.97553E+08         0.00000E+00
    0.00000E+00         0.00000E+00        -0.48981E+08
 
   -0.48555E+08         0.39701E+06         0.00000E+00
    0.39701E+06        -0.97551E+08         0.00000E+00
    0.00000E+00         0.00000E+00        -0.48922E+08
 
   -0.48475E+08         0.41776E+06         0.00000E+00
    0.41776E+06        -0.97549E+08         0.00000E+00
    0.00000E+00         0.00000E+00        -0.48860E+08
 
   -0.48391E+08         0.43943E+06         0.00000E+00
    0.43943E+06        -0.97547E+08         0.00000E+00
    0.00000E+00         0.00000E+00        -0.48794E+08
 
   -0.48302E+08         0.46205E+06         0.00000E+00
    0.46205E+06        -0.97544E+08         0.00000E+00
    0.00000E+00         0.00000E+00        -0.48725E+08
 
   -0.48209E+08         0.48563E+06         0.00000E+00
    0.48563E+06        -0.97542E+08         0.00000E+00
    0.00000E+00         0.00000E+00        -0.48651E+08
 
   -0.48111E+08         0.51016E+06         0.00000E+00
    0.51016E+06        -0.97540E+08         0.00000E+00
    0.00000E+00         0.00000E+00        -0.48573E+08
 
   -0.48008E+08         0.53565E+06         0.00000E+00
    0.53565E+06        -0.97537E+08         0.00000E+00
    0.00000E+00         0.00000E+00        -0.48491E+08
 
   -0.47899E+08         0.56208E+06         0.00000E+00
    0.56208E+06        -0.97535E+08         0.00000E+00
    0.00000E+00         0.00000E+00        -0.48404E+08
 
   -0.47786E+08         0.58945E+06         0.00000E+00
    0.58945E+06        -0.97533E+08         0.00000E+00
    0.00000E+00         0.00000E+00        -0.48312E+08
 
   -0.47667E+08         0.61770E+06         0.00000E+00
    0.61770E+06        -0.97531E+08         0.00000E+00
    0.00000E+00         0.00000E+00        -0.48214E+08
 
   -0.47542E+08         0.64681E+06         0.00000E+00
    0.64681E+06        -0.97529E+08         0.00000E+00
    0.00000E+00         0.00000E+00        -0.48111E+08
 
   -0.47411E+08         0.67670E+06         0.00000E+00
    0.67670E+06        -0.97527E+08         0.00000E+00
    0.00000E+00         0.00000E+00        -0.48001E+08
 
   -0.47275E+08         0.70728E+06         0.00000E+00
    0.70728E+06        -0.97525E+08         0.00000E+00
    0.00000E+00         0.00000E+00        -0.47886E+08
 
   -0.47132E+08         0.73845E+06         0.00000E+00
    0.73845E+06        -0.97524E+08         0.00000E+00
    0.00000E+00         0.00000E+00        -0.47763E+08
 
   -0.46983E+08         0.77006E+06         0.00000E+00
    0.77006E+06        -0.97523E+08         0.00000E+00
    0.00000E+00         0.00000E+00        -0.47633E+08
 
   -0.46827E+08         0.80195E+06         0.00000E+00
    0.80195E+06        -0.97523E+08         0.00000E+00
    0.00000E+00         0.00000E+00        -0.47496E+08
 
   -0.46665E+08         0.83390E+06         0.00000E+00
    0.83390E+06        -0.97523E+08         0.00000E+00
    0.00000E+00         0.00000E+00        -0.47350E+08
 
   -0.46496E+08         0.86566E+06         0.00000E+00
    0.86566E+06        -0.97524E+08         0.00000E+00
    0.00000E+00         0.00000E+00        -0.47196E+08
 
   -0.46320E+08         0.89689E+06         0.00000E+00
    0.89689E+06        -0.97526E+08         0.00000E+00
    0.00000E+00         0.00000E+00        -0.47032E+08
 
   -0.46138E+08         0.92725E+06         0.00000E+00
    0.92725E+06        -0.97529E+08         0.00000E+00
    0.00000E+00         0.00000E+00        -0.46859E+08
 
   -0.45950E+08         0.95627E+06         0.00000E+00
    0.95627E+06        -0.97533E+08         0.00000E+00
    0.00000E+00         0.00000E+00        -0.46675E+08
 
   -0.45755E+08         0.98343E+06         0.00000E+00
    0.98343E+06        -0.97539E+08         0.00000E+00
    0.00000E+00         0.00000E+00        -0.46480E+08
 
   -0.45553E+08         0.10081E+07         0.00000E+00
    0.10081E+07        -0.97547E+08         0.00000E+00
    0.00000E+00         0.00000E+00        -0.46274E+08
 
   -0.45346E+08         0.10296E+07         0.00000E+00
    0.10296E+07        -0.97557E+08         0.00000E+00
    0.00000E+00         0.00000E+00        -0.46055E+08
 
   -0.45133E+08         0.10472E+07         0.00000E+00
    0.10472E+07        -0.97569E+08         0.00000E+00
    0.00000E+00         0.00000E+00        -0.45822E+08
 
   -0.44914E+08         0.10598E+07         0.00000E+00
    0.10598E+07        -0.97585E+08         0.00000E+00
    0.00000E+00         0.00000E+00        -0.45575E+08
 
   -0.44690E+08         0.10664E+07         0.00000E+00
    0.10664E+07        -0.97603E+08         0.00000E+00
    0.00000E+00         0.00000E+00        -0.45314E+08
 
   -0.44461E+08         0.10659E+07         0.00000E+00
    0.10659E+07        -0.97626E+08         0.00000E+00
    0.00000E+00         0.00000E+00        -0.45035E+08
 
   -0.44228E+08         0.10569E+07         0.00000E+00
    0.10569E+07        -0.97653E+08         0.00000E+00
    0.00000E+00         0.00000E+00        -0.44740E+08
 
   -0.43991E+08         0.10383E+07         0.00000E+00
    0.10383E+07        -0.97684E+08         0.00000E+00
    0.00000E+00         0.00000E+00        -0.44426E+08
 
   -0.43750E+08         0.10084E+07         0.00000E+00
    0.10084E+07        -0.97720E+08         0.00000E+00
    0.00000E+00         0.00000E+00        -0.44092E+08
 
   -0.43507E+08         0.96589E+06         0.00000E+00
    0.96589E+06        -0.97761E+08         0.00000E+00
    0.00000E+00         0.00000E+00        -0.43737E+08
 
   -0.43262E+08         0.90947E+06         0.00000E+00
    0.90947E+06        -0.97806E+08         0.00000E+00
    0.00000E+00         0.00000E+00        -0.43359E+08
 
   -0.43014E+08         0.83796E+06         0.00000E+00
    0.83796E+06        -0.97855E+08         0.00000E+00
    0.00000E+00         0.00000E+00        -0.42956E+08
 
   -0.42765E+08         0.75061E+06         0.00000E+00
    0.75061E+06        -0.97908E+08         0.00000E+00
    0.00000E+00         0.00000E+00        -0.42528E+08
 
   -0.42515E+08         0.64724E+06         0.00000E+00
    0.64724E+06        -0.97960E+08         0.00000E+00
    0.00000E+00         0.00000E+00        -0.42072E+08
 
   -0.42264E+08         0.52865E+06         0.00000E+00
    0.52865E+06        -0.98011E+08         0.00000E+00
    0.00000E+00         0.00000E+00        -0.41586E+08
 
   -0.42013E+08         0.39702E+06         0.00000E+00
    0.39702E+06        -0.98054E+08         0.00000E+00
    0.00000E+00         0.00000E+00        -0.41068E+08
 
   -0.41762E+08         0.25653E+06         0.00000E+00
    0.25653E+06        -0.98084E+08         0.00000E+00
    0.00000E+00         0.00000E+00        -0.40515E+08
 
   -0.41512E+08         0.11409E+06         0.00000E+00
    0.11409E+06        -0.98090E+08         0.00000E+00
    0.00000E+00         0.00000E+00        -0.39925E+08
 
   -0.41265E+08        -0.19792E+05         0.00000E+00
   -0.19792E+05        -0.98059E+08         0.00000E+00
    0.00000E+00         0.00000E+00        -0.39296E+08
 
   -0.41024E+08        -0.13064E+06         0.00000E+00
   -0.13064E+06        -0.97971E+08         0.00000E+00
    0.00000E+00         0.00000E+00        -0.38624E+08
 
   -0.40797E+08        -0.20088E+06         0.00000E+00
   -0.20088E+06        -0.97799E+08         0.00000E+00
    0.00000E+00         0.00000E+00        -0.37907E+08
 
   -0.40597E+08        -0.21407E+06         0.00000E+00
   -0.21407E+06        -0.97504E+08         0.00000E+00
    0.00000E+00         0.00000E+00        -0.37141E+08
 
   -0.40444E+08        -0.16336E+06         0.00000E+00
   -0.16336E+06        -0.97039E+08         0.00000E+00
    0.00000E+00         0.00000E+00        -0.36323E+08
 
   -0.40360E+08        -0.60944E+05         0.00000E+00
   -0.60944E+05        -0.96356E+08         0.00000E+00
    0.00000E+00         0.00000E+00        -0.35450E+08
 
   -0.49922E+08         0.60586E+03         0.00000E+00
    0.60586E+03        -0.97603E+08         0.00000E+00
    0.00000E+00         0.00000E+00        -0.49997E+08
 
   -0.49921E+08         0.19601E+04         0.00000E+00
    0.19601E+04        -0.97599E+08         0.00000E+00
    0.00000E+00         0.00000E+00        -0.49990E+08
 
   -0.49919E+08         0.37049E+04         0.00000E+00
    0.37049E+04        -0.97596E+08         0.00000E+00
    0.00000E+00         0.00000E+00        -0.49984E+08
 
   -0.49916E+08         0.59372E+04         0.00000E+00
    0.59372E+04        -0.97594E+08         0.00000E+00
    0.00000E+00         0.00000E+00        -0.49978E+08
 
   -0.49913E+08         0.86092E+04         0.00000E+00
    0.86092E+04        -0.97592E+08         0.00000E+00
    0.00000E+00         0.00000E+00        -0.49972E+08
 
   -0.49909E+08         0.11605E+05         0.00000E+00
    0.11605E+05        -0.97592E+08         0.00000E+00
    0.00000E+00         0.00000E+00        -0.49965E+08
 
   -0.49905E+08         0.14802E+05         0.00000E+00
    0.14802E+05        -0.97592E+08         0.00000E+00
    0.00000E+00         0.00000E+00        -0.49959E+08
 
   -0.49900E+08         0.18106E+05         0.00000E+00
    0.18106E+05        -0.97591E+08         0.00000E+00
    0.00000E+00         0.00000E+00        -0.49953E+08
 
   -0.49895E+08         0.21447E+05         0.00000E+00
    0.21447E+05        -0.97592E+08         0.00000E+00
    0.00000E+00         0.00000E+00        -0.49946E+08
 
   -0.49889E+08         0.24787E+05         0.00000E+00
    0.24787E+05        -0.97592E+08         0.00000E+00
    0.00000E+00         0.00000E+00        -0.49939E+08
 
   -0.49882E+08         0.28102E+05         0.00000E+00
    0.28102E+05        -0.97592E+08         0.00000E+00
    0.00000E+00         0.00000E+00        -0.49933E+08
 
   -0.49876E+08         0.31385E+05         0.00000E+00
    0.31385E+05        -0.97592E+08         0.00000E+00
    0.00000E+00         0.00000E+00        -0.49926E+08
 
   -0.49868E+08         0.34640E+05         0.00000E+00
    0.34640E+05        -0.97592E+08         0.00000E+00
    0.00000E+00         0.00000E+00        -0.49919E+08
 
   -0.49860E+08         0.37874E+05         0.00000E+00
    0.37874E+05        -0.97592E+08         0.00000E+00
    0.00000E+00         0.00000E+00        -0.49911E+08
 
   -0.49852E+08         0.41102E+05         0.00000E+00
    0.41102E+05        -0.97592E+08         0.00000E+00
    0.00000E+00         0.00000E+00        -0.49904E+08
 
   -0.49842E+08         0.44339E+05         0.00000E+00
    0.44339E+05        -0.97592E+08         0.00000E+00
    0.00000E+00         0.00000E+00        -0.49896E+08
 
   -0.49833E+08         0.47606E+05         0.00000E+00
    0.47606E+05        -0.97592E+08         0.00000E+00
    0.00000E+00         0.00000E+00        -0.49888E+08
 
   -0.49822E+08         0.50919E+05         0.00000E+00
    0.50919E+05        -0.97592E+08         0.00000E+00
    0.00000E+00         0.00000E+00        -0.49879E+08
 
   -0.49811E+08         0.54299E+05         0.00000E+00
    0.54299E+05        -0.97592E+08         0.00000E+00
    0.00000E+00         0.00000E+00        -0.49870E+08
 
   -0.49800E+08         0.57765E+05         0.00000E+00
    0.57765E+05        -0.97592E+08         0.00000E+00
    0.00000E+00         0.00000E+00        -0.49861E+08
 
   -0.49787E+08         0.61335E+05         0.00000E+00
    0.61335E+05        -0.97592E+08         0.00000E+00
    0.00000E+00         0.00000E+00        -0.49851E+08
 
   -0.49774E+08         0.65030E+05         0.00000E+00
    0.65030E+05        -0.97591E+08         0.00000E+00
    0.00000E+00         0.00000E+00        -0.49841E+08
 
   -0.49760E+08         0.68866E+05         0.00000E+00
    0.68866E+05        -0.97591E+08         0.00000E+00
    0.00000E+00         0.00000E+00        -0.49831E+08
 
   -0.49746E+08         0.72862E+05         0.00000E+00
    0.72862E+05        -0.97591E+08         0.00000E+00
    0.00000E+00         0.00000E+00        -0.49820E+08
 
   -0.49730E+08         0.77035E+05         0.00000E+00
    0.77035E+05        -0.97590E+08         0.00000E+00
    0.00000E+00         0.00000E+00        -0.49808E+08
 
   -0.49714E+08         0.81404E+05         0.00000E+00
    0.81404E+05        -0.97590E+08         0.00000E+00
    0.00000E+00         0.00000E+00        -0.49796E+08
 
   -0.49697E+08         0.85985E+05         0.00000E+00
    0.85985E+05        -0.97589E+08         0.00000E+00
    0.00000E+00         0.00000E+00        -0.49783E+08
 
   -0.49678E+08         0.90796E+05         0.00000E+00
    0.90796E+05        -0.97589E+08         0.00000E+00
    0.00000E+00         0.00000E+00        -0.49769E+08
 
   -0.49659E+08         0.95855E+05         0.00000E+00
    0.95855E+05        -0.97588E+08         0.00000E+00
    0.00000E+00         0.00000E+00        -0.49755E+08
 
   -0.49639E+08         0.10118E+06         0.00000E+00
    0.10118E+06        -0.97587E+08         0.00000E+00
    0.00000E+00         0.00000E+00        -0.49740E+08
 
   -0.49617E+08         0.10678E+06         0.00000E+00
    0.10678E+06        -0.97587E+08         0.00000E+00
    0.00000E+00         0.00000E+00        -0.49724E+08
 
   -0.49595E+08         0.11269E+06         0.00000E+00
    0.11269E+06        -0.97586E+08         0.00000E+00
    0.00000E+00         0.00000E+00        -0.49708E+08
 
   -0.49571E+08         0.11892E+06         0.00000E+00
    0.11892E+06        -0.97585E+08         0.00000E+00
    0.00000E+00         0.00000E+00        -0.49690E+08
 
   -0.49546E+08         0.12548E+06         0.00000E+00
    0.12548E+06        -0.97584E+08         0.00000E+00
    0.00000E+00         0.00000E+00        -0.49672E+08
 
   -0.49519E+08         0.13240E+06         0.00000E+00
    0.13240E+06        -0.97584E+08         0.00000E+00
    0.00000E+00         0.00000E+00        -0.49652E+08
 
   -0.49491E+08         0.13970E+06         0.00000E+00
    0.13970E+06        -0.97583E+08         0.00000E+00
    0.00000E+00         0.00000E+00        -0.49631E+08
 
   -0.49461E+08         0.14740E+06         0.00000E+00
    0.14740E+06        -0.97582E+08         0.00000E+00
    0.00000E+00         0.00000E+00        -0.49610E+08
 
   -0.49430E+08         0.15552E+06         0.00000E+00
    0.15552E+06        -0.97581E+08         0.00000E+00
    0.00000E+00         0.00000E+00        -0.49587E+08
 
   -0.49397E+08         0.16408E+06         0.00000E+00
    0.16408E+06        -0.97580E+08         0.00000E+00
    0.00000E+00         0.00000E+00        -0.49562E+08
 
   -0.49362E+08         0.17310E+06         0.00000E+00
    0.17310E+06        -0.97579E+08         0.00000E+00
    0.00000E+00         0.00000E+00        -0.49537E+08
 
   -0.49326E+08         0.18261E+06         0.00000E+00
    0.18261E+06        -0.97577E+08         0.00000E+00
    0.00000E+00         0.00000E+00        -0.49510E+08
 
   -0.49287E+08         0.19263E+06         0.00000E+00
    0.19263E+06        -0.97576E+08         0.00000E+00
    0.00000E+00         0.00000E+00        -0.49481E+08
 
   -0.49246E+08         0.20319E+06         0.00000E+00
    0.20319E+06        -0.97575E+08         0.00000E+00
    0.00000E+00         0.00000E+00        -0.49451E+08
 
   -0.49203E+08         0.21431E+06         0.00000E+00
    0.21431E+06        -0.97574E+08         0.00000E+00
    0.00000E+00         0.00000E+00        -0.49419E+08
 
   -0.49158E+08         0.22602E+06         0.00000E+00
    0.22602E+06        -0.97572E+08         0.00000E+00
    0.00000E+00         0.00000E+00        -0.49385E+08
 
   -0.49110E+08         0.23834E+06         0.00000E+00
    0.23834E+06        -0.97571E+08         0.00000E+00
    0.00000E+00         0.00000E+00        -0.49350E+08
 
   -0.49059E+08         0.25130E+06         0.00000E+00
    0.25130E+06        -0.97569E+08         0.00000E+00
    0.00000E+00         0.00000E+00        -0.49312E+08
 
   -0.49006E+08         0.26493E+06         0.00000E+00
    0.26493E+06        -0.97568E+08         0.00000E+00
    0.00000E+00         0.00000E+00        -0.49272E+08
 
   -0.48950E+08         0.27926E+06         0.00000E+00
    0.27926E+06        -0.97566E+08         0.00000E+00
    0.00000E+00         0.00000E+00        -0.49230E+08
 
   -0.48891E+08         0.29431E+06         0.00000E+00
    0.29431E+06        -0.97564E+08         0.00000E+00
    0.00000E+00         0.00000E+00        -0.49186E+08
 
   -0.48828E+08         0.31011E+06         0.00000E+00
    0.31011E+06        -0.97563E+08         0.00000E+00
    0.00000E+00         0.00000E+00        -0.49139E+08
 
   -0.48763E+08         0.32668E+06         0.00000E+00
    0.32668E+06        -0.97561E+08         0.00000E+00
    0.00000E+00         0.00000E+00        -0.49089E+08
 
   -0.48694E+08         0.34406E+06         0.00000E+00
    0.34406E+06        -0.97559E+08         0.00000E+00
    0.00000E+00         0.00000E+00        -0.49036E+08
 
   -0.48621E+08         0.36226E+06         0.00000E+00
    0.36226E+06        -0.97557E+08         0.00000E+00
    0.00000E+00         0.00000E+00        -0.48981E+08
 
   -0.48544E+08         0.38132E+06         0.00000E+00
    0.38132E+06        -0.97555E+08         0.00000E+00
    0.00000E+00         0.00000E+00        -0.48922E+08
 
   -0.48463E+08         0.40125E+06         0.00000E+00
    0.40125E+06        -0.97553E+08         0.00000E+00
    0.00000E+00         0.00000E+00        -0.48860E+08
 
   -0.48378E+08         0.42206E+06         0.00000E+00
    0.42206E+06        -0.97551E+08         0.00000E+00
    0.00000E+00         0.00000E+00        -0.48794E+08
 
   -0.48289E+08         0.44379E+06         0.00000E+00
    0.44379E+06        -0.97549E+08         0.00000E+00
    0.00000E+00         0.00000E+00        -0.48725E+08
 
   -0.48195E+08         0.46642E+06         0.00000E+00
    0.46642E+06        -0.97547E+08         0.00000E+00
    0.00000E+00         0.00000E+00        -0.48651E+08
 
   -0.48096E+08         0.48998E+06         0.00000E+00
    0.48998E+06        -0.97544E+08         0.00000E+00
    0.00000E+00         0.00000E+00        -0.48573E+08
 
   -0.47992E+08         0.51446E+06         0.00000E+00
    0.51446E+06        -0.97542E+08         0.00000E+00
    0.00000E+00         0.00000E+00        -0.48491E+08
 
   -0.47883E+08         0.53984E+06         0.00000E+00
    0.53984E+06        -0.97540E+08         0.00000E+00
    0.00000E+00         0.00000E+00        -0.48404E+08
 
   -0.47769E+08         0.56612E+06         0.00000E+00
    0.56612E+06        -0.97538E+08         0.00000E+00
    0.00000E+00         0.00000E+00        -0.48311E+08
 
   -0.47649E+08         0.59325E+06         0.00000E+00
    0.59325E+06        -0.97536E+08         0.00000E+00
    0.00000E+00         0.00000E+00        -0.48214E+08
 
   -0.47523E+08         0.62119E+06         0.00000E+00
    0.62119E+06        -0.97534E+08         0.00000E+00
    0.00000E+00         0.00000E+00        -0.48110E+08
 
   -0.47392E+08         0.64988E+06         0.00000E+00
    0.64988E+06        -0.97533E+08         0.00000E+00
    0.00000E+00         0.00000E+00        -0.48001E+08
 
   -0.47254E+08         0.67924E+06         0.00000E+00
    0.67924E+06        -0.97531E+08         0.00000E+00
    0.00000E+00         0.00000E+00        -0.47885E+08
 
   -0.47111E+08         0.70916E+06         0.00000E+00
    0.70916E+06        -0.97530E+08         0.00000E+00
    0.00000E+00         0.00000E+00        -0.47763E+08
 
   -0.46960E+08         0.73950E+06         0.00000E+00
    0.73950E+06        -0.97529E+08         0.00000E+00
    0.00000E+00         0.00000E+00        -0.47633E+08
 
   -0.46804E+08         0.77009E+06         0.00000E+00
    0.77009E+06        -0.97529E+08         0.00000E+00
    0.00000E+00         0.00000E+00        -0.47495E+08
 
   -0.46641E+08         0.80073E+06         0.00000E+00
    0.80073E+06        -0.97529E+08         0.00000E+00
    0.00000E+00         0.00000E+00        -0.47350E+08
 
   -0.46471E+08         0.83116E+06         0.00000E+00
    0.83116E+06        -0.97530E+08         0.00000E+00
    0.00000E+00         0.00000E+00        -0.47195E+08
 
   -0.46295E+08         0.86108E+06         0.00000E+00
    0.86108E+06        -0.97532E+08         0.00000E+00
    0.00000E+00         0.00000E+00        -0.47032E+08
 
   -0.46112E+08         0.89012E+06         0.00000E+00
    0.89012E+06        -0.97535E+08         0.00000E+00
    0.00000E+00         0.00000E+00        -0.46859E+08
 
   -0.45923E+08         0.91785E+06         0.00000E+00
    0.91785E+06        -0.97539E+08         0.00000E+00
    0.00000E+00         0.00000E+00        -0.46675E+08
 
   -0.45728E+08         0.94375E+06         0.00000E+00
    0.94375E+06        -0.97544E+08         0.00000E+00
    0.00000E+00         0.00000E+00        -0.46480E+08
 
   -0.45526E+08         0.96722E+06         0.00000E+00
    0.96722E+06        -0.97551E+08         0.00000E+00
    0.00000E+00         0.00000E+00        -0.46274E+08
 
   -0.45318E+08         0.98756E+06         0.00000E+00
    0.98756E+06        -0.97561E+08         0.00000E+00
    0.00000E+00         0.00000E+00        -0.46054E+08
 
   -0.45105E+08         0.10040E+07         0.00000E+00
    0.10040E+07        -0.97572E+08         0.00000E+00
    0.00000E+00         0.00000E+00        -0.45822E+08
 
   -0.44886E+08         0.10155E+07         0.00000E+00
    0.10155E+07        -0.97587E+08         0.00000E+00
    0.00000E+00         0.00000E+00        -0.45575E+08
 
   -0.44663E+08         0.10212E+07         0.00000E+00
    0.10212E+07        -0.97604E+08         0.00000E+00
    0.00000E+00         0.00000E+00        -0.45313E+08
 
   -0.44436E+08         0.10198E+07         0.00000E+00
    0.10198E+07        -0.97625E+08         0.00000E+00
    0.00000E+00         0.00000E+00        -0.45035E+08
 
   -0.44204E+08         0.10101E+07         0.00000E+00
    0.10101E+07        -0.97650E+08         0.00000E+00
    0.00000E+00         0.00000E+00        -0.44739E+08
 
   -0.43970E+08         0.99080E+06         0.00000E+00
    0.99080E+06        -0.97679E+08         0.00000E+00
    0.00000E+00         0.00000E+00        -0.44425E+08
 
   -0.43733E+08         0.96039E+06         0.00000E+00
    0.96039E+06        -0.97713E+08         0.00000E+00
    0.00000E+00         0.00000E+00        -0.44091E+08
 
   -0.43494E+08         0.91749E+06         0.00000E+00
    0.91749E+06        -0.97751E+08         0.00000E+00
    0.00000E+00         0.00000E+00        -0.43736E+08
 
   -0.43253E+08         0.86076E+06         0.00000E+00
    0.86076E+06        -0.97793E+08         0.00000E+00
    0.00000E+00         0.00000E+00        -0.43358E+08
 
   -0.43012E+08         0.78904E+06         0.00000E+00
    0.78904E+06        -0.97840E+08         0.00000E+00
    0.00000E+00         0.00000E+00        -0.42956E+08
 
   -0.42771E+08         0.70157E+06         0.00000E+00
    0.70157E+06        -0.97889E+08         0.00000E+00
    0.00000E+00         0.00000E+00        -0.42528E+08
 
   -0.42531E+08         0.59816E+06         0.00000E+00
    0.59816E+06        -0.97938E+08         0.00000E+00
    0.00000E+00         0.00000E+00        -0.42072E+08
 
   -0.42291E+08         0.47961E+06         0.00000E+00
    0.47961E+06        -0.97986E+08         0.00000E+00
    0.00000E+00         0.00000E+00        -0.41586E+08
 
   -0.42053E+08         0.34808E+06         0.00000E+00
    0.34808E+06        -0.98027E+08         0.00000E+00
    0.00000E+00         0.00000E+00        -0.41068E+08
 
   -0.41816E+08         0.20777E+06         0.00000E+00
    0.20777E+06        -0.98055E+08         0.00000E+00
    0.00000E+00         0.00000E+00        -0.40515E+08
 
   -0.41581E+08         0.65709E+05         0.00000E+00
    0.65709E+05        -0.98062E+08         0.00000E+00
    0.00000E+00         0.00000E+00        -0.39926E+08
 
   -0.41349E+08        -0.67427E+05         0.00000E+00
   -0.67427E+05        -0.98034E+08         0.00000E+00
    0.00000E+00         0.00000E+00        -0.39296E+08
 
   -0.41123E+08        -0.17665E+06         0.00000E+00
   -0.17665E+06        -0.97953E+08         0.00000E+00
    0.00000E+00         0.00000E+00        -0.38625E+08
 
   -0.40908E+08        -0.24343E+06         0.00000E+00
   -0.24343E+06        -0.97790E+08         0.00000E+00
    0.00000E+00         0.00000E+00        -0.37907E+08
 
   -0.40717E+08        -0.24988E+06         0.00000E+00
   -0.24988E+06        -0.97508E+08         0.00000E+00
    0.00000E+00         0.00000E+00        -0.37141E+08
 
   -0.40568E+08        -0.18785E+06         0.00000E+00
   -0.18785E+06        -0.97056E+08         0.00000E+00
    0.00000E+00         0.00000E+00        -0.36324E+08
 
   -0.40486E+08        -0.69720E+05         0.00000E+00
   -0.69720E+05        -0.96382E+08         0.00000E+00
    0.00000E+00         0.00000E+00        -0.35451E+08
 
   -0.49920E+08         0.50069E+03         0.00000E+00
    0.50069E+03        -0.97604E+08         0.00000E+00
    0.00000E+00         0.00000E+00        -0.49997E+08
 
   -0.49919E+08         0.16588E+04         0.00000E+00
    0.16588E+04        -0.97599E+08         0.00000E+00
    0.00000E+00         0.00000E+00        -0.49990E+08
 
   -0.49917E+08         0.32404E+04         0.00000E+00
    0.32404E+04        -0.97596E+08         0.00000E+00
    0.00000E+00         0.00000E+00        -0.49984E+08
 
   -0.49914E+08         0.53417E+04         0.00000E+00
    0.53417E+04        -0.97594E+08         0.00000E+00
    0.00000E+00         0.00000E+00        -0.49978E+08
 
   -0.49911E+08         0.79031E+04         0.00000E+00
    0.79031E+04        -0.97593E+08         0.00000E+00
    0.00000E+00         0.00000E+00        -0.49972E+08
 
   -0.49907E+08         0.10797E+05         0.00000E+00
    0.10797E+05        -0.97592E+08         0.00000E+00
    0.00000E+00         0.00000E+00        -0.49965E+08
 
   -0.49903E+08         0.13896E+05         0.00000E+00
    0.13896E+05        -0.97592E+08         0.00000E+00
    0.00000E+00         0.00000E+00        -0.49959E+08
 
   -0.49898E+08         0.17099E+05         0.00000E+00
    0.17099E+05        -0.97592E+08         0.00000E+00
    0.00000E+00         0.00000E+00        -0.49953E+08
 
   -0.49893E+08         0.20340E+05         0.00000E+00
    0.20340E+05        -0.97592E+08         0.00000E+00
    0.00000E+00         0.00000E+00        -0.49946E+08
 
   -0.49887E+08         0.23576E+05         0.00000E+00
    0.23576E+05        -0.97592E+08         0.00000E+00
    0.00000E+00         0.00000E+00        -0.49939E+08
 
   -0.49881E+08         0.26785E+05         0.00000E+00
    0.26785E+05        -0.97592E+08         0.00000E+00
    0.00000E+00         0.00000E+00        -0.49933E+08
 
   -0.49874E+08         0.29960E+05         0.00000E+00
    0.29960E+05        -0.97593E+08         0.00000E+00
    0.00000E+00         0.00000E+00        -0.49926E+08
 
   -0.49867E+08         0.33103E+05         0.00000E+00
    0.33103E+05        -0.97593E+08         0.00000E+00
    0.00000E+00         0.00000E+00        -0.49919E+08
 
   -0.49859E+08         0.36224E+05         0.00000E+00
    0.36224E+05        -0.97593E+08         0.00000E+00
    0.00000E+00         0.00000E+00        -0.49911E+08
 
   -0.49850E+08         0.39334E+05         0.00000E+00
    0.39334E+05        -0.97593E+08         0.00000E+00
    0.00000E+00         0.00000E+00        -0.49904E+08
 
   -0.49841E+08         0.42452E+05         0.00000E+00
    0.42452E+05        -0.97593E+08         0.00000E+00
    0.00000E+00         0.00000E+00        -0.49896E+08
 
   -0.49831E+08         0.45594E+05         0.00000E+00
    0.45594E+05        -0.97593E+08         0.00000E+00
    0.00000E+00         0.00000E+00        -0.49888E+08
 
   -0.49821E+08         0.48779E+05         0.00000E+00
    0.48779E+05        -0.97593E+08         0.00000E+00
    0.00000E+00         0.00000E+00        -0.49879E+08
 
   -0.49810E+08         0.52027E+05         0.00000E+00
    0.52027E+05        -0.97593E+08         0.00000E+00
    0.00000E+00         0.00000E+00        -0.49870E+08
 
   -0.49798E+08         0.55354E+05         0.00000E+00
    0.55354E+05        -0.97593E+08         0.00000E+00
    0.00000E+00         0.00000E+00        -0.49861E+08
 
   -0.49786E+08         0.58782E+05         0.00000E+00
    0.58782E+05        -0.97592E+08         0.00000E+00
    0.00000E+00         0.00000E+00        -0.49851E+08
 
   -0.49772E+08         0.62326E+05         0.00000E+00
    0.62326E+05        -0.97592E+08         0.00000E+00
    0.00000E+00         0.00000E+00        -0.49841E+08
 
   -0.49758E+08         0.66006E+05         0.00000E+00
    0.66006E+05        -0.97592E+08         0.00000E+00
    0.00000E+00         0.00000E+00        -0.49831E+08
 
   -0.49744E+08         0.69839E+05         0.00000E+00
    0.69839E+05        -0.97591E+08         0.00000E+00
    0.00000E+00         0.00000E+00        -0.49820E+08
 
   -0.49728E+08         0.73841E+05         0.00000E+00
    0.73841E+05        -0.97591E+08         0.00000E+00
    0.00000E+00         0.00000E+00        -0.49808E+08
 
   -0.49712E+08         0.78030E+05         0.00000E+00
    0.78030E+05        -0.97591E+08         0.00000E+00
    0.00000E+00         0.00000E+00        -0.49796E+08
 
   -0.49694E+08         0.82423E+05         0.00000E+00
    0.82423E+05        -0.97590E+08         0.00000E+00
    0.00000E+00         0.00000E+00        -0.49783E+08
 
   -0.49676E+08         0.87035E+05         0.00000E+00
    0.87035E+05        -0.97590E+08         0.00000E+00
    0.00000E+00         0.00000E+00        -0.49769E+08
 
   -0.49656E+08         0.91884E+05         0.00000E+00
    0.91884E+05        -0.97589E+08         0.00000E+00
    0.00000E+00         0.00000E+00        -0.49755E+08
 
   -0.49636E+08         0.96987E+05         0.00000E+00
    0.96987E+05        -0.97588E+08         0.00000E+00
    0.00000E+00         0.00000E+00        -0.49740E+08
 
   -0.49614E+08         0.10236E+06         0.00000E+00
    0.10236E+06        -0.97588E+08         0.00000E+00
    0.00000E+00         0.00000E+00        -0.49724E+08
 
   -0.49591E+08         0.10802E+06         0.00000E+00
    0.10802E+06        -0.97587E+08         0.00000E+00
    0.00000E+00         0.00000E+00        -0.49708E+08
 
   -0.49567E+08         0.11399E+06         0.00000E+00
    0.11399E+06        -0.97587E+08         0.00000E+00
    0.00000E+00         0.00000E+00        -0.49690E+08
 
   -0.49542E+08         0.12028E+06         0.00000E+00
    0.12028E+06        -0.97586E+08         0.00000E+00
    0.00000E+00         0.00000E+00        -0.49671E+08
 
   -0.49515E+08         0.12692E+06         0.00000E+00
    0.12692E+06        -0.97585E+08         0.00000E+00
    0.00000E+00         0.00000E+00        -0.49652E+08
 
   -0.49487E+08         0.13392E+06         0.00000E+00
    0.13392E+06        -0.97584E+08         0.00000E+00
    0.00000E+00         0.00000E+00        -0.49631E+08
 
   -0.49457E+08         0.14129E+06         0.00000E+00
    0.14129E+06        -0.97583E+08         0.00000E+00
    0.00000E+00         0.00000E+00        -0.49610E+08
 
   -0.49426E+08         0.14908E+06         0.00000E+00
    0.14908E+06        -0.97582E+08         0.00000E+00
    0.00000E+00         0.00000E+00        -0.49587E+08
 
   -0.49392E+08         0.15728E+06         0.00000E+00
    0.15728E+06        -0.97581E+08         0.00000E+00
    0.00000E+00         0.00000E+00        -0.49562E+08
 
   -0.49357E+08         0.16593E+06         0.00000E+00
    0.16593E+06        -0.97580E+08         0.00000E+00
    0.00000E+00         0.00000E+00        -0.49537E+08
 
   -0.49320E+08         0.17505E+06         0.00000E+00
    0.17505E+06        -0.97579E+08         0.00000E+00
    0.00000E+00         0.00000E+00        -0.49510E+08
 
   -0.49281E+08         0.18465E+06         0.00000E+00
    0.18465E+06        -0.97578E+08         0.00000E+00
    0.00000E+00         0.00000E+00        -0.49481E+08
 
   -0.49240E+08         0.19477E+06         0.00000E+00
    0.19477E+06        -0.97577E+08         0.00000E+00
    0.00000E+00         0.00000E+00        -0.49451E+08
 
   -0.49197E+08         0.20543E+06         0.00000E+00
    0.20543E+06        -0.97576E+08         0.00000E+00
    0.00000E+00         0.00000E+00        -0.49419E+08
 
   -0.49151E+08         0.21666E+06         0.00000E+00
    0.21666E+06        -0.97575E+08         0.00000E+00
    0.00000E+00         0.00000E+00        -0.49385E+08
 
   -0.49103E+08         0.22847E+06         0.00000E+00
    0.22847E+06        -0.97573E+08         0.00000E+00
    0.00000E+00         0.00000E+00        -0.49350E+08
 
   -0.49052E+08         0.24089E+06         0.00000E+00
    0.24089E+06        -0.97572E+08         0.00000E+00
    0.00000E+00         0.00000E+00        -0.49312E+08
 
   -0.48998E+08         0.25396E+06         0.00000E+00
    0.25396E+06        -0.97571E+08         0.00000E+00
    0.00000E+00         0.00000E+00        -0.49272E+08
 
   -0.48942E+08         0.26769E+06         0.00000E+00
    0.26769E+06        -0.97569E+08         0.00000E+00
    0.00000E+00         0.00000E+00        -0.49230E+08
 
   -0.48882E+08         0.28211E+06         0.00000E+00
    0.28211E+06        -0.97567E+08         0.00000E+00
    0.00000E+00         0.00000E+00        -0.49186E+08
 
   -0.48819E+08         0.29726E+06         0.00000E+00
    0.29726E+06        -0.97566E+08         0.00000E+00
    0.00000E+00         0.00000E+00        -0.49139E+08
 
   -0.48753E+08         0.31314E+06         0.00000E+00
    0.31314E+06        -0.97564E+08         0.00000E+00
    0.00000E+00         0.00000E+00        -0.49089E+08
 
   -0.48683E+08         0.32980E+06         0.00000E+00
    0.32980E+06        -0.97562E+08         0.00000E+00
    0.00000E+00         0.00000E+00        -0.49036E+08
 
   -0.48610E+08         0.34725E+06         0.00000E+00
    0.34725E+06        -0.97561E+08         0.00000E+00
    0.00000E+00         0.00000E+00        -0.48981E+08
 
   -0.48532E+08         0.36551E+06         0.00000E+00
    0.36551E+06        -0.97559E+08         0.00000E+00
    0.00000E+00         0.00000E+00        -0.48922E+08
 
   -0.48451E+08         0.38461E+06         0.00000E+00
    0.38461E+06        -0.97557E+08         0.00000E+00
    0.00000E+00         0.00000E+00        -0.48860E+08
 
   -0.48365E+08         0.40457E+06         0.00000E+00
    0.40457E+06        -0.97555E+08         0.00000E+00
    0.00000E+00         0.00000E+00        -0.48794E+08
 
   -0.48275E+08         0.42539E+06         0.00000E+00
    0.42539E+06        -0.97553E+08         0.00000E+00
    0.00000E+00         0.00000E+00        -0.48724E+08
 
   -0.48181E+08         0.44708E+06         0.00000E+00
    0.44708E+06        -0.97551E+08         0.00000E+00
    0.00000E+00         0.00000E+00        -0.48651E+08
 
   -0.48081E+08         0.46966E+06         0.00000E+00
    0.46966E+06        -0.97549E+08         0.00000E+00
    0.00000E+00         0.00000E+00        -0.48573E+08
 
   -0.47977E+08         0.49312E+06         0.00000E+00
    0.49312E+06        -0.97547E+08         0.00000E+00
    0.00000E+00         0.00000E+00        -0.48491E+08
 
   -0.47867E+08         0.51745E+06         0.00000E+00
    0.51745E+06        -0.97545E+08         0.00000E+00
    0.00000E+00         0.00000E+00        -0.48403E+08
 
   -0.47752E+08         0.54263E+06         0.00000E+00
    0.54263E+06        -0.97543E+08         0.00000E+00
    0.00000E+00         0.00000E+00        -0.48311E+08
 
   -0.47631E+08         0.56863E+06         0.00000E+00
    0.56863E+06        -0.97542E+08         0.00000E+00
    0.00000E+00         0.00000E+00        -0.48214E+08
 
   -0.47505E+08         0.59541E+06         0.00000E+00
    0.59541E+06        -0.97540E+08         0.00000E+00
    0.00000E+00         0.00000E+00        -0.48110E+08
 
   -0.47373E+08         0.62290E+06         0.00000E+00
    0.62290E+06        -0.97538E+08         0.00000E+00
    0.00000E+00         0.00000E+00        -0.48001E+08
 
   -0.47234E+08         0.65103E+06         0.00000E+00
    0.65103E+06        -0.97537E+08         0.00000E+00
    0.00000E+00         0.00000E+00        -0.47885E+08
 
   -0.47090E+08         0.67969E+06         0.00000E+00
    0.67969E+06        -0.97536E+08         0.00000E+00
    0.00000E+00         0.00000E+00        -0.47762E+08
 
   -0.46939E+08         0.70875E+06         0.00000E+00
    0.70875E+06        -0.97535E+08         0.00000E+00
    0.00000E+00         0.00000E+00        -0.47633E+08
 
   -0.46781E+08         0.73805E+06         0.00000E+00
    0.73805E+06        -0.97535E+08         0.00000E+00
    0.00000E+00         0.00000E+00        -0.47495E+08
 
   -0.46617E+08         0.76738E+06         0.00000E+00
    0.76738E+06        -0.97535E+08         0.00000E+00
    0.00000E+00         0.00000E+00        -0.47349E+08
 
   -0.46447E+08         0.79650E+06         0.00000E+00
    0.79650E+06        -0.97536E+08         0.00000E+00
    0.00000E+00         0.00000E+00        -0.47195E+08
 
   -0.46270E+08         0.82511E+06         0.00000E+00
    0.82511E+06        -0.97538E+08         0.00000E+00
    0.00000E+00         0.00000E+00        -0.47032E+08
 
   -0.46086E+08         0.85286E+06         0.00000E+00
    0.85286E+06        -0.97540E+08         0.00000E+00
    0.00000E+00         0.00000E+00        -0.46858E+08
 
   -0.45896E+08         0.87931E+06         0.00000E+00
    0.87931E+06        -0.97544E+08         0.00000E+00
    0.00000E+00         0.00000E+00        -0.46675E+08
 
   -0.45700E+08         0.90397E+06         0.00000E+00
    0.90397E+06        -0.97549E+08         0.00000E+00
    0.00000E+00         0.00000E+00        -0.46480E+08
 
   -0.45498E+08         0.92625E+06         0.00000E+00
    0.92625E+06        -0.97556E+08         0.00000E+00
    0.00000E+00         0.00000E+00        -0.46273E+08
 
   -0.45290E+08         0.94546E+06         0.00000E+00
    0.94546E+06        -0.97564E+08         0.00000E+00
    0.00000E+00         0.00000E+00        -0.46054E+08
 
   -0.45077E+08         0.96081E+06         0.00000E+00
    0.96081E+06        -0.97575E+08         0.00000E+00
    0.00000E+00         0.00000E+00        -0.45822E+08
 
   -0.44859E+08         0.97139E+06         0.00000E+00
    0.97139E+06        -0.97588E+08         0.00000E+00
    0.00000E+00         0.00000E+00        -0.45575E+08
 
   -0.44636E+08         0.97618E+06         0.00000E+00
    0.97618E+06        -0.97604E+08         0.00000E+00
    0.00000E+00         0.00000E+00        -0.45313E+08
 
   -0.44410E+08         0.97405E+06         0.00000E+00
    0.97405E+06        -0.97624E+08         0.00000E+00
    0.00000E+00         0.00000E+00        -0.45035E+08
 
   -0.44180E+08         0.96374E+06         0.00000E+00
    0.96374E+06        -0.97647E+08         0.00000E+00
    0.00000E+00         0.00000E+00        -0.44739E+08
 
   -0.43948E+08         0.94390E+06         0.00000E+00
    0.94390E+06        -0.97674E+08         0.00000E+00
    0.00000E+00         0.00000E+00        -0.44425E+08
 
   -0.43714E+08         0.91313E+06         0.00000E+00
    0.91313E+06        -0.97705E+08         0.00000E+00
    0.00000E+00         0.00000E+00        -0.44091E+08
 
   -0.43479E+08         0.87002E+06         0.00000E+00
    0.87002E+06        -0.97741E+08         0.00000E+00
    0.00000E+00         0.00000E+00        -0.43736E+08
 
   -0.43244E+08         0.81321E+06         0.00000E+00
    0.81321E+06        -0.97780E+08         0.00000E+00
    0.00000E+00         0.00000E+00        -0.43358E+08
 
   -0.43009E+08         0.74156E+06         0.00000E+00
    0.74156E+06        -0.97824E+08         0.00000E+00
    0.00000E+00         0.00000E+00        -0.42956E+08
 
   -0.42776E+08         0.65427E+06         0.00000E+00
    0.65427E+06        -0.97869E+08         0.00000E+00
    0.00000E+00         0.00000E+00        -0.42528E+08
 
   -0.42545E+08         0.55116E+06         0.00000E+00
    0.55116E+06        -0.97916E+08         0.00000E+00
    0.00000E+00         0.00000E+00        -0.42072E+08
 
   -0.42317E+08         0.43297E+06         0.00000E+00
    0.43297E+06        -0.97961E+08         0.00000E+00
    0.00000E+00         0.00000E+00        -0.41586E+08
 
   -0.42092E+08         0.30187E+06         0.00000E+00
    0.30187E+06        -0.98000E+08         0.00000E+00
    0.00000E+00         0.00000E+00        -0.41068E+08
 
   -0.41869E+08         0.16204E+06         0.00000E+00
    0.16204E+06        -0.98027E+08         0.00000E+00
    0.00000E+00         0.00000E+00        -0.40516E+08
 
   -0.41650E+08         0.20496E+05         0.00000E+00
    0.20496E+05        -0.98034E+08         0.00000E+00
    0.00000E+00         0.00000E+00        -0.39926E+08
 
   -0.41434E+08        -0.11193E+06         0.00000E+00
   -0.11193E+06        -0.98009E+08         0.00000E+00
    0.00000E+00         0.00000E+00        -0.39297E+08
 
   -0.41223E+08        -0.21987E+06         0.00000E+00
   -0.21987E+06        -0.97935E+08         0.00000E+00
    0.00000E+00         0.00000E+00        -0.38625E+08
 
   -0.41021E+08        -0.28387E+06         0.00000E+00
   -0.28387E+06        -0.97783E+08         0.00000E+00
    0.00000E+00         0.00000E+00        -0.37908E+08
 
   -0.40838E+08        -0.28445E+06         0.00000E+00
   -0.28445E+06        -0.97515E+08         0.00000E+00
    0.00000E+00         0.00000E+00        -0.37142E+08
 
   -0.40694E+08        -0.21185E+06         0.00000E+00
   -0.21185E+06        -0.97076E+08         0.00000E+00
    0.00000E+00         0.00000E+00        -0.36324E+08
 
   -0.40613E+08        -0.78403E+05         0.00000E+00
   -0.78403E+05        -0.96411E+08         0.00000E+00
    0.00000E+00         0.00000E+00        -0.35451E+08
 
   -0.49918E+08         0.39567E+03         0.00000E+00
    0.39567E+03        -0.97604E+08         0.00000E+00
    0.00000E+00         0.00000E+00        -0.49997E+08
 
   -0.49917E+08         0.13597E+04         0.00000E+00
    0.13597E+04        -0.97599E+08         0.00000E+00
    0.00000E+00         0.00000E+00        -0.49990E+08
 
   -0.49915E+08         0.27829E+04         0.00000E+00
    0.27829E+04        -0.97596E+08         0.00000E+00
    0.00000E+00         0.00000E+00        -0.49984E+08
 
   -0.49912E+08         0.47588E+04         0.00000E+00
    0.47588E+04        -0.97595E+08         0.00000E+00
    0.00000E+00         0.00000E+00        -0.49978E+08
 
   -0.49909E+08         0.72138E+04         0.00000E+00
    0.72138E+04        -0.97594E+08         0.00000E+00
    0.00000E+00         0.00000E+00        -0.49972E+08
 
   -0.49905E+08         0.10008E+05         0.00000E+00
    0.10008E+05        -0.97593E+08         0.00000E+00
    0.00000E+00         0.00000E+00        -0.49965E+08
 
   -0.49901E+08         0.13007E+05         0.00000E+00
    0.13007E+05        -0.97593E+08         0.00000E+00
    0.00000E+00         0.00000E+00        -0.49959E+08
 
   -0.49897E+08         0.16109E+05         0.00000E+00
    0.16109E+05        -0.97593E+08         0.00000E+00
    0.00000E+00         0.00000E+00        -0.49953E+08
 
   -0.49891E+08         0.19245E+05         0.00000E+00
    0.19245E+05        -0.97593E+08         0.00000E+00
    0.00000E+00         0.00000E+00        -0.49946E+08
 
   -0.49886E+08         0.22374E+05         0.00000E+00
    0.22374E+05        -0.97593E+08         0.00000E+00
    0.00000E+00         0.00000E+00        -0.49939E+08
 
   -0.49879E+08         0.25474E+05         0.00000E+00
    0.25474E+05        -0.97593E+08         0.00000E+00
    0.00000E+00         0.00000E+00        -0.49933E+08
 
   -0.49873E+08         0.28538E+05         0.00000E+00
    0.28538E+05        -0.97593E+08         0.00000E+00
    0.00000E+00         0.00000E+00        -0.49926E+08
 
   -0.49865E+08         0.31567E+05         0.00000E+00
    0.31567E+05        -0.97593E+08         0.00000E+00
    0.00000E+00         0.00000E+00        -0.49919E+08
 
   -0.49857E+08         0.34571E+05         0.00000E+00
    0.34571E+05        -0.97593E+08         0.00000E+00
    0.00000E+00         0.00000E+00        -0.49911E+08
 
   -0.49849E+08         0.37562E+05         0.00000E+00
    0.37562E+05        -0.97594E+08         0.00000E+00
    0.00000E+00         0.00000E+00        -0.49904E+08
 
   -0.49840E+08         0.40557E+05         0.00000E+00
    0.40557E+05        -0.97594E+08         0.00000E+00
    0.00000E+00         0.00000E+00        -0.49896E+08
 
   -0.49830E+08         0.43573E+05         0.00000E+00
    0.43573E+05        -0.97594E+08         0.00000E+00
    0.00000E+00         0.00000E+00        -0.49888E+08
 
   -0.49819E+08         0.46628E+05         0.00000E+00
    0.46628E+05        -0.97593E+08         0.00000E+00
    0.00000E+00         0.00000E+00        -0.49879E+08
 
   -0.49808E+08         0.49740E+05         0.00000E+00
    0.49740E+05        -0.97593E+08         0.00000E+00
    0.00000E+00         0.00000E+00        -0.49870E+08
 
   -0.49796E+08         0.52928E+05         0.00000E+00
    0.52928E+05        -0.97593E+08         0.00000E+00
    0.00000E+00         0.00000E+00        -0.49861E+08
 
   -0.49784E+08         0.56211E+05         0.00000E+00
    0.56211E+05        -0.97593E+08         0.00000E+00
    0.00000E+00         0.00000E+00        -0.49851E+08
 
   -0.49771E+08         0.59604E+05         0.00000E+00
    0.59604E+05        -0.97593E+08         0.00000E+00
    0.00000E+00         0.00000E+00        -0.49841E+08
 
   -0.49756E+08         0.63126E+05         0.00000E+00
    0.63126E+05        -0.97592E+08         0.00000E+00
    0.00000E+00         0.00000E+00        -0.49831E+08
 
   -0.49742E+08         0.66794E+05         0.00000E+00
    0.66794E+05        -0.97592E+08         0.00000E+00
    0.00000E+00         0.00000E+00        -0.49820E+08
 
   -0.49726E+08         0.70623E+05         0.00000E+00
    0.70623E+05        -0.97592E+08         0.00000E+00
    0.00000E+00         0.00000E+00        -0.49808E+08
 
   -0.49709E+08         0.74631E+05         0.00000E+00
    0.74631E+05        -0.97591E+08         0.00000E+00
    0.00000E+00         0.00000E+00        -0.49796E+08
 
   -0.49692E+08         0.78832E+05         0.00000E+00
    0.78832E+05        -0.97591E+08         0.00000E+00
    0.00000E+00         0.00000E+00        -0.49783E+08
 
   -0.49673E+08         0.83245E+05         0.00000E+00
    0.83245E+05        -0.97591E+08         0.00000E+00
    0.00000E+00         0.00000E+00        -0.49769E+08
 
   -0.49654E+08         0.87883E+05         0.00000E+00
    0.87883E+05        -0.97590E+08         0.00000E+00
    0.00000E+00         0.00000E+00        -0.49755E+08
 
   -0.49633E+08         0.92764E+05         0.00000E+00
    0.92764E+05        -0.97590E+08         0.00000E+00
    0.00000E+00         0.00000E+00        -0.49740E+08
 
   -0.49611E+08         0.97904E+05         0.00000E+00
    0.97904E+05        -0.97589E+08         0.00000E+00
    0.00000E+00         0.00000E+00        -0.49724E+08
 
   -0.49588E+08         0.10332E+06         0.00000E+00
    0.10332E+06        -0.97588E+08         0.00000E+00
    0.00000E+00         0.00000E+00        -0.49708E+08
 
   -0.49564E+08         0.10903E+06         0.00000E+00
    0.10903E+06        -0.97588E+08         0.00000E+00
    0.00000E+00         0.00000E+00        -0.49690E+08
 
   -0.49538E+08         0.11505E+06         0.00000E+00
    0.11505E+06        -0.97587E+08         0.00000E+00
    0.00000E+00         0.00000E+00        -0.49671E+08
 
   -0.49511E+08         0.12139E+06         0.00000E+00
    0.12139E+06        -0.97586E+08         0.00000E+00
    0.00000E+00         0.00000E+00        -0.49652E+08
 
   -0.49483E+08         0.12809E+06         0.00000E+00
    0.12809E+06        -0.97586E+08         0.00000E+00
    0.00000E+00         0.00000E+00        -0.49631E+08
 
   -0.49453E+08         0.13514E+06         0.00000E+00
    0.13514E+06        -0.97585E+08         0.00000E+00
    0.00000E+00         0.00000E+00        -0.49609E+08
 
   -0.49421E+08         0.14259E+06         0.00000E+00
    0.14259E+06        -0.97584E+08         0.00000E+00
    0.00000E+00         0.00000E+00        -0.49587E+08
 
   -0.49388E+08         0.15043E+06         0.00000E+00
    0.15043E+06        -0.97583E+08         0.00000E+00
    0.00000E+00         0.00000E+00        -0.49562E+08
 
   -0.49352E+08         0.15870E+06         0.00000E+00
    0.15870E+06        -0.97582E+08         0.00000E+00
    0.00000E+00         0.00000E+00        -0.49537E+08
 
   -0.49315E+08         0.16742E+06         0.00000E+00
    0.16742E+06        -0.97581E+08         0.00000E+00
    0.00000E+00         0.00000E+00        -0.49510E+08
 
   -0.49276E+08         0.17661E+06         0.00000E+00
    0.17661E+06        -0.97580E+08         0.00000E+00
    0.00000E+00         0.00000E+00        -0.49481E+08
 
   -0.49234E+08         0.18629E+06         0.00000E+00
    0.18629E+06        -0.97579E+08         0.00000E+00
    0.00000E+00         0.00000E+00        -0.49451E+08
 
   -0.49191E+08         0.19649E+06         0.00000E+00
    0.19649E+06        -0.97578E+08         0.00000E+00
    0.00000E+00         0.00000E+00        -0.49419E+08
 
   -0.49144E+08         0.20722E+06         0.00000E+00
    0.20722E+06        -0.97577E+08         0.00000E+00
    0.00000E+00         0.00000E+00        -0.49385E+08
 
   -0.49096E+08         0.21852E+06         0.00000E+00
    0.21852E+06        -0.97576E+08         0.00000E+00
    0.00000E+00         0.00000E+00        -0.49350E+08
 
   -0.49045E+08         0.23040E+06         0.00000E+00
    0.23040E+06        -0.97574E+08         0.00000E+00
    0.00000E+00         0.00000E+00        -0.49312E+08
 
   -0.48990E+08         0.24290E+06         0.00000E+00
    0.24290E+06        -0.97573E+08         0.00000E+00
    0.00000E+00         0.00000E+00        -0.49272E+08
 
   -0.48933E+08         0.25603E+06         0.00000E+00
    0.25603E+06        -0.97572E+08         0.00000E+00
    0.00000E+00         0.00000E+00        -0.49230E+08
 
   -0.48873E+08         0.26983E+06         0.00000E+00
    0.26983E+06        -0.97570E+08         0.00000E+00
    0.00000E+00         0.00000E+00        -0.49186E+08
 
   -0.48810E+08         0.28431E+06         0.00000E+00
    0.28431E+06        -0.97569E+08         0.00000E+00
    0.00000E+00         0.00000E+00        -0.49139E+08
 
   -0.48743E+08         0.29950E+06         0.00000E+00
    0.29950E+06        -0.97567E+08         0.00000E+00
    0.00000E+00         0.00000E+00        -0.49089E+08
 
   -0.48673E+08         0.31543E+06         0.00000E+00
    0.31543E+06        -0.97566E+08         0.00000E+00
    0.00000E+00         0.00000E+00        -0.49036E+08
 
   -0.48599E+08         0.33212E+06         0.00000E+00
    0.33212E+06        -0.97564E+08         0.00000E+00
    0.00000E+00         0.00000E+00        -0.48981E+08
 
   -0.48521E+08         0.34959E+06         0.00000E+00
    0.34959E+06        -0.97562E+08         0.00000E+00
    0.00000E+00         0.00000E+00        -0.48922E+08
 
   -0.48439E+08         0.36786E+06         0.00000E+00
    0.36786E+06        -0.97561E+08         0.00000E+00
    0.00000E+00         0.00000E+00        -0.48860E+08
 
   -0.48353E+08         0.38694E+06         0.00000E+00
    0.38694E+06        -0.97559E+08         0.00000E+00
    0.00000E+00         0.00000E+00        -0.48794E+08
 
   -0.48262E+08         0.40685E+06         0.00000E+00
    0.40685E+06        -0.97557E+08         0.00000E+00
    0.00000E+00         0.00000E+00        -0.48724E+08
 
   -0.48167E+08         0.42761E+06         0.00000E+00
    0.42761E+06        -0.97555E+08         0.00000E+00
    0.00000E+00         0.00000E+00        -0.48651E+08
 
   -0.48067E+08         0.44920E+06         0.00000E+00
    0.44920E+06        -0.97554E+08         0.00000E+00
    0.00000E+00         0.00000E+00        -0.48573E+08
 
   -0.47962E+08         0.47164E+06         0.00000E+00
    0.47164E+06        -0.97552E+08         0.00000E+00
    0.00000E+00         0.00000E+00        -0.48490E+08
 
   -0.47851E+08         0.49491E+06         0.00000E+00
    0.49491E+06        -0.97550E+08         0.00000E+00
    0.00000E+00         0.00000E+00        -0.48403E+08
 
   -0.47735E+08         0.51899E+06         0.00000E+00
    0.51899E+06        -0.97548E+08         0.00000E+00
    0.00000E+00         0.00000E+00        -0.48311E+08
 
   -0.47614E+08         0.54385E+06         0.00000E+00
    0.54385E+06        -0.97547E+08         0.00000E+00
    0.00000E+00         0.00000E+00        -0.48213E+08
 
   -0.47487E+08         0.56946E+06         0.00000E+00
    0.56946E+06        -0.97545E+08         0.00000E+00
    0.00000E+00         0.00000E+00        -0.48110E+08
 
   -0.47353E+08         0.59576E+06         0.00000E+00
    0.59576E+06        -0.97544E+08         0.00000E+00
    0.00000E+00         0.00000E+00        -0.48001E+08
 
   -0.47214E+08         0.62265E+06         0.00000E+00
    0.62265E+06        -0.97543E+08         0.00000E+00
    0.00000E+00         0.00000E+00        -0.47885E+08
 
   -0.47069E+08         0.65006E+06         0.00000E+00
    0.65006E+06        -0.97542E+08         0.00000E+00
    0.00000E+00         0.00000E+00        -0.47762E+08
 
   -0.46917E+08         0.67784E+06         0.00000E+00
    0.67784E+06        -0.97541E+08         0.00000E+00
    0.00000E+00         0.00000E+00        -0.47632E+08
 
   -0.46759E+08         0.70584E+06         0.00000E+00
    0.70584E+06        -0.97541E+08         0.00000E+00
    0.00000E+00         0.00000E+00        -0.47495E+08
 
   -0.46594E+08         0.73387E+06         0.00000E+00
    0.73387E+06        -0.97541E+08         0.00000E+00
    0.00000E+00         0.00000E+00        -0.47349E+08
 
   -0.46422E+08         0.76168E+06         0.00000E+00
    0.76168E+06        -0.97542E+08         0.00000E+00
    0.00000E+00         0.00000E+00        -0.47195E+08
 
   -0.46245E+08         0.78899E+06         0.00000E+00
    0.78899E+06        -0.97543E+08         0.00000E+00
    0.00000E+00         0.00000E+00        -0.47031E+08
 
   -0.46060E+08         0.81545E+06         0.00000E+00
    0.81545E+06        -0.97546E+08         0.00000E+00
    0.00000E+00         0.00000E+00        -0.46858E+08
 
   -0.45870E+08         0.84065E+06         0.00000E+00
    0.84065E+06        -0.97549E+08         0.00000E+00
    0.00000E+00         0.00000E+00        -0.46674E+08
 
   -0.45673E+08         0.86409E+06         0.00000E+00
    0.86409E+06        -0.97554E+08         0.00000E+00
    0.00000E+00         0.00000E+00        -0.46479E+08
 
   -0.45470E+08         0.88521E+06         0.00000E+00
    0.88521E+06        -0.97560E+08         0.00000E+00
    0.00000E+00         0.00000E+00        -0.46273E+08
 
   -0.45262E+08         0.90332E+06         0.00000E+00
    0.90332E+06        -0.97568E+08         0.00000E+00
    0.00000E+00         0.00000E+00        -0.46054E+08
 
   -0.45049E+08         0.91766E+06         0.00000E+00
    0.91766E+06        -0.97577E+08         0.00000E+00
    0.00000E+00         0.00000E+00        -0.45821E+08
 
   -0.44831E+08         0.92734E+06         0.00000E+00
    0.92734E+06        -0.97590E+08         0.00000E+00
    0.00000E+00         0.00000E+00        -0.45574E+08
 
   -0.44609E+08         0.93134E+06         0.00000E+00
    0.93134E+06        -0.97605E+08         0.00000E+00
    0.00000E+00         0.00000E+00        -0.45312E+08
 
   -0.44383E+08         0.92855E+06         0.00000E+00
    0.92855E+06        -0.97623E+08         0.00000E+00
    0.00000E+00         0.00000E+00        -0.45034E+08
 
   -0.44155E+08         0.91772E+06         0.00000E+00
    0.91772E+06        -0.97644E+08         0.00000E+00
    0.00000E+00         0.00000E+00        -0.44739E+08
 
   -0.43925E+08         0.89753E+06         0.00000E+00
    0.89753E+06        -0.97669E+08         0.00000E+00
    0.00000E+00         0.00000E+00        -0.44425E+08
 
   -0.43694E+08         0.86658E+06         0.00000E+00
    0.86658E+06        -0.97698E+08         0.00000E+00
    0.00000E+00         0.00000E+00        -0.44091E+08
 
   -0.43463E+08         0.82346E+06         0.00000E+00
    0.82346E+06        -0.97731E+08         0.00000E+00
    0.00000E+00         0.00000E+00        -0.43736E+08
 
   -0.43233E+08         0.76682E+06         0.00000E+00
    0.76682E+06        -0.97768E+08         0.00000E+00
    0.00000E+00         0.00000E+00        -0.43358E+08
 
   -0.43005E+08         0.69551E+06         0.00000E+00
    0.69551E+06        -0.97808E+08         0.00000E+00
    0.00000E+00         0.00000E+00        -0.42956E+08
 
   -0.42780E+08         0.60872E+06         0.00000E+00
    0.60872E+06        -0.97850E+08         0.00000E+00
    0.00000E+00         0.00000E+00        -0.42528E+08
 
   -0.42559E+08         0.50623E+06         0.00000E+00
    0.50623E+06        -0.97894E+08         0.00000E+00
    0.00000E+00         0.00000E+00        -0.42072E+08
 
   -0.42341E+08         0.38877E+06         0.00000E+00
    0.38877E+06        -0.97936E+08         0.00000E+00
    0.00000E+00         0.00000E+00        -0.41586E+08
 
   -0.42129E+08         0.25844E+06         0.00000E+00
    0.25844E+06        -0.97972E+08         0.00000E+00
    0.00000E+00         0.00000E+00        -0.41068E+08
 
   -0.41921E+08         0.11937E+06         0.00000E+00
    0.11937E+06        -0.97998E+08         0.00000E+00
    0.00000E+00         0.00000E+00        -0.40516E+08
 
   -0.41718E+08        -0.21462E+05         0.00000E+00
   -0.21462E+05        -0.98006E+08         0.00000E+00
    0.00000E+00         0.00000E+00        -0.39927E+08
 
   -0.41519E+08        -0.15320E+06         0.00000E+00
   -0.15320E+06        -0.97985E+08         0.00000E+00
    0.00000E+00         0.00000E+00        -0.39298E+08
 
   -0.41324E+08        -0.26019E+06         0.00000E+00
   -0.26019E+06        -0.97917E+08         0.00000E+00
    0.00000E+00         0.00000E+00        -0.38626E+08
 
   -0.41135E+08        -0.32210E+06         0.00000E+00
   -0.32210E+06        -0.97776E+08         0.00000E+00
    0.00000E+00         0.00000E+00        -0.37909E+08
 
   -0.40961E+08        -0.31774E+06         0.00000E+00
   -0.31774E+06        -0.97523E+08         0.00000E+00
    0.00000E+00         0.00000E+00        -0.37143E+08
 
   -0.40822E+08        -0.23536E+06         0.00000E+00
   -0.23536E+06        -0.97099E+08         0.00000E+00
    0.00000E+00         0.00000E+00        -0.36325E+08
 
   -0.40742E+08        -0.87004E+05         0.00000E+00
   -0.87004E+05        -0.96444E+08         0.00000E+00
    0.00000E+00         0.00000E+00        -0.35451E+08
 
   -0.49916E+08         0.29073E+03         0.00000E+00
    0.29073E+03        -0.97604E+08         0.00000E+00
    0.00000E+00         0.00000E+00        -0.49997E+08
 
   -0.49915E+08         0.10628E+04         0.00000E+00
    0.10628E+04        -0.97600E+08         0.00000E+00
    0.00000E+00         0.00000E+00        -0.49990E+08
 
   -0.49913E+08         0.23330E+04         0.00000E+00
    0.23330E+04        -0.97597E+08         0.00000E+00
    0.00000E+00         0.00000E+00        -0.49984E+08
 
   -0.49910E+08         0.41896E+04         0.00000E+00
    0.41896E+04        -0.97595E+08         0.00000E+00
    0.00000E+00         0.00000E+00        -0.49978E+08
 
   -0.49907E+08         0.65424E+04         0.00000E+00
    0.65424E+04        -0.97594E+08         0.00000E+00
    0.00000E+00         0.00000E+00        -0.49971E+08
 
   -0.49904E+08         0.92381E+04         0.00000E+00
    0.92381E+04        -0.97594E+08         0.00000E+00
    0.00000E+00         0.00000E+00        -0.49965E+08
 
   -0.49900E+08         0.12137E+05         0.00000E+00
    0.12137E+05        -0.97593E+08         0.00000E+00
    0.00000E+00         0.00000E+00        -0.49959E+08
 
   -0.49895E+08         0.15135E+05         0.00000E+00
    0.15135E+05        -0.97593E+08         0.00000E+00
    0.00000E+00         0.00000E+00        -0.49952E+08
 
   -0.49890E+08         0.18164E+05         0.00000E+00
    0.18164E+05        -0.97593E+08         0.00000E+00
    0.00000E+00         0.00000E+00        -0.49946E+08
 
   -0.49884E+08         0.21183E+05         0.00000E+00
    0.21183E+05        -0.97594E+08         0.00000E+00
    0.00000E+00         0.00000E+00        -0.49939E+08
 
   -0.49878E+08         0.24170E+05         0.00000E+00
    0.24170E+05        -0.97594E+08         0.00000E+00
    0.00000E+00         0.00000E+00        -0.49933E+08
 
   -0.49871E+08         0.27119E+05         0.00000E+00
    0.27119E+05        -0.97594E+08         0.00000E+00
    0.00000E+00         0.00000E+00        -0.49926E+08
 
   -0.49864E+08         0.30031E+05         0.00000E+00
    0.30031E+05        -0.97594E+08         0.00000E+00
    0.00000E+00         0.00000E+00        -0.49919E+08
 
   -0.49856E+08         0.32916E+05         0.00000E+00
    0.32916E+05        -0.97594E+08         0.00000E+00
    0.00000E+00         0.00000E+00        -0.49911E+08
 
   -0.49847E+08         0.35785E+05         0.00000E+00
    0.35785E+05        -0.97594E+08         0.00000E+00
    0.00000E+00         0.00000E+00        -0.49904E+08
 
   -0.49838E+08         0.38654E+05         0.00000E+00
    0.38654E+05        -0.97594E+08         0.00000E+00
    0.00000E+00         0.00000E+00        -0.49896E+08
 
   -0.49828E+08         0.41542E+05         0.00000E+00
    0.41542E+05        -0.97594E+08         0.00000E+00
    0.00000E+00         0.00000E+00        -0.49888E+08
 
   -0.49818E+08         0.44464E+05         0.00000E+00
    0.44464E+05        -0.97594E+08         0.00000E+00
    0.00000E+00         0.00000E+00        -0.49879E+08
 
   -0.49807E+08         0.47440E+05         0.00000E+00
    0.47440E+05        -0.97594E+08         0.00000E+00
    0.00000E+00         0.00000E+00        -0.49870E+08
 
   -0.49795E+08         0.50487E+05         0.00000E+00
    0.50487E+05        -0.97594E+08         0.00000E+00
    0.00000E+00         0.00000E+00        -0.49861E+08
 
   -0.49782E+08         0.53622E+05         0.00000E+00
    0.53622E+05        -0.97594E+08         0.00000E+00
    0.00000E+00         0.00000E+00        -0.49851E+08
 
   -0.49769E+08         0.56863E+05         0.00000E+00
    0.56863E+05        -0.97593E+08         0.00000E+00
    0.00000E+00         0.00000E+00        -0.49841E+08
 
   -0.49755E+08         0.60225E+05         0.00000E+00
    0.60225E+05        -0.97593E+08         0.00000E+00
    0.00000E+00         0.00000E+00        -0.49831E+08
 
   -0.49740E+08         0.63726E+05         0.00000E+00
    0.63726E+05        -0.97593E+08         0.00000E+00
    0.00000E+00         0.00000E+00        -0.49820E+08
 
   -0.49724E+08         0.67381E+05         0.00000E+00
    0.67381E+05        -0.97593E+08         0.00000E+00
    0.00000E+00         0.00000E+00        -0.49808E+08
 
   -0.49707E+08         0.71206E+05         0.00000E+00
    0.71206E+05        -0.97592E+08         0.00000E+00
    0.00000E+00         0.00000E+00        -0.49796E+08
 
   -0.49689E+08         0.75215E+05         0.00000E+00
    0.75215E+05        -0.97592E+08         0.00000E+00
    0.00000E+00         0.00000E+00        -0.49783E+08
 
   -0.49671E+08         0.79426E+05         0.00000E+00
    0.79426E+05        -0.97591E+08         0.00000E+00
    0.00000E+00         0.00000E+00        -0.49769E+08
 
   -0.49651E+08         0.83852E+05         0.00000E+00
    0.83852E+05        -0.97591E+08         0.00000E+00
    0.00000E+00         0.00000E+00        -0.49755E+08
 
   -0.49630E+08         0.88509E+05         0.00000E+00
    0.88509E+05        -0.97590E+08         0.00000E+00
    0.00000E+00         0.00000E+00        -0.49740E+08
 
   -0.49608E+08         0.93414E+05         0.00000E+00
    0.93414E+05        -0.97590E+08         0.00000E+00
    0.00000E+00         0.00000E+00        -0.49724E+08
 
   -0.49585E+08         0.98581E+05         0.00000E+00
    0.98581E+05        -0.97589E+08         0.00000E+00
    0.00000E+00         0.00000E+00        -0.49707E+08
 
   -0.49561E+08         0.10403E+06         0.00000E+00
    0.10403E+06        -0.97589E+08         0.00000E+00
    0.00000E+00         0.00000E+00        -0.49690E+08
 
   -0.49535E+08         0.10977E+06         0.00000E+00
    0.10977E+06        -0.97588E+08         0.00000E+00
    0.00000E+00         0.00000E+00        -0.49671E+08
 
   -0.49508E+08         0.11582E+06         0.00000E+00
    0.11582E+06        -0.97588E+08         0.00000E+00
    0.00000E+00         0.00000E+00        -0.49652E+08
 
   -0.49479E+08         0.12221E+06         0.00000E+00
    0.12221E+06        -0.97587E+08         0.00000E+00
    0.00000E+00         0.00000E+00        -0.49631E+08
 
   -0.49449E+08         0.12894E+06         0.00000E+00
    0.12894E+06        -0.97586E+08         0.00000E+00
    0.00000E+00         0.00000E+00        -0.49609E+08
 
   -0.49417E+08         0.13604E+06         0.00000E+00
    0.13604E+06        -0.97585E+08         0.00000E+00
    0.00000E+00         0.00000E+00        -0.49586E+08
 
   -0.49383E+08         0.14353E+06         0.00000E+00
    0.14353E+06        -0.97585E+08         0.00000E+00
    0.00000E+00         0.00000E+00        -0.49562E+08
 
   -0.49347E+08         0.15143E+06         0.00000E+00
    0.15143E+06        -0.97584E+08         0.00000E+00
    0.00000E+00         0.00000E+00        -0.49537E+08
 
   -0.49310E+08         0.15974E+06         0.00000E+00
    0.15974E+06        -0.97583E+08         0.00000E+00
    0.00000E+00         0.00000E+00        -0.49510E+08
 
   -0.49270E+08         0.16851E+06         0.00000E+00
    0.16851E+06        -0.97582E+08         0.00000E+00
    0.00000E+00         0.00000E+00        -0.49481E+08
 
   -0.49229E+08         0.17775E+06         0.00000E+00
    0.17775E+06        -0.97581E+08         0.00000E+00
    0.00000E+00         0.00000E+00        -0.49451E+08
 
   -0.49184E+08         0.18748E+06         0.00000E+00
    0.18748E+06        -0.97580E+08         0.00000E+00
    0.00000E+00         0.00000E+00        -0.49419E+08
 
   -0.49138E+08         0.19772E+06         0.00000E+00
    0.19772E+06        -0.97579E+08         0.00000E+00
    0.00000E+00         0.00000E+00        -0.49385E+08
 
   -0.49089E+08         0.20849E+06         0.00000E+00
    0.20849E+06        -0.97578E+08         0.00000E+00
    0.00000E+00         0.00000E+00        -0.49349E+08
 
   -0.49037E+08         0.21983E+06         0.00000E+00
    0.21983E+06        -0.97577E+08         0.00000E+00
    0.00000E+00         0.00000E+00        -0.49312E+08
 
   -0.48983E+08         0.23176E+06         0.00000E+00
    0.23176E+06        -0.97576E+08         0.00000E+00
    0.00000E+00         0.00000E+00        -0.49272E+08
 
   -0.48925E+08         0.24429E+06         0.00000E+00
    0.24429E+06        -0.97574E+08         0.00000E+00
    0.00000E+00         0.00000E+00        -0.49230E+08
 
   -0.48865E+08         0.25745E+06         0.00000E+00
    0.25745E+06        -0.97573E+08         0.00000E+00
    0.00000E+00         0.00000E+00        -0.49185E+08
 
   -0.48801E+08         0.27127E+06         0.00000E+00
    0.27127E+06        -0.97572E+08         0.00000E+00
    0.00000E+00         0.00000E+00        -0.49138E+08
 
   -0.48734E+08         0.28576E+06         0.00000E+00
    0.28576E+06        -0.97570E+08         0.00000E+00
    0.00000E+00         0.00000E+00        -0.49089E+08
 
   -0.48663E+08         0.30096E+06         0.00000E+00
    0.30096E+06        -0.97569E+08         0.00000E+00
    0.00000E+00         0.00000E+00        -0.49036E+08
 
   -0.48589E+08         0.31689E+06         0.00000E+00
    0.31689E+06        -0.97567E+08         0.00000E+00
    0.00000E+00         0.00000E+00        -0.48981E+08
 
   -0.48510E+08         0.33356E+06         0.00000E+00
    0.33356E+06        -0.97566E+08         0.00000E+00
    0.00000E+00         0.00000E+00        -0.48922E+08
 
   -0.48428E+08         0.35098E+06         0.00000E+00
    0.35098E+06        -0.97564E+08         0.00000E+00
    0.00000E+00         0.00000E+00        -0.48860E+08
 
   -0.48341E+08         0.36919E+06         0.00000E+00
    0.36919E+06        -0.97563E+08         0.00000E+00
    0.00000E+00         0.00000E+00        -0.48794E+08
 
   -0.48249E+08         0.38819E+06         0.00000E+00
    0.38819E+06        -0.97561E+08         0.00000E+00
    0.00000E+00         0.00000E+00        -0.48724E+08
 
   -0.48153E+08         0.40799E+06         0.00000E+00
    0.40799E+06        -0.97560E+08         0.00000E+00
    0.00000E+00         0.00000E+00        -0.48651E+08
 
   -0.48053E+08         0.42860E+06         0.00000E+00
    0.42860E+06        -0.97558E+08         0.00000E+00
    0.00000E+00         0.00000E+00        -0.48573E+08
 
   -0.47947E+08         0.45001E+06         0.00000E+00
    0.45001E+06        -0.97556E+08         0.00000E+00
    0.00000E+00         0.00000E+00        -0.48490E+08
 
   -0.47835E+08         0.47221E+06         0.00000E+00
    0.47221E+06        -0.97555E+08         0.00000E+00
    0.00000E+00         0.00000E+00        -0.48403E+08
 
   -0.47719E+08         0.49519E+06         0.00000E+00
    0.49519E+06        -0.97553E+08         0.00000E+00
    0.00000E+00         0.00000E+00        -0.48311E+08
 
   -0.47597E+08         0.51891E+06         0.00000E+00
    0.51891E+06        -0.97552E+08         0.00000E+00
    0.00000E+00         0.00000E+00        -0.48213E+08
 
   -0.47469E+08         0.54335E+06         0.00000E+00
    0.54335E+06        -0.97550E+08         0.00000E+00
    0.00000E+00         0.00000E+00        -0.48110E+08
 
   -0.47335E+08         0.56844E+06         0.00000E+00
    0.56844E+06        -0.97549E+08         0.00000E+00
    0.00000E+00         0.00000E+00        -0.48000E+08
 
   -0.47194E+08         0.59410E+06         0.00000E+00
    0.59410E+06        -0.97548E+08         0.00000E+00
    0.00000E+00         0.00000E+00        -0.47885E+08
 
   -0.47048E+08         0.62024E+06         0.00000E+00
    0.62024E+06        -0.97547E+08         0.00000E+00
    0.00000E+00         0.00000E+00        -0.47762E+08
 
   -0.46895E+08         0.64674E+06         0.00000E+00
    0.64674E+06        -0.97546E+08         0.00000E+00
    0.00000E+00         0.00000E+00        -0.47632E+08
 
   -0.46736E+08         0.67345E+06         0.00000E+00
    0.67345E+06        -0.97546E+08         0.00000E+00
    0.00000E+00         0.00000E+00        -0.47495E+08
 
   -0.46570E+08         0.70017E+06         0.00000E+00
    0.70017E+06        -0.97546E+08         0.00000E+00
    0.00000E+00         0.00000E+00        -0.47349E+08
 
   -0.46398E+08         0.72668E+06         0.00000E+00
    0.72668E+06        -0.97547E+08         0.00000E+00
    0.00000E+00         0.00000E+00        -0.47195E+08
 
   -0.46220E+08         0.75270E+06         0.00000E+00
    0.75270E+06        -0.97548E+08         0.00000E+00
    0.00000E+00         0.00000E+00        -0.47031E+08
 
   -0.46034E+08         0.77789E+06         0.00000E+00
    0.77789E+06        -0.97551E+08         0.00000E+00
    0.00000E+00         0.00000E+00        -0.46858E+08
 
   -0.45843E+08         0.80185E+06         0.00000E+00
    0.80185E+06        -0.97554E+08         0.00000E+00
    0.00000E+00         0.00000E+00        -0.46674E+08
 
   -0.45646E+08         0.82410E+06         0.00000E+00
    0.82410E+06        -0.97558E+08         0.00000E+00
    0.00000E+00         0.00000E+00        -0.46479E+08
 
   -0.45443E+08         0.84408E+06         0.00000E+00
    0.84408E+06        -0.97564E+08         0.00000E+00
    0.00000E+00         0.00000E+00        -0.46272E+08
 
   -0.45234E+08         0.86114E+06         0.00000E+00
    0.86114E+06        -0.97571E+08         0.00000E+00
    0.00000E+00         0.00000E+00        -0.46053E+08
 
   -0.45021E+08         0.87452E+06         0.00000E+00
    0.87452E+06        -0.97580E+08         0.00000E+00
    0.00000E+00         0.00000E+00        -0.45821E+08
 
   -0.44803E+08         0.88335E+06         0.00000E+00
    0.88335E+06        -0.97591E+08         0.00000E+00
    0.00000E+00         0.00000E+00        -0.45574E+08
 
   -0.44581E+08         0.88663E+06         0.00000E+00
    0.88663E+06        -0.97605E+08         0.00000E+00
    0.00000E+00         0.00000E+00        -0.45312E+08
 
   -0.44356E+08         0.88328E+06         0.00000E+00
    0.88328E+06        -0.97621E+08         0.00000E+00
    0.00000E+00         0.00000E+00        -0.45034E+08
 
   -0.44130E+08         0.87206E+06         0.00000E+00
    0.87206E+06        -0.97641E+08         0.00000E+00
    0.00000E+00         0.00000E+00        -0.44738E+08
 
   -0.43902E+08         0.85166E+06         0.00000E+00
    0.85166E+06        -0.97664E+08         0.00000E+00
    0.00000E+00         0.00000E+00        -0.44424E+08
 
   -0.43674E+08         0.82070E+06         0.00000E+00
    0.82070E+06        -0.97691E+08         0.00000E+00
    0.00000E+00         0.00000E+00        -0.44090E+08
 
   -0.43446E+08         0.77778E+06         0.00000E+00
    0.77778E+06        -0.97721E+08         0.00000E+00
    0.00000E+00         0.00000E+00        -0.43735E+08
 
   -0.43221E+08         0.72156E+06         0.00000E+00
    0.72156E+06        -0.97755E+08         0.00000E+00
    0.00000E+00         0.00000E+00        -0.43358E+08
 
   -0.43000E+08         0.65087E+06         0.00000E+00
    0.65087E+06        -0.97792E+08         0.00000E+00
    0.00000E+00         0.00000E+00        -0.42956E+08
 
   -0.42782E+08         0.56489E+06         0.00000E+00
    0.56489E+06        -0.97832E+08         0.00000E+00
    0.00000E+00         0.00000E+00        -0.42528E+08
 
   -0.42570E+08         0.46338E+06         0.00000E+00
    0.46338E+06        -0.97872E+08         0.00000E+00
    0.00000E+00         0.00000E+00        -0.42072E+08
 
   -0.42364E+08         0.34701E+06         0.00000E+00
    0.34701E+06        -0.97911E+08         0.00000E+00
    0.00000E+00         0.00000E+00        -0.41586E+08
 
   -0.42165E+08         0.21782E+06         0.00000E+00
    0.21782E+06        -0.97945E+08         0.00000E+00
    0.00000E+00         0.00000E+00        -0.41069E+08
 
   -0.41972E+08         0.79830E+05         0.00000E+00
    0.79830E+05        -0.97970E+08         0.00000E+00
    0.00000E+00         0.00000E+00        -0.40516E+08
 
   -0.41786E+08        -0.60075E+05         0.00000E+00
   -0.60075E+05        -0.97979E+08         0.00000E+00
    0.00000E+00         0.00000E+00        -0.39927E+08
 
   -0.41604E+08        -0.19111E+06         0.00000E+00
   -0.19111E+06        -0.97960E+08         0.00000E+00
    0.00000E+00         0.00000E+00        -0.39298E+08
 
   -0.41425E+08        -0.29745E+06         0.00000E+00
   -0.29745E+06        -0.97899E+08         0.00000E+00
    0.00000E+00         0.00000E+00        -0.38627E+08
 
   -0.41250E+08        -0.35797E+06         0.00000E+00
   -0.35797E+06        -0.97770E+08         0.00000E+00
    0.00000E+00         0.00000E+00        -0.37910E+08
 
   -0.41086E+08        -0.34965E+06         0.00000E+00
   -0.34965E+06        -0.97532E+08         0.00000E+00
    0.00000E+00         0.00000E+00        -0.37144E+08
 
   -0.40952E+08        -0.25839E+06         0.00000E+00
   -0.25839E+06        -0.97125E+08         0.00000E+00
    0.00000E+00         0.00000E+00        -0.36325E+08
 
   -0.40874E+08        -0.95534E+05         0.00000E+00
   -0.95534E+05        -0.96480E+08         0.00000E+00
    0.00000E+00         0.00000E+00        -0.35451E+08
 
   -0.49914E+08         0.18583E+03         0.00000E+00
    0.18583E+03        -0.97604E+08         0.00000E+00
    0.00000E+00         0.00000E+00        -0.49997E+08
 
   -0.49913E+08         0.76833E+03         0.00000E+00
    0.76833E+03        -0.97600E+08         0.00000E+00
    0.00000E+00         0.00000E+00        -0.49990E+08
 
   -0.49911E+08         0.18915E+04         0.00000E+00
    0.18915E+04        -0.97597E+08         0.00000E+00
    0.00000E+00         0.00000E+00        -0.49984E+08
 
   -0.49908E+08         0.36355E+04         0.00000E+00
    0.36355E+04        -0.97595E+08         0.00000E+00
    0.00000E+00         0.00000E+00        -0.49978E+08
 
   -0.49905E+08         0.58902E+04         0.00000E+00
    0.58902E+04        -0.97595E+08         0.00000E+00
    0.00000E+00         0.00000E+00        -0.49971E+08
 
   -0.49902E+08         0.84886E+04         0.00000E+00
    0.84886E+04        -0.97594E+08         0.00000E+00
    0.00000E+00         0.00000E+00        -0.49965E+08
 
   -0.49898E+08         0.11286E+05         0.00000E+00
    0.11286E+05        -0.97594E+08         0.00000E+00
    0.00000E+00         0.00000E+00        -0.49959E+08
 
   -0.49893E+08         0.14177E+05         0.00000E+00
    0.14177E+05        -0.97594E+08         0.00000E+00
    0.00000E+00         0.00000E+00        -0.49952E+08
 
   -0.49888E+08         0.17096E+05         0.00000E+00
    0.17096E+05        -0.97594E+08         0.00000E+00
    0.00000E+00         0.00000E+00        -0.49946E+08
 
   -0.49883E+08         0.20002E+05         0.00000E+00
    0.20002E+05        -0.97594E+08         0.00000E+00
    0.00000E+00         0.00000E+00        -0.49939E+08
 
   -0.49877E+08         0.22873E+05         0.00000E+00
    0.22873E+05        -0.97594E+08         0.00000E+00
    0.00000E+00         0.00000E+00        -0.49933E+08
 
   -0.49870E+08         0.25704E+05         0.00000E+00
    0.25704E+05        -0.97594E+08         0.00000E+00
    0.00000E+00         0.00000E+00        -0.49926E+08
 
   -0.49863E+08         0.28496E+05         0.00000E+00
    0.28496E+05        -0.97595E+08         0.00000E+00
    0.00000E+00         0.00000E+00        -0.49919E+08
 
   -0.49855E+08         0.31258E+05         0.00000E+00
    0.31258E+05        -0.97595E+08         0.00000E+00
    0.00000E+00         0.00000E+00        -0.49911E+08
 
   -0.49846E+08         0.34002E+05         0.00000E+00
    0.34002E+05        -0.97595E+08         0.00000E+00
    0.00000E+00         0.00000E+00        -0.49904E+08
 
   -0.49837E+08         0.36744E+05         0.00000E+00
    0.36744E+05        -0.97595E+08         0.00000E+00
    0.00000E+00         0.00000E+00        -0.49896E+08
 
   -0.49827E+08         0.39501E+05         0.00000E+00
    0.39501E+05        -0.97595E+08         0.00000E+00
    0.00000E+00         0.00000E+00        -0.49888E+08
 
   -0.49816E+08         0.42290E+05         0.00000E+00
    0.42290E+05        -0.97595E+08         0.00000E+00
    0.00000E+00         0.00000E+00        -0.49879E+08
 
   -0.49805E+08         0.45127E+05         0.00000E+00
    0.45127E+05        -0.97595E+08         0.00000E+00
    0.00000E+00         0.00000E+00        -0.49870E+08
 
   -0.49793E+08         0.48030E+05         0.00000E+00
    0.48030E+05        -0.97594E+08         0.00000E+00
    0.00000E+00         0.00000E+00        -0.49861E+08
 
   -0.49780E+08         0.51017E+05         0.00000E+00
    0.51017E+05        -0.97594E+08         0.00000E+00
    0.00000E+00         0.00000E+00        -0.49851E+08
 
   -0.49767E+08         0.54103E+05         0.00000E+00
    0.54103E+05        -0.97594E+08         0.00000E+00
    0.00000E+00         0.00000E+00        -0.49841E+08
 
   -0.49753E+08         0.57305E+05         0.00000E+00
    0.57305E+05        -0.97594E+08         0.00000E+00
    0.00000E+00         0.00000E+00        -0.49831E+08
 
   -0.49738E+08         0.60637E+05         0.00000E+00
    0.60637E+05        -0.97594E+08         0.00000E+00
    0.00000E+00         0.00000E+00        -0.49820E+08
 
   -0.49722E+08         0.64116E+05         0.00000E+00
    0.64116E+05        -0.97593E+08         0.00000E+00
    0.00000E+00         0.00000E+00        -0.49808E+08
 
   -0.49705E+08         0.67756E+05         0.00000E+00
    0.67756E+05        -0.97593E+08         0.00000E+00
    0.00000E+00         0.00000E+00        -0.49796E+08
 
   -0.49687E+08         0.71572E+05         0.00000E+00
    0.71572E+05        -0.97593E+08         0.00000E+00
    0.00000E+00         0.00000E+00        -0.49783E+08
 
   -0.49668E+08         0.75579E+05         0.00000E+00
    0.75579E+05        -0.97592E+08         0.00000E+00
    0.00000E+00         0.00000E+00        -0.49769E+08
 
   -0.49648E+08         0.79791E+05         0.00000E+00
    0.79791E+05        -0.97592E+08         0.00000E+00
    0.00000E+00         0.00000E+00        -0.49755E+08
 
   -0.49627E+08         0.84223E+05         0.00000E+00
    0.84223E+05        -0.97591E+08         0.00000E+00
    0.00000E+00         0.00000E+00        -0.49740E+08
 
   -0.49605E+08         0.88890E+05         0.00000E+00
    0.88890E+05        -0.97591E+08         0.00000E+00
    0.00000E+00         0.00000E+00        -0.49724E+08
 
   -0.49582E+08         0.93807E+05         0.00000E+00
    0.93807E+05        -0.97590E+08         0.00000E+00
    0.00000E+00         0.00000E+00        -0.49707E+08
 
   -0.49557E+08         0.98989E+05         0.00000E+00
    0.98989E+05        -0.97590E+08         0.00000E+00
    0.00000E+00         0.00000E+00        -0.49690E+08
 
   -0.49531E+08         0.10445E+06         0.00000E+00
    0.10445E+06        -0.97589E+08         0.00000E+00
    0.00000E+00         0.00000E+00        -0.49671E+08
 
   -0.49504E+08         0.11022E+06         0.00000E+00
    0.11022E+06        -0.97589E+08         0.00000E+00
    0.00000E+00         0.00000E+00        -0.49652E+08
 
   -0.49475E+08         0.11629E+06         0.00000E+00
    0.11629E+06        -0.97588E+08         0.00000E+00
    0.00000E+00         0.00000E+00        -0.49631E+08
 
   -0.49445E+08         0.12270E+06         0.00000E+00
    0.12270E+06        -0.97588E+08         0.00000E+00
    0.00000E+00         0.00000E+00        -0.49609E+08
 
   -0.49412E+08         0.12946E+06         0.00000E+00
    0.12946E+06        -0.97587E+08         0.00000E+00
    0.00000E+00         0.00000E+00        -0.49586E+08
 
   -0.49378E+08         0.13658E+06         0.00000E+00
    0.13658E+06        -0.97586E+08         0.00000E+00
    0.00000E+00         0.00000E+00        -0.49562E+08
 
   -0.49343E+08         0.14409E+06         0.00000E+00
    0.14409E+06        -0.97585E+08         0.00000E+00
    0.00000E+00         0.00000E+00        -0.49537E+08
 
   -0.49305E+08         0.15201E+06         0.00000E+00
    0.15201E+06        -0.97585E+08         0.00000E+00
    0.00000E+00         0.00000E+00        -0.49509E+08
 
   -0.49265E+08         0.16035E+06         0.00000E+00
    0.16035E+06        -0.97584E+08         0.00000E+00
    0.00000E+00         0.00000E+00        -0.49481E+08
 
   -0.49223E+08         0.16914E+06         0.00000E+00
    0.16914E+06        -0.97583E+08         0.00000E+00
    0.00000E+00         0.00000E+00        -0.49451E+08
 
   -0.49178E+08         0.17840E+06         0.00000E+00
    0.17840E+06        -0.97582E+08         0.00000E+00
    0.00000E+00         0.00000E+00        -0.49419E+08
 
   -0.49132E+08         0.18814E+06         0.00000E+00
    0.18814E+06        -0.97581E+08         0.00000E+00
    0.00000E+00         0.00000E+00        -0.49385E+08
 
   -0.49082E+08         0.19840E+06         0.00000E+00
    0.19840E+06        -0.97580E+08         0.00000E+00
    0.00000E+00         0.00000E+00        -0.49349E+08
 
   -0.49030E+08         0.20919E+06         0.00000E+00
    0.20919E+06        -0.97579E+08         0.00000E+00
    0.00000E+00         0.00000E+00        -0.49312E+08
 
   -0.48975E+08         0.22053E+06         0.00000E+00
    0.22053E+06        -0.97578E+08         0.00000E+00
    0.00000E+00         0.00000E+00        -0.49272E+08
 
   -0.48918E+08         0.23246E+06         0.00000E+00
    0.23246E+06        -0.97577E+08         0.00000E+00
    0.00000E+00         0.00000E+00        -0.49230E+08
 
   -0.48857E+08         0.24498E+06         0.00000E+00
    0.24498E+06        -0.97576E+08         0.00000E+00
    0.00000E+00         0.00000E+00        -0.49185E+08
 
   -0.48792E+08         0.25813E+06         0.00000E+00
    0.25813E+06        -0.97575E+08         0.00000E+00
    0.00000E+00         0.00000E+00        -0.49138E+08
 
   -0.48725E+08         0.27193E+06         0.00000E+00
    0.27193E+06        -0.97573E+08         0.00000E+00
    0.00000E+00         0.00000E+00        -0.49089E+08
 
   -0.48653E+08         0.28639E+06         0.00000E+00
    0.28639E+06        -0.97572E+08         0.00000E+00
    0.00000E+00         0.00000E+00        -0.49036E+08
 
   -0.48578E+08         0.30154E+06         0.00000E+00
    0.30154E+06        -0.97571E+08         0.00000E+00
    0.00000E+00         0.00000E+00        -0.48980E+08
 
   -0.48499E+08         0.31741E+06         0.00000E+00
    0.31741E+06        -0.97569E+08         0.00000E+00
    0.00000E+00         0.00000E+00        -0.48922E+08
 
   -0.48416E+08         0.33399E+06         0.00000E+00
    0.33399E+06        -0.97568E+08         0.00000E+00
    0.00000E+00         0.00000E+00        -0.48859E+08
 
   -0.48329E+08         0.35132E+06         0.00000E+00
    0.35132E+06        -0.97566E+08         0.00000E+00
    0.00000E+00         0.00000E+00        -0.48794E+08
 
   -0.48237E+08         0.36940E+06         0.00000E+00
    0.36940E+06        -0.97565E+08         0.00000E+00
    0.00000E+00         0.00000E+00        -0.48724E+08
 
   -0.48140E+08         0.38825E+06         0.00000E+00
    0.38825E+06        -0.97564E+08         0.00000E+00
    0.00000E+00         0.00000E+00        -0.48650E+08
 
   -0.48039E+08         0.40786E+06         0.00000E+00
    0.40786E+06        -0.97562E+08         0.00000E+00
    0.00000E+00         0.00000E+00        -0.48573E+08
 
   -0.47932E+08         0.42823E+06         0.00000E+00
    0.42823E+06        -0.97561E+08         0.00000E+00
    0.00000E+00         0.00000E+00        -0.48490E+08
 
   -0.47820E+08         0.44936E+06         0.00000E+00
    0.44936E+06        -0.97559E+08         0.00000E+00
    0.00000E+00         0.00000E+00        -0.48403E+08
 
   -0.47703E+08         0.47123E+06         0.00000E+00
    0.47123E+06        -0.97558E+08         0.00000E+00
    0.00000E+00         0.00000E+00        -0.48311E+08
 
   -0.47580E+08         0.49381E+06         0.00000E+00
    0.49381E+06        -0.97556E+08         0.00000E+00
    0.00000E+00         0.00000E+00        -0.48213E+08
 
   -0.47451E+08         0.51707E+06         0.00000E+00
    0.51707E+06        -0.97555E+08         0.00000E+00
    0.00000E+00         0.00000E+00        -0.48110E+08
 
   -0.47316E+08         0.54094E+06         0.00000E+00
    0.54094E+06        -0.97554E+08         0.00000E+00
    0.00000E+00         0.00000E+00        -0.48000E+08
 
   -0.47175E+08         0.56537E+06         0.00000E+00
    0.56537E+06        -0.97553E+08         0.00000E+00
    0.00000E+00         0.00000E+00        -0.47884E+08
 
   -0.47028E+08         0.59025E+06         0.00000E+00
    0.59025E+06        -0.97552E+08         0.00000E+00
    0.00000E+00         0.00000E+00        -0.47762E+08
 
   -0.46874E+08         0.61547E+06         0.00000E+00
    0.61547E+06        -0.97552E+08         0.00000E+00
    0.00000E+00         0.00000E+00        -0.47632E+08
 
   -0.46714E+08         0.64088E+06         0.00000E+00
    0.64088E+06        -0.97551E+08         0.00000E+00
    0.00000E+00         0.00000E+00        -0.47494E+08
 
   -0.46547E+08         0.66630E+06         0.00000E+00
    0.66630E+06        -0.97552E+08         0.00000E+00
    0.00000E+00         0.00000E+00        -0.47349E+08
 
   -0.46374E+08         0.69151E+06         0.00000E+00
    0.69151E+06        -0.97552E+08         0.00000E+00
    0.00000E+00         0.00000E+00        -0.47194E+08
 
   -0.46195E+08         0.71624E+06         0.00000E+00
    0.71624E+06        -0.97553E+08         0.00000E+00
    0.00000E+00         0.00000E+00        -0.47031E+08
 
   -0.46009E+08         0.74016E+06         0.00000E+00
    0.74016E+06        -0.97555E+08         0.00000E+00
    0.00000E+00         0.00000E+00        -0.46857E+08
 
   -0.45816E+08         0.76290E+06         0.00000E+00
    0.76290E+06        -0.97558E+08         0.00000E+00
    0.00000E+00         0.00000E+00        -0.46674E+08
 
   -0.45618E+08         0.78397E+06         0.00000E+00
    0.78397E+06        -0.97562E+08         0.00000E+00
    0.00000E+00         0.00000E+00        -0.46479E+08
 
   -0.45415E+08         0.80285E+06         0.00000E+00
    0.80285E+06        -0.97567E+08         0.00000E+00
    0.00000E+00         0.00000E+00        -0.46272E+08
 
   -0.45206E+08         0.81889E+06         0.00000E+00
    0.81889E+06        -0.97574E+08         0.00000E+00
    0.00000E+00         0.00000E+00        -0.46053E+08
 
   -0.44992E+08         0.83136E+06         0.00000E+00
    0.83136E+06        -0.97582E+08         0.00000E+00
    0.00000E+00         0.00000E+00        -0.45820E+08
 
   -0.44774E+08         0.83940E+06         0.00000E+00
    0.83940E+06        -0.97592E+08         0.00000E+00
    0.00000E+00         0.00000E+00        -0.45574E+08
 
   -0.44553E+08         0.84205E+06         0.00000E+00
    0.84205E+06        -0.97605E+08         0.00000E+00
    0.00000E+00         0.00000E+00        -0.45312E+08
 
   -0.44329E+08         0.83822E+06         0.00000E+00
    0.83822E+06        -0.97620E+08         0.00000E+00
    0.00000E+00         0.00000E+00        -0.45033E+08
 
   -0.44103E+08         0.82673E+06         0.00000E+00
    0.82673E+06        -0.97638E+08         0.00000E+00
    0.00000E+00         0.00000E+00        -0.44738E+08
 
   -0.43877E+08         0.80627E+06         0.00000E+00
    0.80627E+06        -0.97659E+08         0.00000E+00
    0.00000E+00         0.00000E+00        -0.44424E+08
 
   -0.43652E+08         0.77547E+06         0.00000E+00
    0.77547E+06        -0.97683E+08         0.00000E+00
    0.00000E+00         0.00000E+00        -0.44090E+08
 
   -0.43428E+08         0.73296E+06         0.00000E+00
    0.73296E+06        -0.97711E+08         0.00000E+00
    0.00000E+00         0.00000E+00        -0.43735E+08
 
   -0.43208E+08         0.67740E+06         0.00000E+00
    0.67740E+06        -0.97742E+08         0.00000E+00
    0.00000E+00         0.00000E+00        -0.43358E+08
 
   -0.42993E+08         0.60761E+06         0.00000E+00
    0.60761E+06        -0.97777E+08         0.00000E+00
    0.00000E+00         0.00000E+00        -0.42956E+08
 
   -0.42783E+08         0.52277E+06         0.00000E+00
    0.52277E+06        -0.97813E+08         0.00000E+00
    0.00000E+00         0.00000E+00        -0.42528E+08
 
   -0.42580E+08         0.42260E+06         0.00000E+00
    0.42260E+06        -0.97850E+08         0.00000E+00
    0.00000E+00         0.00000E+00        -0.42072E+08
 
   -0.42386E+08         0.30770E+06         0.00000E+00
    0.30770E+06        -0.97887E+08         0.00000E+00
    0.00000E+00         0.00000E+00        -0.41586E+08
 
   -0.42200E+08         0.18003E+06         0.00000E+00
    0.18003E+06        -0.97919E+08         0.00000E+00
    0.00000E+00         0.00000E+00        -0.41069E+08
 
   -0.42022E+08         0.43478E+05         0.00000E+00
    0.43478E+05        -0.97942E+08         0.00000E+00
    0.00000E+00         0.00000E+00        -0.40517E+08
 
   -0.41852E+08        -0.95246E+05         0.00000E+00
   -0.95246E+05        -0.97951E+08         0.00000E+00
    0.00000E+00         0.00000E+00        -0.39928E+08
 
   -0.41688E+08        -0.22551E+06         0.00000E+00
   -0.22551E+06        -0.97936E+08         0.00000E+00
    0.00000E+00         0.00000E+00        -0.39299E+08
 
   -0.41526E+08        -0.33147E+06         0.00000E+00
   -0.33147E+06        -0.97881E+08         0.00000E+00
    0.00000E+00         0.00000E+00        -0.38628E+08
 
   -0.41367E+08        -0.39131E+06         0.00000E+00
   -0.39131E+06        -0.97764E+08         0.00000E+00
    0.00000E+00         0.00000E+00        -0.37910E+08
 
   -0.41214E+08        -0.38009E+06         0.00000E+00
   -0.38009E+06        -0.97542E+08         0.00000E+00
    0.00000E+00         0.00000E+00        -0.37144E+08
 
   -0.41085E+08        -0.28090E+06         0.00000E+00
   -0.28090E+06        -0.97152E+08         0.00000E+00
    0.00000E+00         0.00000E+00        -0.36326E+08
 
   -0.41008E+08        -0.10400E+06         0.00000E+00
   -0.10400E+06        -0.96519E+08         0.00000E+00
    0.00000E+00         0.00000E+00        -0.35452E+08
 
   -0.49912E+08         0.80968E+02         0.00000E+00
    0.80968E+02        -0.97604E+08         0.00000E+00
    0.00000E+00         0.00000E+00        -0.49997E+08
 
   -0.49911E+08         0.47661E+03         0.00000E+00
    0.47661E+03        -0.97600E+08         0.00000E+00
    0.00000E+00         0.00000E+00        -0.49990E+08
 
   -0.49909E+08         0.14595E+04         0.00000E+00
    0.14595E+04        -0.97597E+08         0.00000E+00
    0.00000E+00         0.00000E+00        -0.49984E+08
 
   -0.49906E+08         0.30980E+04         0.00000E+00
    0.30980E+04        -0.97596E+08         0.00000E+00
    0.00000E+00         0.00000E+00        -0.49978E+08
 
   -0.49904E+08         0.52588E+04         0.00000E+00
    0.52588E+04        -0.97595E+08         0.00000E+00
    0.00000E+00         0.00000E+00        -0.49971E+08
 
   -0.49900E+08         0.77607E+04         0.00000E+00
    0.77607E+04        -0.97595E+08         0.00000E+00
    0.00000E+00         0.00000E+00        -0.49965E+08
 
   -0.49896E+08         0.10455E+05         0.00000E+00
    0.10455E+05        -0.97595E+08         0.00000E+00
    0.00000E+00         0.00000E+00        -0.49959E+08
 
   -0.49892E+08         0.13237E+05         0.00000E+00
    0.13237E+05        -0.97595E+08         0.00000E+00
    0.00000E+00         0.00000E+00        -0.49952E+08
 
   -0.49887E+08         0.16042E+05         0.00000E+00
    0.16042E+05        -0.97595E+08         0.00000E+00
    0.00000E+00         0.00000E+00        -0.49946E+08
 
   -0.49882E+08         0.18830E+05         0.00000E+00
    0.18830E+05        -0.97595E+08         0.00000E+00
    0.00000E+00         0.00000E+00        -0.49939E+08
 
   -0.49875E+08         0.21583E+05         0.00000E+00
    0.21583E+05        -0.97595E+08         0.00000E+00
    0.00000E+00         0.00000E+00        -0.49933E+08
 
   -0.49869E+08         0.24292E+05         0.00000E+00
    0.24292E+05        -0.97595E+08         0.00000E+00
    0.00000E+00         0.00000E+00        -0.49926E+08
 
   -0.49861E+08         0.26961E+05         0.00000E+00
    0.26961E+05        -0.97595E+08         0.00000E+00
    0.00000E+00         0.00000E+00        -0.49919E+08
 
   -0.49853E+08         0.29597E+05         0.00000E+00
    0.29597E+05        -0.97595E+08         0.00000E+00
    0.00000E+00         0.00000E+00        -0.49911E+08
 
   -0.49845E+08         0.32215E+05         0.00000E+00
    0.32215E+05        -0.97595E+08         0.00000E+00
    0.00000E+00         0.00000E+00        -0.49904E+08
 
   -0.49835E+08         0.34827E+05         0.00000E+00
    0.34827E+05        -0.97595E+08         0.00000E+00
    0.00000E+00         0.00000E+00        -0.49896E+08
 
   -0.49825E+08         0.37451E+05         0.00000E+00
    0.37451E+05        -0.97595E+08         0.00000E+00
    0.00000E+00         0.00000E+00        -0.49888E+08
 
   -0.49815E+08         0.40103E+05         0.00000E+00
    0.40103E+05        -0.97595E+08         0.00000E+00
    0.00000E+00         0.00000E+00        -0.49879E+08
 
   -0.49804E+08         0.42800E+05         0.00000E+00
    0.42800E+05        -0.97595E+08         0.00000E+00
    0.00000E+00         0.00000E+00        -0.49870E+08
 
   -0.49791E+08         0.45559E+05         0.00000E+00
    0.45559E+05        -0.97595E+08         0.00000E+00
    0.00000E+00         0.00000E+00        -0.49861E+08
 
   -0.49779E+08         0.48395E+05         0.00000E+00
    0.48395E+05        -0.97595E+08         0.00000E+00
    0.00000E+00         0.00000E+00        -0.49851E+08
 
   -0.49765E+08         0.51325E+05         0.00000E+00
    0.51325E+05        -0.97595E+08         0.00000E+00
    0.00000E+00         0.00000E+00        -0.49841E+08
 
   -0.49751E+08         0.54364E+05         0.00000E+00
    0.54364E+05        -0.97594E+08         0.00000E+00
    0.00000E+00         0.00000E+00        -0.49831E+08
 
   -0.49736E+08         0.57527E+05         0.00000E+00
    0.57527E+05        -0.97594E+08         0.00000E+00
    0.00000E+00         0.00000E+00        -0.49820E+08
 
   -0.49720E+08         0.60829E+05         0.00000E+00
    0.60829E+05        -0.97594E+08         0.00000E+00
    0.00000E+00         0.00000E+00        -0.49808E+08
 
   -0.49703E+08         0.64282E+05         0.00000E+00
    0.64282E+05        -0.97594E+08         0.00000E+00
    0.00000E+00         0.00000E+00        -0.49796E+08
 
   -0.49685E+08         0.67903E+05         0.00000E+00
    0.67903E+05        -0.97593E+08         0.00000E+00
    0.00000E+00         0.00000E+00        -0.49783E+08
 
   -0.49666E+08         0.71705E+05         0.00000E+00
    0.71705E+05        -0.97593E+08         0.00000E+00
    0.00000E+00         0.00000E+00        -0.49769E+08
 
   -0.49646E+08         0.75701E+05         0.00000E+00
    0.75701E+05        -0.97593E+08         0.00000E+00
    0.00000E+00         0.00000E+00        -0.49755E+08
 
   -0.49625E+08         0.79905E+05         0.00000E+00
    0.79905E+05        -0.97592E+08         0.00000E+00
    0.00000E+00         0.00000E+00        -0.49740E+08
 
   -0.49602E+08         0.84333E+05         0.00000E+00
    0.84333E+05        -0.97592E+08         0.00000E+00
    0.00000E+00         0.00000E+00        -0.49724E+08
 
   -0.49579E+08         0.88998E+05         0.00000E+00
    0.88998E+05        -0.97591E+08         0.00000E+00
    0.00000E+00         0.00000E+00        -0.49707E+08
 
   -0.49554E+08         0.93915E+05         0.00000E+00
    0.93915E+05        -0.97591E+08         0.00000E+00
    0.00000E+00         0.00000E+00        -0.49690E+08
 
   -0.49528E+08         0.99099E+05         0.00000E+00
    0.99099E+05        -0.97591E+08         0.00000E+00
    0.00000E+00         0.00000E+00        -0.49671E+08
 
   -0.49500E+08         0.10457E+06         0.00000E+00
    0.10457E+06        -0.97590E+08         0.00000E+00
    0.00000E+00         0.00000E+00        -0.49652E+08
 
   -0.49471E+08         0.11033E+06         0.00000E+00
    0.11033E+06        -0.97589E+08         0.00000E+00
    0.00000E+00         0.00000E+00        -0.49631E+08
 
   -0.49441E+08         0.11641E+06         0.00000E+00
    0.11641E+06        -0.97589E+08         0.00000E+00
    0.00000E+00         0.00000E+00        -0.49609E+08
 
   -0.49408E+08         0.12282E+06         0.00000E+00
    0.12282E+06        -0.97588E+08         0.00000E+00
    0.00000E+00         0.00000E+00        -0.49586E+08
 
   -0.49374E+08         0.12958E+06         0.00000E+00
    0.12958E+06        -0.97588E+08         0.00000E+00
    0.00000E+00         0.00000E+00        -0.49562E+08
 
   -0.49338E+08         0.13671E+06         0.00000E+00
    0.13671E+06        -0.97587E+08         0.00000E+00
    0.00000E+00         0.00000E+00        -0.49536E+08
 
   -0.49300E+08         0.14422E+06         0.00000E+00
    0.14422E+06        -0.97586E+08         0.00000E+00
    0.00000E+00         0.00000E+00        -0.49509E+08
 
   -0.49260E+08         0.15213E+06         0.00000E+00
    0.15213E+06        -0.97585E+08         0.00000E+00
    0.00000E+00         0.00000E+00        -0.49481E+08
 
   -0.49217E+08         0.16047E+06         0.00000E+00
    0.16047E+06        -0.97585E+08         0.00000E+00
    0.00000E+00         0.00000E+00        -0.49451E+08
 
   -0.49173E+08         0.16925E+06         0.00000E+00
    0.16925E+06        -0.97584E+08         0.00000E+00
    0.00000E+00         0.00000E+00        -0.49419E+08
 
   -0.49125E+08         0.17850E+06         0.00000E+00
    0.17850E+06        -0.97583E+08         0.00000E+00
    0.00000E+00         0.00000E+00        -0.49385E+08
 
   -0.49076E+08         0.18823E+06         0.00000E+00
    0.18823E+06        -0.97582E+08         0.00000E+00
    0.00000E+00         0.00000E+00        -0.49349E+08
 
   -0.49023E+08         0.19847E+06         0.00000E+00
    0.19847E+06        -0.97581E+08         0.00000E+00
    0.00000E+00         0.00000E+00        -0.49312E+08
 
   -0.48968E+08         0.20923E+06         0.00000E+00
    0.20923E+06        -0.97580E+08         0.00000E+00
    0.00000E+00         0.00000E+00        -0.49272E+08
 
   -0.48910E+08         0.22054E+06         0.00000E+00
    0.22054E+06        -0.97579E+08         0.00000E+00
    0.00000E+00         0.00000E+00        -0.49230E+08
 
   -0.48848E+08         0.23243E+06         0.00000E+00
    0.23243E+06        -0.97578E+08         0.00000E+00
    0.00000E+00         0.00000E+00        -0.49185E+08
 
   -0.48784E+08         0.24490E+06         0.00000E+00
    0.24490E+06        -0.97577E+08         0.00000E+00
    0.00000E+00         0.00000E+00        -0.49138E+08
 
   -0.48716E+08         0.25799E+06         0.00000E+00
    0.25799E+06        -0.97576E+08         0.00000E+00
    0.00000E+00         0.00000E+00        -0.49089E+08
 
   -0.48644E+08         0.27172E+06         0.00000E+00
    0.27172E+06        -0.97575E+08         0.00000E+00
    0.00000E+00         0.00000E+00        -0.49036E+08
 
   -0.48568E+08         0.28610E+06         0.00000E+00
    0.28610E+06        -0.97574E+08         0.00000E+00
    0.00000E+00         0.00000E+00        -0.48980E+08
 
   -0.48489E+08         0.30115E+06         0.00000E+00
    0.30115E+06        -0.97572E+08         0.00000E+00
    0.00000E+00         0.00000E+00        -0.48921E+08
 
   -0.48405E+08         0.31688E+06         0.00000E+00
    0.31688E+06        -0.97571E+08         0.00000E+00
    0.00000E+00         0.00000E+00        -0.48859E+08
 
   -0.48317E+08         0.33333E+06         0.00000E+00
    0.33333E+06        -0.97570E+08         0.00000E+00
    0.00000E+00         0.00000E+00        -0.48794E+08
 
   -0.48224E+08         0.35048E+06         0.00000E+00
    0.35048E+06        -0.97569E+08         0.00000E+00
    0.00000E+00         0.00000E+00        -0.48724E+08
 
   -0.48127E+08         0.36836E+06         0.00000E+00
    0.36836E+06        -0.97567E+08         0.00000E+00
    0.00000E+00         0.00000E+00        -0.48650E+08
 
   -0.48025E+08         0.38697E+06         0.00000E+00
    0.38697E+06        -0.97566E+08         0.00000E+00
    0.00000E+00         0.00000E+00        -0.48572E+08
 
   -0.47918E+08         0.40631E+06         0.00000E+00
    0.40631E+06        -0.97565E+08         0.00000E+00
    0.00000E+00         0.00000E+00        -0.48490E+08
 
   -0.47805E+08         0.42636E+06         0.00000E+00
    0.42636E+06        -0.97563E+08         0.00000E+00
    0.00000E+00         0.00000E+00        -0.48403E+08
 
   -0.47687E+08         0.44712E+06         0.00000E+00
    0.44712E+06        -0.97562E+08         0.00000E+00
    0.00000E+00         0.00000E+00        -0.48310E+08
 
   -0.47563E+08         0.46855E+06         0.00000E+00
    0.46855E+06        -0.97561E+08         0.00000E+00
    0.00000E+00         0.00000E+00        -0.48213E+08
 
   -0.47433E+08         0.49062E+06         0.00000E+00
    0.49062E+06        -0.97560E+08         0.00000E+00
    0.00000E+00         0.00000E+00        -0.48109E+08
 
   -0.47297E+08         0.51328E+06         0.00000E+00
    0.51328E+06        -0.97559E+08         0.00000E+00
    0.00000E+00         0.00000E+00        -0.48000E+08
 
   -0.47156E+08         0.53646E+06         0.00000E+00
    0.53646E+06        -0.97558E+08         0.00000E+00
    0.00000E+00         0.00000E+00        -0.47884E+08
 
   -0.47007E+08         0.56007E+06         0.00000E+00
    0.56007E+06        -0.97557E+08         0.00000E+00
    0.00000E+00         0.00000E+00        -0.47762E+08
 
   -0.46853E+08         0.58400E+06         0.00000E+00
    0.58400E+06        -0.97557E+08         0.00000E+00
    0.00000E+00         0.00000E+00        -0.47632E+08
 
   -0.46692E+08         0.60812E+06         0.00000E+00
    0.60812E+06        -0.97556E+08         0.00000E+00
    0.00000E+00         0.00000E+00        -0.47494E+08
 
   -0.46524E+08         0.63224E+06         0.00000E+00
    0.63224E+06        -0.97557E+08         0.00000E+00
    0.00000E+00         0.00000E+00        -0.47348E+08
 
   -0.46350E+08         0.65615E+06         0.00000E+00
    0.65615E+06        -0.97557E+08         0.00000E+00
    0.00000E+00         0.00000E+00        -0.47194E+08
 
   -0.46170E+08         0.67960E+06         0.00000E+00
    0.67960E+06        -0.97558E+08         0.00000E+00
    0.00000E+00         0.00000E+00        -0.47030E+08
 
   -0.45983E+08         0.70227E+06         0.00000E+00
    0.70227E+06        -0.97560E+08         0.00000E+00
    0.00000E+00         0.00000E+00        -0.46857E+08
 
   -0.45790E+08         0.72379E+06         0.00000E+00
    0.72379E+06        -0.97562E+08         0.00000E+00
    0.00000E+00         0.00000E+00        -0.46673E+08
 
   -0.45591E+08         0.74371E+06         0.00000E+00
    0.74371E+06        -0.97566E+08         0.00000E+00
    0.00000E+00         0.00000E+00        -0.46478E+08
 
   -0.45386E+08         0.76150E+06         0.00000E+00
    0.76150E+06        -0.97571E+08         0.00000E+00
    0.00000E+00         0.00000E+00        -0.46272E+08
 
   -0.45177E+08         0.77656E+06         0.00000E+00
    0.77656E+06        -0.97576E+08         0.00000E+00
    0.00000E+00         0.00000E+00        -0.46053E+08
 
   -0.44963E+08         0.78815E+06         0.00000E+00
    0.78815E+06        -0.97584E+08         0.00000E+00
    0.00000E+00         0.00000E+00        -0.45820E+08
 
   -0.44745E+08         0.79546E+06         0.00000E+00
    0.79546E+06        -0.97593E+08         0.00000E+00
    0.00000E+00         0.00000E+00        -0.45573E+08
 
   -0.44524E+08         0.79755E+06         0.00000E+00
    0.79755E+06        -0.97605E+08         0.00000E+00
    0.00000E+00         0.00000E+00        -0.45311E+08
 
   -0.44300E+08         0.79335E+06         0.00000E+00
    0.79335E+06        -0.97618E+08         0.00000E+00
    0.00000E+00         0.00000E+00        -0.45033E+08
 
   -0.44076E+08         0.78170E+06         0.00000E+00
    0.78170E+06        -0.97635E+08         0.00000E+00
    0.00000E+00         0.00000E+00        -0.44738E+08
 
   -0.43852E+08         0.76132E+06         0.00000E+00
    0.76132E+06        -0.97654E+08         0.00000E+00
    0.00000E+00         0.00000E+00        -0.44424E+08
 
   -0.43629E+08         0.73086E+06         0.00000E+00
    0.73086E+06        -0.97676E+08         0.00000E+00
    0.00000E+00         0.00000E+00        -0.44090E+08
 
   -0.43409E+08         0.68897E+06         0.00000E+00
    0.68897E+06        -0.97702E+08         0.00000E+00
    0.00000E+00         0.00000E+00        -0.43735E+08
 
   -0.43194E+08         0.63431E+06         0.00000E+00
    0.63431E+06        -0.97730E+08         0.00000E+00
    0.00000E+00         0.00000E+00        -0.43357E+08
 
   -0.42984E+08         0.56572E+06         0.00000E+00
    0.56572E+06        -0.97761E+08         0.00000E+00
    0.00000E+00         0.00000E+00        -0.42955E+08
 
   -0.42782E+08         0.48235E+06         0.00000E+00
    0.48235E+06        -0.97795E+08         0.00000E+00
    0.00000E+00         0.00000E+00        -0.42528E+08
 
   -0.42588E+08         0.38388E+06         0.00000E+00
    0.38388E+06        -0.97829E+08         0.00000E+00
    0.00000E+00         0.00000E+00        -0.42072E+08
 
   -0.42405E+08         0.27085E+06         0.00000E+00
    0.27085E+06        -0.97862E+08         0.00000E+00
    0.00000E+00         0.00000E+00        -0.41587E+08
 
   -0.42232E+08         0.14511E+06         0.00000E+00
    0.14511E+06        -0.97892E+08         0.00000E+00
    0.00000E+00         0.00000E+00        -0.41069E+08
 
   -0.42070E+08         0.10373E+05         0.00000E+00
    0.10373E+05        -0.97915E+08         0.00000E+00
    0.00000E+00         0.00000E+00        -0.40517E+08
 
   -0.41918E+08        -0.12687E+06         0.00000E+00
   -0.12687E+06        -0.97924E+08         0.00000E+00
    0.00000E+00         0.00000E+00        -0.39928E+08
 
   -0.41772E+08        -0.25626E+06         0.00000E+00
   -0.25626E+06        -0.97911E+08         0.00000E+00
    0.00000E+00         0.00000E+00        -0.39299E+08
 
   -0.41629E+08        -0.36204E+06         0.00000E+00
   -0.36204E+06        -0.97864E+08         0.00000E+00
    0.00000E+00         0.00000E+00        -0.38628E+08
 
   -0.41485E+08        -0.42189E+06         0.00000E+00
   -0.42189E+06        -0.97758E+08         0.00000E+00
    0.00000E+00         0.00000E+00        -0.37911E+08
 
   -0.41344E+08        -0.40888E+06         0.00000E+00
   -0.40888E+06        -0.97553E+08         0.00000E+00
    0.00000E+00         0.00000E+00        -0.37145E+08
 
   -0.41221E+08        -0.30285E+06         0.00000E+00
   -0.30285E+06        -0.97182E+08         0.00000E+00
    0.00000E+00         0.00000E+00        -0.36327E+08
 
   -0.41146E+08        -0.11240E+06         0.00000E+00
   -0.11240E+06        -0.96561E+08         0.00000E+00
    0.00000E+00         0.00000E+00        -0.35452E+08
 
   -0.49910E+08        -0.23859E+02         0.00000E+00
   -0.23859E+02        -0.97604E+08         0.00000E+00
    0.00000E+00         0.00000E+00        -0.49997E+08
 
   -0.49909E+08         0.18818E+03         0.00000E+00
    0.18818E+03        -0.97600E+08         0.00000E+00
    0.00000E+00         0.00000E+00        -0.49990E+08
 
   -0.49907E+08         0.10385E+04         0.00000E+00
    0.10385E+04        -0.97597E+08         0.00000E+00
    0.00000E+00         0.00000E+00        -0.49984E+08
 
   -0.49905E+08         0.25790E+04         0.00000E+00
    0.25790E+04        -0.97596E+08         0.00000E+00
    0.00000E+00         0.00000E+00        -0.49978E+08
 
   -0.49902E+08         0.46498E+04         0.00000E+00
    0.46498E+04        -0.97595E+08         0.00000E+00
    0.00000E+00         0.00000E+00        -0.49971E+08
 
   -0.49899E+08         0.70556E+04         0.00000E+00
    0.70556E+04        -0.97595E+08         0.00000E+00
    0.00000E+00         0.00000E+00        -0.49965E+08
 
   -0.49895E+08         0.96444E+04         0.00000E+00
    0.96444E+04        -0.97595E+08         0.00000E+00
    0.00000E+00         0.00000E+00        -0.49959E+08
 
   -0.49891E+08         0.12315E+05         0.00000E+00
    0.12315E+05        -0.97595E+08         0.00000E+00
    0.00000E+00         0.00000E+00        -0.49952E+08
 
   -0.49886E+08         0.15002E+05         0.00000E+00
    0.15002E+05        -0.97595E+08         0.00000E+00
    0.00000E+00         0.00000E+00        -0.49946E+08
 
   -0.49880E+08         0.17670E+05         0.00000E+00
    0.17670E+05        -0.97595E+08         0.00000E+00
    0.00000E+00         0.00000E+00        -0.49939E+08
 
   -0.49874E+08         0.20299E+05         0.00000E+00
    0.20299E+05        -0.97595E+08         0.00000E+00
    0.00000E+00         0.00000E+00        -0.49933E+08
 
   -0.49867E+08         0.22883E+05         0.00000E+00
    0.22883E+05        -0.97596E+08         0.00000E+00
    0.00000E+00         0.00000E+00        -0.49926E+08
 
   -0.49860E+08         0.25426E+05         0.00000E+00
    0.25426E+05        -0.97596E+08         0.00000E+00
    0.00000E+00         0.00000E+00        -0.49919E+08
 
   -0.49852E+08         0.27935E+05         0.00000E+00
    0.27935E+05        -0.97596E+08         0.00000E+00
    0.00000E+00         0.00000E+00        -0.49911E+08
 
   -0.49843E+08         0.30422E+05         0.00000E+00
    0.30422E+05        -0.97596E+08         0.00000E+00
    0.00000E+00         0.00000E+00        -0.49904E+08
 
   -0.49834E+08         0.32902E+05         0.00000E+00
    0.32902E+05        -0.97596E+08         0.00000E+00
    0.00000E+00         0.00000E+00        -0.49896E+08
 
   -0.49824E+08         0.35391E+05         0.00000E+00
    0.35391E+05        -0.97596E+08         0.00000E+00
    0.00000E+00         0.00000E+00        -0.49888E+08
 
   -0.49813E+08         0.37905E+05         0.00000E+00
    0.37905E+05        -0.97596E+08         0.00000E+00
    0.00000E+00         0.00000E+00        -0.49879E+08
 
   -0.49802E+08         0.40460E+05         0.00000E+00
    0.40460E+05        -0.97596E+08         0.00000E+00
    0.00000E+00         0.00000E+00        -0.49870E+08
 
   -0.49790E+08         0.43072E+05         0.00000E+00
    0.43072E+05        -0.97596E+08         0.00000E+00
    0.00000E+00         0.00000E+00        -0.49861E+08
 
   -0.49777E+08         0.45757E+05         0.00000E+00
    0.45757E+05        -0.97595E+08         0.00000E+00
    0.00000E+00         0.00000E+00        -0.49851E+08
 
   -0.49763E+08         0.48529E+05         0.00000E+00
    0.48529E+05        -0.97595E+08         0.00000E+00
    0.00000E+00         0.00000E+00        -0.49841E+08
 
   -0.49749E+08         0.51404E+05         0.00000E+00
    0.51404E+05        -0.97595E+08         0.00000E+00
    0.00000E+00         0.00000E+00        -0.49831E+08
 
   -0.49734E+08         0.54396E+05         0.00000E+00
    0.54396E+05        -0.97595E+08         0.00000E+00
    0.00000E+00         0.00000E+00        -0.49819E+08
 
   -0.49718E+08         0.57518E+05         0.00000E+00
    0.57518E+05        -0.97595E+08         0.00000E+00
    0.00000E+00         0.00000E+00        -0.49808E+08
 
   -0.49701E+08         0.60785E+05         0.00000E+00
    0.60785E+05        -0.97594E+08         0.00000E+00
    0.00000E+00         0.00000E+00        -0.49796E+08
 
   -0.49682E+08         0.64209E+05         0.00000E+00
    0.64209E+05        -0.97594E+08         0.00000E+00
    0.00000E+00         0.00000E+00        -0.49783E+08
 
   -0.49663E+08         0.67803E+05         0.00000E+00
    0.67803E+05        -0.97594E+08         0.00000E+00
    0.00000E+00         0.00000E+00        -0.49769E+08
 
   -0.49643E+08         0.71582E+05         0.00000E+00
    0.71582E+05        -0.97593E+08         0.00000E+00
    0.00000E+00         0.00000E+00        -0.49755E+08
 
   -0.49622E+08         0.75558E+05         0.00000E+00
    0.75558E+05        -0.97593E+08         0.00000E+00
    0.00000E+00         0.00000E+00        -0.49740E+08
 
   -0.49600E+08         0.79745E+05         0.00000E+00
    0.79745E+05        -0.97593E+08         0.00000E+00
    0.00000E+00         0.00000E+00        -0.49724E+08
 
   -0.49576E+08         0.84156E+05         0.00000E+00
    0.84156E+05        -0.97592E+08         0.00000E+00
    0.00000E+00         0.00000E+00        -0.49707E+08
 
   -0.49551E+08         0.88805E+05         0.00000E+00
    0.88805E+05        -0.97592E+08         0.00000E+00
    0.00000E+00         0.00000E+00        -0.49690E+08
 
   -0.49525E+08         0.93707E+05         0.00000E+00
    0.93707E+05        -0.97592E+08         0.00000E+00
    0.00000E+00         0.00000E+00        -0.49671E+08
 
   -0.49497E+08         0.98876E+05         0.00000E+00
    0.98876E+05        -0.97591E+08         0.00000E+00
    0.00000E+00         0.00000E+00        -0.49652E+08
 
   -0.49468E+08         0.10433E+06         0.00000E+00
    0.10433E+06        -0.97591E+08         0.00000E+00
    0.00000E+00         0.00000E+00        -0.49631E+08
 
   -0.49437E+08         0.11008E+06         0.00000E+00
    0.11008E+06        -0.97590E+08         0.00000E+00
    0.00000E+00         0.00000E+00        -0.49609E+08
 
   -0.49404E+08         0.11614E+06         0.00000E+00
    0.11614E+06        -0.97590E+08         0.00000E+00
    0.00000E+00         0.00000E+00        -0.49586E+08
 
   -0.49370E+08         0.12253E+06         0.00000E+00
    0.12253E+06        -0.97589E+08         0.00000E+00
    0.00000E+00         0.00000E+00        -0.49562E+08
 
   -0.49333E+08         0.12927E+06         0.00000E+00
    0.12927E+06        -0.97588E+08         0.00000E+00
    0.00000E+00         0.00000E+00        -0.49536E+08
 
   -0.49295E+08         0.13637E+06         0.00000E+00
    0.13637E+06        -0.97588E+08         0.00000E+00
    0.00000E+00         0.00000E+00        -0.49509E+08
 
   -0.49254E+08         0.14385E+06         0.00000E+00
    0.14385E+06        -0.97587E+08         0.00000E+00
    0.00000E+00         0.00000E+00        -0.49481E+08
 
   -0.49212E+08         0.15174E+06         0.00000E+00
    0.15174E+06        -0.97586E+08         0.00000E+00
    0.00000E+00         0.00000E+00        -0.49451E+08
 
   -0.49167E+08         0.16004E+06         0.00000E+00
    0.16004E+06        -0.97586E+08         0.00000E+00
    0.00000E+00         0.00000E+00        -0.49419E+08
 
   -0.49119E+08         0.16879E+06         0.00000E+00
    0.16879E+06        -0.97585E+08         0.00000E+00
    0.00000E+00         0.00000E+00        -0.49385E+08
 
   -0.49069E+08         0.17799E+06         0.00000E+00
    0.17799E+06        -0.97584E+08         0.00000E+00
    0.00000E+00         0.00000E+00        -0.49349E+08
 
   -0.49017E+08         0.18767E+06         0.00000E+00
    0.18767E+06        -0.97583E+08         0.00000E+00
    0.00000E+00         0.00000E+00        -0.49312E+08
 
   -0.48961E+08         0.19785E+06         0.00000E+00
    0.19785E+06        -0.97582E+08         0.00000E+00
    0.00000E+00         0.00000E+00        -0.49272E+08
 
   -0.48902E+08         0.20855E+06         0.00000E+00
    0.20855E+06        -0.97582E+08         0.00000E+00
    0.00000E+00         0.00000E+00        -0.49230E+08
 
   -0.48840E+08         0.21979E+06         0.00000E+00
    0.21979E+06        -0.97581E+08         0.00000E+00
    0.00000E+00         0.00000E+00        -0.49185E+08
 
   -0.48775E+08         0.23158E+06         0.00000E+00
    0.23158E+06        -0.97580E+08         0.00000E+00
    0.00000E+00         0.00000E+00        -0.49138E+08
 
   -0.48707E+08         0.24396E+06         0.00000E+00
    0.24396E+06        -0.97579E+08         0.00000E+00
    0.00000E+00         0.00000E+00        -0.49088E+08
 
   -0.48635E+08         0.25694E+06         0.00000E+00
    0.25694E+06        -0.97578E+08         0.00000E+00
    0.00000E+00         0.00000E+00        -0.49036E+08
 
   -0.48558E+08         0.27054E+06         0.00000E+00
    0.27054E+06        -0.97577E+08         0.00000E+00
    0.00000E+00         0.00000E+00        -0.48980E+08
 
   -0.48478E+08         0.28477E+06         0.00000E+00
    0.28477E+06        -0.97575E+08         0.00000E+00
    0.00000E+00         0.00000E+00        -0.48921E+08
 
   -0.48394E+08         0.29966E+06         0.00000E+00
    0.29966E+06        -0.97574E+08         0.00000E+00
    0.00000E+00         0.00000E+00        -0.48859E+08
 
   -0.48305E+08         0.31521E+06         0.00000E+00
    0.31521E+06        -0.97573E+08         0.00000E+00
    0.00000E+00         0.00000E+00        -0.48793E+08
 
   -0.48212E+08         0.33144E+06         0.00000E+00
    0.33144E+06        -0.97572E+08         0.00000E+00
    0.00000E+00         0.00000E+00        -0.48724E+08
 
   -0.48114E+08         0.34835E+06         0.00000E+00
    0.34835E+06        -0.97571E+08         0.00000E+00
    0.00000E+00         0.00000E+00        -0.48650E+08
 
   -0.48011E+08         0.36595E+06         0.00000E+00
    0.36595E+06        -0.97570E+08         0.00000E+00
    0.00000E+00         0.00000E+00        -0.48572E+08
 
   -0.47903E+08         0.38424E+06         0.00000E+00
    0.38424E+06        -0.97568E+08         0.00000E+00
    0.00000E+00         0.00000E+00        -0.48490E+08
 
   -0.47790E+08         0.40321E+06         0.00000E+00
    0.40321E+06        -0.97567E+08         0.00000E+00
    0.00000E+00         0.00000E+00        -0.48403E+08
 
   -0.47671E+08         0.42285E+06         0.00000E+00
    0.42285E+06        -0.97566E+08         0.00000E+00
    0.00000E+00         0.00000E+00        -0.48310E+08
 
   -0.47546E+08         0.44312E+06         0.00000E+00
    0.44312E+06        -0.97565E+08         0.00000E+00
    0.00000E+00         0.00000E+00        -0.48213E+08
 
   -0.47416E+08         0.46400E+06         0.00000E+00
    0.46400E+06        -0.97564E+08         0.00000E+00
    0.00000E+00         0.00000E+00        -0.48109E+08
 
   -0.47279E+08         0.48544E+06         0.00000E+00
    0.48544E+06        -0.97563E+08         0.00000E+00
    0.00000E+00         0.00000E+00        -0.48000E+08
 
   -0.47136E+08         0.50737E+06         0.00000E+00
    0.50737E+06        -0.97562E+08         0.00000E+00
    0.00000E+00         0.00000E+00        -0.47884E+08
 
   -0.46987E+08         0.52971E+06         0.00000E+00
    0.52971E+06        -0.97562E+08         0.00000E+00
    0.00000E+00         0.00000E+00        -0.47761E+08
 
   -0.46832E+08         0.55236E+06         0.00000E+00
    0.55236E+06        -0.97561E+08         0.00000E+00
    0.00000E+00         0.00000E+00        -0.47631E+08
 
   -0.46670E+08         0.57517E+06         0.00000E+00
    0.57517E+06        -0.97561E+08         0.00000E+00
    0.00000E+00         0.00000E+00        -0.47494E+08
 
   -0.46501E+08         0.59798E+06         0.00000E+00
    0.59798E+06        -0.97561E+08         0.00000E+00
    0.00000E+00         0.00000E+00        -0.47348E+08
 
   -0.46326E+08         0.62060E+06         0.00000E+00
    0.62060E+06        -0.97562E+08         0.00000E+00
    0.00000E+00         0.00000E+00        -0.47194E+08
 
   -0.46145E+08         0.64277E+06         0.00000E+00
    0.64277E+06        -0.97563E+08         0.00000E+00
    0.00000E+00         0.00000E+00        -0.47030E+08
 
   -0.45957E+08         0.66419E+06         0.00000E+00
    0.66419E+06        -0.97564E+08         0.00000E+00
    0.00000E+00         0.00000E+00        -0.46857E+08
 
   -0.45763E+08         0.68450E+06         0.00000E+00
    0.68450E+06        -0.97567E+08         0.00000E+00
    0.00000E+00         0.00000E+00        -0.46673E+08
 
   -0.45563E+08         0.70328E+06         0.00000E+00
    0.70328E+06        -0.97570E+08         0.00000E+00
    0.00000E+00         0.00000E+00        -0.46478E+08
 
   -0.45358E+08         0.72002E+06         0.00000E+00
    0.72002E+06        -0.97574E+08         0.00000E+00
    0.00000E+00         0.00000E+00        -0.46271E+08
 
   -0.45148E+08         0.73412E+06         0.00000E+00
    0.73412E+06        -0.97579E+08         0.00000E+00
    0.00000E+00         0.00000E+00        -0.46052E+08
 
   -0.44933E+08         0.74489E+06         0.00000E+00
    0.74489E+06        -0.97586E+08         0.00000E+00
    0.00000E+00         0.00000E+00        -0.45820E+08
 
   -0.44715E+08         0.75153E+06         0.00000E+00
    0.75153E+06        -0.97594E+08         0.00000E+00
    0.00000E+00         0.00000E+00        -0.45573E+08
 
   -0.44494E+08         0.75312E+06         0.00000E+00
    0.75312E+06        -0.97604E+08         0.00000E+00
    0.00000E+00         0.00000E+00        -0.45311E+08
 
   -0.44271E+08         0.74864E+06         0.00000E+00
    0.74864E+06        -0.97617E+08         0.00000E+00
    0.00000E+00         0.00000E+00        -0.45033E+08
 
   -0.44048E+08         0.73694E+06         0.00000E+00
    0.73694E+06        -0.97631E+08         0.00000E+00
    0.00000E+00         0.00000E+00        -0.44737E+08
 
   -0.43825E+08         0.71678E+06         0.00000E+00
    0.71678E+06        -0.97649E+08         0.00000E+00
    0.00000E+00         0.00000E+00        -0.44423E+08
 
   -0.43605E+08         0.68684E+06         0.00000E+00
    0.68684E+06        -0.97669E+08         0.00000E+00
    0.00000E+00         0.00000E+00        -0.44090E+08
 
   -0.43388E+08         0.64577E+06         0.00000E+00
    0.64577E+06        -0.97692E+08         0.00000E+00
    0.00000E+00         0.00000E+00        -0.43735E+08
 
   -0.43177E+08         0.59227E+06         0.00000E+00
    0.59227E+06        -0.97718E+08         0.00000E+00
    0.00000E+00         0.00000E+00        -0.43357E+08
 
   -0.42973E+08         0.52516E+06         0.00000E+00
    0.52516E+06        -0.97746E+08         0.00000E+00
    0.00000E+00         0.00000E+00        -0.42955E+08
 
   -0.42779E+08         0.44359E+06         0.00000E+00
    0.44359E+06        -0.97777E+08         0.00000E+00
    0.00000E+00         0.00000E+00        -0.42528E+08
 
   -0.42595E+08         0.34721E+06         0.00000E+00
    0.34721E+06        -0.97808E+08         0.00000E+00
    0.00000E+00         0.00000E+00        -0.42072E+08
 
   -0.42423E+08         0.23646E+06         0.00000E+00
    0.23646E+06        -0.97839E+08         0.00000E+00
    0.00000E+00         0.00000E+00        -0.41587E+08
 
   -0.42263E+08         0.11308E+06         0.00000E+00
    0.11308E+06        -0.97866E+08         0.00000E+00
    0.00000E+00         0.00000E+00        -0.41069E+08
 
   -0.42117E+08        -0.19424E+05         0.00000E+00
   -0.19424E+05        -0.97887E+08         0.00000E+00
    0.00000E+00         0.00000E+00        -0.40517E+08
 
   -0.41982E+08        -0.15484E+06         0.00000E+00
   -0.15484E+06        -0.97897E+08         0.00000E+00
    0.00000E+00         0.00000E+00        -0.39928E+08
 
   -0.41855E+08        -0.28317E+06         0.00000E+00
   -0.28317E+06        -0.97887E+08         0.00000E+00
    0.00000E+00         0.00000E+00        -0.39300E+08
 
   -0.41731E+08        -0.38893E+06         0.00000E+00
   -0.38893E+06        -0.97846E+08         0.00000E+00
    0.00000E+00         0.00000E+00        -0.38629E+08
 
   -0.41606E+08        -0.44946E+06         0.00000E+00
   -0.44946E+06        -0.97752E+08         0.00000E+00
    0.00000E+00         0.00000E+00        -0.37912E+08
 
   -0.41477E+08        -0.43584E+06         0.00000E+00
   -0.43584E+06        -0.97565E+08         0.00000E+00
    0.00000E+00         0.00000E+00        -0.37146E+08
 
   -0.41361E+08        -0.32416E+06         0.00000E+00
   -0.32416E+06        -0.97214E+08         0.00000E+00
    0.00000E+00         0.00000E+00        -0.36327E+08
 
   -0.41288E+08        -0.12074E+06         0.00000E+00
   -0.12074E+06        -0.96607E+08         0.00000E+00
    0.00000E+00         0.00000E+00        -0.35452E+08
 
   -0.49907E+08        -0.12860E+03         0.00000E+00
   -0.12860E+03        -0.97604E+08         0.00000E+00
    0.00000E+00         0.00000E+00        -0.49997E+08
 
   -0.49907E+08        -0.96256E+02         0.00000E+00
   -0.96256E+02        -0.97600E+08         0.00000E+00
    0.00000E+00         0.00000E+00        -0.49990E+08
 
   -0.49905E+08         0.63029E+03         0.00000E+00
    0.63029E+03        -0.97598E+08         0.00000E+00
    0.00000E+00         0.00000E+00        -0.49984E+08
 
   -0.49903E+08         0.20809E+04         0.00000E+00
    0.20809E+04        -0.97597E+08         0.00000E+00
    0.00000E+00         0.00000E+00        -0.49978E+08
 
   -0.49900E+08         0.40653E+04         0.00000E+00
    0.40653E+04        -0.97596E+08         0.00000E+00
    0.00000E+00         0.00000E+00        -0.49971E+08
 
   -0.49897E+08         0.63746E+04         0.00000E+00
    0.63746E+04        -0.97596E+08         0.00000E+00
    0.00000E+00         0.00000E+00        -0.49965E+08
 
   -0.49893E+08         0.88560E+04         0.00000E+00
    0.88560E+04        -0.97596E+08         0.00000E+00
    0.00000E+00         0.00000E+00        -0.49959E+08
 
   -0.49889E+08         0.11410E+05         0.00000E+00
    0.11410E+05        -0.97596E+08         0.00000E+00
    0.00000E+00         0.00000E+00        -0.49952E+08
 
   -0.49884E+08         0.13977E+05         0.00000E+00
    0.13977E+05        -0.97596E+08         0.00000E+00
    0.00000E+00         0.00000E+00        -0.49946E+08
 
   -0.49879E+08         0.16520E+05         0.00000E+00
    0.16520E+05        -0.97596E+08         0.00000E+00
    0.00000E+00         0.00000E+00        -0.49939E+08
 
   -0.49873E+08         0.19022E+05         0.00000E+00
    0.19022E+05        -0.97596E+08         0.00000E+00
    0.00000E+00         0.00000E+00        -0.49933E+08
 
   -0.49866E+08         0.21479E+05         0.00000E+00
    0.21479E+05        -0.97596E+08         0.00000E+00
    0.00000E+00         0.00000E+00        -0.49926E+08
 
   -0.49859E+08         0.23891E+05         0.00000E+00
    0.23891E+05        -0.97596E+08         0.00000E+00
    0.00000E+00         0.00000E+00        -0.49919E+08
 
   -0.49851E+08         0.26269E+05         0.00000E+00
    0.26269E+05        -0.97596E+08         0.00000E+00
    0.00000E+00         0.00000E+00        -0.49911E+08
 
   -0.49842E+08         0.28624E+05         0.00000E+00
    0.28624E+05        -0.97596E+08         0.00000E+00
    0.00000E+00         0.00000E+00        -0.49904E+08
 
   -0.49833E+08         0.30970E+05         0.00000E+00
    0.30970E+05        -0.97596E+08         0.00000E+00
    0.00000E+00         0.00000E+00        -0.49896E+08
 
   -0.49823E+08         0.33322E+05         0.00000E+00
    0.33322E+05        -0.97596E+08         0.00000E+00
    0.00000E+00         0.00000E+00        -0.49888E+08
 
   -0.49812E+08         0.35696E+05         0.00000E+00
    0.35696E+05        -0.97596E+08         0.00000E+00
    0.00000E+00         0.00000E+00        -0.49879E+08
 
   -0.49801E+08         0.38107E+05         0.00000E+00
    0.38107E+05        -0.97596E+08         0.00000E+00
    0.00000E+00         0.00000E+00        -0.49870E+08
 
   -0.49788E+08         0.40571E+05         0.00000E+00
    0.40571E+05        -0.97596E+08         0.00000E+00
    0.00000E+00         0.00000E+00        -0.49861E+08
 
   -0.49776E+08         0.43102E+05         0.00000E+00
    0.43102E+05        -0.97596E+08         0.00000E+00
    0.00000E+00         0.00000E+00        -0.49851E+08
 
   -0.49762E+08         0.45716E+05         0.00000E+00
    0.45716E+05        -0.97596E+08         0.00000E+00
    0.00000E+00         0.00000E+00        -0.49841E+08
 
   -0.49747E+08         0.48425E+05         0.00000E+00
    0.48425E+05        -0.97596E+08         0.00000E+00
    0.00000E+00         0.00000E+00        -0.49831E+08
 
   -0.49732E+08         0.51244E+05         0.00000E+00
    0.51244E+05        -0.97595E+08         0.00000E+00
    0.00000E+00         0.00000E+00        -0.49819E+08
 
   -0.49716E+08         0.54186E+05         0.00000E+00
    0.54186E+05        -0.97595E+08         0.00000E+00
    0.00000E+00         0.00000E+00        -0.49808E+08
 
   -0.49698E+08         0.57264E+05         0.00000E+00
    0.57264E+05        -0.97595E+08         0.00000E+00
    0.00000E+00         0.00000E+00        -0.49796E+08
 
   -0.49680E+08         0.60489E+05         0.00000E+00
    0.60489E+05        -0.97595E+08         0.00000E+00
    0.00000E+00         0.00000E+00        -0.49783E+08
 
   -0.49661E+08         0.63876E+05         0.00000E+00
    0.63876E+05        -0.97595E+08         0.00000E+00
    0.00000E+00         0.00000E+00        -0.49769E+08
 
   -0.49641E+08         0.67435E+05         0.00000E+00
    0.67435E+05        -0.97594E+08         0.00000E+00
    0.00000E+00         0.00000E+00        -0.49755E+08
 
   -0.49620E+08         0.71181E+05         0.00000E+00
    0.71181E+05        -0.97594E+08         0.00000E+00
    0.00000E+00         0.00000E+00        -0.49740E+08
 
   -0.49597E+08         0.75125E+05         0.00000E+00
    0.75125E+05        -0.97594E+08         0.00000E+00
    0.00000E+00         0.00000E+00        -0.49724E+08
 
   -0.49573E+08         0.79280E+05         0.00000E+00
    0.79280E+05        -0.97593E+08         0.00000E+00
    0.00000E+00         0.00000E+00        -0.49707E+08
 
   -0.49548E+08         0.83660E+05         0.00000E+00
    0.83660E+05        -0.97593E+08         0.00000E+00
    0.00000E+00         0.00000E+00        -0.49690E+08
 
   -0.49521E+08         0.88278E+05         0.00000E+00
    0.88278E+05        -0.97593E+08         0.00000E+00
    0.00000E+00         0.00000E+00        -0.49671E+08
 
   -0.49494E+08         0.93148E+05         0.00000E+00
    0.93148E+05        -0.97592E+08         0.00000E+00
    0.00000E+00         0.00000E+00        -0.49652E+08
 
   -0.49464E+08         0.98283E+05         0.00000E+00
    0.98283E+05        -0.97592E+08         0.00000E+00
    0.00000E+00         0.00000E+00        -0.49631E+08
 
   -0.49433E+08         0.10370E+06         0.00000E+00
    0.10370E+06        -0.97591E+08         0.00000E+00
    0.00000E+00         0.00000E+00        -0.49609E+08
 
   -0.49400E+08         0.10941E+06         0.00000E+00
    0.10941E+06        -0.97591E+08         0.00000E+00
    0.00000E+00         0.00000E+00        -0.49586E+08
 
   -0.49365E+08         0.11543E+06         0.00000E+00
    0.11543E+06        -0.97590E+08         0.00000E+00
    0.00000E+00         0.00000E+00        -0.49562E+08
 
   -0.49329E+08         0.12178E+06         0.00000E+00
    0.12178E+06        -0.97590E+08         0.00000E+00
    0.00000E+00         0.00000E+00        -0.49536E+08
 
   -0.49290E+08         0.12847E+06         0.00000E+00
    0.12847E+06        -0.97589E+08         0.00000E+00
    0.00000E+00         0.00000E+00        -0.49509E+08
 
   -0.49249E+08         0.13552E+06         0.00000E+00
    0.13552E+06        -0.97589E+08         0.00000E+00
    0.00000E+00         0.00000E+00        -0.49481E+08
 
   -0.49206E+08         0.14295E+06         0.00000E+00
    0.14295E+06        -0.97588E+08         0.00000E+00
    0.00000E+00         0.00000E+00        -0.49451E+08
 
   -0.49161E+08         0.15077E+06         0.00000E+00
    0.15077E+06        -0.97587E+08         0.00000E+00
    0.00000E+00         0.00000E+00        -0.49419E+08
 
   -0.49113E+08         0.15901E+06         0.00000E+00
    0.15901E+06        -0.97587E+08         0.00000E+00
    0.00000E+00         0.00000E+00        -0.49385E+08
 
   -0.49063E+08         0.16768E+06         0.00000E+00
    0.16768E+06        -0.97586E+08         0.00000E+00
    0.00000E+00         0.00000E+00        -0.49349E+08
 
   -0.49010E+08         0.17680E+06         0.00000E+00
    0.17680E+06        -0.97585E+08         0.00000E+00
    0.00000E+00         0.00000E+00        -0.49312E+08
 
   -0.48954E+08         0.18639E+06         0.00000E+00
    0.18639E+06        -0.97584E+08         0.00000E+00
    0.00000E+00         0.00000E+00        -0.49272E+08
 
   -0.48895E+08         0.19647E+06         0.00000E+00
    0.19647E+06        -0.97584E+08         0.00000E+00
    0.00000E+00         0.00000E+00        -0.49230E+08
 
   -0.48833E+08         0.20706E+06         0.00000E+00
    0.20706E+06        -0.97583E+08         0.00000E+00
    0.00000E+00         0.00000E+00        -0.49185E+08
 
   -0.48767E+08         0.21818E+06         0.00000E+00
    0.21818E+06        -0.97582E+08         0.00000E+00
    0.00000E+00         0.00000E+00        -0.49138E+08
 
   -0.48698E+08         0.22984E+06         0.00000E+00
    0.22984E+06        -0.97581E+08         0.00000E+00
    0.00000E+00         0.00000E+00        -0.49088E+08
 
   -0.48625E+08         0.24207E+06         0.00000E+00
    0.24207E+06        -0.97580E+08         0.00000E+00
    0.00000E+00         0.00000E+00        -0.49036E+08
 
   -0.48549E+08         0.25488E+06         0.00000E+00
    0.25488E+06        -0.97579E+08         0.00000E+00
    0.00000E+00         0.00000E+00        -0.48980E+08
 
   -0.48468E+08         0.26829E+06         0.00000E+00
    0.26829E+06        -0.97578E+08         0.00000E+00
    0.00000E+00         0.00000E+00        -0.48921E+08
 
   -0.48383E+08         0.28232E+06         0.00000E+00
    0.28232E+06        -0.97577E+08         0.00000E+00
    0.00000E+00         0.00000E+00        -0.48859E+08
 
   -0.48294E+08         0.29697E+06         0.00000E+00
    0.29697E+06        -0.97576E+08         0.00000E+00
    0.00000E+00         0.00000E+00        -0.48793E+08
 
   -0.48200E+08         0.31227E+06         0.00000E+00
    0.31227E+06        -0.97575E+08         0.00000E+00
    0.00000E+00         0.00000E+00        -0.48724E+08
 
   -0.48102E+08         0.32821E+06         0.00000E+00
    0.32821E+06        -0.97574E+08         0.00000E+00
    0.00000E+00         0.00000E+00        -0.48650E+08
 
   -0.47998E+08         0.34479E+06         0.00000E+00
    0.34479E+06        -0.97573E+08         0.00000E+00
    0.00000E+00         0.00000E+00        -0.48572E+08
 
   -0.47889E+08         0.36203E+06         0.00000E+00
    0.36203E+06        -0.97572E+08         0.00000E+00
    0.00000E+00         0.00000E+00        -0.48490E+08
 
   -0.47775E+08         0.37991E+06         0.00000E+00
    0.37991E+06        -0.97571E+08         0.00000E+00
    0.00000E+00         0.00000E+00        -0.48402E+08
 
   -0.47656E+08         0.39842E+06         0.00000E+00
    0.39842E+06        -0.97570E+08         0.00000E+00
    0.00000E+00         0.00000E+00        -0.48310E+08
 
   -0.47530E+08         0.41753E+06         0.00000E+00
    0.41753E+06        -0.97569E+08         0.00000E+00
    0.00000E+00         0.00000E+00        -0.48212E+08
 
   -0.47399E+08         0.43722E+06         0.00000E+00
    0.43722E+06        -0.97568E+08         0.00000E+00
    0.00000E+00         0.00000E+00        -0.48109E+08
 
   -0.47261E+08         0.45743E+06         0.00000E+00
    0.45743E+06        -0.97567E+08         0.00000E+00
    0.00000E+00         0.00000E+00        -0.48000E+08
 
   -0.47118E+08         0.47810E+06         0.00000E+00
    0.47810E+06        -0.97567E+08         0.00000E+00
    0.00000E+00         0.00000E+00        -0.47884E+08
 
   -0.46968E+08         0.49917E+06         0.00000E+00
    0.49917E+06        -0.97566E+08         0.00000E+00
    0.00000E+00         0.00000E+00        -0.47761E+08
 
   -0.46811E+08         0.52052E+06         0.00000E+00
    0.52052E+06        -0.97566E+08         0.00000E+00
    0.00000E+00         0.00000E+00        -0.47631E+08
 
   -0.46648E+08         0.54202E+06         0.00000E+00
    0.54202E+06        -0.97566E+08         0.00000E+00
    0.00000E+00         0.00000E+00        -0.47494E+08
 
   -0.46479E+08         0.56353E+06         0.00000E+00
    0.56353E+06        -0.97566E+08         0.00000E+00
    0.00000E+00         0.00000E+00        -0.47348E+08
 
   -0.46303E+08         0.58485E+06         0.00000E+00
    0.58485E+06        -0.97566E+08         0.00000E+00
    0.00000E+00         0.00000E+00        -0.47193E+08
 
   -0.46120E+08         0.60574E+06         0.00000E+00
    0.60574E+06        -0.97567E+08         0.00000E+00
    0.00000E+00         0.00000E+00        -0.47030E+08
 
   -0.45931E+08         0.62592E+06         0.00000E+00
    0.62592E+06        -0.97568E+08         0.00000E+00
    0.00000E+00         0.00000E+00        -0.46856E+08
 
   -0.45737E+08         0.64504E+06         0.00000E+00
    0.64504E+06        -0.97570E+08         0.00000E+00
    0.00000E+00         0.00000E+00        -0.46673E+08
 
   -0.45536E+08         0.66269E+06         0.00000E+00
    0.66269E+06        -0.97573E+08         0.00000E+00
    0.00000E+00         0.00000E+00        -0.46478E+08
 
   -0.45330E+08         0.67839E+06         0.00000E+00
    0.67839E+06        -0.97577E+08         0.00000E+00
    0.00000E+00         0.00000E+00        -0.46271E+08
 
   -0.45119E+08         0.69157E+06         0.00000E+00
    0.69157E+06        -0.97582E+08         0.00000E+00
    0.00000E+00         0.00000E+00        -0.46052E+08
 
   -0.44904E+08         0.70155E+06         0.00000E+00
    0.70155E+06        -0.97588E+08         0.00000E+00
    0.00000E+00         0.00000E+00        -0.45819E+08
 
   -0.44685E+08         0.70756E+06         0.00000E+00
    0.70756E+06        -0.97595E+08         0.00000E+00
    0.00000E+00         0.00000E+00        -0.45573E+08
 
   -0.44464E+08         0.70873E+06         0.00000E+00
    0.70873E+06        -0.97604E+08         0.00000E+00
    0.00000E+00         0.00000E+00        -0.45311E+08
 
   -0.44242E+08         0.70405E+06         0.00000E+00
    0.70405E+06        -0.97615E+08         0.00000E+00
    0.00000E+00         0.00000E+00        -0.45032E+08
 
   -0.44019E+08         0.69242E+06         0.00000E+00
    0.69242E+06        -0.97628E+08         0.00000E+00
    0.00000E+00         0.00000E+00        -0.44737E+08
 
   -0.43798E+08         0.67261E+06         0.00000E+00
    0.67261E+06        -0.97644E+08         0.00000E+00
    0.00000E+00         0.00000E+00        -0.44423E+08
 
   -0.43580E+08         0.64336E+06         0.00000E+00
    0.64336E+06        -0.97662E+08         0.00000E+00
    0.00000E+00         0.00000E+00        -0.44089E+08
 
   -0.43366E+08         0.60333E+06         0.00000E+00
    0.60333E+06        -0.97683E+08         0.00000E+00
    0.00000E+00         0.00000E+00        -0.43734E+08
 
   -0.43159E+08         0.55123E+06         0.00000E+00
    0.55123E+06        -0.97706E+08         0.00000E+00
    0.00000E+00         0.00000E+00        -0.43357E+08
 
   -0.42961E+08         0.48591E+06         0.00000E+00
    0.48591E+06        -0.97732E+08         0.00000E+00
    0.00000E+00         0.00000E+00        -0.42955E+08
 
   -0.42774E+08         0.40648E+06         0.00000E+00
    0.40648E+06        -0.97759E+08         0.00000E+00
    0.00000E+00         0.00000E+00        -0.42527E+08
 
   -0.42599E+08         0.31256E+06         0.00000E+00
    0.31256E+06        -0.97787E+08         0.00000E+00
    0.00000E+00         0.00000E+00        -0.42072E+08
 
   -0.42438E+08         0.20454E+06         0.00000E+00
    0.20454E+06        -0.97815E+08         0.00000E+00
    0.00000E+00         0.00000E+00        -0.41587E+08
 
   -0.42292E+08         0.83960E+05         0.00000E+00
    0.83960E+05        -0.97841E+08         0.00000E+00
    0.00000E+00         0.00000E+00        -0.41069E+08
 
   -0.42161E+08        -0.45854E+05         0.00000E+00
   -0.45854E+05        -0.97860E+08         0.00000E+00
    0.00000E+00         0.00000E+00        -0.40518E+08
 
   -0.42044E+08        -0.17905E+06         0.00000E+00
   -0.17905E+06        -0.97870E+08         0.00000E+00
    0.00000E+00         0.00000E+00        -0.39929E+08
 
   -0.41937E+08        -0.30606E+06         0.00000E+00
   -0.30606E+06        -0.97863E+08         0.00000E+00
    0.00000E+00         0.00000E+00        -0.39301E+08
 
   -0.41834E+08        -0.41186E+06         0.00000E+00
   -0.41186E+06        -0.97829E+08         0.00000E+00
    0.00000E+00         0.00000E+00        -0.38630E+08
 
   -0.41728E+08        -0.47368E+06         0.00000E+00
   -0.47368E+06        -0.97746E+08         0.00000E+00
    0.00000E+00         0.00000E+00        -0.37913E+08
 
   -0.41614E+08        -0.46069E+06         0.00000E+00
   -0.46069E+06        -0.97577E+08         0.00000E+00
    0.00000E+00         0.00000E+00        -0.37147E+08
 
   -0.41506E+08        -0.34474E+06         0.00000E+00
   -0.34474E+06        -0.97247E+08         0.00000E+00
    0.00000E+00         0.00000E+00        -0.36328E+08
 
   -0.41436E+08        -0.12902E+06         0.00000E+00
   -0.12902E+06        -0.96656E+08         0.00000E+00
    0.00000E+00         0.00000E+00        -0.35452E+08
 
   -0.49905E+08        -0.23318E+03         0.00000E+00
   -0.23318E+03        -0.97604E+08         0.00000E+00
    0.00000E+00         0.00000E+00        -0.49997E+08
 
   -0.49904E+08        -0.37571E+03         0.00000E+00
   -0.37571E+03        -0.97600E+08         0.00000E+00
    0.00000E+00         0.00000E+00        -0.49990E+08
 
   -0.49903E+08         0.23720E+03         0.00000E+00
    0.23720E+03        -0.97598E+08         0.00000E+00
    0.00000E+00         0.00000E+00        -0.49984E+08
 
   -0.49901E+08         0.16062E+04         0.00000E+00
    0.16062E+04        -0.97597E+08         0.00000E+00
    0.00000E+00         0.00000E+00        -0.49978E+08
 
   -0.49898E+08         0.35073E+04         0.00000E+00
    0.35073E+04        -0.97596E+08         0.00000E+00
    0.00000E+00         0.00000E+00        -0.49971E+08
 
   -0.49895E+08         0.57193E+04         0.00000E+00
    0.57193E+04        -0.97596E+08         0.00000E+00
    0.00000E+00         0.00000E+00        -0.49965E+08
 
   -0.49892E+08         0.80902E+04         0.00000E+00
    0.80902E+04        -0.97596E+08         0.00000E+00
    0.00000E+00         0.00000E+00        -0.49959E+08
 
   -0.49888E+08         0.10525E+05         0.00000E+00
    0.10525E+05        -0.97596E+08         0.00000E+00
    0.00000E+00         0.00000E+00        -0.49952E+08
 
   -0.49883E+08         0.12966E+05         0.00000E+00
    0.12966E+05        -0.97596E+08         0.00000E+00
    0.00000E+00         0.00000E+00        -0.49946E+08
 
   -0.49878E+08         0.15381E+05         0.00000E+00
    0.15381E+05        -0.97596E+08         0.00000E+00
    0.00000E+00         0.00000E+00        -0.49939E+08
 
   -0.49872E+08         0.17753E+05         0.00000E+00
    0.17753E+05        -0.97596E+08         0.00000E+00
    0.00000E+00         0.00000E+00        -0.49933E+08
 
   -0.49865E+08         0.20077E+05         0.00000E+00
    0.20077E+05        -0.97596E+08         0.00000E+00
    0.00000E+00         0.00000E+00        -0.49926E+08
 
   -0.49858E+08         0.22357E+05         0.00000E+00
    0.22357E+05        -0.97597E+08         0.00000E+00
    0.00000E+00         0.00000E+00        -0.49919E+08
 
   -0.49850E+08         0.24601E+05         0.00000E+00
    0.24601E+05        -0.97597E+08         0.00000E+00
    0.00000E+00         0.00000E+00        -0.49911E+08
 
   -0.49841E+08         0.26821E+05         0.00000E+00
    0.26821E+05        -0.97597E+08         0.00000E+00
    0.00000E+00         0.00000E+00        -0.49904E+08
 
   -0.49832E+08         0.29030E+05         0.00000E+00
    0.29030E+05        -0.97597E+08         0.00000E+00
    0.00000E+00         0.00000E+00        -0.49896E+08
 
   -0.49822E+08         0.31243E+05         0.00000E+00
    0.31243E+05        -0.97597E+08         0.00000E+00
    0.00000E+00         0.00000E+00        -0.49888E+08
 
   -0.49811E+08         0.33475E+05         0.00000E+00
    0.33475E+05        -0.97597E+08         0.00000E+00
    0.00000E+00         0.00000E+00        -0.49879E+08
 
   -0.49799E+08         0.35741E+05         0.00000E+00
    0.35741E+05        -0.97597E+08         0.00000E+00
    0.00000E+00         0.00000E+00        -0.49870E+08
 
   -0.49787E+08         0.38055E+05         0.00000E+00
    0.38055E+05        -0.97597E+08         0.00000E+00
    0.00000E+00         0.00000E+00        -0.49861E+08
 
   -0.49774E+08         0.40431E+05         0.00000E+00
    0.40431E+05        -0.97596E+08         0.00000E+00
    0.00000E+00         0.00000E+00        -0.49851E+08
 
   -0.49760E+08         0.42885E+05         0.00000E+00
    0.42885E+05        -0.97596E+08         0.00000E+00
    0.00000E+00         0.00000E+00        -0.49841E+08
 
   -0.49746E+08         0.45427E+05         0.00000E+00
    0.45427E+05        -0.97596E+08         0.00000E+00
    0.00000E+00         0.00000E+00        -0.49831E+08
 
   -0.49730E+08         0.48072E+05         0.00000E+00
    0.48072E+05        -0.97596E+08         0.00000E+00
    0.00000E+00         0.00000E+00        -0.49819E+08
 
   -0.49714E+08         0.50832E+05         0.00000E+00
    0.50832E+05        -0.97596E+08         0.00000E+00
    0.00000E+00         0.00000E+00        -0.49808E+08
 
   -0.49696E+08         0.53719E+05         0.00000E+00
    0.53719E+05        -0.97596E+08         0.00000E+00
    0.00000E+00         0.00000E+00        -0.49796E+08
 
   -0.49678E+08         0.56745E+05         0.00000E+00
    0.56745E+05        -0.97595E+08         0.00000E+00
    0.00000E+00         0.00000E+00        -0.49783E+08
 
   -0.49659E+08         0.59922E+05         0.00000E+00
    0.59922E+05        -0.97595E+08         0.00000E+00
    0.00000E+00         0.00000E+00        -0.49769E+08
 
   -0.49639E+08         0.63261E+05         0.00000E+00
    0.63261E+05        -0.97595E+08         0.00000E+00
    0.00000E+00         0.00000E+00        -0.49755E+08
 
   -0.49617E+08         0.66775E+05         0.00000E+00
    0.66775E+05        -0.97595E+08         0.00000E+00
    0.00000E+00         0.00000E+00        -0.49740E+08
 
   -0.49594E+08         0.70475E+05         0.00000E+00
    0.70475E+05        -0.97594E+08         0.00000E+00
    0.00000E+00         0.00000E+00        -0.49724E+08
 
   -0.49570E+08         0.74373E+05         0.00000E+00
    0.74373E+05        -0.97594E+08         0.00000E+00
    0.00000E+00         0.00000E+00        -0.49707E+08
 
   -0.49545E+08         0.78481E+05         0.00000E+00
    0.78481E+05        -0.97594E+08         0.00000E+00
    0.00000E+00         0.00000E+00        -0.49690E+08
 
   -0.49518E+08         0.82813E+05         0.00000E+00
    0.82813E+05        -0.97593E+08         0.00000E+00
    0.00000E+00         0.00000E+00        -0.49671E+08
 
   -0.49490E+08         0.87381E+05         0.00000E+00
    0.87381E+05        -0.97593E+08         0.00000E+00
    0.00000E+00         0.00000E+00        -0.49652E+08
 
   -0.49460E+08         0.92198E+05         0.00000E+00
    0.92198E+05        -0.97593E+08         0.00000E+00
    0.00000E+00         0.00000E+00        -0.49631E+08
 
   -0.49429E+08         0.97279E+05         0.00000E+00
    0.97279E+05        -0.97592E+08         0.00000E+00
    0.00000E+00         0.00000E+00        -0.49609E+08
 
   -0.49396E+08         0.10264E+06         0.00000E+00
    0.10264E+06        -0.97592E+08         0.00000E+00
    0.00000E+00         0.00000E+00        -0.49586E+08
 
   -0.49361E+08         0.10828E+06         0.00000E+00
    0.10828E+06        -0.97591E+08         0.00000E+00
    0.00000E+00         0.00000E+00        -0.49562E+08
 
   -0.49324E+08         0.11424E+06         0.00000E+00
    0.11424E+06        -0.97591E+08         0.00000E+00
    0.00000E+00         0.00000E+00        -0.49536E+08
 
   -0.49285E+08         0.12052E+06         0.00000E+00
    0.12052E+06        -0.97590E+08         0.00000E+00
    0.00000E+00         0.00000E+00        -0.49509E+08
 
   -0.49244E+08         0.12713E+06         0.00000E+00
    0.12713E+06        -0.97590E+08         0.00000E+00
    0.00000E+00         0.00000E+00        -0.49481E+08
 
   -0.49201E+08         0.13410E+06         0.00000E+00
    0.13410E+06        -0.97589E+08         0.00000E+00
    0.00000E+00         0.00000E+00        -0.49450E+08
 
   -0.49156E+08         0.14144E+06         0.00000E+00
    0.14144E+06        -0.97589E+08         0.00000E+00
    0.00000E+00         0.00000E+00        -0.49419E+08
 
   -0.49108E+08         0.14917E+06         0.00000E+00
    0.14917E+06        -0.97588E+08         0.00000E+00
    0.00000E+00         0.00000E+00        -0.49385E+08
 
   -0.49057E+08         0.15730E+06         0.00000E+00
    0.15730E+06        -0.97588E+08         0.00000E+00
    0.00000E+00         0.00000E+00        -0.49349E+08
 
   -0.49003E+08         0.16586E+06         0.00000E+00
    0.16586E+06        -0.97587E+08         0.00000E+00
    0.00000E+00         0.00000E+00        -0.49311E+08
 
   -0.48947E+08         0.17486E+06         0.00000E+00
    0.17486E+06        -0.97586E+08         0.00000E+00
    0.00000E+00         0.00000E+00        -0.49272E+08
 
   -0.48888E+08         0.18431E+06         0.00000E+00
    0.18431E+06        -0.97586E+08         0.00000E+00
    0.00000E+00         0.00000E+00        -0.49230E+08
 
   -0.48825E+08         0.19425E+06         0.00000E+00
    0.19425E+06        -0.97585E+08         0.00000E+00
    0.00000E+00         0.00000E+00        -0.49185E+08
 
   -0.48759E+08         0.20468E+06         0.00000E+00
    0.20468E+06        -0.97584E+08         0.00000E+00
    0.00000E+00         0.00000E+00        -0.49138E+08
 
   -0.48690E+08         0.21562E+06         0.00000E+00
    0.21562E+06        -0.97583E+08         0.00000E+00
    0.00000E+00         0.00000E+00        -0.49088E+08
 
   -0.48616E+08         0.22710E+06         0.00000E+00
    0.22710E+06        -0.97583E+08         0.00000E+00
    0.00000E+00         0.00000E+00        -0.49036E+08
 
   -0.48539E+08         0.23912E+06         0.00000E+00
    0.23912E+06        -0.97582E+08         0.00000E+00
    0.00000E+00         0.00000E+00        -0.48980E+08
 
   -0.48458E+08         0.25171E+06         0.00000E+00
    0.25171E+06        -0.97581E+08         0.00000E+00
    0.00000E+00         0.00000E+00        -0.48921E+08
 
   -0.48373E+08         0.26487E+06         0.00000E+00
    0.26487E+06        -0.97580E+08         0.00000E+00
    0.00000E+00         0.00000E+00        -0.48859E+08
 
   -0.48283E+08         0.27862E+06         0.00000E+00
    0.27862E+06        -0.97579E+08         0.00000E+00
    0.00000E+00         0.00000E+00        -0.48793E+08
 
   -0.48189E+08         0.29297E+06         0.00000E+00
    0.29297E+06        -0.97578E+08         0.00000E+00
    0.00000E+00         0.00000E+00        -0.48724E+08
 
   -0.48089E+08         0.30793E+06         0.00000E+00
    0.30793E+06        -0.97577E+08         0.00000E+00
    0.00000E+00         0.00000E+00        -0.48650E+08
 
   -0.47985E+08         0.32350E+06         0.00000E+00
    0.32350E+06        -0.97576E+08         0.00000E+00
    0.00000E+00         0.00000E+00        -0.48572E+08
 
   -0.47876E+08         0.33968E+06         0.00000E+00
    0.33968E+06        -0.97576E+08         0.00000E+00
    0.00000E+00         0.00000E+00        -0.48490E+08
 
   -0.47761E+08         0.35646E+06         0.00000E+00
    0.35646E+06        -0.97575E+08         0.00000E+00
    0.00000E+00         0.00000E+00        -0.48402E+08
 
   -0.47640E+08         0.37384E+06         0.00000E+00
    0.37384E+06        -0.97574E+08         0.00000E+00
    0.00000E+00         0.00000E+00        -0.48310E+08
 
   -0.47514E+08         0.39178E+06         0.00000E+00
    0.39178E+06        -0.97573E+08         0.00000E+00
    0.00000E+00         0.00000E+00        -0.48212E+08
 
   -0.47382E+08         0.41026E+06         0.00000E+00
    0.41026E+06        -0.97572E+08         0.00000E+00
    0.00000E+00         0.00000E+00        -0.48109E+08
 
   -0.47244E+08         0.42924E+06         0.00000E+00
    0.42924E+06        -0.97571E+08         0.00000E+00
    0.00000E+00         0.00000E+00        -0.47999E+08
 
   -0.47099E+08         0.44865E+06         0.00000E+00
    0.44865E+06        -0.97571E+08         0.00000E+00
    0.00000E+00         0.00000E+00        -0.47884E+08
 
   -0.46948E+08         0.46843E+06         0.00000E+00
    0.46843E+06        -0.97570E+08         0.00000E+00
    0.00000E+00         0.00000E+00        -0.47761E+08
 
   -0.46791E+08         0.48848E+06         0.00000E+00
    0.48848E+06        -0.97570E+08         0.00000E+00
    0.00000E+00         0.00000E+00        -0.47631E+08
 
   -0.46627E+08         0.50868E+06         0.00000E+00
    0.50868E+06        -0.97570E+08         0.00000E+00
    0.00000E+00         0.00000E+00        -0.47493E+08
 
   -0.46456E+08         0.52888E+06         0.00000E+00
    0.52888E+06        -0.97570E+08         0.00000E+00
    0.00000E+00         0.00000E+00        -0.47348E+08
 
   -0.46279E+08         0.54890E+06         0.00000E+00
    0.54890E+06        -0.97570E+08         0.00000E+00
    0.00000E+00         0.00000E+00        -0.47193E+08
 
   -0.46096E+08         0.56851E+06         0.00000E+00
    0.56851E+06        -0.97571E+08         0.00000E+00
    0.00000E+00         0.00000E+00        -0.47030E+08
 
   -0.45906E+08         0.58745E+06         0.00000E+00
    0.58745E+06        -0.97572E+08         0.00000E+00
    0.00000E+00         0.00000E+00        -0.46856E+08
 
   -0.45710E+08         0.60538E+06         0.00000E+00
    0.60538E+06        -0.97574E+08         0.00000E+00
    0.00000E+00         0.00000E+00        -0.46672E+08
 
   -0.45508E+08         0.62192E+06         0.00000E+00
    0.62192E+06        -0.97576E+08         0.00000E+00
    0.00000E+00         0.00000E+00        -0.46477E+08
 
   -0.45301E+08         0.63660E+06         0.00000E+00
    0.63660E+06        -0.97580E+08         0.00000E+00
    0.00000E+00         0.00000E+00        -0.46271E+08
 
   -0.45090E+08         0.64887E+06         0.00000E+00
    0.64887E+06        -0.97584E+08         0.00000E+00
    0.00000E+00         0.00000E+00        -0.46052E+08
 
   -0.44874E+08         0.65810E+06         0.00000E+00
    0.65810E+06        -0.97589E+08         0.00000E+00
    0.00000E+00         0.00000E+00        -0.45819E+08
 
   -0.44655E+08         0.66354E+06         0.00000E+00
    0.66354E+06        -0.97596E+08         0.00000E+00
    0.00000E+00         0.00000E+00        -0.45572E+08
 
   -0.44433E+08         0.66435E+06         0.00000E+00
    0.66435E+06        -0.97604E+08         0.00000E+00
    0.00000E+00         0.00000E+00        -0.45310E+08
 
   -0.44211E+08         0.65956E+06         0.00000E+00
    0.65956E+06        -0.97614E+08         0.00000E+00
    0.00000E+00         0.00000E+00        -0.45032E+08
 
   -0.43989E+08         0.64809E+06         0.00000E+00
    0.64809E+06        -0.97625E+08         0.00000E+00
    0.00000E+00         0.00000E+00        -0.44737E+08
 
   -0.43769E+08         0.62879E+06         0.00000E+00
    0.62879E+06        -0.97639E+08         0.00000E+00
    0.00000E+00         0.00000E+00        -0.44423E+08
 
   -0.43553E+08         0.60038E+06         0.00000E+00
    0.60038E+06        -0.97655E+08         0.00000E+00
    0.00000E+00         0.00000E+00        -0.44089E+08
 
   -0.43342E+08         0.56159E+06         0.00000E+00
    0.56159E+06        -0.97674E+08         0.00000E+00
    0.00000E+00         0.00000E+00        -0.43734E+08
 
   -0.43140E+08         0.51115E+06         0.00000E+00
    0.51115E+06        -0.97695E+08         0.00000E+00
    0.00000E+00         0.00000E+00        -0.43357E+08
 
   -0.42947E+08         0.44791E+06         0.00000E+00
    0.44791E+06        -0.97717E+08         0.00000E+00
    0.00000E+00         0.00000E+00        -0.42955E+08
 
   -0.42767E+08         0.37098E+06         0.00000E+00
    0.37098E+06        -0.97742E+08         0.00000E+00
    0.00000E+00         0.00000E+00        -0.42527E+08
 
   -0.42600E+08         0.27993E+06         0.00000E+00
    0.27993E+06        -0.97768E+08         0.00000E+00
    0.00000E+00         0.00000E+00        -0.42072E+08
 
   -0.42451E+08         0.17506E+06         0.00000E+00
    0.17506E+06        -0.97793E+08         0.00000E+00
    0.00000E+00         0.00000E+00        -0.41587E+08
 
   -0.42318E+08         0.57777E+05         0.00000E+00
    0.57777E+05        -0.97816E+08         0.00000E+00
    0.00000E+00         0.00000E+00        -0.41069E+08
 
   -0.42203E+08        -0.68860E+05         0.00000E+00
   -0.68860E+05        -0.97834E+08         0.00000E+00
    0.00000E+00         0.00000E+00        -0.40518E+08
 
   -0.42105E+08        -0.19938E+06         0.00000E+00
   -0.19938E+06        -0.97844E+08         0.00000E+00
    0.00000E+00         0.00000E+00        -0.39929E+08
 
   -0.42018E+08        -0.32475E+06         0.00000E+00
   -0.32475E+06        -0.97839E+08         0.00000E+00
    0.00000E+00         0.00000E+00        -0.39301E+08
 
   -0.41937E+08        -0.43054E+06         0.00000E+00
   -0.43054E+06        -0.97811E+08         0.00000E+00
    0.00000E+00         0.00000E+00        -0.38630E+08
 
   -0.41852E+08        -0.49418E+06         0.00000E+00
   -0.49418E+06        -0.97740E+08         0.00000E+00
    0.00000E+00         0.00000E+00        -0.37914E+08
 
   -0.41755E+08        -0.48313E+06         0.00000E+00
   -0.48313E+06        -0.97589E+08         0.00000E+00
    0.00000E+00         0.00000E+00        -0.37147E+08
 
   -0.41656E+08        -0.36444E+06         0.00000E+00
   -0.36444E+06        -0.97282E+08         0.00000E+00
    0.00000E+00         0.00000E+00        -0.36328E+08
 
   -0.41589E+08        -0.13721E+06         0.00000E+00
   -0.13721E+06        -0.96708E+08         0.00000E+00
    0.00000E+00         0.00000E+00        -0.35453E+08
 
   -0.49903E+08        -0.33745E+03         0.00000E+00
   -0.33745E+03        -0.97604E+08         0.00000E+00
    0.00000E+00         0.00000E+00        -0.49997E+08
 
   -0.49902E+08        -0.64888E+03         0.00000E+00
   -0.64888E+03        -0.97600E+08         0.00000E+00
    0.00000E+00         0.00000E+00        -0.49990E+08
 
   -0.49901E+08        -0.13798E+03         0.00000E+00
   -0.13798E+03        -0.97598E+08         0.00000E+00
    0.00000E+00         0.00000E+00        -0.49984E+08
 
   -0.49899E+08         0.11581E+04         0.00000E+00
    0.11581E+04        -0.97597E+08         0.00000E+00
    0.00000E+00         0.00000E+00        -0.49978E+08
 
   -0.49897E+08         0.29783E+04         0.00000E+00
    0.29783E+04        -0.97597E+08         0.00000E+00
    0.00000E+00         0.00000E+00        -0.49971E+08
 
   -0.49894E+08         0.50912E+04         0.00000E+00
    0.50912E+04        -0.97597E+08         0.00000E+00
    0.00000E+00         0.00000E+00        -0.49965E+08
 
   -0.49890E+08         0.73481E+04         0.00000E+00
    0.73481E+04        -0.97597E+08         0.00000E+00
    0.00000E+00         0.00000E+00        -0.49959E+08
 
   -0.49886E+08         0.96591E+04         0.00000E+00
    0.96591E+04        -0.97597E+08         0.00000E+00
    0.00000E+00         0.00000E+00        -0.49952E+08
 
   -0.49882E+08         0.11971E+05         0.00000E+00
    0.11971E+05        -0.97597E+08         0.00000E+00
    0.00000E+00         0.00000E+00        -0.49946E+08
 
   -0.49877E+08         0.14252E+05         0.00000E+00
    0.14252E+05        -0.97597E+08         0.00000E+00
    0.00000E+00         0.00000E+00        -0.49939E+08
 
   -0.49871E+08         0.16490E+05         0.00000E+00
    0.16490E+05        -0.97597E+08         0.00000E+00
    0.00000E+00         0.00000E+00        -0.49933E+08
 
   -0.49864E+08         0.18679E+05         0.00000E+00
    0.18679E+05        -0.97597E+08         0.00000E+00
    0.00000E+00         0.00000E+00        -0.49926E+08
 
   -0.49857E+08         0.20823E+05         0.00000E+00
    0.20823E+05        -0.97597E+08         0.00000E+00
    0.00000E+00         0.00000E+00        -0.49919E+08
 
   -0.49849E+08         0.22931E+05         0.00000E+00
    0.22931E+05        -0.97597E+08         0.00000E+00
    0.00000E+00         0.00000E+00        -0.49911E+08
 
   -0.49840E+08         0.25013E+05         0.00000E+00
    0.25013E+05        -0.97597E+08         0.00000E+00
    0.00000E+00         0.00000E+00        -0.49904E+08
 
   -0.49830E+08         0.27083E+05         0.00000E+00
    0.27083E+05        -0.97597E+08         0.00000E+00
    0.00000E+00         0.00000E+00        -0.49896E+08
 
   -0.49820E+08         0.29155E+05         0.00000E+00
    0.29155E+05        -0.97597E+08         0.00000E+00
    0.00000E+00         0.00000E+00        -0.49888E+08
 
   -0.49810E+08         0.31243E+05         0.00000E+00
    0.31243E+05        -0.97597E+08         0.00000E+00
    0.00000E+00         0.00000E+00        -0.49879E+08
 
   -0.49798E+08         0.33362E+05         0.00000E+00
    0.33362E+05        -0.97597E+08         0.00000E+00
    0.00000E+00         0.00000E+00        -0.49870E+08
 
   -0.49786E+08         0.35524E+05         0.00000E+00
    0.35524E+05        -0.97597E+08         0.00000E+00
    0.00000E+00         0.00000E+00        -0.49861E+08
 
   -0.49773E+08         0.37745E+05         0.00000E+00
    0.37745E+05        -0.97597E+08         0.00000E+00
    0.00000E+00         0.00000E+00        -0.49851E+08
 
   -0.49759E+08         0.40036E+05         0.00000E+00
    0.40036E+05        -0.97597E+08         0.00000E+00
    0.00000E+00         0.00000E+00        -0.49841E+08
 
   -0.49744E+08         0.42411E+05         0.00000E+00
    0.42411E+05        -0.97597E+08         0.00000E+00
    0.00000E+00         0.00000E+00        -0.49831E+08
 
   -0.49728E+08         0.44880E+05         0.00000E+00
    0.44880E+05        -0.97597E+08         0.00000E+00
    0.00000E+00         0.00000E+00        -0.49819E+08
 
   -0.49712E+08         0.47457E+05         0.00000E+00
    0.47457E+05        -0.97596E+08         0.00000E+00
    0.00000E+00         0.00000E+00        -0.49808E+08
 
   -0.49695E+08         0.50153E+05         0.00000E+00
    0.50153E+05        -0.97596E+08         0.00000E+00
    0.00000E+00         0.00000E+00        -0.49796E+08
 
   -0.49676E+08         0.52977E+05         0.00000E+00
    0.52977E+05        -0.97596E+08         0.00000E+00
    0.00000E+00         0.00000E+00        -0.49783E+08
 
   -0.49657E+08         0.55943E+05         0.00000E+00
    0.55943E+05        -0.97596E+08         0.00000E+00
    0.00000E+00         0.00000E+00        -0.49769E+08
 
   -0.49636E+08         0.59060E+05         0.00000E+00
    0.59060E+05        -0.97596E+08         0.00000E+00
    0.00000E+00         0.00000E+00        -0.49755E+08
 
   -0.49615E+08         0.62340E+05         0.00000E+00
    0.62340E+05        -0.97595E+08         0.00000E+00
    0.00000E+00         0.00000E+00        -0.49740E+08
 
   -0.49592E+08         0.65794E+05         0.00000E+00
    0.65794E+05        -0.97595E+08         0.00000E+00
    0.00000E+00         0.00000E+00        -0.49724E+08
 
   -0.49568E+08         0.69433E+05         0.00000E+00
    0.69433E+05        -0.97595E+08         0.00000E+00
    0.00000E+00         0.00000E+00        -0.49707E+08
 
   -0.49542E+08         0.73269E+05         0.00000E+00
    0.73269E+05        -0.97595E+08         0.00000E+00
    0.00000E+00         0.00000E+00        -0.49690E+08
 
   -0.49515E+08         0.77313E+05         0.00000E+00
    0.77313E+05        -0.97594E+08         0.00000E+00
    0.00000E+00         0.00000E+00        -0.49671E+08
 
   -0.49487E+08         0.81577E+05         0.00000E+00
    0.81577E+05        -0.97594E+08         0.00000E+00
    0.00000E+00         0.00000E+00        -0.49652E+08
 
   -0.49457E+08         0.86075E+05         0.00000E+00
    0.86075E+05        -0.97594E+08         0.00000E+00
    0.00000E+00         0.00000E+00        -0.49631E+08
 
   -0.49425E+08         0.90818E+05         0.00000E+00
    0.90818E+05        -0.97593E+08         0.00000E+00
    0.00000E+00         0.00000E+00        -0.49609E+08
 
   -0.49392E+08         0.95819E+05         0.00000E+00
    0.95819E+05        -0.97593E+08         0.00000E+00
    0.00000E+00         0.00000E+00        -0.49586E+08
 
   -0.49357E+08         0.10109E+06         0.00000E+00
    0.10109E+06        -0.97593E+08         0.00000E+00
    0.00000E+00         0.00000E+00        -0.49562E+08
 
   -0.49320E+08         0.10665E+06         0.00000E+00
    0.10665E+06        -0.97592E+08         0.00000E+00
    0.00000E+00         0.00000E+00        -0.49536E+08
 
   -0.49281E+08         0.11251E+06         0.00000E+00
    0.11251E+06        -0.97592E+08         0.00000E+00
    0.00000E+00         0.00000E+00        -0.49509E+08
 
   -0.49240E+08         0.11869E+06         0.00000E+00
    0.11869E+06        -0.97591E+08         0.00000E+00
    0.00000E+00         0.00000E+00        -0.49481E+08
 
   -0.49196E+08         0.12520E+06         0.00000E+00
    0.12520E+06        -0.97591E+08         0.00000E+00
    0.00000E+00         0.00000E+00        -0.49450E+08
 
   -0.49150E+08         0.13205E+06         0.00000E+00
    0.13205E+06        -0.97590E+08         0.00000E+00
    0.00000E+00         0.00000E+00        -0.49418E+08
 
   -0.49102E+08         0.13927E+06         0.00000E+00
    0.13927E+06        -0.97590E+08         0.00000E+00
    0.00000E+00         0.00000E+00        -0.49385E+08
 
   -0.49051E+08         0.14686E+06         0.00000E+00
    0.14686E+06        -0.97589E+08         0.00000E+00
    0.00000E+00         0.00000E+00        -0.49349E+08
 
   -0.48997E+08         0.15485E+06         0.00000E+00
    0.15485E+06        -0.97589E+08         0.00000E+00
    0.00000E+00         0.00000E+00        -0.49311E+08
 
   -0.48940E+08         0.16325E+06         0.00000E+00
    0.16325E+06        -0.97588E+08         0.00000E+00
    0.00000E+00         0.00000E+00        -0.49272E+08
 
   -0.48881E+08         0.17208E+06         0.00000E+00
    0.17208E+06        -0.97588E+08         0.00000E+00
    0.00000E+00         0.00000E+00        -0.49229E+08
 
   -0.48818E+08         0.18136E+06         0.00000E+00
    0.18136E+06        -0.97587E+08         0.00000E+00
    0.00000E+00         0.00000E+00        -0.49185E+08
 
   -0.48751E+08         0.19110E+06         0.00000E+00
    0.19110E+06        -0.97586E+08         0.00000E+00
    0.00000E+00         0.00000E+00        -0.49138E+08
 
   -0.48681E+08         0.20132E+06         0.00000E+00
    0.20132E+06        -0.97586E+08         0.00000E+00
    0.00000E+00         0.00000E+00        -0.49088E+08
 
   -0.48608E+08         0.21203E+06         0.00000E+00
    0.21203E+06        -0.97585E+08         0.00000E+00
    0.00000E+00         0.00000E+00        -0.49036E+08
 
   -0.48530E+08         0.22326E+06         0.00000E+00
    0.22326E+06        -0.97584E+08         0.00000E+00
    0.00000E+00         0.00000E+00        -0.48980E+08
 
   -0.48448E+08         0.23501E+06         0.00000E+00
    0.23501E+06        -0.97583E+08         0.00000E+00
    0.00000E+00         0.00000E+00        -0.48921E+08
 
   -0.48362E+08         0.24731E+06         0.00000E+00
    0.24731E+06        -0.97583E+08         0.00000E+00
    0.00000E+00         0.00000E+00        -0.48859E+08
 
   -0.48272E+08         0.26015E+06         0.00000E+00
    0.26015E+06        -0.97582E+08         0.00000E+00
    0.00000E+00         0.00000E+00        -0.48793E+08
 
   -0.48177E+08         0.27355E+06         0.00000E+00
    0.27355E+06        -0.97581E+08         0.00000E+00
    0.00000E+00         0.00000E+00        -0.48723E+08
 
   -0.48077E+08         0.28753E+06         0.00000E+00
    0.28753E+06        -0.97580E+08         0.00000E+00
    0.00000E+00         0.00000E+00        -0.48650E+08
 
   -0.47972E+08         0.30207E+06         0.00000E+00
    0.30207E+06        -0.97580E+08         0.00000E+00
    0.00000E+00         0.00000E+00        -0.48572E+08
 
   -0.47862E+08         0.31719E+06         0.00000E+00
    0.31719E+06        -0.97579E+08         0.00000E+00
    0.00000E+00         0.00000E+00        -0.48489E+08
 
   -0.47747E+08         0.33287E+06         0.00000E+00
    0.33287E+06        -0.97578E+08         0.00000E+00
    0.00000E+00         0.00000E+00        -0.48402E+08
 
   -0.47625E+08         0.34910E+06         0.00000E+00
    0.34910E+06        -0.97577E+08         0.00000E+00
    0.00000E+00         0.00000E+00        -0.48310E+08
 
   -0.47498E+08         0.36586E+06         0.00000E+00
    0.36586E+06        -0.97576E+08         0.00000E+00
    0.00000E+00         0.00000E+00        -0.48212E+08
 
   -0.47365E+08         0.38313E+06         0.00000E+00
    0.38313E+06        -0.97576E+08         0.00000E+00
    0.00000E+00         0.00000E+00        -0.48109E+08
 
   -0.47226E+08         0.40087E+06         0.00000E+00
    0.40087E+06        -0.97575E+08         0.00000E+00
    0.00000E+00         0.00000E+00        -0.47999E+08
 
   -0.47081E+08         0.41902E+06         0.00000E+00
    0.41902E+06        -0.97575E+08         0.00000E+00
    0.00000E+00         0.00000E+00        -0.47883E+08
 
   -0.46929E+08         0.43751E+06         0.00000E+00
    0.43751E+06        -0.97574E+08         0.00000E+00
    0.00000E+00         0.00000E+00        -0.47761E+08
 
   -0.46770E+08         0.45625E+06         0.00000E+00
    0.45625E+06        -0.97574E+08         0.00000E+00
    0.00000E+00         0.00000E+00        -0.47631E+08
 
   -0.46605E+08         0.47513E+06         0.00000E+00
    0.47513E+06        -0.97574E+08         0.00000E+00
    0.00000E+00         0.00000E+00        -0.47493E+08
 
   -0.46434E+08         0.49402E+06         0.00000E+00
    0.49402E+06        -0.97574E+08         0.00000E+00
    0.00000E+00         0.00000E+00        -0.47347E+08
 
   -0.46256E+08         0.51273E+06         0.00000E+00
    0.51273E+06        -0.97574E+08         0.00000E+00
    0.00000E+00         0.00000E+00        -0.47193E+08
 
   -0.46071E+08         0.53107E+06         0.00000E+00
    0.53107E+06        -0.97575E+08         0.00000E+00
    0.00000E+00         0.00000E+00        -0.47029E+08
 
   -0.45880E+08         0.54876E+06         0.00000E+00
    0.54876E+06        -0.97576E+08         0.00000E+00
    0.00000E+00         0.00000E+00        -0.46856E+08
 
   -0.45683E+08         0.56551E+06         0.00000E+00
    0.56551E+06        -0.97577E+08         0.00000E+00
    0.00000E+00         0.00000E+00        -0.46672E+08
 
   -0.45481E+08         0.58094E+06         0.00000E+00
    0.58094E+06        -0.97579E+08         0.00000E+00
    0.00000E+00         0.00000E+00        -0.46477E+08
 
   -0.45273E+08         0.59462E+06         0.00000E+00
    0.59462E+06        -0.97582E+08         0.00000E+00
    0.00000E+00         0.00000E+00        -0.46271E+08
 
   -0.45060E+08         0.60601E+06         0.00000E+00
    0.60601E+06        -0.97586E+08         0.00000E+00
    0.00000E+00         0.00000E+00        -0.46051E+08
 
   -0.44843E+08         0.61452E+06         0.00000E+00
    0.61452E+06        -0.97591E+08         0.00000E+00
    0.00000E+00         0.00000E+00        -0.45819E+08
 
   -0.44624E+08         0.61944E+06         0.00000E+00
    0.61944E+06        -0.97596E+08         0.00000E+00
    0.00000E+00         0.00000E+00        -0.45572E+08
 
   -0.44402E+08         0.61995E+06         0.00000E+00
    0.61995E+06        -0.97603E+08         0.00000E+00
    0.00000E+00         0.00000E+00        -0.45310E+08
 
   -0.44180E+08         0.61512E+06         0.00000E+00
    0.61512E+06        -0.97612E+08         0.00000E+00
    0.00000E+00         0.00000E+00        -0.45032E+08
 
   -0.43958E+08         0.60394E+06         0.00000E+00
    0.60394E+06        -0.97622E+08         0.00000E+00
    0.00000E+00         0.00000E+00        -0.44736E+08
 
   -0.43739E+08         0.58526E+06         0.00000E+00
    0.58526E+06        -0.97635E+08         0.00000E+00
    0.00000E+00         0.00000E+00        -0.44422E+08
 
   -0.43525E+08         0.55787E+06         0.00000E+00
    0.55787E+06        -0.97649E+08         0.00000E+00
    0.00000E+00         0.00000E+00        -0.44089E+08
 
   -0.43317E+08         0.52053E+06         0.00000E+00
    0.52053E+06        -0.97665E+08         0.00000E+00
    0.00000E+00         0.00000E+00        -0.43734E+08
 
   -0.43118E+08         0.47199E+06         0.00000E+00
    0.47199E+06        -0.97683E+08         0.00000E+00
    0.00000E+00         0.00000E+00        -0.43356E+08
 
   -0.42931E+08         0.41113E+06         0.00000E+00
    0.41113E+06        -0.97704E+08         0.00000E+00
    0.00000E+00         0.00000E+00        -0.42955E+08
 
   -0.42757E+08         0.33705E+06         0.00000E+00
    0.33705E+06        -0.97726E+08         0.00000E+00
    0.00000E+00         0.00000E+00        -0.42527E+08
 
   -0.42600E+08         0.24927E+06         0.00000E+00
    0.24927E+06        -0.97748E+08         0.00000E+00
    0.00000E+00         0.00000E+00        -0.42072E+08
 
   -0.42461E+08         0.14802E+06         0.00000E+00
    0.14802E+06        -0.97771E+08         0.00000E+00
    0.00000E+00         0.00000E+00        -0.41587E+08
 
   -0.42342E+08         0.34540E+05         0.00000E+00
    0.34540E+05        -0.97792E+08         0.00000E+00
    0.00000E+00         0.00000E+00        -0.41070E+08
 
   -0.42243E+08        -0.88389E+05         0.00000E+00
   -0.88389E+05        -0.97809E+08         0.00000E+00
    0.00000E+00         0.00000E+00        -0.40518E+08
 
   -0.42163E+08        -0.21572E+06         0.00000E+00
   -0.21572E+06        -0.97818E+08         0.00000E+00
    0.00000E+00         0.00000E+00        -0.39930E+08
 
   -0.42098E+08        -0.33901E+06         0.00000E+00
   -0.33901E+06        -0.97816E+08         0.00000E+00
    0.00000E+00         0.00000E+00        -0.39302E+08
 
   -0.42041E+08        -0.44464E+06         0.00000E+00
   -0.44464E+06        -0.97793E+08         0.00000E+00
    0.00000E+00         0.00000E+00        -0.38631E+08
 
   -0.41978E+08        -0.51053E+06         0.00000E+00
   -0.51053E+06        -0.97733E+08         0.00000E+00
    0.00000E+00         0.00000E+00        -0.37914E+08
 
   -0.41901E+08        -0.50275E+06         0.00000E+00
   -0.50275E+06        -0.97601E+08         0.00000E+00
    0.00000E+00         0.00000E+00        -0.37148E+08
 
   -0.41813E+08        -0.38309E+06         0.00000E+00
   -0.38309E+06        -0.97319E+08         0.00000E+00
    0.00000E+00         0.00000E+00        -0.36329E+08
 
   -0.41748E+08        -0.14531E+06         0.00000E+00
   -0.14531E+06        -0.96763E+08         0.00000E+00
    0.00000E+00         0.00000E+00        -0.35453E+08
 
   -0.49901E+08        -0.44122E+03         0.00000E+00
   -0.44122E+03        -0.97604E+08         0.00000E+00
    0.00000E+00         0.00000E+00        -0.49997E+08
 
   -0.49900E+08        -0.91402E+03         0.00000E+00
   -0.91402E+03        -0.97600E+08         0.00000E+00
    0.00000E+00         0.00000E+00        -0.49990E+08
 
   -0.49899E+08        -0.49173E+03         0.00000E+00
   -0.49173E+03        -0.97598E+08         0.00000E+00
    0.00000E+00         0.00000E+00        -0.49984E+08
 
   -0.49897E+08         0.74012E+03         0.00000E+00
    0.74012E+03        -0.97598E+08         0.00000E+00
    0.00000E+00         0.00000E+00        -0.49978E+08
 
   -0.49895E+08         0.24807E+04         0.00000E+00
    0.24807E+04        -0.97597E+08         0.00000E+00
    0.00000E+00         0.00000E+00        -0.49971E+08
 
   -0.49892E+08         0.44917E+04         0.00000E+00
    0.44917E+04        -0.97597E+08         0.00000E+00
    0.00000E+00         0.00000E+00        -0.49965E+08
 
   -0.49889E+08         0.66303E+04         0.00000E+00
    0.66303E+04        -0.97597E+08         0.00000E+00
    0.00000E+00         0.00000E+00        -0.49959E+08
 
   -0.49885E+08         0.88129E+04         0.00000E+00
    0.88129E+04        -0.97597E+08         0.00000E+00
    0.00000E+00         0.00000E+00        -0.49952E+08
 
   -0.49881E+08         0.10990E+05         0.00000E+00
    0.10990E+05        -0.97597E+08         0.00000E+00
    0.00000E+00         0.00000E+00        -0.49946E+08
 
   -0.49875E+08         0.13135E+05         0.00000E+00
    0.13135E+05        -0.97597E+08         0.00000E+00
    0.00000E+00         0.00000E+00        -0.49939E+08
 
   -0.49869E+08         0.15234E+05         0.00000E+00
    0.15234E+05        -0.97597E+08         0.00000E+00
    0.00000E+00         0.00000E+00        -0.49933E+08
 
   -0.49863E+08         0.17284E+05         0.00000E+00
    0.17284E+05        -0.97597E+08         0.00000E+00
    0.00000E+00         0.00000E+00        -0.49926E+08
 
   -0.49856E+08         0.19289E+05         0.00000E+00
    0.19289E+05        -0.97597E+08         0.00000E+00
    0.00000E+00         0.00000E+00        -0.49919E+08
 
   -0.49847E+08         0.21257E+05         0.00000E+00
    0.21257E+05        -0.97597E+08         0.00000E+00
    0.00000E+00         0.00000E+00        -0.49911E+08
 
   -0.49839E+08         0.23200E+05         0.00000E+00
    0.23200E+05        -0.97598E+08         0.00000E+00
    0.00000E+00         0.00000E+00        -0.49904E+08
 
   -0.49829E+08         0.25129E+05         0.00000E+00
    0.25129E+05        -0.97598E+08         0.00000E+00
    0.00000E+00         0.00000E+00        -0.49896E+08
 
   -0.49819E+08         0.27058E+05         0.00000E+00
    0.27058E+05        -0.97598E+08         0.00000E+00
    0.00000E+00         0.00000E+00        -0.49888E+08
 
   -0.49808E+08         0.29000E+05         0.00000E+00
    0.29000E+05        -0.97598E+08         0.00000E+00
    0.00000E+00         0.00000E+00        -0.49879E+08
 
   -0.49797E+08         0.30970E+05         0.00000E+00
    0.30970E+05        -0.97597E+08         0.00000E+00
    0.00000E+00         0.00000E+00        -0.49870E+08
 
   -0.49784E+08         0.32980E+05         0.00000E+00
    0.32980E+05        -0.97597E+08         0.00000E+00
    0.00000E+00         0.00000E+00        -0.49861E+08
 
   -0.49771E+08         0.35043E+05         0.00000E+00
    0.35043E+05        -0.97597E+08         0.00000E+00
    0.00000E+00         0.00000E+00        -0.49851E+08
 
   -0.49757E+08         0.37171E+05         0.00000E+00
    0.37171E+05        -0.97597E+08         0.00000E+00
    0.00000E+00         0.00000E+00        -0.49841E+08
 
   -0.49742E+08         0.39376E+05         0.00000E+00
    0.39376E+05        -0.97597E+08         0.00000E+00
    0.00000E+00         0.00000E+00        -0.49831E+08
 
   -0.49727E+08         0.41669E+05         0.00000E+00
    0.41669E+05        -0.97597E+08         0.00000E+00
    0.00000E+00         0.00000E+00        -0.49819E+08
 
   -0.49710E+08         0.44061E+05         0.00000E+00
    0.44061E+05        -0.97597E+08         0.00000E+00
    0.00000E+00         0.00000E+00        -0.49808E+08
 
   -0.49693E+08         0.46564E+05         0.00000E+00
    0.46564E+05        -0.97597E+08         0.00000E+00
    0.00000E+00         0.00000E+00        -0.49795E+08
 
   -0.49674E+08         0.49186E+05         0.00000E+00
    0.49186E+05        -0.97597E+08         0.00000E+00
    0.00000E+00         0.00000E+00        -0.49783E+08
 
   -0.49655E+08         0.51939E+05         0.00000E+00
    0.51939E+05        -0.97596E+08         0.00000E+00
    0.00000E+00         0.00000E+00        -0.49769E+08
 
   -0.49634E+08         0.54833E+05         0.00000E+00
    0.54833E+05        -0.97596E+08         0.00000E+00
    0.00000E+00         0.00000E+00        -0.49755E+08
 
   -0.49612E+08         0.57878E+05         0.00000E+00
    0.57878E+05        -0.97596E+08         0.00000E+00
    0.00000E+00         0.00000E+00        -0.49740E+08
 
   -0.49589E+08         0.61084E+05         0.00000E+00
    0.61084E+05        -0.97596E+08         0.00000E+00
    0.00000E+00         0.00000E+00        -0.49724E+08
 
   -0.49565E+08         0.64463E+05         0.00000E+00
    0.64463E+05        -0.97596E+08         0.00000E+00
    0.00000E+00         0.00000E+00        -0.49707E+08
 
   -0.49539E+08         0.68024E+05         0.00000E+00
    0.68024E+05        -0.97595E+08         0.00000E+00
    0.00000E+00         0.00000E+00        -0.49690E+08
 
   -0.49512E+08         0.71778E+05         0.00000E+00
    0.71778E+05        -0.97595E+08         0.00000E+00
    0.00000E+00         0.00000E+00        -0.49671E+08
 
   -0.49484E+08         0.75737E+05         0.00000E+00
    0.75737E+05        -0.97595E+08         0.00000E+00
    0.00000E+00         0.00000E+00        -0.49652E+08
 
   -0.49454E+08         0.79913E+05         0.00000E+00
    0.79913E+05        -0.97595E+08         0.00000E+00
    0.00000E+00         0.00000E+00        -0.49631E+08
 
   -0.49422E+08         0.84316E+05         0.00000E+00
    0.84316E+05        -0.97594E+08         0.00000E+00
    0.00000E+00         0.00000E+00        -0.49609E+08
 
   -0.49388E+08         0.88960E+05         0.00000E+00
    0.88960E+05        -0.97594E+08         0.00000E+00
    0.00000E+00         0.00000E+00        -0.49586E+08
 
   -0.49353E+08         0.93856E+05         0.00000E+00
    0.93856E+05        -0.97594E+08         0.00000E+00
    0.00000E+00         0.00000E+00        -0.49562E+08
 
   -0.49316E+08         0.99018E+05         0.00000E+00
    0.99018E+05        -0.97593E+08         0.00000E+00
    0.00000E+00         0.00000E+00        -0.49536E+08
 
   -0.49276E+08         0.10446E+06         0.00000E+00
    0.10446E+06        -0.97593E+08         0.00000E+00
    0.00000E+00         0.00000E+00        -0.49509E+08
 
   -0.49235E+08         0.11019E+06         0.00000E+00
    0.11019E+06        -0.97593E+08         0.00000E+00
    0.00000E+00         0.00000E+00        -0.49481E+08
 
   -0.49191E+08         0.11624E+06         0.00000E+00
    0.11624E+06        -0.97592E+08         0.00000E+00
    0.00000E+00         0.00000E+00        -0.49450E+08
 
   -0.49145E+08         0.12260E+06         0.00000E+00
    0.12260E+06        -0.97592E+08         0.00000E+00
    0.00000E+00         0.00000E+00        -0.49418E+08
 
   -0.49096E+08         0.12930E+06         0.00000E+00
    0.12930E+06        -0.97591E+08         0.00000E+00
    0.00000E+00         0.00000E+00        -0.49385E+08
 
   -0.49045E+08         0.13635E+06         0.00000E+00
    0.13635E+06        -0.97591E+08         0.00000E+00
    0.00000E+00         0.00000E+00        -0.49349E+08
 
   -0.48991E+08         0.14377E+06         0.00000E+00
    0.14377E+06        -0.97590E+08         0.00000E+00
    0.00000E+00         0.00000E+00        -0.49311E+08
 
   -0.48934E+08         0.15157E+06         0.00000E+00
    0.15157E+06        -0.97590E+08         0.00000E+00
    0.00000E+00         0.00000E+00        -0.49272E+08
 
   -0.48874E+08         0.15977E+06         0.00000E+00
    0.15977E+06        -0.97589E+08         0.00000E+00
    0.00000E+00         0.00000E+00        -0.49229E+08
 
   -0.48810E+08         0.16838E+06         0.00000E+00
    0.16838E+06        -0.97589E+08         0.00000E+00
    0.00000E+00         0.00000E+00        -0.49185E+08
 
   -0.48743E+08         0.17743E+06         0.00000E+00
    0.17743E+06        -0.97588E+08         0.00000E+00
    0.00000E+00         0.00000E+00        -0.49138E+08
 
   -0.48673E+08         0.18692E+06         0.00000E+00
    0.18692E+06        -0.97588E+08         0.00000E+00
    0.00000E+00         0.00000E+00        -0.49088E+08
 
   -0.48599E+08         0.19687E+06         0.00000E+00
    0.19687E+06        -0.97587E+08         0.00000E+00
    0.00000E+00         0.00000E+00        -0.49035E+08
 
   -0.48521E+08         0.20730E+06         0.00000E+00
    0.20730E+06        -0.97586E+08         0.00000E+00
    0.00000E+00         0.00000E+00        -0.48980E+08
 
   -0.48439E+08         0.21821E+06         0.00000E+00
    0.21821E+06        -0.97586E+08         0.00000E+00
    0.00000E+00         0.00000E+00        -0.48921E+08
 
   -0.48352E+08         0.22963E+06         0.00000E+00
    0.22963E+06        -0.97585E+08         0.00000E+00
    0.00000E+00         0.00000E+00        -0.48859E+08
 
   -0.48261E+08         0.24156E+06         0.00000E+00
    0.24156E+06        -0.97584E+08         0.00000E+00
    0.00000E+00         0.00000E+00        -0.48793E+08
 
   -0.48166E+08         0.25401E+06         0.00000E+00
    0.25401E+06        -0.97584E+08         0.00000E+00
    0.00000E+00         0.00000E+00        -0.48723E+08
 
   -0.48065E+08         0.26700E+06         0.00000E+00
    0.26700E+06        -0.97583E+08         0.00000E+00
    0.00000E+00         0.00000E+00        -0.48650E+08
 
   -0.47960E+08         0.28051E+06         0.00000E+00
    0.28051E+06        -0.97582E+08         0.00000E+00
    0.00000E+00         0.00000E+00        -0.48572E+08
 
   -0.47849E+08         0.29455E+06         0.00000E+00
    0.29455E+06        -0.97582E+08         0.00000E+00
    0.00000E+00         0.00000E+00        -0.48489E+08
 
   -0.47733E+08         0.30912E+06         0.00000E+00
    0.30912E+06        -0.97581E+08         0.00000E+00
    0.00000E+00         0.00000E+00        -0.48402E+08
 
   -0.47611E+08         0.32420E+06         0.00000E+00
    0.32420E+06        -0.97580E+08         0.00000E+00
    0.00000E+00         0.00000E+00        -0.48310E+08
 
   -0.47483E+08         0.33979E+06         0.00000E+00
    0.33979E+06        -0.97580E+08         0.00000E+00
    0.00000E+00         0.00000E+00        -0.48212E+08
 
   -0.47349E+08         0.35584E+06         0.00000E+00
    0.35584E+06        -0.97579E+08         0.00000E+00
    0.00000E+00         0.00000E+00        -0.48109E+08
 
   -0.47209E+08         0.37233E+06         0.00000E+00
    0.37233E+06        -0.97579E+08         0.00000E+00
    0.00000E+00         0.00000E+00        -0.47999E+08
 
   -0.47063E+08         0.38920E+06         0.00000E+00
    0.38920E+06        -0.97578E+08         0.00000E+00
    0.00000E+00         0.00000E+00        -0.47883E+08
 
   -0.46910E+08         0.40639E+06         0.00000E+00
    0.40639E+06        -0.97578E+08         0.00000E+00
    0.00000E+00         0.00000E+00        -0.47760E+08
 
   -0.46750E+08         0.42382E+06         0.00000E+00
    0.42382E+06        -0.97577E+08         0.00000E+00
    0.00000E+00         0.00000E+00        -0.47631E+08
 
   -0.46584E+08         0.44138E+06         0.00000E+00
    0.44138E+06        -0.97577E+08         0.00000E+00
    0.00000E+00         0.00000E+00        -0.47493E+08
 
   -0.46412E+08         0.45894E+06         0.00000E+00
    0.45894E+06        -0.97577E+08         0.00000E+00
    0.00000E+00         0.00000E+00        -0.47347E+08
 
   -0.46232E+08         0.47635E+06         0.00000E+00
    0.47635E+06        -0.97578E+08         0.00000E+00
    0.00000E+00         0.00000E+00        -0.47193E+08
 
   -0.46047E+08         0.49340E+06         0.00000E+00
    0.49340E+06        -0.97578E+08         0.00000E+00
    0.00000E+00         0.00000E+00        -0.47029E+08
 
   -0.45855E+08         0.50985E+06         0.00000E+00
    0.50985E+06        -0.97579E+08         0.00000E+00
    0.00000E+00         0.00000E+00        -0.46856E+08
 
   -0.45657E+08         0.52542E+06         0.00000E+00
    0.52542E+06        -0.97580E+08         0.00000E+00
    0.00000E+00         0.00000E+00        -0.46672E+08
 
   -0.45453E+08         0.53975E+06         0.00000E+00
    0.53975E+06        -0.97582E+08         0.00000E+00
    0.00000E+00         0.00000E+00        -0.46477E+08
 
   -0.45244E+08         0.55244E+06         0.00000E+00
    0.55244E+06        -0.97585E+08         0.00000E+00
    0.00000E+00         0.00000E+00        -0.46270E+08
 
   -0.45030E+08         0.56298E+06         0.00000E+00
    0.56298E+06        -0.97588E+08         0.00000E+00
    0.00000E+00         0.00000E+00        -0.46051E+08
 
   -0.44813E+08         0.57080E+06         0.00000E+00
    0.57080E+06        -0.97592E+08         0.00000E+00
    0.00000E+00         0.00000E+00        -0.45818E+08
 
   -0.44592E+08         0.57523E+06         0.00000E+00
    0.57523E+06        -0.97597E+08         0.00000E+00
    0.00000E+00         0.00000E+00        -0.45572E+08
 
   -0.44370E+08         0.57549E+06         0.00000E+00
    0.57549E+06        -0.97603E+08         0.00000E+00
    0.00000E+00         0.00000E+00        -0.45310E+08
 
   -0.44148E+08         0.57071E+06         0.00000E+00
    0.57071E+06        -0.97610E+08         0.00000E+00
    0.00000E+00         0.00000E+00        -0.45031E+08
 
   -0.43927E+08         0.55990E+06         0.00000E+00
    0.55990E+06        -0.97619E+08         0.00000E+00
    0.00000E+00         0.00000E+00        -0.44736E+08
 
   -0.43708E+08         0.54198E+06         0.00000E+00
    0.54198E+06        -0.97630E+08         0.00000E+00
    0.00000E+00         0.00000E+00        -0.44422E+08
 
   -0.43496E+08         0.51578E+06         0.00000E+00
    0.51578E+06        -0.97642E+08         0.00000E+00
    0.00000E+00         0.00000E+00        -0.44088E+08
 
   -0.43290E+08         0.48008E+06         0.00000E+00
    0.48008E+06        -0.97657E+08         0.00000E+00
    0.00000E+00         0.00000E+00        -0.43734E+08
 
   -0.43095E+08         0.43370E+06         0.00000E+00
    0.43370E+06        -0.97673E+08         0.00000E+00
    0.00000E+00         0.00000E+00        -0.43356E+08
 
   -0.42912E+08         0.37552E+06         0.00000E+00
    0.37552E+06        -0.97691E+08         0.00000E+00
    0.00000E+00         0.00000E+00        -0.42955E+08
 
   -0.42745E+08         0.30464E+06         0.00000E+00
    0.30464E+06        -0.97710E+08         0.00000E+00
    0.00000E+00         0.00000E+00        -0.42527E+08
 
   -0.42596E+08         0.22056E+06         0.00000E+00
    0.22056E+06        -0.97730E+08         0.00000E+00
    0.00000E+00         0.00000E+00        -0.42072E+08
 
   -0.42468E+08         0.12341E+06         0.00000E+00
    0.12341E+06        -0.97750E+08         0.00000E+00
    0.00000E+00         0.00000E+00        -0.41587E+08
 
   -0.42363E+08         0.14256E+05         0.00000E+00
    0.14256E+05        -0.97768E+08         0.00000E+00
    0.00000E+00         0.00000E+00        -0.41070E+08
 
   -0.42280E+08        -0.10439E+06         0.00000E+00
   -0.10439E+06        -0.97784E+08         0.00000E+00
    0.00000E+00         0.00000E+00        -0.40518E+08
 
   -0.42220E+08        -0.22794E+06         0.00000E+00
   -0.22794E+06        -0.97793E+08         0.00000E+00
    0.00000E+00         0.00000E+00        -0.39930E+08
 
   -0.42177E+08        -0.34865E+06         0.00000E+00
   -0.34865E+06        -0.97792E+08         0.00000E+00
    0.00000E+00         0.00000E+00        -0.39302E+08
 
   -0.42144E+08        -0.45381E+06         0.00000E+00
   -0.45381E+06        -0.97774E+08         0.00000E+00
    0.00000E+00         0.00000E+00        -0.38632E+08
 
   -0.42107E+08        -0.52224E+06         0.00000E+00
   -0.52224E+06        -0.97725E+08         0.00000E+00
    0.00000E+00         0.00000E+00        -0.37915E+08
 
   -0.42051E+08        -0.51906E+06         0.00000E+00
   -0.51906E+06        -0.97612E+08         0.00000E+00
    0.00000E+00         0.00000E+00        -0.37149E+08
 
   -0.41976E+08        -0.40043E+06         0.00000E+00
   -0.40043E+06        -0.97356E+08         0.00000E+00
    0.00000E+00         0.00000E+00        -0.36329E+08
 
   -0.41916E+08        -0.15328E+06         0.00000E+00
   -0.15328E+06        -0.96821E+08         0.00000E+00
    0.00000E+00         0.00000E+00        -0.35453E+08
 
   -0.49899E+08        -0.54419E+03         0.00000E+00
   -0.54419E+03        -0.97604E+08         0.00000E+00
    0.00000E+00         0.00000E+00        -0.49997E+08
 
   -0.49898E+08        -0.11688E+04         0.00000E+00
   -0.11688E+04        -0.97600E+08         0.00000E+00
    0.00000E+00         0.00000E+00        -0.49990E+08
 
   -0.49897E+08        -0.81979E+03         0.00000E+00
   -0.81979E+03        -0.97598E+08         0.00000E+00
    0.00000E+00         0.00000E+00        -0.49984E+08
 
   -0.49895E+08         0.35622E+03         0.00000E+00
    0.35622E+03        -0.97598E+08         0.00000E+00
    0.00000E+00         0.00000E+00        -0.49978E+08
 
   -0.49893E+08         0.20172E+04         0.00000E+00
    0.20172E+04        -0.97598E+08         0.00000E+00
    0.00000E+00         0.00000E+00        -0.49971E+08
 
   -0.49891E+08         0.39225E+04         0.00000E+00
    0.39225E+04        -0.97597E+08         0.00000E+00
    0.00000E+00         0.00000E+00        -0.49965E+08
 
   -0.49888E+08         0.59379E+04         0.00000E+00
    0.59379E+04        -0.97597E+08         0.00000E+00
    0.00000E+00         0.00000E+00        -0.49959E+08
 
   -0.49884E+08         0.79869E+04         0.00000E+00
    0.79869E+04        -0.97597E+08         0.00000E+00
    0.00000E+00         0.00000E+00        -0.49952E+08
 
   -0.49879E+08         0.10025E+05         0.00000E+00
    0.10025E+05        -0.97598E+08         0.00000E+00
    0.00000E+00         0.00000E+00        -0.49946E+08
 
   -0.49874E+08         0.12028E+05         0.00000E+00
    0.12028E+05        -0.97598E+08         0.00000E+00
    0.00000E+00         0.00000E+00        -0.49939E+08
 
   -0.49868E+08         0.13984E+05         0.00000E+00
    0.13984E+05        -0.97598E+08         0.00000E+00
    0.00000E+00         0.00000E+00        -0.49933E+08
 
   -0.49862E+08         0.15892E+05         0.00000E+00
    0.15892E+05        -0.97598E+08         0.00000E+00
    0.00000E+00         0.00000E+00        -0.49926E+08
 
   -0.49855E+08         0.17755E+05         0.00000E+00
    0.17755E+05        -0.97598E+08         0.00000E+00
    0.00000E+00         0.00000E+00        -0.49919E+08
 
   -0.49846E+08         0.19581E+05         0.00000E+00
    0.19581E+05        -0.97598E+08         0.00000E+00
    0.00000E+00         0.00000E+00        -0.49911E+08
 
   -0.49838E+08         0.21381E+05         0.00000E+00
    0.21381E+05        -0.97598E+08         0.00000E+00
    0.00000E+00         0.00000E+00        -0.49904E+08
 
   -0.49828E+08         0.23166E+05         0.00000E+00
    0.23166E+05        -0.97598E+08         0.00000E+00
    0.00000E+00         0.00000E+00        -0.49896E+08
 
   -0.49818E+08         0.24950E+05         0.00000E+00
    0.24950E+05        -0.97598E+08         0.00000E+00
    0.00000E+00         0.00000E+00        -0.49888E+08
 
   -0.49807E+08         0.26746E+05         0.00000E+00
    0.26746E+05        -0.97598E+08         0.00000E+00
    0.00000E+00         0.00000E+00        -0.49879E+08
 
   -0.49795E+08         0.28565E+05         0.00000E+00
    0.28565E+05        -0.97598E+08         0.00000E+00
    0.00000E+00         0.00000E+00        -0.49870E+08
 
   -0.49783E+08         0.30421E+05         0.00000E+00
    0.30421E+05        -0.97598E+08         0.00000E+00
    0.00000E+00         0.00000E+00        -0.49861E+08
 
   -0.49770E+08         0.32325E+05         0.00000E+00
    0.32325E+05        -0.97598E+08         0.00000E+00
    0.00000E+00         0.00000E+00        -0.49851E+08
 
   -0.49756E+08         0.34288E+05         0.00000E+00
    0.34288E+05        -0.97598E+08         0.00000E+00
    0.00000E+00         0.00000E+00        -0.49841E+08
 
   -0.49741E+08         0.36323E+05         0.00000E+00
    0.36323E+05        -0.97598E+08         0.00000E+00
    0.00000E+00         0.00000E+00        -0.49831E+08
 
   -0.49725E+08         0.38438E+05         0.00000E+00
    0.38438E+05        -0.97597E+08         0.00000E+00
    0.00000E+00         0.00000E+00        -0.49819E+08
 
   -0.49708E+08         0.40645E+05         0.00000E+00
    0.40645E+05        -0.97597E+08         0.00000E+00
    0.00000E+00         0.00000E+00        -0.49808E+08
 
   -0.49691E+08         0.42953E+05         0.00000E+00
    0.42953E+05        -0.97597E+08         0.00000E+00
    0.00000E+00         0.00000E+00        -0.49795E+08
 
   -0.49672E+08         0.45372E+05         0.00000E+00
    0.45372E+05        -0.97597E+08         0.00000E+00
    0.00000E+00         0.00000E+00        -0.49783E+08
 
   -0.49653E+08         0.47911E+05         0.00000E+00
    0.47911E+05        -0.97597E+08         0.00000E+00
    0.00000E+00         0.00000E+00        -0.49769E+08
 
   -0.49632E+08         0.50580E+05         0.00000E+00
    0.50580E+05        -0.97597E+08         0.00000E+00
    0.00000E+00         0.00000E+00        -0.49755E+08
 
   -0.49610E+08         0.53389E+05         0.00000E+00
    0.53389E+05        -0.97597E+08         0.00000E+00
    0.00000E+00         0.00000E+00        -0.49740E+08
 
   -0.49587E+08         0.56346E+05         0.00000E+00
    0.56346E+05        -0.97596E+08         0.00000E+00
    0.00000E+00         0.00000E+00        -0.49724E+08
 
   -0.49562E+08         0.59462E+05         0.00000E+00
    0.59462E+05        -0.97596E+08         0.00000E+00
    0.00000E+00         0.00000E+00        -0.49707E+08
 
   -0.49537E+08         0.62747E+05         0.00000E+00
    0.62747E+05        -0.97596E+08         0.00000E+00
    0.00000E+00         0.00000E+00        -0.49690E+08
 
   -0.49509E+08         0.66210E+05         0.00000E+00
    0.66210E+05        -0.97596E+08         0.00000E+00
    0.00000E+00         0.00000E+00        -0.49671E+08
 
   -0.49481E+08         0.69862E+05         0.00000E+00
    0.69862E+05        -0.97596E+08         0.00000E+00
    0.00000E+00         0.00000E+00        -0.49652E+08
 
   -0.49450E+08         0.73713E+05         0.00000E+00
    0.73713E+05        -0.97595E+08         0.00000E+00
    0.00000E+00         0.00000E+00        -0.49631E+08
 
   -0.49418E+08         0.77775E+05         0.00000E+00
    0.77775E+05        -0.97595E+08         0.00000E+00
    0.00000E+00         0.00000E+00        -0.49609E+08
 
   -0.49385E+08         0.82059E+05         0.00000E+00
    0.82059E+05        -0.97595E+08         0.00000E+00
    0.00000E+00         0.00000E+00        -0.49586E+08
 
   -0.49349E+08         0.86575E+05         0.00000E+00
    0.86575E+05        -0.97595E+08         0.00000E+00
    0.00000E+00         0.00000E+00        -0.49562E+08
 
   -0.49312E+08         0.91337E+05         0.00000E+00
    0.91337E+05        -0.97594E+08         0.00000E+00
    0.00000E+00         0.00000E+00        -0.49536E+08
 
   -0.49272E+08         0.96357E+05         0.00000E+00
    0.96357E+05        -0.97594E+08         0.00000E+00
    0.00000E+00         0.00000E+00        -0.49509E+08
 
   -0.49230E+08         0.10165E+06         0.00000E+00
    0.10165E+06        -0.97594E+08         0.00000E+00
    0.00000E+00         0.00000E+00        -0.49481E+08
 
   -0.49186E+08         0.10722E+06         0.00000E+00
    0.10722E+06        -0.97593E+08         0.00000E+00
    0.00000E+00         0.00000E+00        -0.49450E+08
 
   -0.49140E+08         0.11309E+06         0.00000E+00
    0.11309E+06        -0.97593E+08         0.00000E+00
    0.00000E+00         0.00000E+00        -0.49418E+08
 
   -0.49091E+08         0.11927E+06         0.00000E+00
    0.11927E+06        -0.97593E+08         0.00000E+00
    0.00000E+00         0.00000E+00        -0.49385E+08
 
   -0.49039E+08         0.12578E+06         0.00000E+00
    0.12578E+06        -0.97592E+08         0.00000E+00
    0.00000E+00         0.00000E+00        -0.49349E+08
 
   -0.48985E+08         0.13262E+06         0.00000E+00
    0.13262E+06        -0.97592E+08         0.00000E+00
    0.00000E+00         0.00000E+00        -0.49311E+08
 
   -0.48927E+08         0.13982E+06         0.00000E+00
    0.13982E+06        -0.97591E+08         0.00000E+00
    0.00000E+00         0.00000E+00        -0.49271E+08
 
   -0.48867E+08         0.14738E+06         0.00000E+00
    0.14738E+06        -0.97591E+08         0.00000E+00
    0.00000E+00         0.00000E+00        -0.49229E+08
 
   -0.48803E+08         0.15533E+06         0.00000E+00
    0.15533E+06        -0.97590E+08         0.00000E+00
    0.00000E+00         0.00000E+00        -0.49185E+08
 
   -0.48736E+08         0.16368E+06         0.00000E+00
    0.16368E+06        -0.97590E+08         0.00000E+00
    0.00000E+00         0.00000E+00        -0.49138E+08
 
   -0.48665E+08         0.17244E+06         0.00000E+00
    0.17244E+06        -0.97589E+08         0.00000E+00
    0.00000E+00         0.00000E+00        -0.49088E+08
 
   -0.48591E+08         0.18162E+06         0.00000E+00
    0.18162E+06        -0.97589E+08         0.00000E+00
    0.00000E+00         0.00000E+00        -0.49035E+08
 
   -0.48512E+08         0.19124E+06         0.00000E+00
    0.19124E+06        -0.97588E+08         0.00000E+00
    0.00000E+00         0.00000E+00        -0.48980E+08
 
   -0.48429E+08         0.20131E+06         0.00000E+00
    0.20131E+06        -0.97588E+08         0.00000E+00
    0.00000E+00         0.00000E+00        -0.48921E+08
 
   -0.48342E+08         0.21185E+06         0.00000E+00
    0.21185E+06        -0.97587E+08         0.00000E+00
    0.00000E+00         0.00000E+00        -0.48859E+08
 
   -0.48251E+08         0.22286E+06         0.00000E+00
    0.22286E+06        -0.97587E+08         0.00000E+00
    0.00000E+00         0.00000E+00        -0.48793E+08
 
   -0.48155E+08         0.23436E+06         0.00000E+00
    0.23436E+06        -0.97586E+08         0.00000E+00
    0.00000E+00         0.00000E+00        -0.48723E+08
 
   -0.48054E+08         0.24634E+06         0.00000E+00
    0.24634E+06        -0.97586E+08         0.00000E+00
    0.00000E+00         0.00000E+00        -0.48650E+08
 
   -0.47948E+08         0.25881E+06         0.00000E+00
    0.25881E+06        -0.97585E+08         0.00000E+00
    0.00000E+00         0.00000E+00        -0.48572E+08
 
   -0.47836E+08         0.27177E+06         0.00000E+00
    0.27177E+06        -0.97584E+08         0.00000E+00
    0.00000E+00         0.00000E+00        -0.48489E+08
 
   -0.47719E+08         0.28523E+06         0.00000E+00
    0.28523E+06        -0.97584E+08         0.00000E+00
    0.00000E+00         0.00000E+00        -0.48402E+08
 
   -0.47596E+08         0.29916E+06         0.00000E+00
    0.29916E+06        -0.97583E+08         0.00000E+00
    0.00000E+00         0.00000E+00        -0.48310E+08
 
   -0.47468E+08         0.31355E+06         0.00000E+00
    0.31355E+06        -0.97583E+08         0.00000E+00
    0.00000E+00         0.00000E+00        -0.48212E+08
 
   -0.47333E+08         0.32837E+06         0.00000E+00
    0.32837E+06        -0.97582E+08         0.00000E+00
    0.00000E+00         0.00000E+00        -0.48108E+08
 
   -0.47192E+08         0.34360E+06         0.00000E+00
    0.34360E+06        -0.97582E+08         0.00000E+00
    0.00000E+00         0.00000E+00        -0.47999E+08
 
   -0.47045E+08         0.35919E+06         0.00000E+00
    0.35919E+06        -0.97581E+08         0.00000E+00
    0.00000E+00         0.00000E+00        -0.47883E+08
 
   -0.46891E+08         0.37507E+06         0.00000E+00
    0.37507E+06        -0.97581E+08         0.00000E+00
    0.00000E+00         0.00000E+00        -0.47760E+08
 
   -0.46731E+08         0.39118E+06         0.00000E+00
    0.39118E+06        -0.97581E+08         0.00000E+00
    0.00000E+00         0.00000E+00        -0.47630E+08
 
   -0.46563E+08         0.40741E+06         0.00000E+00
    0.40741E+06        -0.97581E+08         0.00000E+00
    0.00000E+00         0.00000E+00        -0.47493E+08
 
   -0.46390E+08         0.42365E+06         0.00000E+00
    0.42365E+06        -0.97581E+08         0.00000E+00
    0.00000E+00         0.00000E+00        -0.47347E+08
 
   -0.46209E+08         0.43974E+06         0.00000E+00
    0.43974E+06        -0.97581E+08         0.00000E+00
    0.00000E+00         0.00000E+00        -0.47192E+08
 
   -0.46023E+08         0.45550E+06         0.00000E+00
    0.45550E+06        -0.97581E+08         0.00000E+00
    0.00000E+00         0.00000E+00        -0.47029E+08
 
   -0.45829E+08         0.47071E+06         0.00000E+00
    0.47071E+06        -0.97582E+08         0.00000E+00
    0.00000E+00         0.00000E+00        -0.46855E+08
 
   -0.45630E+08         0.48510E+06         0.00000E+00
    0.48510E+06        -0.97583E+08         0.00000E+00
    0.00000E+00         0.00000E+00        -0.46672E+08
 
   -0.45425E+08         0.49834E+06         0.00000E+00
    0.49834E+06        -0.97585E+08         0.00000E+00
    0.00000E+00         0.00000E+00        -0.46477E+08
 
   -0.45215E+08         0.51004E+06         0.00000E+00
    0.51004E+06        -0.97587E+08         0.00000E+00
    0.00000E+00         0.00000E+00        -0.46270E+08
 
   -0.45000E+08         0.51974E+06         0.00000E+00
    0.51974E+06        -0.97590E+08         0.00000E+00
    0.00000E+00         0.00000E+00        -0.46051E+08
 
   -0.44781E+08         0.52690E+06         0.00000E+00
    0.52690E+06        -0.97593E+08         0.00000E+00
    0.00000E+00         0.00000E+00        -0.45818E+08
 
   -0.44560E+08         0.53088E+06         0.00000E+00
    0.53088E+06        -0.97597E+08         0.00000E+00
    0.00000E+00         0.00000E+00        -0.45571E+08
 
   -0.44338E+08         0.53095E+06         0.00000E+00
    0.53095E+06        -0.97603E+08         0.00000E+00
    0.00000E+00         0.00000E+00        -0.45309E+08
 
   -0.44115E+08         0.52629E+06         0.00000E+00
    0.52629E+06        -0.97609E+08         0.00000E+00
    0.00000E+00         0.00000E+00        -0.45031E+08
 
   -0.43894E+08         0.51595E+06         0.00000E+00
    0.51595E+06        -0.97617E+08         0.00000E+00
    0.00000E+00         0.00000E+00        -0.44736E+08
 
   -0.43676E+08         0.49891E+06         0.00000E+00
    0.49891E+06        -0.97626E+08         0.00000E+00
    0.00000E+00         0.00000E+00        -0.44422E+08
 
   -0.43465E+08         0.47405E+06         0.00000E+00
    0.47405E+06        -0.97636E+08         0.00000E+00
    0.00000E+00         0.00000E+00        -0.44088E+08
 
   -0.43261E+08         0.44020E+06         0.00000E+00
    0.44020E+06        -0.97649E+08         0.00000E+00
    0.00000E+00         0.00000E+00        -0.43733E+08
 
   -0.43069E+08         0.39622E+06         0.00000E+00
    0.39622E+06        -0.97663E+08         0.00000E+00
    0.00000E+00         0.00000E+00        -0.43356E+08
 
   -0.42891E+08         0.34102E+06         0.00000E+00
    0.34102E+06        -0.97678E+08         0.00000E+00
    0.00000E+00         0.00000E+00        -0.42954E+08
 
   -0.42731E+08         0.27371E+06         0.00000E+00
    0.27371E+06        -0.97695E+08         0.00000E+00
    0.00000E+00         0.00000E+00        -0.42527E+08
 
   -0.42590E+08         0.19375E+06         0.00000E+00
    0.19375E+06        -0.97712E+08         0.00000E+00
    0.00000E+00         0.00000E+00        -0.42072E+08
 
   -0.42473E+08         0.10119E+06         0.00000E+00
    0.10119E+06        -0.97729E+08         0.00000E+00
    0.00000E+00         0.00000E+00        -0.41587E+08
 
   -0.42380E+08        -0.30754E+04         0.00000E+00
   -0.30754E+04        -0.97746E+08         0.00000E+00
    0.00000E+00         0.00000E+00        -0.41070E+08
 
   -0.42314E+08        -0.11683E+06         0.00000E+00
   -0.11683E+06        -0.97760E+08         0.00000E+00
    0.00000E+00         0.00000E+00        -0.40519E+08
 
   -0.42273E+08        -0.23596E+06         0.00000E+00
   -0.23596E+06        -0.97769E+08         0.00000E+00
    0.00000E+00         0.00000E+00        -0.39931E+08
 
   -0.42253E+08        -0.35345E+06         0.00000E+00
   -0.35345E+06        -0.97769E+08         0.00000E+00
    0.00000E+00         0.00000E+00        -0.39303E+08
 
   -0.42246E+08        -0.45767E+06         0.00000E+00
   -0.45767E+06        -0.97756E+08         0.00000E+00
    0.00000E+00         0.00000E+00        -0.38632E+08
 
   -0.42237E+08        -0.52873E+06         0.00000E+00
   -0.52873E+06        -0.97717E+08         0.00000E+00
    0.00000E+00         0.00000E+00        -0.37916E+08
 
   -0.42206E+08        -0.53144E+06         0.00000E+00
   -0.53144E+06        -0.97622E+08         0.00000E+00
    0.00000E+00         0.00000E+00        -0.37150E+08
 
   -0.42147E+08        -0.41615E+06         0.00000E+00
   -0.41615E+06        -0.97393E+08         0.00000E+00
    0.00000E+00         0.00000E+00        -0.36330E+08
 
   -0.42093E+08        -0.16109E+06         0.00000E+00
   -0.16109E+06        -0.96882E+08         0.00000E+00
    0.00000E+00         0.00000E+00        -0.35453E+08
 
   -0.49897E+08        -0.64594E+03         0.00000E+00
   -0.64594E+03        -0.97603E+08         0.00000E+00
    0.00000E+00         0.00000E+00        -0.49997E+08
 
   -0.49896E+08        -0.14101E+04         0.00000E+00
   -0.14101E+04        -0.97600E+08         0.00000E+00
    0.00000E+00         0.00000E+00        -0.49990E+08
 
   -0.49895E+08        -0.11169E+04         0.00000E+00
   -0.11169E+04        -0.97599E+08         0.00000E+00
    0.00000E+00         0.00000E+00        -0.49984E+08
 
   -0.49893E+08         0.10859E+02         0.00000E+00
    0.10859E+02        -0.97598E+08         0.00000E+00
    0.00000E+00         0.00000E+00        -0.49978E+08
 
   -0.49892E+08         0.15905E+04         0.00000E+00
    0.15905E+04        -0.97598E+08         0.00000E+00
    0.00000E+00         0.00000E+00        -0.49971E+08
 
   -0.49889E+08         0.33851E+04         0.00000E+00
    0.33851E+04        -0.97598E+08         0.00000E+00
    0.00000E+00         0.00000E+00        -0.49965E+08
 
   -0.49886E+08         0.52716E+04         0.00000E+00
    0.52716E+04        -0.97598E+08         0.00000E+00
    0.00000E+00         0.00000E+00        -0.49959E+08
 
   -0.49883E+08         0.71815E+04         0.00000E+00
    0.71815E+04        -0.97598E+08         0.00000E+00
    0.00000E+00         0.00000E+00        -0.49952E+08
 
   -0.49878E+08         0.90754E+04         0.00000E+00
    0.90754E+04        -0.97598E+08         0.00000E+00
    0.00000E+00         0.00000E+00        -0.49946E+08
 
   -0.49873E+08         0.10932E+05         0.00000E+00
    0.10932E+05        -0.97598E+08         0.00000E+00
    0.00000E+00         0.00000E+00        -0.49939E+08
 
   -0.49867E+08         0.12742E+05         0.00000E+00
    0.12742E+05        -0.97598E+08         0.00000E+00
    0.00000E+00         0.00000E+00        -0.49933E+08
 
   -0.49861E+08         0.14503E+05         0.00000E+00
    0.14503E+05        -0.97598E+08         0.00000E+00
    0.00000E+00         0.00000E+00        -0.49926E+08
 
   -0.49854E+08         0.16220E+05         0.00000E+00
    0.16220E+05        -0.97598E+08         0.00000E+00
    0.00000E+00         0.00000E+00        -0.49918E+08
 
   -0.49846E+08         0.17902E+05         0.00000E+00
    0.17902E+05        -0.97598E+08         0.00000E+00
    0.00000E+00         0.00000E+00        -0.49911E+08
 
   -0.49837E+08         0.19556E+05         0.00000E+00
    0.19556E+05        -0.97598E+08         0.00000E+00
    0.00000E+00         0.00000E+00        -0.49904E+08
 
   -0.49827E+08         0.21197E+05         0.00000E+00
    0.21197E+05        -0.97598E+08         0.00000E+00
    0.00000E+00         0.00000E+00        -0.49896E+08
 
   -0.49817E+08         0.22834E+05         0.00000E+00
    0.22834E+05        -0.97598E+08         0.00000E+00
    0.00000E+00         0.00000E+00        -0.49888E+08
 
   -0.49806E+08         0.24480E+05         0.00000E+00
    0.24480E+05        -0.97598E+08         0.00000E+00
    0.00000E+00         0.00000E+00        -0.49879E+08
 
   -0.49794E+08         0.26148E+05         0.00000E+00
    0.26148E+05        -0.97598E+08         0.00000E+00
    0.00000E+00         0.00000E+00        -0.49870E+08
 
   -0.49782E+08         0.27848E+05         0.00000E+00
    0.27848E+05        -0.97598E+08         0.00000E+00
    0.00000E+00         0.00000E+00        -0.49861E+08
 
   -0.49768E+08         0.29592E+05         0.00000E+00
    0.29592E+05        -0.97598E+08         0.00000E+00
    0.00000E+00         0.00000E+00        -0.49851E+08
 
   -0.49754E+08         0.31390E+05         0.00000E+00
    0.31390E+05        -0.97598E+08         0.00000E+00
    0.00000E+00         0.00000E+00        -0.49841E+08
 
   -0.49739E+08         0.33252E+05         0.00000E+00
    0.33252E+05        -0.97598E+08         0.00000E+00
    0.00000E+00         0.00000E+00        -0.49831E+08
 
   -0.49724E+08         0.35188E+05         0.00000E+00
    0.35188E+05        -0.97598E+08         0.00000E+00
    0.00000E+00         0.00000E+00        -0.49819E+08
 
   -0.49707E+08         0.37208E+05         0.00000E+00
    0.37208E+05        -0.97598E+08         0.00000E+00
    0.00000E+00         0.00000E+00        -0.49808E+08
 
   -0.49689E+08         0.39321E+05         0.00000E+00
    0.39321E+05        -0.97598E+08         0.00000E+00
    0.00000E+00         0.00000E+00        -0.49795E+08
 
   -0.49670E+08         0.41535E+05         0.00000E+00
    0.41535E+05        -0.97598E+08         0.00000E+00
    0.00000E+00         0.00000E+00        -0.49783E+08
 
   -0.49651E+08         0.43859E+05         0.00000E+00
    0.43859E+05        -0.97597E+08         0.00000E+00
    0.00000E+00         0.00000E+00        -0.49769E+08
 
   -0.49630E+08         0.46302E+05         0.00000E+00
    0.46302E+05        -0.97597E+08         0.00000E+00
    0.00000E+00         0.00000E+00        -0.49755E+08
 
   -0.49608E+08         0.48873E+05         0.00000E+00
    0.48873E+05        -0.97597E+08         0.00000E+00
    0.00000E+00         0.00000E+00        -0.49740E+08
 
   -0.49584E+08         0.51580E+05         0.00000E+00
    0.51580E+05        -0.97597E+08         0.00000E+00
    0.00000E+00         0.00000E+00        -0.49724E+08
 
   -0.49560E+08         0.54432E+05         0.00000E+00
    0.54432E+05        -0.97597E+08         0.00000E+00
    0.00000E+00         0.00000E+00        -0.49707E+08
 
   -0.49534E+08         0.57439E+05         0.00000E+00
    0.57439E+05        -0.97597E+08         0.00000E+00
    0.00000E+00         0.00000E+00        -0.49690E+08
 
   -0.49507E+08         0.60609E+05         0.00000E+00
    0.60609E+05        -0.97597E+08         0.00000E+00
    0.00000E+00         0.00000E+00        -0.49671E+08
 
   -0.49478E+08         0.63951E+05         0.00000E+00
    0.63951E+05        -0.97596E+08         0.00000E+00
    0.00000E+00         0.00000E+00        -0.49652E+08
 
   -0.49447E+08         0.67477E+05         0.00000E+00
    0.67477E+05        -0.97596E+08         0.00000E+00
    0.00000E+00         0.00000E+00        -0.49631E+08
 
   -0.49415E+08         0.71195E+05         0.00000E+00
    0.71195E+05        -0.97596E+08         0.00000E+00
    0.00000E+00         0.00000E+00        -0.49609E+08
 
   -0.49381E+08         0.75117E+05         0.00000E+00
    0.75117E+05        -0.97596E+08         0.00000E+00
    0.00000E+00         0.00000E+00        -0.49586E+08
 
   -0.49345E+08         0.79252E+05         0.00000E+00
    0.79252E+05        -0.97595E+08         0.00000E+00
    0.00000E+00         0.00000E+00        -0.49562E+08
 
   -0.49308E+08         0.83611E+05         0.00000E+00
    0.83611E+05        -0.97595E+08         0.00000E+00
    0.00000E+00         0.00000E+00        -0.49536E+08
 
   -0.49268E+08         0.88206E+05         0.00000E+00
    0.88206E+05        -0.97595E+08         0.00000E+00
    0.00000E+00         0.00000E+00        -0.49509E+08
 
   -0.49226E+08         0.93049E+05         0.00000E+00
    0.93049E+05        -0.97595E+08         0.00000E+00
    0.00000E+00         0.00000E+00        -0.49480E+08
 
   -0.49182E+08         0.98152E+05         0.00000E+00
    0.98152E+05        -0.97594E+08         0.00000E+00
    0.00000E+00         0.00000E+00        -0.49450E+08
 
   -0.49135E+08         0.10353E+06         0.00000E+00
    0.10353E+06        -0.97594E+08         0.00000E+00
    0.00000E+00         0.00000E+00        -0.49418E+08
 
   -0.49086E+08         0.10918E+06         0.00000E+00
    0.10918E+06        -0.97594E+08         0.00000E+00
    0.00000E+00         0.00000E+00        -0.49385E+08
 
   -0.49034E+08         0.11514E+06         0.00000E+00
    0.11514E+06        -0.97593E+08         0.00000E+00
    0.00000E+00         0.00000E+00        -0.49349E+08
 
   -0.48979E+08         0.12141E+06         0.00000E+00
    0.12141E+06        -0.97593E+08         0.00000E+00
    0.00000E+00         0.00000E+00        -0.49311E+08
 
   -0.48921E+08         0.12800E+06         0.00000E+00
    0.12800E+06        -0.97593E+08         0.00000E+00
    0.00000E+00         0.00000E+00        -0.49271E+08
 
   -0.48860E+08         0.13493E+06         0.00000E+00
    0.13493E+06        -0.97592E+08         0.00000E+00
    0.00000E+00         0.00000E+00        -0.49229E+08
 
   -0.48796E+08         0.14220E+06         0.00000E+00
    0.14220E+06        -0.97592E+08         0.00000E+00
    0.00000E+00         0.00000E+00        -0.49185E+08
 
   -0.48729E+08         0.14985E+06         0.00000E+00
    0.14985E+06        -0.97592E+08         0.00000E+00
    0.00000E+00         0.00000E+00        -0.49138E+08
 
   -0.48657E+08         0.15786E+06         0.00000E+00
    0.15786E+06        -0.97591E+08         0.00000E+00
    0.00000E+00         0.00000E+00        -0.49088E+08
 
   -0.48582E+08         0.16627E+06         0.00000E+00
    0.16627E+06        -0.97591E+08         0.00000E+00
    0.00000E+00         0.00000E+00        -0.49035E+08
 
   -0.48503E+08         0.17509E+06         0.00000E+00
    0.17509E+06        -0.97590E+08         0.00000E+00
    0.00000E+00         0.00000E+00        -0.48980E+08
 
   -0.48420E+08         0.18431E+06         0.00000E+00
    0.18431E+06        -0.97590E+08         0.00000E+00
    0.00000E+00         0.00000E+00        -0.48921E+08
 
   -0.48333E+08         0.19396E+06         0.00000E+00
    0.19396E+06        -0.97589E+08         0.00000E+00
    0.00000E+00         0.00000E+00        -0.48859E+08
 
   -0.48241E+08         0.20405E+06         0.00000E+00
    0.20405E+06        -0.97589E+08         0.00000E+00
    0.00000E+00         0.00000E+00        -0.48793E+08
 
   -0.48144E+08         0.21458E+06         0.00000E+00
    0.21458E+06        -0.97588E+08         0.00000E+00
    0.00000E+00         0.00000E+00        -0.48723E+08
 
   -0.48042E+08         0.22555E+06         0.00000E+00
    0.22555E+06        -0.97588E+08         0.00000E+00
    0.00000E+00         0.00000E+00        -0.48649E+08
 
   -0.47935E+08         0.23698E+06         0.00000E+00
    0.23698E+06        -0.97587E+08         0.00000E+00
    0.00000E+00         0.00000E+00        -0.48571E+08
 
   -0.47823E+08         0.24886E+06         0.00000E+00
    0.24886E+06        -0.97587E+08         0.00000E+00
    0.00000E+00         0.00000E+00        -0.48489E+08
 
   -0.47706E+08         0.26119E+06         0.00000E+00
    0.26119E+06        -0.97586E+08         0.00000E+00
    0.00000E+00         0.00000E+00        -0.48402E+08
 
   -0.47582E+08         0.27395E+06         0.00000E+00
    0.27395E+06        -0.97586E+08         0.00000E+00
    0.00000E+00         0.00000E+00        -0.48309E+08
 
   -0.47453E+08         0.28714E+06         0.00000E+00
    0.28714E+06        -0.97586E+08         0.00000E+00
    0.00000E+00         0.00000E+00        -0.48212E+08
 
   -0.47317E+08         0.30073E+06         0.00000E+00
    0.30073E+06        -0.97585E+08         0.00000E+00
    0.00000E+00         0.00000E+00        -0.48108E+08
 
   -0.47175E+08         0.31470E+06         0.00000E+00
    0.31470E+06        -0.97585E+08         0.00000E+00
    0.00000E+00         0.00000E+00        -0.47999E+08
 
   -0.47027E+08         0.32899E+06         0.00000E+00
    0.32899E+06        -0.97584E+08         0.00000E+00
    0.00000E+00         0.00000E+00        -0.47883E+08
 
   -0.46872E+08         0.34356E+06         0.00000E+00
    0.34356E+06        -0.97584E+08         0.00000E+00
    0.00000E+00         0.00000E+00        -0.47760E+08
 
   -0.46711E+08         0.35834E+06         0.00000E+00
    0.35834E+06        -0.97584E+08         0.00000E+00
    0.00000E+00         0.00000E+00        -0.47630E+08
 
   -0.46543E+08         0.37323E+06         0.00000E+00
    0.37323E+06        -0.97584E+08         0.00000E+00
    0.00000E+00         0.00000E+00        -0.47493E+08
 
   -0.46368E+08         0.38813E+06         0.00000E+00
    0.38813E+06        -0.97584E+08         0.00000E+00
    0.00000E+00         0.00000E+00        -0.47347E+08
 
   -0.46186E+08         0.40290E+06         0.00000E+00
    0.40290E+06        -0.97584E+08         0.00000E+00
    0.00000E+00         0.00000E+00        -0.47192E+08
 
   -0.45998E+08         0.41737E+06         0.00000E+00
    0.41737E+06        -0.97584E+08         0.00000E+00
    0.00000E+00         0.00000E+00        -0.47029E+08
 
   -0.45804E+08         0.43133E+06         0.00000E+00
    0.43133E+06        -0.97585E+08         0.00000E+00
    0.00000E+00         0.00000E+00        -0.46855E+08
 
   -0.45603E+08         0.44453E+06         0.00000E+00
    0.44453E+06        -0.97586E+08         0.00000E+00
    0.00000E+00         0.00000E+00        -0.46671E+08
 
   -0.45397E+08         0.45668E+06         0.00000E+00
    0.45668E+06        -0.97587E+08         0.00000E+00
    0.00000E+00         0.00000E+00        -0.46476E+08
 
   -0.45186E+08         0.46740E+06         0.00000E+00
    0.46740E+06        -0.97589E+08         0.00000E+00
    0.00000E+00         0.00000E+00        -0.46270E+08
 
   -0.44970E+08         0.47628E+06         0.00000E+00
    0.47628E+06        -0.97591E+08         0.00000E+00
    0.00000E+00         0.00000E+00        -0.46050E+08
 
   -0.44750E+08         0.48279E+06         0.00000E+00
    0.48279E+06        -0.97594E+08         0.00000E+00
    0.00000E+00         0.00000E+00        -0.45818E+08
 
   -0.44528E+08         0.48636E+06         0.00000E+00
    0.48636E+06        -0.97598E+08         0.00000E+00
    0.00000E+00         0.00000E+00        -0.45571E+08
 
   -0.44304E+08         0.48630E+06         0.00000E+00
    0.48630E+06        -0.97602E+08         0.00000E+00
    0.00000E+00         0.00000E+00        -0.45309E+08
 
   -0.44081E+08         0.48182E+06         0.00000E+00
    0.48182E+06        -0.97608E+08         0.00000E+00
    0.00000E+00         0.00000E+00        -0.45031E+08
 
   -0.43860E+08         0.47204E+06         0.00000E+00
    0.47204E+06        -0.97614E+08         0.00000E+00
    0.00000E+00         0.00000E+00        -0.44735E+08
 
   -0.43643E+08         0.45600E+06         0.00000E+00
    0.45600E+06        -0.97622E+08         0.00000E+00
    0.00000E+00         0.00000E+00        -0.44421E+08
 
   -0.43432E+08         0.43263E+06         0.00000E+00
    0.43263E+06        -0.97631E+08         0.00000E+00
    0.00000E+00         0.00000E+00        -0.44088E+08
 
   -0.43231E+08         0.40083E+06         0.00000E+00
    0.40083E+06        -0.97641E+08         0.00000E+00
    0.00000E+00         0.00000E+00        -0.43733E+08
 
   -0.43042E+08         0.35950E+06         0.00000E+00
    0.35950E+06        -0.97653E+08         0.00000E+00
    0.00000E+00         0.00000E+00        -0.43356E+08
 
   -0.42868E+08         0.30758E+06         0.00000E+00
    0.30758E+06        -0.97666E+08         0.00000E+00
    0.00000E+00         0.00000E+00        -0.42954E+08
 
   -0.42713E+08         0.24419E+06         0.00000E+00
    0.24419E+06        -0.97680E+08         0.00000E+00
    0.00000E+00         0.00000E+00        -0.42527E+08
 
   -0.42581E+08         0.16879E+06         0.00000E+00
    0.16879E+06        -0.97695E+08         0.00000E+00
    0.00000E+00         0.00000E+00        -0.42072E+08
 
   -0.42474E+08         0.81326E+05         0.00000E+00
    0.81326E+05        -0.97710E+08         0.00000E+00
    0.00000E+00         0.00000E+00        -0.41587E+08
 
   -0.42394E+08        -0.17462E+05         0.00000E+00
   -0.17462E+05        -0.97725E+08         0.00000E+00
    0.00000E+00         0.00000E+00        -0.41070E+08
 
   -0.42345E+08        -0.12566E+06         0.00000E+00
   -0.12566E+06        -0.97737E+08         0.00000E+00
    0.00000E+00         0.00000E+00        -0.40519E+08
 
   -0.42323E+08        -0.23966E+06         0.00000E+00
   -0.23966E+06        -0.97745E+08         0.00000E+00
    0.00000E+00         0.00000E+00        -0.39931E+08
 
   -0.42328E+08        -0.35321E+06         0.00000E+00
   -0.35321E+06        -0.97747E+08         0.00000E+00
    0.00000E+00         0.00000E+00        -0.39303E+08
 
   -0.42348E+08        -0.45586E+06         0.00000E+00
   -0.45586E+06        -0.97737E+08         0.00000E+00
    0.00000E+00         0.00000E+00        -0.38633E+08
 
   -0.42369E+08        -0.52937E+06         0.00000E+00
   -0.52937E+06        -0.97707E+08         0.00000E+00
    0.00000E+00         0.00000E+00        -0.37916E+08
 
   -0.42367E+08        -0.53915E+06         0.00000E+00
   -0.53915E+06        -0.97630E+08         0.00000E+00
    0.00000E+00         0.00000E+00        -0.37150E+08
 
   -0.42328E+08        -0.42978E+06         0.00000E+00
   -0.42978E+06        -0.97431E+08         0.00000E+00
    0.00000E+00         0.00000E+00        -0.36331E+08
 
   -0.42280E+08        -0.16867E+06         0.00000E+00
   -0.16867E+06        -0.96946E+08         0.00000E+00
    0.00000E+00         0.00000E+00        -0.35453E+08
 
   -0.49895E+08        -0.74587E+03         0.00000E+00
   -0.74587E+03        -0.97603E+08         0.00000E+00
    0.00000E+00         0.00000E+00        -0.49997E+08
 
   -0.49894E+08        -0.16339E+04         0.00000E+00
   -0.16339E+04        -0.97600E+08         0.00000E+00
    0.00000E+00         0.00000E+00        -0.49990E+08
 
   -0.49893E+08        -0.13767E+04         0.00000E+00
   -0.13767E+04        -0.97599E+08         0.00000E+00
    0.00000E+00         0.00000E+00        -0.49984E+08
 
   -0.49892E+08        -0.29108E+03         0.00000E+00
   -0.29108E+03        -0.97598E+08         0.00000E+00
    0.00000E+00         0.00000E+00        -0.49978E+08
 
   -0.49890E+08         0.12034E+04         0.00000E+00
    0.12034E+04        -0.97598E+08         0.00000E+00
    0.00000E+00         0.00000E+00        -0.49971E+08
 
   -0.49888E+08         0.28809E+04         0.00000E+00
    0.28809E+04        -0.97598E+08         0.00000E+00
    0.00000E+00         0.00000E+00        -0.49965E+08
 
   -0.49885E+08         0.46321E+04         0.00000E+00
    0.46321E+04        -0.97598E+08         0.00000E+00
    0.00000E+00         0.00000E+00        -0.49959E+08
 
   -0.49882E+08         0.63969E+04         0.00000E+00
    0.63969E+04        -0.97598E+08         0.00000E+00
    0.00000E+00         0.00000E+00        -0.49952E+08
 
   -0.49877E+08         0.81410E+04         0.00000E+00
    0.81410E+04        -0.97598E+08         0.00000E+00
    0.00000E+00         0.00000E+00        -0.49946E+08
 
   -0.49872E+08         0.98463E+04         0.00000E+00
    0.98463E+04        -0.97598E+08         0.00000E+00
    0.00000E+00         0.00000E+00        -0.49939E+08
 
   -0.49866E+08         0.11505E+05         0.00000E+00
    0.11505E+05        -0.97598E+08         0.00000E+00
    0.00000E+00         0.00000E+00        -0.49933E+08
 
   -0.49860E+08         0.13117E+05         0.00000E+00
    0.13117E+05        -0.97598E+08         0.00000E+00
    0.00000E+00         0.00000E+00        -0.49926E+08
 
   -0.49853E+08         0.14685E+05         0.00000E+00
    0.14685E+05        -0.97598E+08         0.00000E+00
    0.00000E+00         0.00000E+00        -0.49918E+08
 
   -0.49845E+08         0.16219E+05         0.00000E+00
    0.16219E+05        -0.97599E+08         0.00000E+00
    0.00000E+00         0.00000E+00        -0.49911E+08
 
   -0.49836E+08         0.17726E+05         0.00000E+00
    0.17726E+05        -0.97599E+08         0.00000E+00
    0.00000E+00         0.00000E+00        -0.49904E+08
 
   -0.49826E+08         0.19219E+05         0.00000E+00
    0.19219E+05        -0.97599E+08         0.00000E+00
    0.00000E+00         0.00000E+00        -0.49896E+08
 
   -0.49816E+08         0.20708E+05         0.00000E+00
    0.20708E+05        -0.97599E+08         0.00000E+00
    0.00000E+00         0.00000E+00        -0.49888E+08
 
   -0.49805E+08         0.22203E+05         0.00000E+00
    0.22203E+05        -0.97599E+08         0.00000E+00
    0.00000E+00         0.00000E+00        -0.49879E+08
 
   -0.49793E+08         0.23718E+05         0.00000E+00
    0.23718E+05        -0.97599E+08         0.00000E+00
    0.00000E+00         0.00000E+00        -0.49870E+08
 
   -0.49781E+08         0.25261E+05         0.00000E+00
    0.25261E+05        -0.97598E+08         0.00000E+00
    0.00000E+00         0.00000E+00        -0.49861E+08
 
   -0.49767E+08         0.26843E+05         0.00000E+00
    0.26843E+05        -0.97598E+08         0.00000E+00
    0.00000E+00         0.00000E+00        -0.49851E+08
 
   -0.49753E+08         0.28474E+05         0.00000E+00
    0.28474E+05        -0.97598E+08         0.00000E+00
    0.00000E+00         0.00000E+00        -0.49841E+08
 
   -0.49738E+08         0.30164E+05         0.00000E+00
    0.30164E+05        -0.97598E+08         0.00000E+00
    0.00000E+00         0.00000E+00        -0.49831E+08
 
   -0.49722E+08         0.31920E+05         0.00000E+00
    0.31920E+05        -0.97598E+08         0.00000E+00
    0.00000E+00         0.00000E+00        -0.49819E+08
 
   -0.49705E+08         0.33752E+05         0.00000E+00
    0.33752E+05        -0.97598E+08         0.00000E+00
    0.00000E+00         0.00000E+00        -0.49808E+08
 
   -0.49687E+08         0.35668E+05         0.00000E+00
    0.35668E+05        -0.97598E+08         0.00000E+00
    0.00000E+00         0.00000E+00        -0.49795E+08
 
   -0.49669E+08         0.37676E+05         0.00000E+00
    0.37676E+05        -0.97598E+08         0.00000E+00
    0.00000E+00         0.00000E+00        -0.49783E+08
 
   -0.49649E+08         0.39784E+05         0.00000E+00
    0.39784E+05        -0.97598E+08         0.00000E+00
    0.00000E+00         0.00000E+00        -0.49769E+08
 
   -0.49628E+08         0.41999E+05         0.00000E+00
    0.41999E+05        -0.97598E+08         0.00000E+00
    0.00000E+00         0.00000E+00        -0.49755E+08
 
   -0.49605E+08         0.44331E+05         0.00000E+00
    0.44331E+05        -0.97598E+08         0.00000E+00
    0.00000E+00         0.00000E+00        -0.49740E+08
 
   -0.49582E+08         0.46786E+05         0.00000E+00
    0.46786E+05        -0.97598E+08         0.00000E+00
    0.00000E+00         0.00000E+00        -0.49724E+08
 
   -0.49557E+08         0.49373E+05         0.00000E+00
    0.49373E+05        -0.97597E+08         0.00000E+00
    0.00000E+00         0.00000E+00        -0.49707E+08
 
   -0.49531E+08         0.52100E+05         0.00000E+00
    0.52100E+05        -0.97597E+08         0.00000E+00
    0.00000E+00         0.00000E+00        -0.49690E+08
 
   -0.49504E+08         0.54975E+05         0.00000E+00
    0.54975E+05        -0.97597E+08         0.00000E+00
    0.00000E+00         0.00000E+00        -0.49671E+08
 
   -0.49475E+08         0.58007E+05         0.00000E+00
    0.58007E+05        -0.97597E+08         0.00000E+00
    0.00000E+00         0.00000E+00        -0.49652E+08
 
   -0.49444E+08         0.61205E+05         0.00000E+00
    0.61205E+05        -0.97597E+08         0.00000E+00
    0.00000E+00         0.00000E+00        -0.49631E+08
 
   -0.49412E+08         0.64578E+05         0.00000E+00
    0.64578E+05        -0.97597E+08         0.00000E+00
    0.00000E+00         0.00000E+00        -0.49609E+08
 
   -0.49378E+08         0.68135E+05         0.00000E+00
    0.68135E+05        -0.97596E+08         0.00000E+00
    0.00000E+00         0.00000E+00        -0.49586E+08
 
   -0.49342E+08         0.71886E+05         0.00000E+00
    0.71886E+05        -0.97596E+08         0.00000E+00
    0.00000E+00         0.00000E+00        -0.49562E+08
 
   -0.49304E+08         0.75840E+05         0.00000E+00
    0.75840E+05        -0.97596E+08         0.00000E+00
    0.00000E+00         0.00000E+00        -0.49536E+08
 
   -0.49264E+08         0.80009E+05         0.00000E+00
    0.80009E+05        -0.97596E+08         0.00000E+00
    0.00000E+00         0.00000E+00        -0.49509E+08
 
   -0.49222E+08         0.84402E+05         0.00000E+00
    0.84402E+05        -0.97596E+08         0.00000E+00
    0.00000E+00         0.00000E+00        -0.49480E+08
 
   -0.49177E+08         0.89031E+05         0.00000E+00
    0.89031E+05        -0.97595E+08         0.00000E+00
    0.00000E+00         0.00000E+00        -0.49450E+08
 
   -0.49130E+08         0.93907E+05         0.00000E+00
    0.93907E+05        -0.97595E+08         0.00000E+00
    0.00000E+00         0.00000E+00        -0.49418E+08
 
   -0.49081E+08         0.99040E+05         0.00000E+00
    0.99040E+05        -0.97595E+08         0.00000E+00
    0.00000E+00         0.00000E+00        -0.49385E+08
 
   -0.49028E+08         0.10444E+06         0.00000E+00
    0.10444E+06        -0.97595E+08         0.00000E+00
    0.00000E+00         0.00000E+00        -0.49349E+08
 
   -0.48973E+08         0.11013E+06         0.00000E+00
    0.11013E+06        -0.97594E+08         0.00000E+00
    0.00000E+00         0.00000E+00        -0.49311E+08
 
   -0.48915E+08         0.11611E+06         0.00000E+00
    0.11611E+06        -0.97594E+08         0.00000E+00
    0.00000E+00         0.00000E+00        -0.49271E+08
 
   -0.48854E+08         0.12239E+06         0.00000E+00
    0.12239E+06        -0.97594E+08         0.00000E+00
    0.00000E+00         0.00000E+00        -0.49229E+08
 
   -0.48789E+08         0.12900E+06         0.00000E+00
    0.12900E+06        -0.97593E+08         0.00000E+00
    0.00000E+00         0.00000E+00        -0.49185E+08
 
   -0.48721E+08         0.13593E+06         0.00000E+00
    0.13593E+06        -0.97593E+08         0.00000E+00
    0.00000E+00         0.00000E+00        -0.49138E+08
 
   -0.48650E+08         0.14321E+06         0.00000E+00
    0.14321E+06        -0.97593E+08         0.00000E+00
    0.00000E+00         0.00000E+00        -0.49088E+08
 
   -0.48574E+08         0.15084E+06         0.00000E+00
    0.15084E+06        -0.97592E+08         0.00000E+00
    0.00000E+00         0.00000E+00        -0.49035E+08
 
   -0.48495E+08         0.15884E+06         0.00000E+00
    0.15884E+06        -0.97592E+08         0.00000E+00
    0.00000E+00         0.00000E+00        -0.48980E+08
 
   -0.48411E+08         0.16721E+06         0.00000E+00
    0.16721E+06        -0.97592E+08         0.00000E+00
    0.00000E+00         0.00000E+00        -0.48921E+08
 
   -0.48323E+08         0.17597E+06         0.00000E+00
    0.17597E+06        -0.97591E+08         0.00000E+00
    0.00000E+00         0.00000E+00        -0.48858E+08
 
   -0.48231E+08         0.18512E+06         0.00000E+00
    0.18512E+06        -0.97591E+08         0.00000E+00
    0.00000E+00         0.00000E+00        -0.48793E+08
 
   -0.48133E+08         0.19468E+06         0.00000E+00
    0.19468E+06        -0.97590E+08         0.00000E+00
    0.00000E+00         0.00000E+00        -0.48723E+08
 
   -0.48031E+08         0.20464E+06         0.00000E+00
    0.20464E+06        -0.97590E+08         0.00000E+00
    0.00000E+00         0.00000E+00        -0.48649E+08
 
   -0.47924E+08         0.21502E+06         0.00000E+00
    0.21502E+06        -0.97590E+08         0.00000E+00
    0.00000E+00         0.00000E+00        -0.48571E+08
 
   -0.47811E+08         0.22581E+06         0.00000E+00
    0.22581E+06        -0.97589E+08         0.00000E+00
    0.00000E+00         0.00000E+00        -0.48489E+08
 
   -0.47692E+08         0.23700E+06         0.00000E+00
    0.23700E+06        -0.97589E+08         0.00000E+00
    0.00000E+00         0.00000E+00        -0.48402E+08
 
   -0.47568E+08         0.24860E+06         0.00000E+00
    0.24860E+06        -0.97588E+08         0.00000E+00
    0.00000E+00         0.00000E+00        -0.48309E+08
 
   -0.47438E+08         0.26058E+06         0.00000E+00
    0.26058E+06        -0.97588E+08         0.00000E+00
    0.00000E+00         0.00000E+00        -0.48212E+08
 
   -0.47302E+08         0.27293E+06         0.00000E+00
    0.27293E+06        -0.97588E+08         0.00000E+00
    0.00000E+00         0.00000E+00        -0.48108E+08
 
   -0.47159E+08         0.28561E+06         0.00000E+00
    0.28561E+06        -0.97587E+08         0.00000E+00
    0.00000E+00         0.00000E+00        -0.47999E+08
 
   -0.47010E+08         0.29861E+06         0.00000E+00
    0.29861E+06        -0.97587E+08         0.00000E+00
    0.00000E+00         0.00000E+00        -0.47883E+08
 
   -0.46854E+08         0.31185E+06         0.00000E+00
    0.31185E+06        -0.97587E+08         0.00000E+00
    0.00000E+00         0.00000E+00        -0.47760E+08
 
   -0.46692E+08         0.32528E+06         0.00000E+00
    0.32528E+06        -0.97587E+08         0.00000E+00
    0.00000E+00         0.00000E+00        -0.47630E+08
 
   -0.46522E+08         0.33883E+06         0.00000E+00
    0.33883E+06        -0.97587E+08         0.00000E+00
    0.00000E+00         0.00000E+00        -0.47492E+08
 
   -0.46346E+08         0.35238E+06         0.00000E+00
    0.35238E+06        -0.97587E+08         0.00000E+00
    0.00000E+00         0.00000E+00        -0.47347E+08
 
   -0.46164E+08         0.36582E+06         0.00000E+00
    0.36582E+06        -0.97587E+08         0.00000E+00
    0.00000E+00         0.00000E+00        -0.47192E+08
 
   -0.45974E+08         0.37898E+06         0.00000E+00
    0.37898E+06        -0.97587E+08         0.00000E+00
    0.00000E+00         0.00000E+00        -0.47028E+08
 
   -0.45779E+08         0.39169E+06         0.00000E+00
    0.39169E+06        -0.97588E+08         0.00000E+00
    0.00000E+00         0.00000E+00        -0.46855E+08
 
   -0.45577E+08         0.40371E+06         0.00000E+00
    0.40371E+06        -0.97588E+08         0.00000E+00
    0.00000E+00         0.00000E+00        -0.46671E+08
 
   -0.45369E+08         0.41476E+06         0.00000E+00
    0.41476E+06        -0.97589E+08         0.00000E+00
    0.00000E+00         0.00000E+00        -0.46476E+08
 
   -0.45156E+08         0.42451E+06         0.00000E+00
    0.42451E+06        -0.97591E+08         0.00000E+00
    0.00000E+00         0.00000E+00        -0.46269E+08
 
   -0.44939E+08         0.43257E+06         0.00000E+00
    0.43257E+06        -0.97593E+08         0.00000E+00
    0.00000E+00         0.00000E+00        -0.46050E+08
 
   -0.44718E+08         0.43846E+06         0.00000E+00
    0.43846E+06        -0.97595E+08         0.00000E+00
    0.00000E+00         0.00000E+00        -0.45818E+08
 
   -0.44495E+08         0.44165E+06         0.00000E+00
    0.44165E+06        -0.97598E+08         0.00000E+00
    0.00000E+00         0.00000E+00        -0.45571E+08
 
   -0.44270E+08         0.44149E+06         0.00000E+00
    0.44149E+06        -0.97602E+08         0.00000E+00
    0.00000E+00         0.00000E+00        -0.45309E+08
 
   -0.44046E+08         0.43725E+06         0.00000E+00
    0.43725E+06        -0.97606E+08         0.00000E+00
    0.00000E+00         0.00000E+00        -0.45031E+08
 
   -0.43825E+08         0.42813E+06         0.00000E+00
    0.42813E+06        -0.97612E+08         0.00000E+00
    0.00000E+00         0.00000E+00        -0.44735E+08
 
   -0.43608E+08         0.41320E+06         0.00000E+00
    0.41320E+06        -0.97618E+08         0.00000E+00
    0.00000E+00         0.00000E+00        -0.44421E+08
 
   -0.43398E+08         0.39147E+06         0.00000E+00
    0.39147E+06        -0.97626E+08         0.00000E+00
    0.00000E+00         0.00000E+00        -0.44088E+08
 
   -0.43198E+08         0.36191E+06         0.00000E+00
    0.36191E+06        -0.97634E+08         0.00000E+00
    0.00000E+00         0.00000E+00        -0.43733E+08
 
   -0.43012E+08         0.32346E+06         0.00000E+00
    0.32346E+06        -0.97644E+08         0.00000E+00
    0.00000E+00         0.00000E+00        -0.43356E+08
 
   -0.42842E+08         0.27512E+06         0.00000E+00
    0.27512E+06        -0.97655E+08         0.00000E+00
    0.00000E+00         0.00000E+00        -0.42954E+08
 
   -0.42693E+08         0.21604E+06         0.00000E+00
    0.21604E+06        -0.97667E+08         0.00000E+00
    0.00000E+00         0.00000E+00        -0.42527E+08
 
   -0.42568E+08         0.14563E+06         0.00000E+00
    0.14563E+06        -0.97679E+08         0.00000E+00
    0.00000E+00         0.00000E+00        -0.42072E+08
 
   -0.42471E+08         0.63784E+05         0.00000E+00
    0.63784E+05        -0.97692E+08         0.00000E+00
    0.00000E+00         0.00000E+00        -0.41587E+08
 
   -0.42405E+08        -0.28921E+05         0.00000E+00
   -0.28921E+05        -0.97704E+08         0.00000E+00
    0.00000E+00         0.00000E+00        -0.41070E+08
 
   -0.42371E+08        -0.13087E+06         0.00000E+00
   -0.13087E+06        -0.97715E+08         0.00000E+00
    0.00000E+00         0.00000E+00        -0.40519E+08
 
   -0.42370E+08        -0.23894E+06         0.00000E+00
   -0.23894E+06        -0.97723E+08         0.00000E+00
    0.00000E+00         0.00000E+00        -0.39931E+08
 
   -0.42399E+08        -0.34771E+06         0.00000E+00
   -0.34771E+06        -0.97725E+08         0.00000E+00
    0.00000E+00         0.00000E+00        -0.39304E+08
 
   -0.42448E+08        -0.44797E+06         0.00000E+00
   -0.44797E+06        -0.97719E+08         0.00000E+00
    0.00000E+00         0.00000E+00        -0.38633E+08
 
   -0.42502E+08        -0.52348E+06         0.00000E+00
   -0.52348E+06        -0.97696E+08         0.00000E+00
    0.00000E+00         0.00000E+00        -0.37917E+08
 
   -0.42533E+08        -0.54129E+06         0.00000E+00
   -0.54129E+06        -0.97637E+08         0.00000E+00
    0.00000E+00         0.00000E+00        -0.37151E+08
 
   -0.42518E+08        -0.44076E+06         0.00000E+00
   -0.44076E+06        -0.97468E+08         0.00000E+00
    0.00000E+00         0.00000E+00        -0.36331E+08
 
   -0.42480E+08        -0.17594E+06         0.00000E+00
   -0.17594E+06        -0.97013E+08         0.00000E+00
    0.00000E+00         0.00000E+00        -0.35454E+08
 
   -0.49892E+08        -0.84313E+03         0.00000E+00
   -0.84313E+03        -0.97603E+08         0.00000E+00
    0.00000E+00         0.00000E+00        -0.49997E+08
 
   -0.49892E+08        -0.18345E+04         0.00000E+00
   -0.18345E+04        -0.97600E+08         0.00000E+00
    0.00000E+00         0.00000E+00        -0.49990E+08
 
   -0.49891E+08        -0.15915E+04         0.00000E+00
   -0.15915E+04        -0.97599E+08         0.00000E+00
    0.00000E+00         0.00000E+00        -0.49984E+08
 
   -0.49890E+08        -0.54439E+03         0.00000E+00
   -0.54439E+03        -0.97599E+08         0.00000E+00
    0.00000E+00         0.00000E+00        -0.49978E+08
 
   -0.49888E+08         0.85867E+03         0.00000E+00
    0.85867E+03        -0.97599E+08         0.00000E+00
    0.00000E+00         0.00000E+00        -0.49971E+08
 
   -0.49886E+08         0.24115E+04         0.00000E+00
    0.24115E+04        -0.97599E+08         0.00000E+00
    0.00000E+00         0.00000E+00        -0.49965E+08
 
   -0.49884E+08         0.40202E+04         0.00000E+00
    0.40202E+04        -0.97599E+08         0.00000E+00
    0.00000E+00         0.00000E+00        -0.49959E+08
 
   -0.49880E+08         0.56333E+04         0.00000E+00
    0.56333E+04        -0.97599E+08         0.00000E+00
    0.00000E+00         0.00000E+00        -0.49952E+08
 
   -0.49876E+08         0.72220E+04         0.00000E+00
    0.72220E+04        -0.97599E+08         0.00000E+00
    0.00000E+00         0.00000E+00        -0.49946E+08
 
   -0.49871E+08         0.87711E+04         0.00000E+00
    0.87711E+04        -0.97599E+08         0.00000E+00
    0.00000E+00         0.00000E+00        -0.49939E+08
 
   -0.49866E+08         0.10275E+05         0.00000E+00
    0.10275E+05        -0.97599E+08         0.00000E+00
    0.00000E+00         0.00000E+00        -0.49933E+08
 
   -0.49859E+08         0.11733E+05         0.00000E+00
    0.11733E+05        -0.97599E+08         0.00000E+00
    0.00000E+00         0.00000E+00        -0.49926E+08
 
   -0.49852E+08         0.13149E+05         0.00000E+00
    0.13149E+05        -0.97599E+08         0.00000E+00
    0.00000E+00         0.00000E+00        -0.49918E+08
 
   -0.49844E+08         0.14532E+05         0.00000E+00
    0.14532E+05        -0.97599E+08         0.00000E+00
    0.00000E+00         0.00000E+00        -0.49911E+08
 
   -0.49835E+08         0.15890E+05         0.00000E+00
    0.15890E+05        -0.97599E+08         0.00000E+00
    0.00000E+00         0.00000E+00        -0.49904E+08
 
   -0.49825E+08         0.17233E+05         0.00000E+00
    0.17233E+05        -0.97599E+08         0.00000E+00
    0.00000E+00         0.00000E+00        -0.49896E+08
 
   -0.49815E+08         0.18572E+05         0.00000E+00
    0.18572E+05        -0.97599E+08         0.00000E+00
    0.00000E+00         0.00000E+00        -0.49887E+08
 
   -0.49804E+08         0.19916E+05         0.00000E+00
    0.19916E+05        -0.97599E+08         0.00000E+00
    0.00000E+00         0.00000E+00        -0.49879E+08
 
   -0.49792E+08         0.21275E+05         0.00000E+00
    0.21275E+05        -0.97599E+08         0.00000E+00
    0.00000E+00         0.00000E+00        -0.49870E+08
 
   -0.49779E+08         0.22660E+05         0.00000E+00
    0.22660E+05        -0.97599E+08         0.00000E+00
    0.00000E+00         0.00000E+00        -0.49861E+08
 
   -0.49766E+08         0.24080E+05         0.00000E+00
    0.24080E+05        -0.97599E+08         0.00000E+00
    0.00000E+00         0.00000E+00        -0.49851E+08
 
   -0.49752E+08         0.25543E+05         0.00000E+00
    0.25543E+05        -0.97599E+08         0.00000E+00
    0.00000E+00         0.00000E+00        -0.49841E+08
 
   -0.49737E+08         0.27059E+05         0.00000E+00
    0.27059E+05        -0.97599E+08         0.00000E+00
    0.00000E+00         0.00000E+00        -0.49830E+08
 
   -0.49721E+08         0.28634E+05         0.00000E+00
    0.28634E+05        -0.97599E+08         0.00000E+00
    0.00000E+00         0.00000E+00        -0.49819E+08
 
   -0.49704E+08         0.30277E+05         0.00000E+00
    0.30277E+05        -0.97599E+08         0.00000E+00
    0.00000E+00         0.00000E+00        -0.49808E+08
 
   -0.49686E+08         0.31995E+05         0.00000E+00
    0.31995E+05        -0.97598E+08         0.00000E+00
    0.00000E+00         0.00000E+00        -0.49795E+08
 
   -0.49667E+08         0.33795E+05         0.00000E+00
    0.33795E+05        -0.97598E+08         0.00000E+00
    0.00000E+00         0.00000E+00        -0.49783E+08
 
   -0.49647E+08         0.35686E+05         0.00000E+00
    0.35686E+05        -0.97598E+08         0.00000E+00
    0.00000E+00         0.00000E+00        -0.49769E+08
 
   -0.49626E+08         0.37673E+05         0.00000E+00
    0.37673E+05        -0.97598E+08         0.00000E+00
    0.00000E+00         0.00000E+00        -0.49755E+08
 
   -0.49603E+08         0.39764E+05         0.00000E+00
    0.39764E+05        -0.97598E+08         0.00000E+00
    0.00000E+00         0.00000E+00        -0.49740E+08
 
   -0.49580E+08         0.41966E+05         0.00000E+00
    0.41966E+05        -0.97598E+08         0.00000E+00
    0.00000E+00         0.00000E+00        -0.49724E+08
 
   -0.49555E+08         0.44286E+05         0.00000E+00
    0.44286E+05        -0.97598E+08         0.00000E+00
    0.00000E+00         0.00000E+00        -0.49707E+08
 
   -0.49529E+08         0.46732E+05         0.00000E+00
    0.46732E+05        -0.97598E+08         0.00000E+00
    0.00000E+00         0.00000E+00        -0.49690E+08
 
   -0.49501E+08         0.49311E+05         0.00000E+00
    0.49311E+05        -0.97598E+08         0.00000E+00
    0.00000E+00         0.00000E+00        -0.49671E+08
 
   -0.49472E+08         0.52030E+05         0.00000E+00
    0.52030E+05        -0.97598E+08         0.00000E+00
    0.00000E+00         0.00000E+00        -0.49651E+08
 
   -0.49441E+08         0.54899E+05         0.00000E+00
    0.54899E+05        -0.97597E+08         0.00000E+00
    0.00000E+00         0.00000E+00        -0.49631E+08
 
   -0.49409E+08         0.57924E+05         0.00000E+00
    0.57924E+05        -0.97597E+08         0.00000E+00
    0.00000E+00         0.00000E+00        -0.49609E+08
 
   -0.49374E+08         0.61115E+05         0.00000E+00
    0.61115E+05        -0.97597E+08         0.00000E+00
    0.00000E+00         0.00000E+00        -0.49586E+08
 
   -0.49338E+08         0.64479E+05         0.00000E+00
    0.64479E+05        -0.97597E+08         0.00000E+00
    0.00000E+00         0.00000E+00        -0.49562E+08
 
   -0.49300E+08         0.68027E+05         0.00000E+00
    0.68027E+05        -0.97597E+08         0.00000E+00
    0.00000E+00         0.00000E+00        -0.49536E+08
 
   -0.49260E+08         0.71766E+05         0.00000E+00
    0.71766E+05        -0.97597E+08         0.00000E+00
    0.00000E+00         0.00000E+00        -0.49509E+08
 
   -0.49217E+08         0.75707E+05         0.00000E+00
    0.75707E+05        -0.97596E+08         0.00000E+00
    0.00000E+00         0.00000E+00        -0.49480E+08
 
   -0.49173E+08         0.79860E+05         0.00000E+00
    0.79860E+05        -0.97596E+08         0.00000E+00
    0.00000E+00         0.00000E+00        -0.49450E+08
 
   -0.49125E+08         0.84234E+05         0.00000E+00
    0.84234E+05        -0.97596E+08         0.00000E+00
    0.00000E+00         0.00000E+00        -0.49418E+08
 
   -0.49076E+08         0.88839E+05         0.00000E+00
    0.88839E+05        -0.97596E+08         0.00000E+00
    0.00000E+00         0.00000E+00        -0.49384E+08
 
   -0.49023E+08         0.93687E+05         0.00000E+00
    0.93687E+05        -0.97596E+08         0.00000E+00
    0.00000E+00         0.00000E+00        -0.49349E+08
 
   -0.48968E+08         0.98788E+05         0.00000E+00
    0.98788E+05        -0.97595E+08         0.00000E+00
    0.00000E+00         0.00000E+00        -0.49311E+08
 
   -0.48909E+08         0.10415E+06         0.00000E+00
    0.10415E+06        -0.97595E+08         0.00000E+00
    0.00000E+00         0.00000E+00        -0.49271E+08
 
   -0.48848E+08         0.10979E+06         0.00000E+00
    0.10979E+06        -0.97595E+08         0.00000E+00
    0.00000E+00         0.00000E+00        -0.49229E+08
 
   -0.48783E+08         0.11572E+06         0.00000E+00
    0.11572E+06        -0.97595E+08         0.00000E+00
    0.00000E+00         0.00000E+00        -0.49185E+08
 
   -0.48714E+08         0.12194E+06         0.00000E+00
    0.12194E+06        -0.97594E+08         0.00000E+00
    0.00000E+00         0.00000E+00        -0.49138E+08
 
   -0.48642E+08         0.12847E+06         0.00000E+00
    0.12847E+06        -0.97594E+08         0.00000E+00
    0.00000E+00         0.00000E+00        -0.49088E+08
 
   -0.48567E+08         0.13532E+06         0.00000E+00
    0.13532E+06        -0.97594E+08         0.00000E+00
    0.00000E+00         0.00000E+00        -0.49035E+08
 
   -0.48487E+08         0.14249E+06         0.00000E+00
    0.14249E+06        -0.97594E+08         0.00000E+00
    0.00000E+00         0.00000E+00        -0.48980E+08
 
   -0.48403E+08         0.15001E+06         0.00000E+00
    0.15001E+06        -0.97593E+08         0.00000E+00
    0.00000E+00         0.00000E+00        -0.48921E+08
 
   -0.48314E+08         0.15787E+06         0.00000E+00
    0.15787E+06        -0.97593E+08         0.00000E+00
    0.00000E+00         0.00000E+00        -0.48858E+08
 
   -0.48221E+08         0.16609E+06         0.00000E+00
    0.16609E+06        -0.97593E+08         0.00000E+00
    0.00000E+00         0.00000E+00        -0.48793E+08
 
   -0.48123E+08         0.17467E+06         0.00000E+00
    0.17467E+06        -0.97592E+08         0.00000E+00
    0.00000E+00         0.00000E+00        -0.48723E+08
 
   -0.48020E+08         0.18361E+06         0.00000E+00
    0.18361E+06        -0.97592E+08         0.00000E+00
    0.00000E+00         0.00000E+00        -0.48649E+08
 
   -0.47912E+08         0.19293E+06         0.00000E+00
    0.19293E+06        -0.97592E+08         0.00000E+00
    0.00000E+00         0.00000E+00        -0.48571E+08
 
   -0.47799E+08         0.20262E+06         0.00000E+00
    0.20262E+06        -0.97591E+08         0.00000E+00
    0.00000E+00         0.00000E+00        -0.48489E+08
 
   -0.47679E+08         0.21267E+06         0.00000E+00
    0.21267E+06        -0.97591E+08         0.00000E+00
    0.00000E+00         0.00000E+00        -0.48402E+08
 
   -0.47554E+08         0.22308E+06         0.00000E+00
    0.22308E+06        -0.97591E+08         0.00000E+00
    0.00000E+00         0.00000E+00        -0.48309E+08
 
   -0.47424E+08         0.23385E+06         0.00000E+00
    0.23385E+06        -0.97590E+08         0.00000E+00
    0.00000E+00         0.00000E+00        -0.48211E+08
 
   -0.47286E+08         0.24494E+06         0.00000E+00
    0.24494E+06        -0.97590E+08         0.00000E+00
    0.00000E+00         0.00000E+00        -0.48108E+08
 
   -0.47143E+08         0.25635E+06         0.00000E+00
    0.25635E+06        -0.97590E+08         0.00000E+00
    0.00000E+00         0.00000E+00        -0.47998E+08
 
   -0.46993E+08         0.26803E+06         0.00000E+00
    0.26803E+06        -0.97590E+08         0.00000E+00
    0.00000E+00         0.00000E+00        -0.47883E+08
 
   -0.46836E+08         0.27993E+06         0.00000E+00
    0.27993E+06        -0.97589E+08         0.00000E+00
    0.00000E+00         0.00000E+00        -0.47760E+08
 
   -0.46672E+08         0.29202E+06         0.00000E+00
    0.29202E+06        -0.97589E+08         0.00000E+00
    0.00000E+00         0.00000E+00        -0.47630E+08
 
   -0.46502E+08         0.30420E+06         0.00000E+00
    0.30420E+06        -0.97589E+08         0.00000E+00
    0.00000E+00         0.00000E+00        -0.47492E+08
 
   -0.46325E+08         0.31640E+06         0.00000E+00
    0.31640E+06        -0.97589E+08         0.00000E+00
    0.00000E+00         0.00000E+00        -0.47346E+08
 
   -0.46141E+08         0.32849E+06         0.00000E+00
    0.32849E+06        -0.97589E+08         0.00000E+00
    0.00000E+00         0.00000E+00        -0.47192E+08
 
   -0.45950E+08         0.34034E+06         0.00000E+00
    0.34034E+06        -0.97590E+08         0.00000E+00
    0.00000E+00         0.00000E+00        -0.47028E+08
 
   -0.45753E+08         0.35179E+06         0.00000E+00
    0.35179E+06        -0.97590E+08         0.00000E+00
    0.00000E+00         0.00000E+00        -0.46855E+08
 
   -0.45550E+08         0.36261E+06         0.00000E+00
    0.36261E+06        -0.97591E+08         0.00000E+00
    0.00000E+00         0.00000E+00        -0.46671E+08
 
   -0.45341E+08         0.37256E+06         0.00000E+00
    0.37256E+06        -0.97591E+08         0.00000E+00
    0.00000E+00         0.00000E+00        -0.46476E+08
 
   -0.45127E+08         0.38134E+06         0.00000E+00
    0.38134E+06        -0.97593E+08         0.00000E+00
    0.00000E+00         0.00000E+00        -0.46269E+08
 
   -0.44908E+08         0.38859E+06         0.00000E+00
    0.38859E+06        -0.97594E+08         0.00000E+00
    0.00000E+00         0.00000E+00        -0.46050E+08
 
   -0.44686E+08         0.39388E+06         0.00000E+00
    0.39388E+06        -0.97596E+08         0.00000E+00
    0.00000E+00         0.00000E+00        -0.45817E+08
 
   -0.44461E+08         0.39670E+06         0.00000E+00
    0.39670E+06        -0.97598E+08         0.00000E+00
    0.00000E+00         0.00000E+00        -0.45571E+08
 
   -0.44236E+08         0.39648E+06         0.00000E+00
    0.39648E+06        -0.97601E+08         0.00000E+00
    0.00000E+00         0.00000E+00        -0.45309E+08
 
   -0.44011E+08         0.39256E+06         0.00000E+00
    0.39256E+06        -0.97605E+08         0.00000E+00
    0.00000E+00         0.00000E+00        -0.45030E+08
 
   -0.43789E+08         0.38416E+06         0.00000E+00
    0.38416E+06        -0.97609E+08         0.00000E+00
    0.00000E+00         0.00000E+00        -0.44735E+08
 
   -0.43571E+08         0.37045E+06         0.00000E+00
    0.37045E+06        -0.97615E+08         0.00000E+00
    0.00000E+00         0.00000E+00        -0.44421E+08
 
   -0.43362E+08         0.35051E+06         0.00000E+00
    0.35051E+06        -0.97621E+08         0.00000E+00
    0.00000E+00         0.00000E+00        -0.44087E+08
 
   -0.43164E+08         0.32337E+06         0.00000E+00
    0.32337E+06        -0.97628E+08         0.00000E+00
    0.00000E+00         0.00000E+00        -0.43733E+08
 
   -0.42979E+08         0.28805E+06         0.00000E+00
    0.28805E+06        -0.97636E+08         0.00000E+00
    0.00000E+00         0.00000E+00        -0.43355E+08
 
   -0.42813E+08         0.24359E+06         0.00000E+00
    0.24359E+06        -0.97645E+08         0.00000E+00
    0.00000E+00         0.00000E+00        -0.42954E+08
 
   -0.42670E+08         0.18916E+06         0.00000E+00
    0.18916E+06        -0.97654E+08         0.00000E+00
    0.00000E+00         0.00000E+00        -0.42527E+08
 
   -0.42552E+08         0.12420E+06         0.00000E+00
    0.12420E+06        -0.97665E+08         0.00000E+00
    0.00000E+00         0.00000E+00        -0.42072E+08
 
   -0.42465E+08         0.48510E+05         0.00000E+00
    0.48510E+05        -0.97675E+08         0.00000E+00
    0.00000E+00         0.00000E+00        -0.41587E+08
 
   -0.42411E+08        -0.37479E+05         0.00000E+00
   -0.37479E+05        -0.97686E+08         0.00000E+00
    0.00000E+00         0.00000E+00        -0.41070E+08
 
   -0.42394E+08        -0.13244E+06         0.00000E+00
   -0.13244E+06        -0.97695E+08         0.00000E+00
    0.00000E+00         0.00000E+00        -0.40519E+08
 
   -0.42414E+08        -0.23374E+06         0.00000E+00
   -0.23374E+06        -0.97701E+08         0.00000E+00
    0.00000E+00         0.00000E+00        -0.39931E+08
 
   -0.42467E+08        -0.33677E+06         0.00000E+00
   -0.33677E+06        -0.97704E+08         0.00000E+00
    0.00000E+00         0.00000E+00        -0.39304E+08
 
   -0.42547E+08        -0.43363E+06         0.00000E+00
   -0.43363E+06        -0.97701E+08         0.00000E+00
    0.00000E+00         0.00000E+00        -0.38634E+08
 
   -0.42637E+08        -0.51032E+06         0.00000E+00
   -0.51032E+06        -0.97685E+08         0.00000E+00
    0.00000E+00         0.00000E+00        -0.37917E+08
 
   -0.42705E+08        -0.53675E+06         0.00000E+00
   -0.53675E+06        -0.97641E+08         0.00000E+00
    0.00000E+00         0.00000E+00        -0.37151E+08
 
   -0.42720E+08        -0.44828E+06         0.00000E+00
   -0.44828E+06        -0.97503E+08         0.00000E+00
    0.00000E+00         0.00000E+00        -0.36332E+08
 
   -0.42694E+08        -0.18277E+06         0.00000E+00
   -0.18277E+06        -0.97081E+08         0.00000E+00
    0.00000E+00         0.00000E+00        -0.35454E+08
 
   -0.49890E+08        -0.93648E+03         0.00000E+00
   -0.93648E+03        -0.97603E+08         0.00000E+00
    0.00000E+00         0.00000E+00        -0.49997E+08
 
   -0.49889E+08        -0.20044E+04         0.00000E+00
   -0.20044E+04        -0.97600E+08         0.00000E+00
    0.00000E+00         0.00000E+00        -0.49990E+08
 
   -0.49889E+08        -0.17520E+04         0.00000E+00
   -0.17520E+04        -0.97599E+08         0.00000E+00
    0.00000E+00         0.00000E+00        -0.49984E+08
 
   -0.49888E+08        -0.74368E+03         0.00000E+00
   -0.74368E+03        -0.97599E+08         0.00000E+00
    0.00000E+00         0.00000E+00        -0.49978E+08
 
   -0.49887E+08         0.55886E+03         0.00000E+00
    0.55886E+03        -0.97599E+08         0.00000E+00
    0.00000E+00         0.00000E+00        -0.49971E+08
 
   -0.49885E+08         0.19782E+04         0.00000E+00
    0.19782E+04        -0.97599E+08         0.00000E+00
    0.00000E+00         0.00000E+00        -0.49965E+08
 
   -0.49883E+08         0.34365E+04         0.00000E+00
    0.34365E+04        -0.97599E+08         0.00000E+00
    0.00000E+00         0.00000E+00        -0.49959E+08
 
   -0.49879E+08         0.48910E+04         0.00000E+00
    0.48910E+04        -0.97599E+08         0.00000E+00
    0.00000E+00         0.00000E+00        -0.49952E+08
 
   -0.49875E+08         0.63183E+04         0.00000E+00
    0.63183E+04        -0.97599E+08         0.00000E+00
    0.00000E+00         0.00000E+00        -0.49946E+08
 
   -0.49870E+08         0.77061E+04         0.00000E+00
    0.77061E+04        -0.97599E+08         0.00000E+00
    0.00000E+00         0.00000E+00        -0.49939E+08
 
   -0.49865E+08         0.90500E+04         0.00000E+00
    0.90500E+04        -0.97599E+08         0.00000E+00
    0.00000E+00         0.00000E+00        -0.49933E+08
 
   -0.49858E+08         0.10351E+05         0.00000E+00
    0.10351E+05        -0.97599E+08         0.00000E+00
    0.00000E+00         0.00000E+00        -0.49926E+08
 
   -0.49851E+08         0.11612E+05         0.00000E+00
    0.11612E+05        -0.97599E+08         0.00000E+00
    0.00000E+00         0.00000E+00        -0.49918E+08
 
   -0.49843E+08         0.12842E+05         0.00000E+00
    0.12842E+05        -0.97599E+08         0.00000E+00
    0.00000E+00         0.00000E+00        -0.49911E+08
 
   -0.49834E+08         0.14048E+05         0.00000E+00
    0.14048E+05        -0.97599E+08         0.00000E+00
    0.00000E+00         0.00000E+00        -0.49904E+08
 
   -0.49824E+08         0.15240E+05         0.00000E+00
    0.15240E+05        -0.97599E+08         0.00000E+00
    0.00000E+00         0.00000E+00        -0.49896E+08
 
   -0.49814E+08         0.16426E+05         0.00000E+00
    0.16426E+05        -0.97599E+08         0.00000E+00
    0.00000E+00         0.00000E+00        -0.49887E+08
 
   -0.49803E+08         0.17617E+05         0.00000E+00
    0.17617E+05        -0.97599E+08         0.00000E+00
    0.00000E+00         0.00000E+00        -0.49879E+08
 
   -0.49791E+08         0.18820E+05         0.00000E+00
    0.18820E+05        -0.97599E+08         0.00000E+00
    0.00000E+00         0.00000E+00        -0.49870E+08
 
   -0.49778E+08         0.20046E+05         0.00000E+00
    0.20046E+05        -0.97599E+08         0.00000E+00
    0.00000E+00         0.00000E+00        -0.49861E+08
 
   -0.49765E+08         0.21302E+05         0.00000E+00
    0.21302E+05        -0.97599E+08         0.00000E+00
    0.00000E+00         0.00000E+00        -0.49851E+08
 
   -0.49750E+08         0.22596E+05         0.00000E+00
    0.22596E+05        -0.97599E+08         0.00000E+00
    0.00000E+00         0.00000E+00        -0.49841E+08
 
   -0.49735E+08         0.23936E+05         0.00000E+00
    0.23936E+05        -0.97599E+08         0.00000E+00
    0.00000E+00         0.00000E+00        -0.49830E+08
 
   -0.49719E+08         0.25329E+05         0.00000E+00
    0.25329E+05        -0.97599E+08         0.00000E+00
    0.00000E+00         0.00000E+00        -0.49819E+08
 
   -0.49702E+08         0.26782E+05         0.00000E+00
    0.26782E+05        -0.97599E+08         0.00000E+00
    0.00000E+00         0.00000E+00        -0.49808E+08
 
   -0.49684E+08         0.28302E+05         0.00000E+00
    0.28302E+05        -0.97599E+08         0.00000E+00
    0.00000E+00         0.00000E+00        -0.49795E+08
 
   -0.49665E+08         0.29894E+05         0.00000E+00
    0.29894E+05        -0.97599E+08         0.00000E+00
    0.00000E+00         0.00000E+00        -0.49783E+08
 
   -0.49645E+08         0.31566E+05         0.00000E+00
    0.31566E+05        -0.97599E+08         0.00000E+00
    0.00000E+00         0.00000E+00        -0.49769E+08
 
   -0.49624E+08         0.33323E+05         0.00000E+00
    0.33323E+05        -0.97599E+08         0.00000E+00
    0.00000E+00         0.00000E+00        -0.49755E+08
 
   -0.49601E+08         0.35172E+05         0.00000E+00
    0.35172E+05        -0.97599E+08         0.00000E+00
    0.00000E+00         0.00000E+00        -0.49740E+08
 
   -0.49578E+08         0.37120E+05         0.00000E+00
    0.37120E+05        -0.97598E+08         0.00000E+00
    0.00000E+00         0.00000E+00        -0.49724E+08
 
   -0.49553E+08         0.39172E+05         0.00000E+00
    0.39172E+05        -0.97598E+08         0.00000E+00
    0.00000E+00         0.00000E+00        -0.49707E+08
 
   -0.49526E+08         0.41335E+05         0.00000E+00
    0.41335E+05        -0.97598E+08         0.00000E+00
    0.00000E+00         0.00000E+00        -0.49690E+08
 
   -0.49499E+08         0.43616E+05         0.00000E+00
    0.43616E+05        -0.97598E+08         0.00000E+00
    0.00000E+00         0.00000E+00        -0.49671E+08
 
   -0.49469E+08         0.46021E+05         0.00000E+00
    0.46021E+05        -0.97598E+08         0.00000E+00
    0.00000E+00         0.00000E+00        -0.49651E+08
 
   -0.49438E+08         0.48558E+05         0.00000E+00
    0.48558E+05        -0.97598E+08         0.00000E+00
    0.00000E+00         0.00000E+00        -0.49631E+08
 
   -0.49406E+08         0.51234E+05         0.00000E+00
    0.51234E+05        -0.97598E+08         0.00000E+00
    0.00000E+00         0.00000E+00        -0.49609E+08
 
   -0.49371E+08         0.54057E+05         0.00000E+00
    0.54057E+05        -0.97598E+08         0.00000E+00
    0.00000E+00         0.00000E+00        -0.49586E+08
 
   -0.49335E+08         0.57033E+05         0.00000E+00
    0.57033E+05        -0.97598E+08         0.00000E+00
    0.00000E+00         0.00000E+00        -0.49562E+08
 
   -0.49296E+08         0.60171E+05         0.00000E+00
    0.60171E+05        -0.97598E+08         0.00000E+00
    0.00000E+00         0.00000E+00        -0.49536E+08
 
   -0.49256E+08         0.63479E+05         0.00000E+00
    0.63479E+05        -0.97597E+08         0.00000E+00
    0.00000E+00         0.00000E+00        -0.49509E+08
 
   -0.49213E+08         0.66965E+05         0.00000E+00
    0.66965E+05        -0.97597E+08         0.00000E+00
    0.00000E+00         0.00000E+00        -0.49480E+08
 
   -0.49168E+08         0.70639E+05         0.00000E+00
    0.70639E+05        -0.97597E+08         0.00000E+00
    0.00000E+00         0.00000E+00        -0.49450E+08
 
   -0.49121E+08         0.74508E+05         0.00000E+00
    0.74508E+05        -0.97597E+08         0.00000E+00
    0.00000E+00         0.00000E+00        -0.49418E+08
 
   -0.49071E+08         0.78583E+05         0.00000E+00
    0.78583E+05        -0.97597E+08         0.00000E+00
    0.00000E+00         0.00000E+00        -0.49384E+08
 
   -0.49018E+08         0.82872E+05         0.00000E+00
    0.82872E+05        -0.97597E+08         0.00000E+00
    0.00000E+00         0.00000E+00        -0.49349E+08
 
   -0.48962E+08         0.87385E+05         0.00000E+00
    0.87385E+05        -0.97596E+08         0.00000E+00
    0.00000E+00         0.00000E+00        -0.49311E+08
 
   -0.48904E+08         0.92131E+05         0.00000E+00
    0.92131E+05        -0.97596E+08         0.00000E+00
    0.00000E+00         0.00000E+00        -0.49271E+08
 
   -0.48842E+08         0.97121E+05         0.00000E+00
    0.97121E+05        -0.97596E+08         0.00000E+00
    0.00000E+00         0.00000E+00        -0.49229E+08
 
   -0.48776E+08         0.10236E+06         0.00000E+00
    0.10236E+06        -0.97596E+08         0.00000E+00
    0.00000E+00         0.00000E+00        -0.49185E+08
 
   -0.48708E+08         0.10787E+06         0.00000E+00
    0.10787E+06        -0.97596E+08         0.00000E+00
    0.00000E+00         0.00000E+00        -0.49138E+08
 
   -0.48635E+08         0.11365E+06         0.00000E+00
    0.11365E+06        -0.97595E+08         0.00000E+00
    0.00000E+00         0.00000E+00        -0.49088E+08
 
   -0.48559E+08         0.11971E+06         0.00000E+00
    0.11971E+06        -0.97595E+08         0.00000E+00
    0.00000E+00         0.00000E+00        -0.49035E+08
 
   -0.48479E+08         0.12606E+06         0.00000E+00
    0.12606E+06        -0.97595E+08         0.00000E+00
    0.00000E+00         0.00000E+00        -0.48979E+08
 
   -0.48394E+08         0.13271E+06         0.00000E+00
    0.13271E+06        -0.97595E+08         0.00000E+00
    0.00000E+00         0.00000E+00        -0.48921E+08
 
   -0.48305E+08         0.13967E+06         0.00000E+00
    0.13967E+06        -0.97594E+08         0.00000E+00
    0.00000E+00         0.00000E+00        -0.48858E+08
 
   -0.48212E+08         0.14695E+06         0.00000E+00
    0.14695E+06        -0.97594E+08         0.00000E+00
    0.00000E+00         0.00000E+00        -0.48792E+08
 
   -0.48113E+08         0.15454E+06         0.00000E+00
    0.15454E+06        -0.97594E+08         0.00000E+00
    0.00000E+00         0.00000E+00        -0.48723E+08
 
   -0.48010E+08         0.16246E+06         0.00000E+00
    0.16246E+06        -0.97594E+08         0.00000E+00
    0.00000E+00         0.00000E+00        -0.48649E+08
 
   -0.47901E+08         0.17071E+06         0.00000E+00
    0.17071E+06        -0.97593E+08         0.00000E+00
    0.00000E+00         0.00000E+00        -0.48571E+08
 
   -0.47787E+08         0.17929E+06         0.00000E+00
    0.17929E+06        -0.97593E+08         0.00000E+00
    0.00000E+00         0.00000E+00        -0.48489E+08
 
   -0.47667E+08         0.18819E+06         0.00000E+00
    0.18819E+06        -0.97593E+08         0.00000E+00
    0.00000E+00         0.00000E+00        -0.48401E+08
 
   -0.47541E+08         0.19742E+06         0.00000E+00
    0.19742E+06        -0.97593E+08         0.00000E+00
    0.00000E+00         0.00000E+00        -0.48309E+08
 
   -0.47409E+08         0.20696E+06         0.00000E+00
    0.20696E+06        -0.97592E+08         0.00000E+00
    0.00000E+00         0.00000E+00        -0.48211E+08
 
   -0.47271E+08         0.21679E+06         0.00000E+00
    0.21679E+06        -0.97592E+08         0.00000E+00
    0.00000E+00         0.00000E+00        -0.48108E+08
 
   -0.47127E+08         0.22690E+06         0.00000E+00
    0.22690E+06        -0.97592E+08         0.00000E+00
    0.00000E+00         0.00000E+00        -0.47998E+08
 
   -0.46976E+08         0.23725E+06         0.00000E+00
    0.23725E+06        -0.97592E+08         0.00000E+00
    0.00000E+00         0.00000E+00        -0.47882E+08
 
   -0.46818E+08         0.24782E+06         0.00000E+00
    0.24782E+06        -0.97592E+08         0.00000E+00
    0.00000E+00         0.00000E+00        -0.47760E+08
 
   -0.46654E+08         0.25853E+06         0.00000E+00
    0.25853E+06        -0.97592E+08         0.00000E+00
    0.00000E+00         0.00000E+00        -0.47630E+08
 
   -0.46482E+08         0.26935E+06         0.00000E+00
    0.26935E+06        -0.97591E+08         0.00000E+00
    0.00000E+00         0.00000E+00        -0.47492E+08
 
   -0.46304E+08         0.28017E+06         0.00000E+00
    0.28017E+06        -0.97591E+08         0.00000E+00
    0.00000E+00         0.00000E+00        -0.47346E+08
 
   -0.46119E+08         0.29091E+06         0.00000E+00
    0.29091E+06        -0.97592E+08         0.00000E+00
    0.00000E+00         0.00000E+00        -0.47192E+08
 
   -0.45927E+08         0.30144E+06         0.00000E+00
    0.30144E+06        -0.97592E+08         0.00000E+00
    0.00000E+00         0.00000E+00        -0.47028E+08
 
   -0.45728E+08         0.31161E+06         0.00000E+00
    0.31161E+06        -0.97592E+08         0.00000E+00
    0.00000E+00         0.00000E+00        -0.46855E+08
 
   -0.45524E+08         0.32123E+06         0.00000E+00
    0.32123E+06        -0.97593E+08         0.00000E+00
    0.00000E+00         0.00000E+00        -0.46671E+08
 
   -0.45313E+08         0.33007E+06         0.00000E+00
    0.33007E+06        -0.97593E+08         0.00000E+00
    0.00000E+00         0.00000E+00        -0.46476E+08
 
   -0.45097E+08         0.33788E+06         0.00000E+00
    0.33788E+06        -0.97594E+08         0.00000E+00
    0.00000E+00         0.00000E+00        -0.46269E+08
 
   -0.44877E+08         0.34432E+06         0.00000E+00
    0.34432E+06        -0.97595E+08         0.00000E+00
    0.00000E+00         0.00000E+00        -0.46050E+08
 
   -0.44653E+08         0.34901E+06         0.00000E+00
    0.34901E+06        -0.97597E+08         0.00000E+00
    0.00000E+00         0.00000E+00        -0.45817E+08
 
   -0.44427E+08         0.35149E+06         0.00000E+00
    0.35149E+06        -0.97599E+08         0.00000E+00
    0.00000E+00         0.00000E+00        -0.45570E+08
 
   -0.44200E+08         0.35125E+06         0.00000E+00
    0.35125E+06        -0.97601E+08         0.00000E+00
    0.00000E+00         0.00000E+00        -0.45308E+08
 
   -0.43974E+08         0.34768E+06         0.00000E+00
    0.34768E+06        -0.97604E+08         0.00000E+00
    0.00000E+00         0.00000E+00        -0.45030E+08
 
   -0.43751E+08         0.34008E+06         0.00000E+00
    0.34008E+06        -0.97607E+08         0.00000E+00
    0.00000E+00         0.00000E+00        -0.44735E+08
 
   -0.43534E+08         0.32770E+06         0.00000E+00
    0.32770E+06        -0.97611E+08         0.00000E+00
    0.00000E+00         0.00000E+00        -0.44421E+08
 
   -0.43324E+08         0.30969E+06         0.00000E+00
    0.30969E+06        -0.97616E+08         0.00000E+00
    0.00000E+00         0.00000E+00        -0.44087E+08
 
   -0.43127E+08         0.28515E+06         0.00000E+00
    0.28515E+06        -0.97622E+08         0.00000E+00
    0.00000E+00         0.00000E+00        -0.43732E+08
 
   -0.42945E+08         0.25318E+06         0.00000E+00
    0.25318E+06        -0.97628E+08         0.00000E+00
    0.00000E+00         0.00000E+00        -0.43355E+08
 
   -0.42782E+08         0.21289E+06         0.00000E+00
    0.21289E+06        -0.97635E+08         0.00000E+00
    0.00000E+00         0.00000E+00        -0.42954E+08
 
   -0.42643E+08         0.16350E+06         0.00000E+00
    0.16350E+06        -0.97643E+08         0.00000E+00
    0.00000E+00         0.00000E+00        -0.42527E+08
 
   -0.42533E+08         0.10443E+06         0.00000E+00
    0.10443E+06        -0.97651E+08         0.00000E+00
    0.00000E+00         0.00000E+00        -0.42072E+08
 
   -0.42455E+08         0.35443E+05         0.00000E+00
    0.35443E+05        -0.97660E+08         0.00000E+00
    0.00000E+00         0.00000E+00        -0.41587E+08
 
   -0.42414E+08        -0.43174E+05         0.00000E+00
   -0.43174E+05        -0.97668E+08         0.00000E+00
    0.00000E+00         0.00000E+00        -0.41070E+08
 
   -0.42413E+08        -0.13037E+06         0.00000E+00
   -0.13037E+06        -0.97676E+08         0.00000E+00
    0.00000E+00         0.00000E+00        -0.40519E+08
 
   -0.42453E+08        -0.22398E+06         0.00000E+00
   -0.22398E+06        -0.97681E+08         0.00000E+00
    0.00000E+00         0.00000E+00        -0.39932E+08
 
   -0.42532E+08        -0.32021E+06         0.00000E+00
   -0.32021E+06        -0.97684E+08         0.00000E+00
    0.00000E+00         0.00000E+00        -0.39304E+08
 
   -0.42643E+08        -0.41247E+06         0.00000E+00
   -0.41247E+06        -0.97683E+08         0.00000E+00
    0.00000E+00         0.00000E+00        -0.38634E+08
 
   -0.42771E+08        -0.48912E+06         0.00000E+00
   -0.48912E+06        -0.97672E+08         0.00000E+00
    0.00000E+00         0.00000E+00        -0.37918E+08
 
   -0.42883E+08        -0.52423E+06         0.00000E+00
   -0.52423E+06        -0.97643E+08         0.00000E+00
    0.00000E+00         0.00000E+00        -0.37152E+08
 
   -0.42934E+08        -0.45125E+06         0.00000E+00
   -0.45125E+06        -0.97537E+08         0.00000E+00
    0.00000E+00         0.00000E+00        -0.36332E+08
 
   -0.42925E+08        -0.18899E+06         0.00000E+00
   -0.18899E+06        -0.97152E+08         0.00000E+00
    0.00000E+00         0.00000E+00        -0.35454E+08
 
   -0.49887E+08        -0.10241E+04         0.00000E+00
   -0.10241E+04        -0.97602E+08         0.00000E+00
    0.00000E+00         0.00000E+00        -0.49997E+08
 
   -0.49887E+08        -0.21330E+04         0.00000E+00
   -0.21330E+04        -0.97600E+08         0.00000E+00
    0.00000E+00         0.00000E+00        -0.49990E+08
 
   -0.49887E+08        -0.18476E+04         0.00000E+00
   -0.18476E+04        -0.97599E+08         0.00000E+00
    0.00000E+00         0.00000E+00        -0.49984E+08
 
   -0.49886E+08        -0.88363E+03         0.00000E+00
   -0.88363E+03        -0.97599E+08         0.00000E+00
    0.00000E+00         0.00000E+00        -0.49978E+08
 
   -0.49885E+08         0.30642E+03         0.00000E+00
    0.30642E+03        -0.97599E+08         0.00000E+00
    0.00000E+00         0.00000E+00        -0.49971E+08
 
   -0.49884E+08         0.15820E+04         0.00000E+00
    0.15820E+04        -0.97599E+08         0.00000E+00
    0.00000E+00         0.00000E+00        -0.49965E+08
 
   -0.49882E+08         0.28812E+04         0.00000E+00
    0.28812E+04        -0.97599E+08         0.00000E+00
    0.00000E+00         0.00000E+00        -0.49959E+08
 
   -0.49879E+08         0.41699E+04         0.00000E+00
    0.41699E+04        -0.97599E+08         0.00000E+00
    0.00000E+00         0.00000E+00        -0.49952E+08
 
   -0.49875E+08         0.54295E+04         0.00000E+00
    0.54295E+04        -0.97599E+08         0.00000E+00
    0.00000E+00         0.00000E+00        -0.49946E+08
 
   -0.49870E+08         0.66509E+04         0.00000E+00
    0.66509E+04        -0.97599E+08         0.00000E+00
    0.00000E+00         0.00000E+00        -0.49939E+08
 
   -0.49864E+08         0.78307E+04         0.00000E+00
    0.78307E+04        -0.97599E+08         0.00000E+00
    0.00000E+00         0.00000E+00        -0.49933E+08
 
   -0.49858E+08         0.89703E+04         0.00000E+00
    0.89703E+04        -0.97599E+08         0.00000E+00
    0.00000E+00         0.00000E+00        -0.49926E+08
 
   -0.49850E+08         0.10074E+05         0.00000E+00
    0.10074E+05        -0.97599E+08         0.00000E+00
    0.00000E+00         0.00000E+00        -0.49918E+08
 
   -0.49842E+08         0.11148E+05         0.00000E+00
    0.11148E+05        -0.97599E+08         0.00000E+00
    0.00000E+00         0.00000E+00        -0.49911E+08
 
   -0.49833E+08         0.12200E+05         0.00000E+00
    0.12200E+05        -0.97599E+08         0.00000E+00
    0.00000E+00         0.00000E+00        -0.49904E+08
 
   -0.49824E+08         0.13238E+05         0.00000E+00
    0.13238E+05        -0.97599E+08         0.00000E+00
    0.00000E+00         0.00000E+00        -0.49896E+08
 
   -0.49813E+08         0.14271E+05         0.00000E+00
    0.14271E+05        -0.97599E+08         0.00000E+00
    0.00000E+00         0.00000E+00        -0.49887E+08
 
   -0.49802E+08         0.15306E+05         0.00000E+00
    0.15306E+05        -0.97599E+08         0.00000E+00
    0.00000E+00         0.00000E+00        -0.49879E+08
 
   -0.49790E+08         0.16353E+05         0.00000E+00
    0.16353E+05        -0.97599E+08         0.00000E+00
    0.00000E+00         0.00000E+00        -0.49870E+08
 
   -0.49777E+08         0.17418E+05         0.00000E+00
    0.17418E+05        -0.97599E+08         0.00000E+00
    0.00000E+00         0.00000E+00        -0.49861E+08
 
   -0.49764E+08         0.18509E+05         0.00000E+00
    0.18509E+05        -0.97599E+08         0.00000E+00
    0.00000E+00         0.00000E+00        -0.49851E+08
 
   -0.49749E+08         0.19634E+05         0.00000E+00
    0.19634E+05        -0.97599E+08         0.00000E+00
    0.00000E+00         0.00000E+00        -0.49841E+08
 
   -0.49734E+08         0.20798E+05         0.00000E+00
    0.20798E+05        -0.97599E+08         0.00000E+00
    0.00000E+00         0.00000E+00        -0.49830E+08
 
   -0.49718E+08         0.22008E+05         0.00000E+00
    0.22008E+05        -0.97599E+08         0.00000E+00
    0.00000E+00         0.00000E+00        -0.49819E+08
 
   -0.49701E+08         0.23270E+05         0.00000E+00
    0.23270E+05        -0.97599E+08         0.00000E+00
    0.00000E+00         0.00000E+00        -0.49808E+08
 
   -0.49683E+08         0.24589E+05         0.00000E+00
    0.24589E+05        -0.97599E+08         0.00000E+00
    0.00000E+00         0.00000E+00        -0.49795E+08
 
   -0.49663E+08         0.25972E+05         0.00000E+00
    0.25972E+05        -0.97599E+08         0.00000E+00
    0.00000E+00         0.00000E+00        -0.49783E+08
 
   -0.49643E+08         0.27424E+05         0.00000E+00
    0.27424E+05        -0.97599E+08         0.00000E+00
    0.00000E+00         0.00000E+00        -0.49769E+08
 
   -0.49622E+08         0.28950E+05         0.00000E+00
    0.28950E+05        -0.97599E+08         0.00000E+00
    0.00000E+00         0.00000E+00        -0.49755E+08
 
   -0.49599E+08         0.30557E+05         0.00000E+00
    0.30557E+05        -0.97599E+08         0.00000E+00
    0.00000E+00         0.00000E+00        -0.49740E+08
 
   -0.49576E+08         0.32248E+05         0.00000E+00
    0.32248E+05        -0.97599E+08         0.00000E+00
    0.00000E+00         0.00000E+00        -0.49724E+08
 
   -0.49550E+08         0.34031E+05         0.00000E+00
    0.34031E+05        -0.97599E+08         0.00000E+00
    0.00000E+00         0.00000E+00        -0.49707E+08
 
   -0.49524E+08         0.35910E+05         0.00000E+00
    0.35910E+05        -0.97599E+08         0.00000E+00
    0.00000E+00         0.00000E+00        -0.49690E+08
 
   -0.49496E+08         0.37891E+05         0.00000E+00
    0.37891E+05        -0.97599E+08         0.00000E+00
    0.00000E+00         0.00000E+00        -0.49671E+08
 
   -0.49467E+08         0.39981E+05         0.00000E+00
    0.39981E+05        -0.97599E+08         0.00000E+00
    0.00000E+00         0.00000E+00        -0.49651E+08
 
   -0.49435E+08         0.42185E+05         0.00000E+00
    0.42185E+05        -0.97598E+08         0.00000E+00
    0.00000E+00         0.00000E+00        -0.49631E+08
 
   -0.49403E+08         0.44510E+05         0.00000E+00
    0.44510E+05        -0.97598E+08         0.00000E+00
    0.00000E+00         0.00000E+00        -0.49609E+08
 
   -0.49368E+08         0.46962E+05         0.00000E+00
    0.46962E+05        -0.97598E+08         0.00000E+00
    0.00000E+00         0.00000E+00        -0.49586E+08
 
   -0.49331E+08         0.49548E+05         0.00000E+00
    0.49548E+05        -0.97598E+08         0.00000E+00
    0.00000E+00         0.00000E+00        -0.49562E+08
 
   -0.49293E+08         0.52274E+05         0.00000E+00
    0.52274E+05        -0.97598E+08         0.00000E+00
    0.00000E+00         0.00000E+00        -0.49536E+08
 
   -0.49252E+08         0.55148E+05         0.00000E+00
    0.55148E+05        -0.97598E+08         0.00000E+00
    0.00000E+00         0.00000E+00        -0.49509E+08
 
   -0.49209E+08         0.58178E+05         0.00000E+00
    0.58178E+05        -0.97598E+08         0.00000E+00
    0.00000E+00         0.00000E+00        -0.49480E+08
 
   -0.49164E+08         0.61370E+05         0.00000E+00
    0.61370E+05        -0.97598E+08         0.00000E+00
    0.00000E+00         0.00000E+00        -0.49450E+08
 
   -0.49116E+08         0.64732E+05         0.00000E+00
    0.64732E+05        -0.97598E+08         0.00000E+00
    0.00000E+00         0.00000E+00        -0.49418E+08
 
   -0.49066E+08         0.68273E+05         0.00000E+00
    0.68273E+05        -0.97598E+08         0.00000E+00
    0.00000E+00         0.00000E+00        -0.49384E+08
 
   -0.49013E+08         0.72000E+05         0.00000E+00
    0.72000E+05        -0.97597E+08         0.00000E+00
    0.00000E+00         0.00000E+00        -0.49349E+08
 
   -0.48957E+08         0.75922E+05         0.00000E+00
    0.75922E+05        -0.97597E+08         0.00000E+00
    0.00000E+00         0.00000E+00        -0.49311E+08
 
   -0.48898E+08         0.80046E+05         0.00000E+00
    0.80046E+05        -0.97597E+08         0.00000E+00
    0.00000E+00         0.00000E+00        -0.49271E+08
 
   -0.48836E+08         0.84383E+05         0.00000E+00
    0.84383E+05        -0.97597E+08         0.00000E+00
    0.00000E+00         0.00000E+00        -0.49229E+08
 
   -0.48770E+08         0.88940E+05         0.00000E+00
    0.88940E+05        -0.97597E+08         0.00000E+00
    0.00000E+00         0.00000E+00        -0.49185E+08
 
   -0.48701E+08         0.93725E+05         0.00000E+00
    0.93725E+05        -0.97597E+08         0.00000E+00
    0.00000E+00         0.00000E+00        -0.49137E+08
 
   -0.48628E+08         0.98748E+05         0.00000E+00
    0.98748E+05        -0.97597E+08         0.00000E+00
    0.00000E+00         0.00000E+00        -0.49088E+08
 
   -0.48552E+08         0.10402E+06         0.00000E+00
    0.10402E+06        -0.97596E+08         0.00000E+00
    0.00000E+00         0.00000E+00        -0.49035E+08
 
   -0.48471E+08         0.10954E+06         0.00000E+00
    0.10954E+06        -0.97596E+08         0.00000E+00
    0.00000E+00         0.00000E+00        -0.48979E+08
 
   -0.48386E+08         0.11532E+06         0.00000E+00
    0.11532E+06        -0.97596E+08         0.00000E+00
    0.00000E+00         0.00000E+00        -0.48921E+08
 
   -0.48296E+08         0.12137E+06         0.00000E+00
    0.12137E+06        -0.97596E+08         0.00000E+00
    0.00000E+00         0.00000E+00        -0.48858E+08
 
   -0.48202E+08         0.12770E+06         0.00000E+00
    0.12770E+06        -0.97596E+08         0.00000E+00
    0.00000E+00         0.00000E+00        -0.48792E+08
 
   -0.48103E+08         0.13430E+06         0.00000E+00
    0.13430E+06        -0.97595E+08         0.00000E+00
    0.00000E+00         0.00000E+00        -0.48723E+08
 
   -0.47999E+08         0.14119E+06         0.00000E+00
    0.14119E+06        -0.97595E+08         0.00000E+00
    0.00000E+00         0.00000E+00        -0.48649E+08
 
   -0.47890E+08         0.14837E+06         0.00000E+00
    0.14837E+06        -0.97595E+08         0.00000E+00
    0.00000E+00         0.00000E+00        -0.48571E+08
 
   -0.47775E+08         0.15583E+06         0.00000E+00
    0.15583E+06        -0.97595E+08         0.00000E+00
    0.00000E+00         0.00000E+00        -0.48489E+08
 
   -0.47654E+08         0.16358E+06         0.00000E+00
    0.16358E+06        -0.97595E+08         0.00000E+00
    0.00000E+00         0.00000E+00        -0.48401E+08
 
   -0.47528E+08         0.17161E+06         0.00000E+00
    0.17161E+06        -0.97594E+08         0.00000E+00
    0.00000E+00         0.00000E+00        -0.48309E+08
 
   -0.47395E+08         0.17991E+06         0.00000E+00
    0.17991E+06        -0.97594E+08         0.00000E+00
    0.00000E+00         0.00000E+00        -0.48211E+08
 
   -0.47257E+08         0.18847E+06         0.00000E+00
    0.18847E+06        -0.97594E+08         0.00000E+00
    0.00000E+00         0.00000E+00        -0.48108E+08
 
   -0.47111E+08         0.19727E+06         0.00000E+00
    0.19727E+06        -0.97594E+08         0.00000E+00
    0.00000E+00         0.00000E+00        -0.47998E+08
 
   -0.46959E+08         0.20629E+06         0.00000E+00
    0.20629E+06        -0.97594E+08         0.00000E+00
    0.00000E+00         0.00000E+00        -0.47882E+08
 
   -0.46801E+08         0.21549E+06         0.00000E+00
    0.21549E+06        -0.97594E+08         0.00000E+00
    0.00000E+00         0.00000E+00        -0.47760E+08
 
   -0.46635E+08         0.22483E+06         0.00000E+00
    0.22483E+06        -0.97594E+08         0.00000E+00
    0.00000E+00         0.00000E+00        -0.47630E+08
 
   -0.46462E+08         0.23426E+06         0.00000E+00
    0.23426E+06        -0.97594E+08         0.00000E+00
    0.00000E+00         0.00000E+00        -0.47492E+08
 
   -0.46283E+08         0.24370E+06         0.00000E+00
    0.24370E+06        -0.97594E+08         0.00000E+00
    0.00000E+00         0.00000E+00        -0.47346E+08
 
   -0.46096E+08         0.25307E+06         0.00000E+00
    0.25307E+06        -0.97594E+08         0.00000E+00
    0.00000E+00         0.00000E+00        -0.47192E+08
 
   -0.45903E+08         0.26226E+06         0.00000E+00
    0.26226E+06        -0.97594E+08         0.00000E+00
    0.00000E+00         0.00000E+00        -0.47028E+08
 
   -0.45703E+08         0.27114E+06         0.00000E+00
    0.27114E+06        -0.97594E+08         0.00000E+00
    0.00000E+00         0.00000E+00        -0.46854E+08
 
   -0.45497E+08         0.27955E+06         0.00000E+00
    0.27955E+06        -0.97594E+08         0.00000E+00
    0.00000E+00         0.00000E+00        -0.46671E+08
 
   -0.45285E+08         0.28728E+06         0.00000E+00
    0.28728E+06        -0.97595E+08         0.00000E+00
    0.00000E+00         0.00000E+00        -0.46476E+08
 
   -0.45068E+08         0.29410E+06         0.00000E+00
    0.29410E+06        -0.97595E+08         0.00000E+00
    0.00000E+00         0.00000E+00        -0.46269E+08
 
   -0.44846E+08         0.29973E+06         0.00000E+00
    0.29973E+06        -0.97596E+08         0.00000E+00
    0.00000E+00         0.00000E+00        -0.46050E+08
 
   -0.44620E+08         0.30383E+06         0.00000E+00
    0.30383E+06        -0.97597E+08         0.00000E+00
    0.00000E+00         0.00000E+00        -0.45817E+08
 
   -0.44393E+08         0.30599E+06         0.00000E+00
    0.30599E+06        -0.97599E+08         0.00000E+00
    0.00000E+00         0.00000E+00        -0.45570E+08
 
   -0.44164E+08         0.30575E+06         0.00000E+00
    0.30575E+06        -0.97601E+08         0.00000E+00
    0.00000E+00         0.00000E+00        -0.45308E+08
 
   -0.43937E+08         0.30258E+06         0.00000E+00
    0.30258E+06        -0.97603E+08         0.00000E+00
    0.00000E+00         0.00000E+00        -0.45030E+08
 
   -0.43713E+08         0.29585E+06         0.00000E+00
    0.29585E+06        -0.97605E+08         0.00000E+00
    0.00000E+00         0.00000E+00        -0.44734E+08
 
   -0.43494E+08         0.28489E+06         0.00000E+00
    0.28489E+06        -0.97609E+08         0.00000E+00
    0.00000E+00         0.00000E+00        -0.44421E+08
 
   -0.43285E+08         0.26893E+06         0.00000E+00
    0.26893E+06        -0.97612E+08         0.00000E+00
    0.00000E+00         0.00000E+00        -0.44087E+08
 
   -0.43088E+08         0.24717E+06         0.00000E+00
    0.24717E+06        -0.97616E+08         0.00000E+00
    0.00000E+00         0.00000E+00        -0.43732E+08
 
   -0.42908E+08         0.21879E+06         0.00000E+00
    0.21879E+06        -0.97621E+08         0.00000E+00
    0.00000E+00         0.00000E+00        -0.43355E+08
 
   -0.42748E+08         0.18296E+06         0.00000E+00
    0.18296E+06        -0.97627E+08         0.00000E+00
    0.00000E+00         0.00000E+00        -0.42954E+08
 
   -0.42613E+08         0.13896E+06         0.00000E+00
    0.13896E+06        -0.97633E+08         0.00000E+00
    0.00000E+00         0.00000E+00        -0.42526E+08
 
   -0.42509E+08         0.86241E+05         0.00000E+00
    0.86241E+05        -0.97639E+08         0.00000E+00
    0.00000E+00         0.00000E+00        -0.42072E+08
 
   -0.42440E+08         0.24512E+05         0.00000E+00
    0.24512E+05        -0.97646E+08         0.00000E+00
    0.00000E+00         0.00000E+00        -0.41587E+08
 
   -0.42412E+08        -0.46056E+05         0.00000E+00
   -0.46056E+05        -0.97652E+08         0.00000E+00
    0.00000E+00         0.00000E+00        -0.41070E+08
 
   -0.42426E+08        -0.12467E+06         0.00000E+00
   -0.12467E+06        -0.97658E+08         0.00000E+00
    0.00000E+00         0.00000E+00        -0.40520E+08
 
   -0.42487E+08        -0.20961E+06         0.00000E+00
   -0.20961E+06        -0.97663E+08         0.00000E+00
    0.00000E+00         0.00000E+00        -0.39932E+08
 
   -0.42592E+08        -0.29787E+06         0.00000E+00
   -0.29787E+06        -0.97666E+08         0.00000E+00
    0.00000E+00         0.00000E+00        -0.39305E+08
 
   -0.42736E+08        -0.38414E+06         0.00000E+00
   -0.38414E+06        -0.97666E+08         0.00000E+00
    0.00000E+00         0.00000E+00        -0.38635E+08
 
   -0.42905E+08        -0.45911E+06         0.00000E+00
   -0.45911E+06        -0.97659E+08         0.00000E+00
    0.00000E+00         0.00000E+00        -0.37918E+08
 
   -0.43066E+08        -0.50219E+06         0.00000E+00
   -0.50219E+06        -0.97641E+08         0.00000E+00
    0.00000E+00         0.00000E+00        -0.37153E+08
 
   -0.43163E+08        -0.44818E+06         0.00000E+00
   -0.44818E+06        -0.97567E+08         0.00000E+00
    0.00000E+00         0.00000E+00        -0.36333E+08
 
   -0.43176E+08        -0.19434E+06         0.00000E+00
   -0.19434E+06        -0.97225E+08         0.00000E+00
    0.00000E+00         0.00000E+00        -0.35454E+08
 
   -0.49885E+08        -0.11031E+04         0.00000E+00
   -0.11031E+04        -0.97602E+08         0.00000E+00
    0.00000E+00         0.00000E+00        -0.49997E+08
 
   -0.49885E+08        -0.22059E+04         0.00000E+00
   -0.22059E+04        -0.97600E+08         0.00000E+00
    0.00000E+00         0.00000E+00        -0.49990E+08
 
   -0.49885E+08        -0.18658E+04         0.00000E+00
   -0.18658E+04        -0.97599E+08         0.00000E+00
    0.00000E+00         0.00000E+00        -0.49984E+08
 
   -0.49885E+08        -0.95931E+03         0.00000E+00
   -0.95931E+03        -0.97599E+08         0.00000E+00
    0.00000E+00         0.00000E+00        -0.49978E+08
 
   -0.49884E+08         0.10356E+03         0.00000E+00
    0.10356E+03        -0.97599E+08         0.00000E+00
    0.00000E+00         0.00000E+00        -0.49971E+08
 
   -0.49883E+08         0.12242E+04         0.00000E+00
    0.12242E+04        -0.97599E+08         0.00000E+00
    0.00000E+00         0.00000E+00        -0.49965E+08
 
   -0.49881E+08         0.23549E+04         0.00000E+00
    0.23549E+04        -0.97599E+08         0.00000E+00
    0.00000E+00         0.00000E+00        -0.49959E+08
 
   -0.49878E+08         0.34699E+04         0.00000E+00
    0.34699E+04        -0.97599E+08         0.00000E+00
    0.00000E+00         0.00000E+00        -0.49952E+08
 
   -0.49874E+08         0.45556E+04         0.00000E+00
    0.45556E+04        -0.97599E+08         0.00000E+00
    0.00000E+00         0.00000E+00        -0.49946E+08
 
   -0.49869E+08         0.56050E+04         0.00000E+00
    0.56050E+04        -0.97599E+08         0.00000E+00
    0.00000E+00         0.00000E+00        -0.49939E+08
 
   -0.49863E+08         0.66163E+04         0.00000E+00
    0.66163E+04        -0.97599E+08         0.00000E+00
    0.00000E+00         0.00000E+00        -0.49933E+08
 
   -0.49857E+08         0.75911E+04         0.00000E+00
    0.75911E+04        -0.97599E+08         0.00000E+00
    0.00000E+00         0.00000E+00        -0.49926E+08
 
   -0.49850E+08         0.85335E+04         0.00000E+00
    0.85335E+04        -0.97599E+08         0.00000E+00
    0.00000E+00         0.00000E+00        -0.49918E+08
 
   -0.49841E+08         0.94492E+04         0.00000E+00
    0.94492E+04        -0.97599E+08         0.00000E+00
    0.00000E+00         0.00000E+00        -0.49911E+08
 
   -0.49833E+08         0.10345E+05         0.00000E+00
    0.10345E+05        -0.97599E+08         0.00000E+00
    0.00000E+00         0.00000E+00        -0.49904E+08
 
   -0.49823E+08         0.11228E+05         0.00000E+00
    0.11228E+05        -0.97600E+08         0.00000E+00
    0.00000E+00         0.00000E+00        -0.49896E+08
 
   -0.49812E+08         0.12105E+05         0.00000E+00
    0.12105E+05        -0.97600E+08         0.00000E+00
    0.00000E+00         0.00000E+00        -0.49887E+08
 
   -0.49801E+08         0.12985E+05         0.00000E+00
    0.12985E+05        -0.97599E+08         0.00000E+00
    0.00000E+00         0.00000E+00        -0.49879E+08
 
   -0.49789E+08         0.13873E+05         0.00000E+00
    0.13873E+05        -0.97599E+08         0.00000E+00
    0.00000E+00         0.00000E+00        -0.49870E+08
 
   -0.49776E+08         0.14777E+05         0.00000E+00
    0.14777E+05        -0.97599E+08         0.00000E+00
    0.00000E+00         0.00000E+00        -0.49861E+08
 
   -0.49763E+08         0.15702E+05         0.00000E+00
    0.15702E+05        -0.97599E+08         0.00000E+00
    0.00000E+00         0.00000E+00        -0.49851E+08
 
   -0.49748E+08         0.16656E+05         0.00000E+00
    0.16656E+05        -0.97599E+08         0.00000E+00
    0.00000E+00         0.00000E+00        -0.49841E+08
 
   -0.49733E+08         0.17643E+05         0.00000E+00
    0.17643E+05        -0.97599E+08         0.00000E+00
    0.00000E+00         0.00000E+00        -0.49830E+08
 
   -0.49716E+08         0.18669E+05         0.00000E+00
    0.18669E+05        -0.97599E+08         0.00000E+00
    0.00000E+00         0.00000E+00        -0.49819E+08
 
   -0.49699E+08         0.19739E+05         0.00000E+00
    0.19739E+05        -0.97599E+08         0.00000E+00
    0.00000E+00         0.00000E+00        -0.49808E+08
 
   -0.49681E+08         0.20858E+05         0.00000E+00
    0.20858E+05        -0.97599E+08         0.00000E+00
    0.00000E+00         0.00000E+00        -0.49795E+08
 
   -0.49662E+08         0.22030E+05         0.00000E+00
    0.22030E+05        -0.97599E+08         0.00000E+00
    0.00000E+00         0.00000E+00        -0.49783E+08
 
   -0.49642E+08         0.23261E+05         0.00000E+00
    0.23261E+05        -0.97599E+08         0.00000E+00
    0.00000E+00         0.00000E+00        -0.49769E+08
 
   -0.49620E+08         0.24556E+05         0.00000E+00
    0.24556E+05        -0.97599E+08         0.00000E+00
    0.00000E+00         0.00000E+00        -0.49755E+08
 
   -0.49597E+08         0.25918E+05         0.00000E+00
    0.25918E+05        -0.97599E+08         0.00000E+00
    0.00000E+00         0.00000E+00        -0.49740E+08
 
   -0.49574E+08         0.27352E+05         0.00000E+00
    0.27352E+05        -0.97599E+08         0.00000E+00
    0.00000E+00         0.00000E+00        -0.49724E+08
 
   -0.49548E+08         0.28864E+05         0.00000E+00
    0.28864E+05        -0.97599E+08         0.00000E+00
    0.00000E+00         0.00000E+00        -0.49707E+08
 
   -0.49522E+08         0.30458E+05         0.00000E+00
    0.30458E+05        -0.97599E+08         0.00000E+00
    0.00000E+00         0.00000E+00        -0.49690E+08
 
   -0.49494E+08         0.32138E+05         0.00000E+00
    0.32138E+05        -0.97599E+08         0.00000E+00
    0.00000E+00         0.00000E+00        -0.49671E+08
 
   -0.49464E+08         0.33911E+05         0.00000E+00
    0.33911E+05        -0.97599E+08         0.00000E+00
    0.00000E+00         0.00000E+00        -0.49651E+08
 
   -0.49433E+08         0.35780E+05         0.00000E+00
    0.35780E+05        -0.97599E+08         0.00000E+00
    0.00000E+00         0.00000E+00        -0.49631E+08
 
   -0.49400E+08         0.37752E+05         0.00000E+00
    0.37752E+05        -0.97599E+08         0.00000E+00
    0.00000E+00         0.00000E+00        -0.49609E+08
 
   -0.49365E+08         0.39832E+05         0.00000E+00
    0.39832E+05        -0.97599E+08         0.00000E+00
    0.00000E+00         0.00000E+00        -0.49586E+08
 
   -0.49328E+08         0.42025E+05         0.00000E+00
    0.42025E+05        -0.97599E+08         0.00000E+00
    0.00000E+00         0.00000E+00        -0.49562E+08
 
   -0.49290E+08         0.44338E+05         0.00000E+00
    0.44338E+05        -0.97599E+08         0.00000E+00
    0.00000E+00         0.00000E+00        -0.49536E+08
 
   -0.49249E+08         0.46776E+05         0.00000E+00
    0.46776E+05        -0.97599E+08         0.00000E+00
    0.00000E+00         0.00000E+00        -0.49509E+08
 
   -0.49206E+08         0.49346E+05         0.00000E+00
    0.49346E+05        -0.97598E+08         0.00000E+00
    0.00000E+00         0.00000E+00        -0.49480E+08
 
   -0.49160E+08         0.52054E+05         0.00000E+00
    0.52054E+05        -0.97598E+08         0.00000E+00
    0.00000E+00         0.00000E+00        -0.49450E+08
 
   -0.49112E+08         0.54906E+05         0.00000E+00
    0.54906E+05        -0.97598E+08         0.00000E+00
    0.00000E+00         0.00000E+00        -0.49418E+08
 
   -0.49062E+08         0.57910E+05         0.00000E+00
    0.57910E+05        -0.97598E+08         0.00000E+00
    0.00000E+00         0.00000E+00        -0.49384E+08
 
   -0.49008E+08         0.61072E+05         0.00000E+00
    0.61072E+05        -0.97598E+08         0.00000E+00
    0.00000E+00         0.00000E+00        -0.49349E+08
 
   -0.48952E+08         0.64399E+05         0.00000E+00
    0.64399E+05        -0.97598E+08         0.00000E+00
    0.00000E+00         0.00000E+00        -0.49311E+08
 
   -0.48893E+08         0.67899E+05         0.00000E+00
    0.67899E+05        -0.97598E+08         0.00000E+00
    0.00000E+00         0.00000E+00        -0.49271E+08
 
   -0.48830E+08         0.71579E+05         0.00000E+00
    0.71579E+05        -0.97598E+08         0.00000E+00
    0.00000E+00         0.00000E+00        -0.49229E+08
 
   -0.48764E+08         0.75446E+05         0.00000E+00
    0.75446E+05        -0.97598E+08         0.00000E+00
    0.00000E+00         0.00000E+00        -0.49185E+08
 
   -0.48695E+08         0.79507E+05         0.00000E+00
    0.79507E+05        -0.97598E+08         0.00000E+00
    0.00000E+00         0.00000E+00        -0.49137E+08
 
   -0.48622E+08         0.83769E+05         0.00000E+00
    0.83769E+05        -0.97597E+08         0.00000E+00
    0.00000E+00         0.00000E+00        -0.49088E+08
 
   -0.48544E+08         0.88240E+05         0.00000E+00
    0.88240E+05        -0.97597E+08         0.00000E+00
    0.00000E+00         0.00000E+00        -0.49035E+08
 
   -0.48463E+08         0.92926E+05         0.00000E+00
    0.92926E+05        -0.97597E+08         0.00000E+00
    0.00000E+00         0.00000E+00        -0.48979E+08
 
   -0.48378E+08         0.97835E+05         0.00000E+00
    0.97835E+05        -0.97597E+08         0.00000E+00
    0.00000E+00         0.00000E+00        -0.48920E+08
 
   -0.48288E+08         0.10297E+06         0.00000E+00
    0.10297E+06        -0.97597E+08         0.00000E+00
    0.00000E+00         0.00000E+00        -0.48858E+08
 
   -0.48193E+08         0.10834E+06         0.00000E+00
    0.10834E+06        -0.97597E+08         0.00000E+00
    0.00000E+00         0.00000E+00        -0.48792E+08
 
   -0.48094E+08         0.11395E+06         0.00000E+00
    0.11395E+06        -0.97597E+08         0.00000E+00
    0.00000E+00         0.00000E+00        -0.48723E+08
 
   -0.47989E+08         0.11980E+06         0.00000E+00
    0.11980E+06        -0.97597E+08         0.00000E+00
    0.00000E+00         0.00000E+00        -0.48649E+08
 
   -0.47879E+08         0.12589E+06         0.00000E+00
    0.12589E+06        -0.97596E+08         0.00000E+00
    0.00000E+00         0.00000E+00        -0.48571E+08
 
   -0.47764E+08         0.13223E+06         0.00000E+00
    0.13223E+06        -0.97596E+08         0.00000E+00
    0.00000E+00         0.00000E+00        -0.48489E+08
 
   -0.47642E+08         0.13881E+06         0.00000E+00
    0.13881E+06        -0.97596E+08         0.00000E+00
    0.00000E+00         0.00000E+00        -0.48401E+08
 
   -0.47515E+08         0.14564E+06         0.00000E+00
    0.14564E+06        -0.97596E+08         0.00000E+00
    0.00000E+00         0.00000E+00        -0.48309E+08
 
   -0.47382E+08         0.15269E+06         0.00000E+00
    0.15269E+06        -0.97596E+08         0.00000E+00
    0.00000E+00         0.00000E+00        -0.48211E+08
 
   -0.47242E+08         0.15997E+06         0.00000E+00
    0.15997E+06        -0.97596E+08         0.00000E+00
    0.00000E+00         0.00000E+00        -0.48108E+08
 
   -0.47096E+08         0.16746E+06         0.00000E+00
    0.16746E+06        -0.97596E+08         0.00000E+00
    0.00000E+00         0.00000E+00        -0.47998E+08
 
   -0.46943E+08         0.17513E+06         0.00000E+00
    0.17513E+06        -0.97595E+08         0.00000E+00
    0.00000E+00         0.00000E+00        -0.47882E+08
 
   -0.46783E+08         0.18296E+06         0.00000E+00
    0.18296E+06        -0.97595E+08         0.00000E+00
    0.00000E+00         0.00000E+00        -0.47759E+08
 
   -0.46617E+08         0.19091E+06         0.00000E+00
    0.19091E+06        -0.97595E+08         0.00000E+00
    0.00000E+00         0.00000E+00        -0.47629E+08
 
   -0.46443E+08         0.19893E+06         0.00000E+00
    0.19893E+06        -0.97595E+08         0.00000E+00
    0.00000E+00         0.00000E+00        -0.47492E+08
 
   -0.46262E+08         0.20698E+06         0.00000E+00
    0.20698E+06        -0.97595E+08         0.00000E+00
    0.00000E+00         0.00000E+00        -0.47346E+08
 
   -0.46074E+08         0.21496E+06         0.00000E+00
    0.21496E+06        -0.97595E+08         0.00000E+00
    0.00000E+00         0.00000E+00        -0.47191E+08
 
   -0.45880E+08         0.22280E+06         0.00000E+00
    0.22280E+06        -0.97595E+08         0.00000E+00
    0.00000E+00         0.00000E+00        -0.47028E+08
 
   -0.45678E+08         0.23038E+06         0.00000E+00
    0.23038E+06        -0.97596E+08         0.00000E+00
    0.00000E+00         0.00000E+00        -0.46854E+08
 
   -0.45471E+08         0.23755E+06         0.00000E+00
    0.23755E+06        -0.97596E+08         0.00000E+00
    0.00000E+00         0.00000E+00        -0.46670E+08
 
   -0.45257E+08         0.24416E+06         0.00000E+00
    0.24416E+06        -0.97596E+08         0.00000E+00
    0.00000E+00         0.00000E+00        -0.46475E+08
 
   -0.45038E+08         0.24999E+06         0.00000E+00
    0.24999E+06        -0.97597E+08         0.00000E+00
    0.00000E+00         0.00000E+00        -0.46269E+08
 
   -0.44814E+08         0.25480E+06         0.00000E+00
    0.25480E+06        -0.97597E+08         0.00000E+00
    0.00000E+00         0.00000E+00        -0.46049E+08
 
   -0.44587E+08         0.25831E+06         0.00000E+00
    0.25831E+06        -0.97598E+08         0.00000E+00
    0.00000E+00         0.00000E+00        -0.45817E+08
 
   -0.44358E+08         0.26016E+06         0.00000E+00
    0.26016E+06        -0.97599E+08         0.00000E+00
    0.00000E+00         0.00000E+00        -0.45570E+08
 
   -0.44128E+08         0.25995E+06         0.00000E+00
    0.25995E+06        -0.97600E+08         0.00000E+00
    0.00000E+00         0.00000E+00        -0.45308E+08
 
   -0.43899E+08         0.25721E+06         0.00000E+00
    0.25721E+06        -0.97602E+08         0.00000E+00
    0.00000E+00         0.00000E+00        -0.45030E+08
 
   -0.43673E+08         0.25141E+06         0.00000E+00
    0.25141E+06        -0.97604E+08         0.00000E+00
    0.00000E+00         0.00000E+00        -0.44734E+08
 
   -0.43454E+08         0.24195E+06         0.00000E+00
    0.24195E+06        -0.97606E+08         0.00000E+00
    0.00000E+00         0.00000E+00        -0.44420E+08
 
   -0.43244E+08         0.22817E+06         0.00000E+00
    0.22817E+06        -0.97609E+08         0.00000E+00
    0.00000E+00         0.00000E+00        -0.44087E+08
 
   -0.43047E+08         0.20935E+06         0.00000E+00
    0.20935E+06        -0.97612E+08         0.00000E+00
    0.00000E+00         0.00000E+00        -0.43732E+08
 
   -0.42868E+08         0.18477E+06         0.00000E+00
    0.18477E+06        -0.97615E+08         0.00000E+00
    0.00000E+00         0.00000E+00        -0.43355E+08
 
   -0.42710E+08         0.15369E+06         0.00000E+00
    0.15369E+06        -0.97619E+08         0.00000E+00
    0.00000E+00         0.00000E+00        -0.42954E+08
 
   -0.42580E+08         0.11546E+06         0.00000E+00
    0.11546E+06        -0.97624E+08         0.00000E+00
    0.00000E+00         0.00000E+00        -0.42526E+08
 
   -0.42482E+08         0.69540E+05         0.00000E+00
    0.69540E+05        -0.97629E+08         0.00000E+00
    0.00000E+00         0.00000E+00        -0.42071E+08
 
   -0.42421E+08         0.15638E+05         0.00000E+00
    0.15638E+05        -0.97633E+08         0.00000E+00
    0.00000E+00         0.00000E+00        -0.41587E+08
 
   -0.42404E+08        -0.46187E+05         0.00000E+00
   -0.46187E+05        -0.97638E+08         0.00000E+00
    0.00000E+00         0.00000E+00        -0.41070E+08
 
   -0.42435E+08        -0.11536E+06         0.00000E+00
   -0.11536E+06        -0.97643E+08         0.00000E+00
    0.00000E+00         0.00000E+00        -0.40520E+08
 
   -0.42516E+08        -0.19060E+06         0.00000E+00
   -0.19060E+06        -0.97647E+08         0.00000E+00
    0.00000E+00         0.00000E+00        -0.39932E+08
 
   -0.42647E+08        -0.26961E+06         0.00000E+00
   -0.26961E+06        -0.97649E+08         0.00000E+00
    0.00000E+00         0.00000E+00        -0.39305E+08
 
   -0.42825E+08        -0.34835E+06         0.00000E+00
   -0.34835E+06        -0.97650E+08         0.00000E+00
    0.00000E+00         0.00000E+00        -0.38635E+08
 
   -0.43038E+08        -0.41961E+06         0.00000E+00
   -0.41961E+06        -0.97646E+08         0.00000E+00
    0.00000E+00         0.00000E+00        -0.37919E+08
 
   -0.43253E+08        -0.46885E+06         0.00000E+00
   -0.46885E+06        -0.97637E+08         0.00000E+00
    0.00000E+00         0.00000E+00        -0.37153E+08
 
   -0.43406E+08        -0.43701E+06         0.00000E+00
   -0.43701E+06        -0.97592E+08         0.00000E+00
    0.00000E+00         0.00000E+00        -0.36333E+08
 
   -0.43452E+08        -0.19841E+06         0.00000E+00
   -0.19841E+06        -0.97298E+08         0.00000E+00
    0.00000E+00         0.00000E+00        -0.35454E+08
 
   -0.49882E+08        -0.11689E+04         0.00000E+00
   -0.11689E+04        -0.97601E+08         0.00000E+00
    0.00000E+00         0.00000E+00        -0.49997E+08
 
   -0.49882E+08        -0.22027E+04         0.00000E+00
   -0.22027E+04        -0.97600E+08         0.00000E+00
    0.00000E+00         0.00000E+00        -0.49990E+08
 
   -0.49883E+08        -0.17933E+04         0.00000E+00
   -0.17933E+04        -0.97600E+08         0.00000E+00
    0.00000E+00         0.00000E+00        -0.49984E+08
 
   -0.49883E+08        -0.96657E+03         0.00000E+00
   -0.96657E+03        -0.97600E+08         0.00000E+00
    0.00000E+00         0.00000E+00        -0.49978E+08
 
   -0.49883E+08        -0.47714E+02         0.00000E+00
   -0.47714E+02        -0.97600E+08         0.00000E+00
    0.00000E+00         0.00000E+00        -0.49971E+08
 
   -0.49882E+08         0.90548E+03         0.00000E+00
    0.90548E+03        -0.97600E+08         0.00000E+00
    0.00000E+00         0.00000E+00        -0.49965E+08
 
   -0.49880E+08         0.18575E+04         0.00000E+00
    0.18575E+04        -0.97600E+08         0.00000E+00
    0.00000E+00         0.00000E+00        -0.49959E+08
 
   -0.49877E+08         0.27909E+04         0.00000E+00
    0.27909E+04        -0.97600E+08         0.00000E+00
    0.00000E+00         0.00000E+00        -0.49952E+08
 
   -0.49873E+08         0.36960E+04         0.00000E+00
    0.36960E+04        -0.97600E+08         0.00000E+00
    0.00000E+00         0.00000E+00        -0.49946E+08
 
   -0.49868E+08         0.45681E+04         0.00000E+00
    0.45681E+04        -0.97600E+08         0.00000E+00
    0.00000E+00         0.00000E+00        -0.49939E+08
 
   -0.49863E+08         0.54064E+04         0.00000E+00
    0.54064E+04        -0.97600E+08         0.00000E+00
    0.00000E+00         0.00000E+00        -0.49932E+08
 
   -0.49856E+08         0.62127E+04         0.00000E+00
    0.62127E+04        -0.97600E+08         0.00000E+00
    0.00000E+00         0.00000E+00        -0.49926E+08
 
   -0.49849E+08         0.69908E+04         0.00000E+00
    0.69908E+04        -0.97600E+08         0.00000E+00
    0.00000E+00         0.00000E+00        -0.49918E+08
 
   -0.49841E+08         0.77455E+04         0.00000E+00
    0.77455E+04        -0.97600E+08         0.00000E+00
    0.00000E+00         0.00000E+00        -0.49911E+08
 
   -0.49832E+08         0.84829E+04         0.00000E+00
    0.84829E+04        -0.97600E+08         0.00000E+00
    0.00000E+00         0.00000E+00        -0.49904E+08
 
   -0.49822E+08         0.92089E+04         0.00000E+00
    0.92089E+04        -0.97600E+08         0.00000E+00
    0.00000E+00         0.00000E+00        -0.49896E+08
 
   -0.49812E+08         0.99298E+04         0.00000E+00
    0.99298E+04        -0.97600E+08         0.00000E+00
    0.00000E+00         0.00000E+00        -0.49887E+08
 
   -0.49800E+08         0.10652E+05         0.00000E+00
    0.10652E+05        -0.97600E+08         0.00000E+00
    0.00000E+00         0.00000E+00        -0.49879E+08
 
   -0.49788E+08         0.11381E+05         0.00000E+00
    0.11381E+05        -0.97600E+08         0.00000E+00
    0.00000E+00         0.00000E+00        -0.49870E+08
 
   -0.49775E+08         0.12122E+05         0.00000E+00
    0.12122E+05        -0.97600E+08         0.00000E+00
    0.00000E+00         0.00000E+00        -0.49861E+08
 
   -0.49762E+08         0.12881E+05         0.00000E+00
    0.12881E+05        -0.97600E+08         0.00000E+00
    0.00000E+00         0.00000E+00        -0.49851E+08
 
   -0.49747E+08         0.13663E+05         0.00000E+00
    0.13663E+05        -0.97600E+08         0.00000E+00
    0.00000E+00         0.00000E+00        -0.49841E+08
 
   -0.49732E+08         0.14472E+05         0.00000E+00
    0.14472E+05        -0.97600E+08         0.00000E+00
    0.00000E+00         0.00000E+00        -0.49830E+08
 
   -0.49715E+08         0.15313E+05         0.00000E+00
    0.15313E+05        -0.97600E+08         0.00000E+00
    0.00000E+00         0.00000E+00        -0.49819E+08
 
   -0.49698E+08         0.16190E+05         0.00000E+00
    0.16190E+05        -0.97600E+08         0.00000E+00
    0.00000E+00         0.00000E+00        -0.49808E+08
 
   -0.49680E+08         0.17107E+05         0.00000E+00
    0.17107E+05        -0.97600E+08         0.00000E+00
    0.00000E+00         0.00000E+00        -0.49795E+08
 
   -0.49660E+08         0.18069E+05         0.00000E+00
    0.18069E+05        -0.97600E+08         0.00000E+00
    0.00000E+00         0.00000E+00        -0.49782E+08
 
   -0.49640E+08         0.19078E+05         0.00000E+00
    0.19078E+05        -0.97600E+08         0.00000E+00
    0.00000E+00         0.00000E+00        -0.49769E+08
 
   -0.49618E+08         0.20139E+05         0.00000E+00
    0.20139E+05        -0.97599E+08         0.00000E+00
    0.00000E+00         0.00000E+00        -0.49755E+08
 
   -0.49596E+08         0.21256E+05         0.00000E+00
    0.21256E+05        -0.97599E+08         0.00000E+00
    0.00000E+00         0.00000E+00        -0.49740E+08
 
   -0.49572E+08         0.22433E+05         0.00000E+00
    0.22433E+05        -0.97599E+08         0.00000E+00
    0.00000E+00         0.00000E+00        -0.49724E+08
 
   -0.49546E+08         0.23672E+05         0.00000E+00
    0.23672E+05        -0.97599E+08         0.00000E+00
    0.00000E+00         0.00000E+00        -0.49707E+08
 
   -0.49520E+08         0.24979E+05         0.00000E+00
    0.24979E+05        -0.97599E+08         0.00000E+00
    0.00000E+00         0.00000E+00        -0.49690E+08
 
   -0.49491E+08         0.26357E+05         0.00000E+00
    0.26357E+05        -0.97599E+08         0.00000E+00
    0.00000E+00         0.00000E+00        -0.49671E+08
 
   -0.49462E+08         0.27811E+05         0.00000E+00
    0.27811E+05        -0.97599E+08         0.00000E+00
    0.00000E+00         0.00000E+00        -0.49651E+08
 
   -0.49430E+08         0.29344E+05         0.00000E+00
    0.29344E+05        -0.97599E+08         0.00000E+00
    0.00000E+00         0.00000E+00        -0.49631E+08
 
   -0.49397E+08         0.30961E+05         0.00000E+00
    0.30961E+05        -0.97599E+08         0.00000E+00
    0.00000E+00         0.00000E+00        -0.49609E+08
 
   -0.49362E+08         0.32667E+05         0.00000E+00
    0.32667E+05        -0.97599E+08         0.00000E+00
    0.00000E+00         0.00000E+00        -0.49586E+08
 
   -0.49325E+08         0.34466E+05         0.00000E+00
    0.34466E+05        -0.97599E+08         0.00000E+00
    0.00000E+00         0.00000E+00        -0.49562E+08
 
   -0.49286E+08         0.36363E+05         0.00000E+00
    0.36363E+05        -0.97599E+08         0.00000E+00
    0.00000E+00         0.00000E+00        -0.49536E+08
 
   -0.49245E+08         0.38363E+05         0.00000E+00
    0.38363E+05        -0.97599E+08         0.00000E+00
    0.00000E+00         0.00000E+00        -0.49509E+08
 
   -0.49202E+08         0.40471E+05         0.00000E+00
    0.40471E+05        -0.97599E+08         0.00000E+00
    0.00000E+00         0.00000E+00        -0.49480E+08
 
   -0.49156E+08         0.42692E+05         0.00000E+00
    0.42692E+05        -0.97599E+08         0.00000E+00
    0.00000E+00         0.00000E+00        -0.49450E+08
 
   -0.49108E+08         0.45032E+05         0.00000E+00
    0.45032E+05        -0.97599E+08         0.00000E+00
    0.00000E+00         0.00000E+00        -0.49418E+08
 
   -0.49057E+08         0.47496E+05         0.00000E+00
    0.47496E+05        -0.97599E+08         0.00000E+00
    0.00000E+00         0.00000E+00        -0.49384E+08
 
   -0.49004E+08         0.50090E+05         0.00000E+00
    0.50090E+05        -0.97599E+08         0.00000E+00
    0.00000E+00         0.00000E+00        -0.49349E+08
 
   -0.48947E+08         0.52820E+05         0.00000E+00
    0.52820E+05        -0.97599E+08         0.00000E+00
    0.00000E+00         0.00000E+00        -0.49311E+08
 
   -0.48887E+08         0.55692E+05         0.00000E+00
    0.55692E+05        -0.97599E+08         0.00000E+00
    0.00000E+00         0.00000E+00        -0.49271E+08
 
   -0.48825E+08         0.58711E+05         0.00000E+00
    0.58711E+05        -0.97599E+08         0.00000E+00
    0.00000E+00         0.00000E+00        -0.49229E+08
 
   -0.48758E+08         0.61883E+05         0.00000E+00
    0.61883E+05        -0.97598E+08         0.00000E+00
    0.00000E+00         0.00000E+00        -0.49184E+08
 
   -0.48689E+08         0.65216E+05         0.00000E+00
    0.65216E+05        -0.97598E+08         0.00000E+00
    0.00000E+00         0.00000E+00        -0.49137E+08
 
   -0.48615E+08         0.68714E+05         0.00000E+00
    0.68714E+05        -0.97598E+08         0.00000E+00
    0.00000E+00         0.00000E+00        -0.49088E+08
 
   -0.48538E+08         0.72383E+05         0.00000E+00
    0.72383E+05        -0.97598E+08         0.00000E+00
    0.00000E+00         0.00000E+00        -0.49035E+08
 
   -0.48456E+08         0.76229E+05         0.00000E+00
    0.76229E+05        -0.97598E+08         0.00000E+00
    0.00000E+00         0.00000E+00        -0.48979E+08
 
   -0.48370E+08         0.80258E+05         0.00000E+00
    0.80258E+05        -0.97598E+08         0.00000E+00
    0.00000E+00         0.00000E+00        -0.48920E+08
 
   -0.48280E+08         0.84475E+05         0.00000E+00
    0.84475E+05        -0.97598E+08         0.00000E+00
    0.00000E+00         0.00000E+00        -0.48858E+08
 
   -0.48184E+08         0.88883E+05         0.00000E+00
    0.88883E+05        -0.97598E+08         0.00000E+00
    0.00000E+00         0.00000E+00        -0.48792E+08
 
   -0.48084E+08         0.93488E+05         0.00000E+00
    0.93488E+05        -0.97598E+08         0.00000E+00
    0.00000E+00         0.00000E+00        -0.48723E+08
 
   -0.47979E+08         0.98292E+05         0.00000E+00
    0.98292E+05        -0.97598E+08         0.00000E+00
    0.00000E+00         0.00000E+00        -0.48649E+08
 
   -0.47869E+08         0.10330E+06         0.00000E+00
    0.10330E+06        -0.97598E+08         0.00000E+00
    0.00000E+00         0.00000E+00        -0.48571E+08
 
   -0.47753E+08         0.10850E+06         0.00000E+00
    0.10850E+06        -0.97597E+08         0.00000E+00
    0.00000E+00         0.00000E+00        -0.48488E+08
 
   -0.47631E+08         0.11391E+06         0.00000E+00
    0.11391E+06        -0.97597E+08         0.00000E+00
    0.00000E+00         0.00000E+00        -0.48401E+08
 
   -0.47503E+08         0.11952E+06         0.00000E+00
    0.11952E+06        -0.97597E+08         0.00000E+00
    0.00000E+00         0.00000E+00        -0.48309E+08
 
   -0.47369E+08         0.12532E+06         0.00000E+00
    0.12532E+06        -0.97597E+08         0.00000E+00
    0.00000E+00         0.00000E+00        -0.48211E+08
 
   -0.47228E+08         0.13130E+06         0.00000E+00
    0.13130E+06        -0.97597E+08         0.00000E+00
    0.00000E+00         0.00000E+00        -0.48108E+08
 
   -0.47081E+08         0.13746E+06         0.00000E+00
    0.13746E+06        -0.97597E+08         0.00000E+00
    0.00000E+00         0.00000E+00        -0.47998E+08
 
   -0.46927E+08         0.14377E+06         0.00000E+00
    0.14377E+06        -0.97597E+08         0.00000E+00
    0.00000E+00         0.00000E+00        -0.47882E+08
 
   -0.46766E+08         0.15021E+06         0.00000E+00
    0.15021E+06        -0.97597E+08         0.00000E+00
    0.00000E+00         0.00000E+00        -0.47759E+08
 
   -0.46599E+08         0.15676E+06         0.00000E+00
    0.15676E+06        -0.97597E+08         0.00000E+00
    0.00000E+00         0.00000E+00        -0.47629E+08
 
   -0.46424E+08         0.16337E+06         0.00000E+00
    0.16337E+06        -0.97597E+08         0.00000E+00
    0.00000E+00         0.00000E+00        -0.47492E+08
 
   -0.46242E+08         0.17000E+06         0.00000E+00
    0.17000E+06        -0.97597E+08         0.00000E+00
    0.00000E+00         0.00000E+00        -0.47346E+08
 
   -0.46053E+08         0.17658E+06         0.00000E+00
    0.17658E+06        -0.97597E+08         0.00000E+00
    0.00000E+00         0.00000E+00        -0.47191E+08
 
   -0.45856E+08         0.18305E+06         0.00000E+00
    0.18305E+06        -0.97597E+08         0.00000E+00
    0.00000E+00         0.00000E+00        -0.47028E+08
 
   -0.45654E+08         0.18930E+06         0.00000E+00
    0.18930E+06        -0.97597E+08         0.00000E+00
    0.00000E+00         0.00000E+00        -0.46854E+08
 
   -0.45444E+08         0.19523E+06         0.00000E+00
    0.19523E+06        -0.97597E+08         0.00000E+00
    0.00000E+00         0.00000E+00        -0.46670E+08
 
   -0.45229E+08         0.20069E+06         0.00000E+00
    0.20069E+06        -0.97597E+08         0.00000E+00
    0.00000E+00         0.00000E+00        -0.46475E+08
 
   -0.45008E+08         0.20552E+06         0.00000E+00
    0.20552E+06        -0.97598E+08         0.00000E+00
    0.00000E+00         0.00000E+00        -0.46269E+08
 
   -0.44782E+08         0.20951E+06         0.00000E+00
    0.20951E+06        -0.97598E+08         0.00000E+00
    0.00000E+00         0.00000E+00        -0.46049E+08
 
   -0.44553E+08         0.21242E+06         0.00000E+00
    0.21242E+06        -0.97599E+08         0.00000E+00
    0.00000E+00         0.00000E+00        -0.45817E+08
 
   -0.44322E+08         0.21396E+06         0.00000E+00
    0.21396E+06        -0.97599E+08         0.00000E+00
    0.00000E+00         0.00000E+00        -0.45570E+08
 
   -0.44090E+08         0.21379E+06         0.00000E+00
    0.21379E+06        -0.97600E+08         0.00000E+00
    0.00000E+00         0.00000E+00        -0.45308E+08
 
   -0.43859E+08         0.21152E+06         0.00000E+00
    0.21152E+06        -0.97601E+08         0.00000E+00
    0.00000E+00         0.00000E+00        -0.45030E+08
 
   -0.43632E+08         0.20670E+06         0.00000E+00
    0.20670E+06        -0.97602E+08         0.00000E+00
    0.00000E+00         0.00000E+00        -0.44734E+08
 
   -0.43412E+08         0.19883E+06         0.00000E+00
    0.19883E+06        -0.97604E+08         0.00000E+00
    0.00000E+00         0.00000E+00        -0.44420E+08
 
   -0.43201E+08         0.18733E+06         0.00000E+00
    0.18733E+06        -0.97606E+08         0.00000E+00
    0.00000E+00         0.00000E+00        -0.44087E+08
 
   -0.43004E+08         0.17162E+06         0.00000E+00
    0.17162E+06        -0.97608E+08         0.00000E+00
    0.00000E+00         0.00000E+00        -0.43732E+08
 
   -0.42825E+08         0.15105E+06         0.00000E+00
    0.15105E+06        -0.97610E+08         0.00000E+00
    0.00000E+00         0.00000E+00        -0.43355E+08
 
   -0.42670E+08         0.12500E+06         0.00000E+00
    0.12500E+06        -0.97613E+08         0.00000E+00
    0.00000E+00         0.00000E+00        -0.42953E+08
 
   -0.42543E+08         0.92889E+05         0.00000E+00
    0.92889E+05        -0.97616E+08         0.00000E+00
    0.00000E+00         0.00000E+00        -0.42526E+08
 
   -0.42450E+08         0.54230E+05         0.00000E+00
    0.54230E+05        -0.97619E+08         0.00000E+00
    0.00000E+00         0.00000E+00        -0.42071E+08
 
   -0.42398E+08         0.87258E+04         0.00000E+00
    0.87258E+04        -0.97623E+08         0.00000E+00
    0.00000E+00         0.00000E+00        -0.41587E+08
 
   -0.42392E+08        -0.43644E+05         0.00000E+00
   -0.43644E+05        -0.97626E+08         0.00000E+00
    0.00000E+00         0.00000E+00        -0.41070E+08
 
   -0.42438E+08        -0.10251E+06         0.00000E+00
   -0.10251E+06        -0.97629E+08         0.00000E+00
    0.00000E+00         0.00000E+00        -0.40520E+08
 
   -0.42539E+08        -0.16695E+06         0.00000E+00
   -0.16695E+06        -0.97632E+08         0.00000E+00
    0.00000E+00         0.00000E+00        -0.39932E+08
 
   -0.42697E+08        -0.23532E+06         0.00000E+00
   -0.23532E+06        -0.97634E+08         0.00000E+00
    0.00000E+00         0.00000E+00        -0.39305E+08
 
   -0.42910E+08        -0.30481E+06         0.00000E+00
   -0.30481E+06        -0.97635E+08         0.00000E+00
    0.00000E+00         0.00000E+00        -0.38635E+08
 
   -0.43167E+08        -0.37003E+06         0.00000E+00
   -0.37003E+06        -0.97634E+08         0.00000E+00
    0.00000E+00         0.00000E+00        -0.37919E+08
 
   -0.43443E+08        -0.42231E+06         0.00000E+00
   -0.42231E+06        -0.97630E+08         0.00000E+00
    0.00000E+00         0.00000E+00        -0.37153E+08
 
   -0.43666E+08        -0.41480E+06         0.00000E+00
   -0.41480E+06        -0.97612E+08         0.00000E+00
    0.00000E+00         0.00000E+00        -0.36333E+08
 
   -0.43756E+08        -0.20054E+06         0.00000E+00
   -0.20054E+06        -0.97370E+08         0.00000E+00
    0.00000E+00         0.00000E+00        -0.35455E+08
 
   -0.49879E+08        -0.12139E+04         0.00000E+00
   -0.12139E+04        -0.97601E+08         0.00000E+00
    0.00000E+00         0.00000E+00        -0.49997E+08
 
   -0.49879E+08        -0.20945E+04         0.00000E+00
   -0.20945E+04        -0.97600E+08         0.00000E+00
    0.00000E+00         0.00000E+00        -0.49990E+08
 
   -0.49880E+08        -0.16168E+04         0.00000E+00
   -0.16168E+04        -0.97600E+08         0.00000E+00
    0.00000E+00         0.00000E+00        -0.49984E+08
 
   -0.49881E+08        -0.90240E+03         0.00000E+00
   -0.90240E+03        -0.97600E+08         0.00000E+00
    0.00000E+00         0.00000E+00        -0.49978E+08
 
   -0.49881E+08        -0.14560E+03         0.00000E+00
   -0.14560E+03        -0.97600E+08         0.00000E+00
    0.00000E+00         0.00000E+00        -0.49971E+08
 
   -0.49881E+08         0.62641E+03         0.00000E+00
    0.62641E+03        -0.97600E+08         0.00000E+00
    0.00000E+00         0.00000E+00        -0.49965E+08
 
   -0.49879E+08         0.13892E+04         0.00000E+00
    0.13892E+04        -0.97600E+08         0.00000E+00
    0.00000E+00         0.00000E+00        -0.49959E+08
 
   -0.49876E+08         0.21326E+04         0.00000E+00
    0.21326E+04        -0.97600E+08         0.00000E+00
    0.00000E+00         0.00000E+00        -0.49952E+08
 
   -0.49872E+08         0.28503E+04         0.00000E+00
    0.28503E+04        -0.97600E+08         0.00000E+00
    0.00000E+00         0.00000E+00        -0.49946E+08
 
   -0.49868E+08         0.35396E+04         0.00000E+00
    0.35396E+04        -0.97600E+08         0.00000E+00
    0.00000E+00         0.00000E+00        -0.49939E+08
 
   -0.49862E+08         0.42004E+04         0.00000E+00
    0.42004E+04        -0.97600E+08         0.00000E+00
    0.00000E+00         0.00000E+00        -0.49932E+08
 
   -0.49856E+08         0.48345E+04         0.00000E+00
    0.48345E+04        -0.97600E+08         0.00000E+00
    0.00000E+00         0.00000E+00        -0.49926E+08
 
   -0.49848E+08         0.54452E+04         0.00000E+00
    0.54452E+04        -0.97600E+08         0.00000E+00
    0.00000E+00         0.00000E+00        -0.49918E+08
 
   -0.49840E+08         0.60366E+04         0.00000E+00
    0.60366E+04        -0.97600E+08         0.00000E+00
    0.00000E+00         0.00000E+00        -0.49911E+08
 
   -0.49831E+08         0.66136E+04         0.00000E+00
    0.66136E+04        -0.97600E+08         0.00000E+00
    0.00000E+00         0.00000E+00        -0.49904E+08
 
   -0.49821E+08         0.71811E+04         0.00000E+00
    0.71811E+04        -0.97600E+08         0.00000E+00
    0.00000E+00         0.00000E+00        -0.49896E+08
 
   -0.49811E+08         0.77441E+04         0.00000E+00
    0.77441E+04        -0.97600E+08         0.00000E+00
    0.00000E+00         0.00000E+00        -0.49887E+08
 
   -0.49800E+08         0.83074E+04         0.00000E+00
    0.83074E+04        -0.97600E+08         0.00000E+00
    0.00000E+00         0.00000E+00        -0.49879E+08
 
   -0.49787E+08         0.88759E+04         0.00000E+00
    0.88759E+04        -0.97600E+08         0.00000E+00
    0.00000E+00         0.00000E+00        -0.49870E+08
 
   -0.49774E+08         0.94539E+04         0.00000E+00
    0.94539E+04        -0.97600E+08         0.00000E+00
    0.00000E+00         0.00000E+00        -0.49861E+08
 
   -0.49761E+08         0.10046E+05         0.00000E+00
    0.10046E+05        -0.97600E+08         0.00000E+00
    0.00000E+00         0.00000E+00        -0.49851E+08
 
   -0.49746E+08         0.10655E+05         0.00000E+00
    0.10655E+05        -0.97600E+08         0.00000E+00
    0.00000E+00         0.00000E+00        -0.49841E+08
 
   -0.49730E+08         0.11285E+05         0.00000E+00
    0.11285E+05        -0.97600E+08         0.00000E+00
    0.00000E+00         0.00000E+00        -0.49830E+08
 
   -0.49714E+08         0.11941E+05         0.00000E+00
    0.11941E+05        -0.97600E+08         0.00000E+00
    0.00000E+00         0.00000E+00        -0.49819E+08
 
   -0.49697E+08         0.12624E+05         0.00000E+00
    0.12624E+05        -0.97600E+08         0.00000E+00
    0.00000E+00         0.00000E+00        -0.49808E+08
 
   -0.49678E+08         0.13339E+05         0.00000E+00
    0.13339E+05        -0.97600E+08         0.00000E+00
    0.00000E+00         0.00000E+00        -0.49795E+08
 
   -0.49659E+08         0.14089E+05         0.00000E+00
    0.14089E+05        -0.97600E+08         0.00000E+00
    0.00000E+00         0.00000E+00        -0.49782E+08
 
   -0.49638E+08         0.14875E+05         0.00000E+00
    0.14875E+05        -0.97600E+08         0.00000E+00
    0.00000E+00         0.00000E+00        -0.49769E+08
 
   -0.49617E+08         0.15702E+05         0.00000E+00
    0.15702E+05        -0.97600E+08         0.00000E+00
    0.00000E+00         0.00000E+00        -0.49755E+08
 
   -0.49594E+08         0.16573E+05         0.00000E+00
    0.16573E+05        -0.97600E+08         0.00000E+00
    0.00000E+00         0.00000E+00        -0.49740E+08
 
   -0.49570E+08         0.17490E+05         0.00000E+00
    0.17490E+05        -0.97600E+08         0.00000E+00
    0.00000E+00         0.00000E+00        -0.49724E+08
 
   -0.49544E+08         0.18456E+05         0.00000E+00
    0.18456E+05        -0.97600E+08         0.00000E+00
    0.00000E+00         0.00000E+00        -0.49707E+08
 
   -0.49517E+08         0.19475E+05         0.00000E+00
    0.19475E+05        -0.97600E+08         0.00000E+00
    0.00000E+00         0.00000E+00        -0.49690E+08
 
   -0.49489E+08         0.20549E+05         0.00000E+00
    0.20549E+05        -0.97600E+08         0.00000E+00
    0.00000E+00         0.00000E+00        -0.49671E+08
 
   -0.49459E+08         0.21683E+05         0.00000E+00
    0.21683E+05        -0.97600E+08         0.00000E+00
    0.00000E+00         0.00000E+00        -0.49651E+08
 
   -0.49428E+08         0.22878E+05         0.00000E+00
    0.22878E+05        -0.97600E+08         0.00000E+00
    0.00000E+00         0.00000E+00        -0.49631E+08
 
   -0.49394E+08         0.24139E+05         0.00000E+00
    0.24139E+05        -0.97600E+08         0.00000E+00
    0.00000E+00         0.00000E+00        -0.49609E+08
 
   -0.49359E+08         0.25469E+05         0.00000E+00
    0.25469E+05        -0.97599E+08         0.00000E+00
    0.00000E+00         0.00000E+00        -0.49586E+08
 
   -0.49322E+08         0.26872E+05         0.00000E+00
    0.26872E+05        -0.97599E+08         0.00000E+00
    0.00000E+00         0.00000E+00        -0.49562E+08
 
   -0.49283E+08         0.28351E+05         0.00000E+00
    0.28351E+05        -0.97599E+08         0.00000E+00
    0.00000E+00         0.00000E+00        -0.49536E+08
 
   -0.49242E+08         0.29910E+05         0.00000E+00
    0.29910E+05        -0.97599E+08         0.00000E+00
    0.00000E+00         0.00000E+00        -0.49509E+08
 
   -0.49198E+08         0.31554E+05         0.00000E+00
    0.31554E+05        -0.97599E+08         0.00000E+00
    0.00000E+00         0.00000E+00        -0.49480E+08
 
   -0.49152E+08         0.33286E+05         0.00000E+00
    0.33286E+05        -0.97599E+08         0.00000E+00
    0.00000E+00         0.00000E+00        -0.49450E+08
 
   -0.49104E+08         0.35111E+05         0.00000E+00
    0.35111E+05        -0.97599E+08         0.00000E+00
    0.00000E+00         0.00000E+00        -0.49418E+08
 
   -0.49053E+08         0.37033E+05         0.00000E+00
    0.37033E+05        -0.97599E+08         0.00000E+00
    0.00000E+00         0.00000E+00        -0.49384E+08
 
   -0.48999E+08         0.39056E+05         0.00000E+00
    0.39056E+05        -0.97599E+08         0.00000E+00
    0.00000E+00         0.00000E+00        -0.49349E+08
 
   -0.48942E+08         0.41185E+05         0.00000E+00
    0.41185E+05        -0.97599E+08         0.00000E+00
    0.00000E+00         0.00000E+00        -0.49311E+08
 
   -0.48882E+08         0.43425E+05         0.00000E+00
    0.43425E+05        -0.97599E+08         0.00000E+00
    0.00000E+00         0.00000E+00        -0.49271E+08
 
   -0.48819E+08         0.45780E+05         0.00000E+00
    0.45780E+05        -0.97599E+08         0.00000E+00
    0.00000E+00         0.00000E+00        -0.49229E+08
 
   -0.48753E+08         0.48255E+05         0.00000E+00
    0.48255E+05        -0.97599E+08         0.00000E+00
    0.00000E+00         0.00000E+00        -0.49184E+08
 
   -0.48683E+08         0.50854E+05         0.00000E+00
    0.50854E+05        -0.97599E+08         0.00000E+00
    0.00000E+00         0.00000E+00        -0.49137E+08
 
   -0.48609E+08         0.53583E+05         0.00000E+00
    0.53583E+05        -0.97599E+08         0.00000E+00
    0.00000E+00         0.00000E+00        -0.49088E+08
 
   -0.48531E+08         0.56446E+05         0.00000E+00
    0.56446E+05        -0.97599E+08         0.00000E+00
    0.00000E+00         0.00000E+00        -0.49035E+08
 
   -0.48449E+08         0.59448E+05         0.00000E+00
    0.59448E+05        -0.97599E+08         0.00000E+00
    0.00000E+00         0.00000E+00        -0.48979E+08
 
   -0.48362E+08         0.62592E+05         0.00000E+00
    0.62592E+05        -0.97599E+08         0.00000E+00
    0.00000E+00         0.00000E+00        -0.48920E+08
 
   -0.48272E+08         0.65883E+05         0.00000E+00
    0.65883E+05        -0.97599E+08         0.00000E+00
    0.00000E+00         0.00000E+00        -0.48858E+08
 
   -0.48176E+08         0.69324E+05         0.00000E+00
    0.69324E+05        -0.97599E+08         0.00000E+00
    0.00000E+00         0.00000E+00        -0.48792E+08
 
   -0.48075E+08         0.72918E+05         0.00000E+00
    0.72918E+05        -0.97599E+08         0.00000E+00
    0.00000E+00         0.00000E+00        -0.48723E+08
 
   -0.47970E+08         0.76669E+05         0.00000E+00
    0.76669E+05        -0.97599E+08         0.00000E+00
    0.00000E+00         0.00000E+00        -0.48649E+08
 
   -0.47859E+08         0.80577E+05         0.00000E+00
    0.80577E+05        -0.97598E+08         0.00000E+00
    0.00000E+00         0.00000E+00        -0.48571E+08
 
   -0.47742E+08         0.84644E+05         0.00000E+00
    0.84644E+05        -0.97598E+08         0.00000E+00
    0.00000E+00         0.00000E+00        -0.48488E+08
 
   -0.47619E+08         0.88869E+05         0.00000E+00
    0.88869E+05        -0.97598E+08         0.00000E+00
    0.00000E+00         0.00000E+00        -0.48401E+08
 
   -0.47491E+08         0.93250E+05         0.00000E+00
    0.93250E+05        -0.97598E+08         0.00000E+00
    0.00000E+00         0.00000E+00        -0.48309E+08
 
   -0.47356E+08         0.97783E+05         0.00000E+00
    0.97783E+05        -0.97598E+08         0.00000E+00
    0.00000E+00         0.00000E+00        -0.48211E+08
 
   -0.47214E+08         0.10246E+06         0.00000E+00
    0.10246E+06        -0.97598E+08         0.00000E+00
    0.00000E+00         0.00000E+00        -0.48108E+08
 
   -0.47066E+08         0.10727E+06         0.00000E+00
    0.10727E+06        -0.97598E+08         0.00000E+00
    0.00000E+00         0.00000E+00        -0.47998E+08
 
   -0.46911E+08         0.11221E+06         0.00000E+00
    0.11221E+06        -0.97598E+08         0.00000E+00
    0.00000E+00         0.00000E+00        -0.47882E+08
 
   -0.46750E+08         0.11725E+06         0.00000E+00
    0.11725E+06        -0.97598E+08         0.00000E+00
    0.00000E+00         0.00000E+00        -0.47759E+08
 
   -0.46581E+08         0.12238E+06         0.00000E+00
    0.12238E+06        -0.97598E+08         0.00000E+00
    0.00000E+00         0.00000E+00        -0.47629E+08
 
   -0.46405E+08         0.12756E+06         0.00000E+00
    0.12756E+06        -0.97598E+08         0.00000E+00
    0.00000E+00         0.00000E+00        -0.47492E+08
 
   -0.46221E+08         0.13276E+06         0.00000E+00
    0.13276E+06        -0.97598E+08         0.00000E+00
    0.00000E+00         0.00000E+00        -0.47346E+08
 
   -0.46031E+08         0.13792E+06         0.00000E+00
    0.13792E+06        -0.97598E+08         0.00000E+00
    0.00000E+00         0.00000E+00        -0.47191E+08
 
   -0.45833E+08         0.14300E+06         0.00000E+00
    0.14300E+06        -0.97598E+08         0.00000E+00
    0.00000E+00         0.00000E+00        -0.47028E+08
 
   -0.45629E+08         0.14791E+06         0.00000E+00
    0.14791E+06        -0.97598E+08         0.00000E+00
    0.00000E+00         0.00000E+00        -0.46854E+08
 
   -0.45418E+08         0.15257E+06         0.00000E+00
    0.15257E+06        -0.97598E+08         0.00000E+00
    0.00000E+00         0.00000E+00        -0.46670E+08
 
   -0.45201E+08         0.15687E+06         0.00000E+00
    0.15687E+06        -0.97598E+08         0.00000E+00
    0.00000E+00         0.00000E+00        -0.46475E+08
 
   -0.44978E+08         0.16068E+06         0.00000E+00
    0.16068E+06        -0.97598E+08         0.00000E+00
    0.00000E+00         0.00000E+00        -0.46268E+08
 
   -0.44750E+08         0.16383E+06         0.00000E+00
    0.16383E+06        -0.97599E+08         0.00000E+00
    0.00000E+00         0.00000E+00        -0.46049E+08
 
   -0.44519E+08         0.16613E+06         0.00000E+00
    0.16613E+06        -0.97599E+08         0.00000E+00
    0.00000E+00         0.00000E+00        -0.45817E+08
 
   -0.44286E+08         0.16736E+06         0.00000E+00
    0.16736E+06        -0.97599E+08         0.00000E+00
    0.00000E+00         0.00000E+00        -0.45570E+08
 
   -0.44052E+08         0.16724E+06         0.00000E+00
    0.16724E+06        -0.97600E+08         0.00000E+00
    0.00000E+00         0.00000E+00        -0.45308E+08
 
   -0.43819E+08         0.16546E+06         0.00000E+00
    0.16546E+06        -0.97601E+08         0.00000E+00
    0.00000E+00         0.00000E+00        -0.45029E+08
 
   -0.43590E+08         0.16167E+06         0.00000E+00
    0.16167E+06        -0.97601E+08         0.00000E+00
    0.00000E+00         0.00000E+00        -0.44734E+08
 
   -0.43368E+08         0.15545E+06         0.00000E+00
    0.15545E+06        -0.97602E+08         0.00000E+00
    0.00000E+00         0.00000E+00        -0.44420E+08
 
   -0.43156E+08         0.14635E+06         0.00000E+00
    0.14635E+06        -0.97603E+08         0.00000E+00
    0.00000E+00         0.00000E+00        -0.44086E+08
 
   -0.42958E+08         0.13388E+06         0.00000E+00
    0.13388E+06        -0.97605E+08         0.00000E+00
    0.00000E+00         0.00000E+00        -0.43732E+08
 
   -0.42780E+08         0.11753E+06         0.00000E+00
    0.11753E+06        -0.97606E+08         0.00000E+00
    0.00000E+00         0.00000E+00        -0.43355E+08
 
   -0.42626E+08         0.96784E+05         0.00000E+00
    0.96784E+05        -0.97608E+08         0.00000E+00
    0.00000E+00         0.00000E+00        -0.42953E+08
 
   -0.42501E+08         0.71144E+05         0.00000E+00
    0.71144E+05        -0.97610E+08         0.00000E+00
    0.00000E+00         0.00000E+00        -0.42526E+08
 
   -0.42414E+08         0.40200E+05         0.00000E+00
    0.40200E+05        -0.97612E+08         0.00000E+00
    0.00000E+00         0.00000E+00        -0.42071E+08
 
   -0.42369E+08         0.36725E+04         0.00000E+00
    0.36725E+04        -0.97614E+08         0.00000E+00
    0.00000E+00         0.00000E+00        -0.41587E+08
 
   -0.42374E+08        -0.38517E+05         0.00000E+00
   -0.38517E+05        -0.97616E+08         0.00000E+00
    0.00000E+00         0.00000E+00        -0.41071E+08
 
   -0.42435E+08        -0.86160E+05         0.00000E+00
   -0.86160E+05        -0.97618E+08         0.00000E+00
    0.00000E+00         0.00000E+00        -0.40520E+08
 
   -0.42556E+08        -0.13867E+06         0.00000E+00
   -0.13867E+06        -0.97620E+08         0.00000E+00
    0.00000E+00         0.00000E+00        -0.39932E+08
 
   -0.42741E+08        -0.19494E+06         0.00000E+00
   -0.19494E+06        -0.97621E+08         0.00000E+00
    0.00000E+00         0.00000E+00        -0.39305E+08
 
   -0.42989E+08        -0.25328E+06         0.00000E+00
   -0.25328E+06        -0.97622E+08         0.00000E+00
    0.00000E+00         0.00000E+00        -0.38636E+08
 
   -0.43293E+08        -0.30992E+06         0.00000E+00
   -0.30992E+06        -0.97622E+08         0.00000E+00
    0.00000E+00         0.00000E+00        -0.37920E+08
 
   -0.43634E+08        -0.36068E+06         0.00000E+00
   -0.36068E+06        -0.97620E+08         0.00000E+00
    0.00000E+00         0.00000E+00        -0.37154E+08
 
   -0.43943E+08        -0.37744E+06         0.00000E+00
   -0.37744E+06        -0.97624E+08         0.00000E+00
    0.00000E+00         0.00000E+00        -0.36334E+08
 
   -0.44098E+08        -0.19964E+06         0.00000E+00
   -0.19964E+06        -0.97441E+08         0.00000E+00
    0.00000E+00         0.00000E+00        -0.35455E+08
 
   -0.49875E+08        -0.12245E+04         0.00000E+00
   -0.12245E+04        -0.97601E+08         0.00000E+00
    0.00000E+00         0.00000E+00        -0.49997E+08
 
   -0.49877E+08        -0.18404E+04         0.00000E+00
   -0.18404E+04        -0.97600E+08         0.00000E+00
    0.00000E+00         0.00000E+00        -0.49990E+08
 
   -0.49878E+08        -0.13260E+04         0.00000E+00
   -0.13260E+04        -0.97600E+08         0.00000E+00
    0.00000E+00         0.00000E+00        -0.49984E+08
 
   -0.49880E+08        -0.76481E+03         0.00000E+00
   -0.76481E+03        -0.97600E+08         0.00000E+00
    0.00000E+00         0.00000E+00        -0.49978E+08
 
   -0.49880E+08        -0.18844E+03         0.00000E+00
   -0.18844E+03        -0.97600E+08         0.00000E+00
    0.00000E+00         0.00000E+00        -0.49971E+08
 
   -0.49880E+08         0.38715E+03         0.00000E+00
    0.38715E+03        -0.97600E+08         0.00000E+00
    0.00000E+00         0.00000E+00        -0.49965E+08
 
   -0.49878E+08         0.94972E+03         0.00000E+00
    0.94972E+03        -0.97600E+08         0.00000E+00
    0.00000E+00         0.00000E+00        -0.49959E+08
 
   -0.49875E+08         0.14944E+04         0.00000E+00
    0.14944E+04        -0.97600E+08         0.00000E+00
    0.00000E+00         0.00000E+00        -0.49952E+08
 
   -0.49872E+08         0.20178E+04         0.00000E+00
    0.20178E+04        -0.97600E+08         0.00000E+00
    0.00000E+00         0.00000E+00        -0.49946E+08
 
   -0.49867E+08         0.25187E+04         0.00000E+00
    0.25187E+04        -0.97600E+08         0.00000E+00
    0.00000E+00         0.00000E+00        -0.49939E+08
 
   -0.49862E+08         0.29975E+04         0.00000E+00
    0.29975E+04        -0.97600E+08         0.00000E+00
    0.00000E+00         0.00000E+00        -0.49932E+08
 
   -0.49855E+08         0.34558E+04         0.00000E+00
    0.34558E+04        -0.97600E+08         0.00000E+00
    0.00000E+00         0.00000E+00        -0.49926E+08
 
   -0.49848E+08         0.38963E+04         0.00000E+00
    0.38963E+04        -0.97600E+08         0.00000E+00
    0.00000E+00         0.00000E+00        -0.49918E+08
 
   -0.49840E+08         0.43221E+04         0.00000E+00
    0.43221E+04        -0.97600E+08         0.00000E+00
    0.00000E+00         0.00000E+00        -0.49911E+08
 
   -0.49831E+08         0.47368E+04         0.00000E+00
    0.47368E+04        -0.97600E+08         0.00000E+00
    0.00000E+00         0.00000E+00        -0.49904E+08
 
   -0.49821E+08         0.51442E+04         0.00000E+00
    0.51442E+04        -0.97600E+08         0.00000E+00
    0.00000E+00         0.00000E+00        -0.49896E+08
 
   -0.49810E+08         0.55479E+04         0.00000E+00
    0.55479E+04        -0.97600E+08         0.00000E+00
    0.00000E+00         0.00000E+00        -0.49887E+08
 
   -0.49799E+08         0.59517E+04         0.00000E+00
    0.59517E+04        -0.97600E+08         0.00000E+00
    0.00000E+00         0.00000E+00        -0.49879E+08
 
   -0.49787E+08         0.63588E+04         0.00000E+00
    0.63588E+04        -0.97600E+08         0.00000E+00
    0.00000E+00         0.00000E+00        -0.49870E+08
 
   -0.49774E+08         0.67727E+04         0.00000E+00
    0.67727E+04        -0.97600E+08         0.00000E+00
    0.00000E+00         0.00000E+00        -0.49861E+08
 
   -0.49760E+08         0.71962E+04         0.00000E+00
    0.71962E+04        -0.97600E+08         0.00000E+00
    0.00000E+00         0.00000E+00        -0.49851E+08
 
   -0.49745E+08         0.76323E+04         0.00000E+00
    0.76323E+04        -0.97600E+08         0.00000E+00
    0.00000E+00         0.00000E+00        -0.49841E+08
 
   -0.49729E+08         0.80836E+04         0.00000E+00
    0.80836E+04        -0.97600E+08         0.00000E+00
    0.00000E+00         0.00000E+00        -0.49830E+08
 
   -0.49713E+08         0.85527E+04         0.00000E+00
    0.85527E+04        -0.97600E+08         0.00000E+00
    0.00000E+00         0.00000E+00        -0.49819E+08
 
   -0.49695E+08         0.90419E+04         0.00000E+00
    0.90419E+04        -0.97600E+08         0.00000E+00
    0.00000E+00         0.00000E+00        -0.49808E+08
 
   -0.49677E+08         0.95535E+04         0.00000E+00
    0.95535E+04        -0.97600E+08         0.00000E+00
    0.00000E+00         0.00000E+00        -0.49795E+08
 
   -0.49657E+08         0.10090E+05         0.00000E+00
    0.10090E+05        -0.97600E+08         0.00000E+00
    0.00000E+00         0.00000E+00        -0.49782E+08
 
   -0.49637E+08         0.10653E+05         0.00000E+00
    0.10653E+05        -0.97600E+08         0.00000E+00
    0.00000E+00         0.00000E+00        -0.49769E+08
 
   -0.49615E+08         0.11245E+05         0.00000E+00
    0.11245E+05        -0.97600E+08         0.00000E+00
    0.00000E+00         0.00000E+00        -0.49755E+08
 
   -0.49592E+08         0.11868E+05         0.00000E+00
    0.11868E+05        -0.97600E+08         0.00000E+00
    0.00000E+00         0.00000E+00        -0.49740E+08
 
   -0.49568E+08         0.12525E+05         0.00000E+00
    0.12525E+05        -0.97600E+08         0.00000E+00
    0.00000E+00         0.00000E+00        -0.49724E+08
 
   -0.49542E+08         0.13217E+05         0.00000E+00
    0.13217E+05        -0.97600E+08         0.00000E+00
    0.00000E+00         0.00000E+00        -0.49707E+08
 
   -0.49515E+08         0.13946E+05         0.00000E+00
    0.13946E+05        -0.97600E+08         0.00000E+00
    0.00000E+00         0.00000E+00        -0.49690E+08
 
   -0.49487E+08         0.14715E+05         0.00000E+00
    0.14715E+05        -0.97600E+08         0.00000E+00
    0.00000E+00         0.00000E+00        -0.49671E+08
 
   -0.49457E+08         0.15527E+05         0.00000E+00
    0.15527E+05        -0.97600E+08         0.00000E+00
    0.00000E+00         0.00000E+00        -0.49651E+08
 
   -0.49425E+08         0.16383E+05         0.00000E+00
    0.16383E+05        -0.97600E+08         0.00000E+00
    0.00000E+00         0.00000E+00        -0.49631E+08
 
   -0.49392E+08         0.17286E+05         0.00000E+00
    0.17286E+05        -0.97600E+08         0.00000E+00
    0.00000E+00         0.00000E+00        -0.49609E+08
 
   -0.49356E+08         0.18238E+05         0.00000E+00
    0.18238E+05        -0.97600E+08         0.00000E+00
    0.00000E+00         0.00000E+00        -0.49586E+08
 
   -0.49319E+08         0.19243E+05         0.00000E+00
    0.19243E+05        -0.97600E+08         0.00000E+00
    0.00000E+00         0.00000E+00        -0.49562E+08
 
   -0.49280E+08         0.20302E+05         0.00000E+00
    0.20302E+05        -0.97600E+08         0.00000E+00
    0.00000E+00         0.00000E+00        -0.49536E+08
 
   -0.49239E+08         0.21419E+05         0.00000E+00
    0.21419E+05        -0.97600E+08         0.00000E+00
    0.00000E+00         0.00000E+00        -0.49509E+08
 
   -0.49195E+08         0.22597E+05         0.00000E+00
    0.22597E+05        -0.97600E+08         0.00000E+00
    0.00000E+00         0.00000E+00        -0.49480E+08
 
   -0.49149E+08         0.23837E+05         0.00000E+00
    0.23837E+05        -0.97600E+08         0.00000E+00
    0.00000E+00         0.00000E+00        -0.49450E+08
 
   -0.49100E+08         0.25145E+05         0.00000E+00
    0.25145E+05        -0.97600E+08         0.00000E+00
    0.00000E+00         0.00000E+00        -0.49418E+08
 
   -0.49049E+08         0.26521E+05         0.00000E+00
    0.26521E+05        -0.97600E+08         0.00000E+00
    0.00000E+00         0.00000E+00        -0.49384E+08
 
   -0.48995E+08         0.27971E+05         0.00000E+00
    0.27971E+05        -0.97600E+08         0.00000E+00
    0.00000E+00         0.00000E+00        -0.49349E+08
 
   -0.48938E+08         0.29496E+05         0.00000E+00
    0.29496E+05        -0.97600E+08         0.00000E+00
    0.00000E+00         0.00000E+00        -0.49311E+08
 
   -0.48877E+08         0.31101E+05         0.00000E+00
    0.31101E+05        -0.97600E+08         0.00000E+00
    0.00000E+00         0.00000E+00        -0.49271E+08
 
   -0.48814E+08         0.32788E+05         0.00000E+00
    0.32788E+05        -0.97599E+08         0.00000E+00
    0.00000E+00         0.00000E+00        -0.49229E+08
 
   -0.48747E+08         0.34562E+05         0.00000E+00
    0.34562E+05        -0.97599E+08         0.00000E+00
    0.00000E+00         0.00000E+00        -0.49184E+08
 
   -0.48677E+08         0.36424E+05         0.00000E+00
    0.36424E+05        -0.97599E+08         0.00000E+00
    0.00000E+00         0.00000E+00        -0.49137E+08
 
   -0.48602E+08         0.38380E+05         0.00000E+00
    0.38380E+05        -0.97599E+08         0.00000E+00
    0.00000E+00         0.00000E+00        -0.49088E+08
 
   -0.48524E+08         0.40432E+05         0.00000E+00
    0.40432E+05        -0.97599E+08         0.00000E+00
    0.00000E+00         0.00000E+00        -0.49035E+08
 
   -0.48442E+08         0.42583E+05         0.00000E+00
    0.42583E+05        -0.97599E+08         0.00000E+00
    0.00000E+00         0.00000E+00        -0.48979E+08
 
   -0.48355E+08         0.44837E+05         0.00000E+00
    0.44837E+05        -0.97599E+08         0.00000E+00
    0.00000E+00         0.00000E+00        -0.48920E+08
 
   -0.48264E+08         0.47197E+05         0.00000E+00
    0.47197E+05        -0.97599E+08         0.00000E+00
    0.00000E+00         0.00000E+00        -0.48858E+08
 
   -0.48168E+08         0.49664E+05         0.00000E+00
    0.49664E+05        -0.97599E+08         0.00000E+00
    0.00000E+00         0.00000E+00        -0.48792E+08
 
   -0.48067E+08         0.52242E+05         0.00000E+00
    0.52242E+05        -0.97599E+08         0.00000E+00
    0.00000E+00         0.00000E+00        -0.48723E+08
 
   -0.47960E+08         0.54932E+05         0.00000E+00
    0.54932E+05        -0.97599E+08         0.00000E+00
    0.00000E+00         0.00000E+00        -0.48649E+08
 
   -0.47849E+08         0.57736E+05         0.00000E+00
    0.57736E+05        -0.97599E+08         0.00000E+00
    0.00000E+00         0.00000E+00        -0.48571E+08
 
   -0.47731E+08         0.60655E+05         0.00000E+00
    0.60655E+05        -0.97599E+08         0.00000E+00
    0.00000E+00         0.00000E+00        -0.48488E+08
 
   -0.47608E+08         0.63687E+05         0.00000E+00
    0.63687E+05        -0.97599E+08         0.00000E+00
    0.00000E+00         0.00000E+00        -0.48401E+08
 
   -0.47479E+08         0.66832E+05         0.00000E+00
    0.66832E+05        -0.97599E+08         0.00000E+00
    0.00000E+00         0.00000E+00        -0.48309E+08
 
   -0.47343E+08         0.70087E+05         0.00000E+00
    0.70087E+05        -0.97599E+08         0.00000E+00
    0.00000E+00         0.00000E+00        -0.48211E+08
 
   -0.47201E+08         0.73448E+05         0.00000E+00
    0.73448E+05        -0.97599E+08         0.00000E+00
    0.00000E+00         0.00000E+00        -0.48108E+08
 
   -0.47052E+08         0.76907E+05         0.00000E+00
    0.76907E+05        -0.97599E+08         0.00000E+00
    0.00000E+00         0.00000E+00        -0.47998E+08
 
   -0.46896E+08         0.80457E+05         0.00000E+00
    0.80457E+05        -0.97599E+08         0.00000E+00
    0.00000E+00         0.00000E+00        -0.47882E+08
 
   -0.46733E+08         0.84084E+05         0.00000E+00
    0.84084E+05        -0.97599E+08         0.00000E+00
    0.00000E+00         0.00000E+00        -0.47759E+08
 
   -0.46563E+08         0.87773E+05         0.00000E+00
    0.87773E+05        -0.97599E+08         0.00000E+00
    0.00000E+00         0.00000E+00        -0.47629E+08
 
   -0.46386E+08         0.91502E+05         0.00000E+00
    0.91502E+05        -0.97599E+08         0.00000E+00
    0.00000E+00         0.00000E+00        -0.47492E+08
 
   -0.46201E+08         0.95246E+05         0.00000E+00
    0.95246E+05        -0.97599E+08         0.00000E+00
    0.00000E+00         0.00000E+00        -0.47346E+08
 
   -0.46009E+08         0.98971E+05         0.00000E+00
    0.98971E+05        -0.97599E+08         0.00000E+00
    0.00000E+00         0.00000E+00        -0.47191E+08
 
   -0.45810E+08         0.10263E+06         0.00000E+00
    0.10263E+06        -0.97599E+08         0.00000E+00
    0.00000E+00         0.00000E+00        -0.47027E+08
 
   -0.45604E+08         0.10618E+06         0.00000E+00
    0.10618E+06        -0.97599E+08         0.00000E+00
    0.00000E+00         0.00000E+00        -0.46854E+08
 
   -0.45392E+08         0.10956E+06         0.00000E+00
    0.10956E+06        -0.97599E+08         0.00000E+00
    0.00000E+00         0.00000E+00        -0.46670E+08
 
   -0.45173E+08         0.11267E+06         0.00000E+00
    0.11267E+06        -0.97599E+08         0.00000E+00
    0.00000E+00         0.00000E+00        -0.46475E+08
 
   -0.44948E+08         0.11543E+06         0.00000E+00
    0.11543E+06        -0.97599E+08         0.00000E+00
    0.00000E+00         0.00000E+00        -0.46268E+08
 
   -0.44718E+08         0.11773E+06         0.00000E+00
    0.11773E+06        -0.97599E+08         0.00000E+00
    0.00000E+00         0.00000E+00        -0.46049E+08
 
   -0.44485E+08         0.11941E+06         0.00000E+00
    0.11941E+06        -0.97599E+08         0.00000E+00
    0.00000E+00         0.00000E+00        -0.45816E+08
 
   -0.44249E+08         0.12032E+06         0.00000E+00
    0.12032E+06        -0.97599E+08         0.00000E+00
    0.00000E+00         0.00000E+00        -0.45570E+08
 
   -0.44013E+08         0.12025E+06         0.00000E+00
    0.12025E+06        -0.97600E+08         0.00000E+00
    0.00000E+00         0.00000E+00        -0.45308E+08
 
   -0.43778E+08         0.11898E+06         0.00000E+00
    0.11898E+06        -0.97600E+08         0.00000E+00
    0.00000E+00         0.00000E+00        -0.45029E+08
 
   -0.43547E+08         0.11625E+06         0.00000E+00
    0.11625E+06        -0.97600E+08         0.00000E+00
    0.00000E+00         0.00000E+00        -0.44734E+08
 
   -0.43322E+08         0.11174E+06         0.00000E+00
    0.11174E+06        -0.97601E+08         0.00000E+00
    0.00000E+00         0.00000E+00        -0.44420E+08
 
   -0.43109E+08         0.10513E+06         0.00000E+00
    0.10513E+06        -0.97602E+08         0.00000E+00
    0.00000E+00         0.00000E+00        -0.44086E+08
 
   -0.42910E+08         0.96053E+05         0.00000E+00
    0.96053E+05        -0.97602E+08         0.00000E+00
    0.00000E+00         0.00000E+00        -0.43732E+08
 
   -0.42732E+08         0.84115E+05         0.00000E+00
    0.84115E+05        -0.97603E+08         0.00000E+00
    0.00000E+00         0.00000E+00        -0.43355E+08
 
   -0.42578E+08         0.68925E+05         0.00000E+00
    0.68925E+05        -0.97604E+08         0.00000E+00
    0.00000E+00         0.00000E+00        -0.42953E+08
 
   -0.42456E+08         0.50108E+05         0.00000E+00
    0.50108E+05        -0.97605E+08         0.00000E+00
    0.00000E+00         0.00000E+00        -0.42526E+08
 
   -0.42373E+08         0.27333E+05         0.00000E+00
    0.27333E+05        -0.97606E+08         0.00000E+00
    0.00000E+00         0.00000E+00        -0.42071E+08
 
   -0.42335E+08         0.36092E+03         0.00000E+00
    0.36092E+03        -0.97607E+08         0.00000E+00
    0.00000E+00         0.00000E+00        -0.41587E+08
 
   -0.42351E+08        -0.30914E+05         0.00000E+00
   -0.30914E+05        -0.97608E+08         0.00000E+00
    0.00000E+00         0.00000E+00        -0.41071E+08
 
   -0.42426E+08        -0.66406E+05         0.00000E+00
   -0.66406E+05        -0.97609E+08         0.00000E+00
    0.00000E+00         0.00000E+00        -0.40520E+08
 
   -0.42566E+08        -0.10580E+06         0.00000E+00
   -0.10580E+06        -0.97610E+08         0.00000E+00
    0.00000E+00         0.00000E+00        -0.39933E+08
 
   -0.42778E+08        -0.14846E+06         0.00000E+00
   -0.14846E+06        -0.97611E+08         0.00000E+00
    0.00000E+00         0.00000E+00        -0.39306E+08
 
   -0.43062E+08        -0.19351E+06         0.00000E+00
   -0.19351E+06        -0.97612E+08         0.00000E+00
    0.00000E+00         0.00000E+00        -0.38636E+08
 
   -0.43414E+08        -0.23902E+06         0.00000E+00
   -0.23902E+06        -0.97613E+08         0.00000E+00
    0.00000E+00         0.00000E+00        -0.37920E+08
 
   -0.43822E+08        -0.28247E+06         0.00000E+00
   -0.28247E+06        -0.97611E+08         0.00000E+00
    0.00000E+00         0.00000E+00        -0.37154E+08
 
   -0.44234E+08        -0.31907E+06         0.00000E+00
   -0.31907E+06        -0.97626E+08         0.00000E+00
    0.00000E+00         0.00000E+00        -0.36334E+08
 
   -0.44485E+08        -0.19376E+06         0.00000E+00
   -0.19376E+06        -0.97508E+08         0.00000E+00
    0.00000E+00         0.00000E+00        -0.35455E+08
 
   -0.49872E+08        -0.11755E+04         0.00000E+00
   -0.11755E+04        -0.97600E+08         0.00000E+00
    0.00000E+00         0.00000E+00        -0.49997E+08
 
   -0.49874E+08        -0.13819E+04         0.00000E+00
   -0.13819E+04        -0.97600E+08         0.00000E+00
    0.00000E+00         0.00000E+00        -0.49990E+08
 
   -0.49877E+08        -0.91890E+03         0.00000E+00
   -0.91890E+03        -0.97600E+08         0.00000E+00
    0.00000E+00         0.00000E+00        -0.49984E+08
 
   -0.49878E+08        -0.55136E+03         0.00000E+00
   -0.55136E+03        -0.97600E+08         0.00000E+00
    0.00000E+00         0.00000E+00        -0.49978E+08
 
   -0.49879E+08        -0.17522E+03         0.00000E+00
   -0.17522E+03        -0.97600E+08         0.00000E+00
    0.00000E+00         0.00000E+00        -0.49971E+08
 
   -0.49879E+08         0.18758E+03         0.00000E+00
    0.18758E+03        -0.97600E+08         0.00000E+00
    0.00000E+00         0.00000E+00        -0.49965E+08
 
   -0.49877E+08         0.53880E+03         0.00000E+00
    0.53880E+03        -0.97600E+08         0.00000E+00
    0.00000E+00         0.00000E+00        -0.49959E+08
 
   -0.49875E+08         0.87586E+03         0.00000E+00
    0.87586E+03        -0.97600E+08         0.00000E+00
    0.00000E+00         0.00000E+00        -0.49952E+08
 
   -0.49871E+08         0.11980E+04         0.00000E+00
    0.11980E+04        -0.97600E+08         0.00000E+00
    0.00000E+00         0.00000E+00        -0.49946E+08
 
   -0.49867E+08         0.15049E+04         0.00000E+00
    0.15049E+04        -0.97600E+08         0.00000E+00
    0.00000E+00         0.00000E+00        -0.49939E+08
 
   -0.49861E+08         0.17972E+04         0.00000E+00
    0.17972E+04        -0.97600E+08         0.00000E+00
    0.00000E+00         0.00000E+00        -0.49932E+08
 
   -0.49855E+08         0.20761E+04         0.00000E+00
    0.20761E+04        -0.97600E+08         0.00000E+00
    0.00000E+00         0.00000E+00        -0.49926E+08
 
   -0.49847E+08         0.23434E+04         0.00000E+00
    0.23434E+04        -0.97600E+08         0.00000E+00
    0.00000E+00         0.00000E+00        -0.49918E+08
 
   -0.49839E+08         0.26013E+04         0.00000E+00
    0.26013E+04        -0.97600E+08         0.00000E+00
    0.00000E+00         0.00000E+00        -0.49911E+08
 
   -0.49830E+08         0.28520E+04         0.00000E+00
    0.28520E+04        -0.97600E+08         0.00000E+00
    0.00000E+00         0.00000E+00        -0.49904E+08
 
   -0.49820E+08         0.30978E+04         0.00000E+00
    0.30978E+04        -0.97600E+08         0.00000E+00
    0.00000E+00         0.00000E+00        -0.49896E+08
 
   -0.49810E+08         0.33412E+04         0.00000E+00
    0.33412E+04        -0.97600E+08         0.00000E+00
    0.00000E+00         0.00000E+00        -0.49887E+08
 
   -0.49798E+08         0.35844E+04         0.00000E+00
    0.35844E+04        -0.97600E+08         0.00000E+00
    0.00000E+00         0.00000E+00        -0.49879E+08
 
   -0.49786E+08         0.38294E+04         0.00000E+00
    0.38294E+04        -0.97600E+08         0.00000E+00
    0.00000E+00         0.00000E+00        -0.49870E+08
 
   -0.49773E+08         0.40784E+04         0.00000E+00
    0.40784E+04        -0.97600E+08         0.00000E+00
    0.00000E+00         0.00000E+00        -0.49861E+08
 
   -0.49759E+08         0.43331E+04         0.00000E+00
    0.43331E+04        -0.97600E+08         0.00000E+00
    0.00000E+00         0.00000E+00        -0.49851E+08
 
   -0.49744E+08         0.45953E+04         0.00000E+00
    0.45953E+04        -0.97600E+08         0.00000E+00
    0.00000E+00         0.00000E+00        -0.49841E+08
 
   -0.49728E+08         0.48667E+04         0.00000E+00
    0.48667E+04        -0.97600E+08         0.00000E+00
    0.00000E+00         0.00000E+00        -0.49830E+08
 
   -0.49712E+08         0.51488E+04         0.00000E+00
    0.51488E+04        -0.97600E+08         0.00000E+00
    0.00000E+00         0.00000E+00        -0.49819E+08
 
   -0.49694E+08         0.54430E+04         0.00000E+00
    0.54430E+04        -0.97600E+08         0.00000E+00
    0.00000E+00         0.00000E+00        -0.49808E+08
 
   -0.49676E+08         0.57507E+04         0.00000E+00
    0.57507E+04        -0.97600E+08         0.00000E+00
    0.00000E+00         0.00000E+00        -0.49795E+08
 
   -0.49656E+08         0.60732E+04         0.00000E+00
    0.60732E+04        -0.97600E+08         0.00000E+00
    0.00000E+00         0.00000E+00        -0.49782E+08
 
   -0.49635E+08         0.64120E+04         0.00000E+00
    0.64120E+04        -0.97600E+08         0.00000E+00
    0.00000E+00         0.00000E+00        -0.49769E+08
 
   -0.49614E+08         0.67681E+04         0.00000E+00
    0.67681E+04        -0.97600E+08         0.00000E+00
    0.00000E+00         0.00000E+00        -0.49755E+08
 
   -0.49591E+08         0.71431E+04         0.00000E+00
    0.71431E+04        -0.97600E+08         0.00000E+00
    0.00000E+00         0.00000E+00        -0.49740E+08
 
   -0.49566E+08         0.75380E+04         0.00000E+00
    0.75380E+04        -0.97600E+08         0.00000E+00
    0.00000E+00         0.00000E+00        -0.49724E+08
 
   -0.49541E+08         0.79543E+04         0.00000E+00
    0.79543E+04        -0.97600E+08         0.00000E+00
    0.00000E+00         0.00000E+00        -0.49707E+08
 
   -0.49513E+08         0.83933E+04         0.00000E+00
    0.83933E+04        -0.97600E+08         0.00000E+00
    0.00000E+00         0.00000E+00        -0.49690E+08
 
   -0.49485E+08         0.88562E+04         0.00000E+00
    0.88562E+04        -0.97600E+08         0.00000E+00
    0.00000E+00         0.00000E+00        -0.49671E+08
 
   -0.49455E+08         0.93446E+04         0.00000E+00
    0.93446E+04        -0.97600E+08         0.00000E+00
    0.00000E+00         0.00000E+00        -0.49651E+08
 
   -0.49423E+08         0.98598E+04         0.00000E+00
    0.98598E+04        -0.97600E+08         0.00000E+00
    0.00000E+00         0.00000E+00        -0.49631E+08
 
   -0.49389E+08         0.10403E+05         0.00000E+00
    0.10403E+05        -0.97600E+08         0.00000E+00
    0.00000E+00         0.00000E+00        -0.49609E+08
 
   -0.49354E+08         0.10977E+05         0.00000E+00
    0.10977E+05        -0.97600E+08         0.00000E+00
    0.00000E+00         0.00000E+00        -0.49586E+08
 
   -0.49316E+08         0.11581E+05         0.00000E+00
    0.11581E+05        -0.97600E+08         0.00000E+00
    0.00000E+00         0.00000E+00        -0.49562E+08
 
   -0.49277E+08         0.12219E+05         0.00000E+00
    0.12219E+05        -0.97600E+08         0.00000E+00
    0.00000E+00         0.00000E+00        -0.49536E+08
 
   -0.49235E+08         0.12891E+05         0.00000E+00
    0.12891E+05        -0.97600E+08         0.00000E+00
    0.00000E+00         0.00000E+00        -0.49509E+08
 
   -0.49192E+08         0.13600E+05         0.00000E+00
    0.13600E+05        -0.97600E+08         0.00000E+00
    0.00000E+00         0.00000E+00        -0.49480E+08
 
   -0.49145E+08         0.14347E+05         0.00000E+00
    0.14347E+05        -0.97600E+08         0.00000E+00
    0.00000E+00         0.00000E+00        -0.49450E+08
 
   -0.49096E+08         0.15134E+05         0.00000E+00
    0.15134E+05        -0.97600E+08         0.00000E+00
    0.00000E+00         0.00000E+00        -0.49418E+08
 
   -0.49045E+08         0.15963E+05         0.00000E+00
    0.15963E+05        -0.97600E+08         0.00000E+00
    0.00000E+00         0.00000E+00        -0.49384E+08
 
   -0.48991E+08         0.16836E+05         0.00000E+00
    0.16836E+05        -0.97600E+08         0.00000E+00
    0.00000E+00         0.00000E+00        -0.49349E+08
 
   -0.48933E+08         0.17754E+05         0.00000E+00
    0.17754E+05        -0.97600E+08         0.00000E+00
    0.00000E+00         0.00000E+00        -0.49311E+08
 
   -0.48873E+08         0.18721E+05         0.00000E+00
    0.18721E+05        -0.97600E+08         0.00000E+00
    0.00000E+00         0.00000E+00        -0.49271E+08
 
   -0.48809E+08         0.19737E+05         0.00000E+00
    0.19737E+05        -0.97600E+08         0.00000E+00
    0.00000E+00         0.00000E+00        -0.49229E+08
 
   -0.48742E+08         0.20805E+05         0.00000E+00
    0.20805E+05        -0.97600E+08         0.00000E+00
    0.00000E+00         0.00000E+00        -0.49184E+08
 
   -0.48671E+08         0.21928E+05         0.00000E+00
    0.21928E+05        -0.97600E+08         0.00000E+00
    0.00000E+00         0.00000E+00        -0.49137E+08
 
   -0.48597E+08         0.23106E+05         0.00000E+00
    0.23106E+05        -0.97600E+08         0.00000E+00
    0.00000E+00         0.00000E+00        -0.49088E+08
 
   -0.48518E+08         0.24342E+05         0.00000E+00
    0.24342E+05        -0.97600E+08         0.00000E+00
    0.00000E+00         0.00000E+00        -0.49035E+08
 
   -0.48435E+08         0.25639E+05         0.00000E+00
    0.25639E+05        -0.97600E+08         0.00000E+00
    0.00000E+00         0.00000E+00        -0.48979E+08
 
   -0.48348E+08         0.26997E+05         0.00000E+00
    0.26997E+05        -0.97600E+08         0.00000E+00
    0.00000E+00         0.00000E+00        -0.48920E+08
 
   -0.48256E+08         0.28419E+05         0.00000E+00
    0.28419E+05        -0.97600E+08         0.00000E+00
    0.00000E+00         0.00000E+00        -0.48858E+08
 
   -0.48160E+08         0.29907E+05         0.00000E+00
    0.29907E+05        -0.97600E+08         0.00000E+00
    0.00000E+00         0.00000E+00        -0.48792E+08
 
   -0.48058E+08         0.31461E+05         0.00000E+00
    0.31461E+05        -0.97600E+08         0.00000E+00
    0.00000E+00         0.00000E+00        -0.48723E+08
 
   -0.47951E+08         0.33084E+05         0.00000E+00
    0.33084E+05        -0.97600E+08         0.00000E+00
    0.00000E+00         0.00000E+00        -0.48649E+08
 
   -0.47839E+08         0.34775E+05         0.00000E+00
    0.34775E+05        -0.97600E+08         0.00000E+00
    0.00000E+00         0.00000E+00        -0.48571E+08
 
   -0.47721E+08         0.36536E+05         0.00000E+00
    0.36536E+05        -0.97600E+08         0.00000E+00
    0.00000E+00         0.00000E+00        -0.48488E+08
 
   -0.47597E+08         0.38367E+05         0.00000E+00
    0.38367E+05        -0.97600E+08         0.00000E+00
    0.00000E+00         0.00000E+00        -0.48401E+08
 
   -0.47467E+08         0.40266E+05         0.00000E+00
    0.40266E+05        -0.97600E+08         0.00000E+00
    0.00000E+00         0.00000E+00        -0.48309E+08
 
   -0.47331E+08         0.42232E+05         0.00000E+00
    0.42232E+05        -0.97600E+08         0.00000E+00
    0.00000E+00         0.00000E+00        -0.48211E+08
 
   -0.47188E+08         0.44263E+05         0.00000E+00
    0.44263E+05        -0.97599E+08         0.00000E+00
    0.00000E+00         0.00000E+00        -0.48107E+08
 
   -0.47038E+08         0.46355E+05         0.00000E+00
    0.46355E+05        -0.97599E+08         0.00000E+00
    0.00000E+00         0.00000E+00        -0.47998E+08
 
   -0.46881E+08         0.48502E+05         0.00000E+00
    0.48502E+05        -0.97599E+08         0.00000E+00
    0.00000E+00         0.00000E+00        -0.47882E+08
 
   -0.46717E+08         0.50698E+05         0.00000E+00
    0.50698E+05        -0.97599E+08         0.00000E+00
    0.00000E+00         0.00000E+00        -0.47759E+08
 
   -0.46546E+08         0.52933E+05         0.00000E+00
    0.52933E+05        -0.97599E+08         0.00000E+00
    0.00000E+00         0.00000E+00        -0.47629E+08
 
   -0.46368E+08         0.55194E+05         0.00000E+00
    0.55194E+05        -0.97599E+08         0.00000E+00
    0.00000E+00         0.00000E+00        -0.47491E+08
 
   -0.46182E+08         0.57466E+05         0.00000E+00
    0.57466E+05        -0.97599E+08         0.00000E+00
    0.00000E+00         0.00000E+00        -0.47346E+08
 
   -0.45988E+08         0.59729E+05         0.00000E+00
    0.59729E+05        -0.97599E+08         0.00000E+00
    0.00000E+00         0.00000E+00        -0.47191E+08
 
   -0.45788E+08         0.61957E+05         0.00000E+00
    0.61957E+05        -0.97599E+08         0.00000E+00
    0.00000E+00         0.00000E+00        -0.47027E+08
 
   -0.45580E+08         0.64119E+05         0.00000E+00
    0.64119E+05        -0.97599E+08         0.00000E+00
    0.00000E+00         0.00000E+00        -0.46854E+08
 
   -0.45365E+08         0.66177E+05         0.00000E+00
    0.66177E+05        -0.97599E+08         0.00000E+00
    0.00000E+00         0.00000E+00        -0.46670E+08
 
   -0.45144E+08         0.68081E+05         0.00000E+00
    0.68081E+05        -0.97599E+08         0.00000E+00
    0.00000E+00         0.00000E+00        -0.46475E+08
 
   -0.44918E+08         0.69775E+05         0.00000E+00
    0.69775E+05        -0.97599E+08         0.00000E+00
    0.00000E+00         0.00000E+00        -0.46268E+08
 
   -0.44686E+08         0.71186E+05         0.00000E+00
    0.71186E+05        -0.97599E+08         0.00000E+00
    0.00000E+00         0.00000E+00        -0.46049E+08
 
   -0.44450E+08         0.72229E+05         0.00000E+00
    0.72229E+05        -0.97599E+08         0.00000E+00
    0.00000E+00         0.00000E+00        -0.45816E+08
 
   -0.44212E+08         0.72802E+05         0.00000E+00
    0.72802E+05        -0.97600E+08         0.00000E+00
    0.00000E+00         0.00000E+00        -0.45570E+08
 
   -0.43973E+08         0.72784E+05         0.00000E+00
    0.72784E+05        -0.97600E+08         0.00000E+00
    0.00000E+00         0.00000E+00        -0.45307E+08
 
   -0.43736E+08         0.72031E+05         0.00000E+00
    0.72031E+05        -0.97600E+08         0.00000E+00
    0.00000E+00         0.00000E+00        -0.45029E+08
 
   -0.43502E+08         0.70379E+05         0.00000E+00
    0.70379E+05        -0.97600E+08         0.00000E+00
    0.00000E+00         0.00000E+00        -0.44734E+08
 
   -0.43276E+08         0.67640E+05         0.00000E+00
    0.67640E+05        -0.97600E+08         0.00000E+00
    0.00000E+00         0.00000E+00        -0.44420E+08
 
   -0.43060E+08         0.63602E+05         0.00000E+00
    0.63602E+05        -0.97600E+08         0.00000E+00
    0.00000E+00         0.00000E+00        -0.44086E+08
 
   -0.42860E+08         0.58034E+05         0.00000E+00
    0.58034E+05        -0.97601E+08         0.00000E+00
    0.00000E+00         0.00000E+00        -0.43732E+08
 
   -0.42680E+08         0.50689E+05         0.00000E+00
    0.50689E+05        -0.97601E+08         0.00000E+00
    0.00000E+00         0.00000E+00        -0.43354E+08
 
   -0.42527E+08         0.41312E+05         0.00000E+00
    0.41312E+05        -0.97601E+08         0.00000E+00
    0.00000E+00         0.00000E+00        -0.42953E+08
 
   -0.42407E+08         0.29656E+05         0.00000E+00
    0.29656E+05        -0.97601E+08         0.00000E+00
    0.00000E+00         0.00000E+00        -0.42526E+08
 
   -0.42328E+08         0.15497E+05         0.00000E+00
    0.15497E+05        -0.97602E+08         0.00000E+00
    0.00000E+00         0.00000E+00        -0.42071E+08
 
   -0.42296E+08        -0.13392E+04         0.00000E+00
   -0.13392E+04        -0.97602E+08         0.00000E+00
    0.00000E+00         0.00000E+00        -0.41587E+08
 
   -0.42321E+08        -0.20954E+05         0.00000E+00
   -0.20954E+05        -0.97603E+08         0.00000E+00
    0.00000E+00         0.00000E+00        -0.41071E+08
 
   -0.42409E+08        -0.43351E+05         0.00000E+00
   -0.43351E+05        -0.97603E+08         0.00000E+00
    0.00000E+00         0.00000E+00        -0.40520E+08
 
   -0.42569E+08        -0.68402E+05         0.00000E+00
   -0.68402E+05        -0.97604E+08         0.00000E+00
    0.00000E+00         0.00000E+00        -0.39933E+08
 
   -0.42807E+08        -0.95904E+05         0.00000E+00
   -0.95904E+05        -0.97604E+08         0.00000E+00
    0.00000E+00         0.00000E+00        -0.39306E+08
 
   -0.43126E+08        -0.12538E+06         0.00000E+00
   -0.12538E+06        -0.97604E+08         0.00000E+00
    0.00000E+00         0.00000E+00        -0.38636E+08
 
   -0.43528E+08        -0.15697E+06         0.00000E+00
   -0.15697E+06        -0.97605E+08         0.00000E+00
    0.00000E+00         0.00000E+00        -0.37920E+08
 
   -0.44005E+08        -0.18740E+06         0.00000E+00
   -0.18740E+06        -0.97603E+08         0.00000E+00
    0.00000E+00         0.00000E+00        -0.37154E+08
 
   -0.44533E+08        -0.23134E+06         0.00000E+00
   -0.23134E+06        -0.97618E+08         0.00000E+00
    0.00000E+00         0.00000E+00        -0.36334E+08
 
   -0.44932E+08        -0.17931E+06         0.00000E+00
   -0.17931E+06        -0.97568E+08         0.00000E+00
    0.00000E+00         0.00000E+00        -0.35455E+08
 
   -0.49867E+08        -0.10176E+04         0.00000E+00
   -0.10176E+04        -0.97600E+08         0.00000E+00
    0.00000E+00         0.00000E+00        -0.49997E+08
 
   -0.49871E+08        -0.63716E+03         0.00000E+00
   -0.63716E+03        -0.97600E+08         0.00000E+00
    0.00000E+00         0.00000E+00        -0.49990E+08
 
   -0.49875E+08        -0.41235E+03         0.00000E+00
   -0.41235E+03        -0.97600E+08         0.00000E+00
    0.00000E+00         0.00000E+00        -0.49984E+08
 
   -0.49877E+08        -0.25440E+03         0.00000E+00
   -0.25440E+03        -0.97600E+08         0.00000E+00
    0.00000E+00         0.00000E+00        -0.49978E+08
 
   -0.49878E+08        -0.10757E+03         0.00000E+00
   -0.10757E+03        -0.97600E+08         0.00000E+00
    0.00000E+00         0.00000E+00        -0.49971E+08
 
   -0.49878E+08         0.27947E+02         0.00000E+00
    0.27947E+02        -0.97600E+08         0.00000E+00
    0.00000E+00         0.00000E+00        -0.49965E+08
 
   -0.49877E+08         0.15564E+03         0.00000E+00
    0.15564E+03        -0.97600E+08         0.00000E+00
    0.00000E+00         0.00000E+00        -0.49959E+08
 
   -0.49874E+08         0.27619E+03         0.00000E+00
    0.27619E+03        -0.97600E+08         0.00000E+00
    0.00000E+00         0.00000E+00        -0.49952E+08
 
   -0.49871E+08         0.38994E+03         0.00000E+00
    0.38994E+03        -0.97600E+08         0.00000E+00
    0.00000E+00         0.00000E+00        -0.49946E+08
 
   -0.49866E+08         0.49724E+03         0.00000E+00
    0.49724E+03        -0.97600E+08         0.00000E+00
    0.00000E+00         0.00000E+00        -0.49939E+08
 
   -0.49861E+08         0.59858E+03         0.00000E+00
    0.59858E+03        -0.97600E+08         0.00000E+00
    0.00000E+00         0.00000E+00        -0.49932E+08
 
   -0.49854E+08         0.69459E+03         0.00000E+00
    0.69459E+03        -0.97600E+08         0.00000E+00
    0.00000E+00         0.00000E+00        -0.49926E+08
 
   -0.49847E+08         0.78605E+03         0.00000E+00
    0.78605E+03        -0.97600E+08         0.00000E+00
    0.00000E+00         0.00000E+00        -0.49918E+08
 
   -0.49839E+08         0.87380E+03         0.00000E+00
    0.87380E+03        -0.97600E+08         0.00000E+00
    0.00000E+00         0.00000E+00        -0.49911E+08
 
   -0.49830E+08         0.95873E+03         0.00000E+00
    0.95873E+03        -0.97600E+08         0.00000E+00
    0.00000E+00         0.00000E+00        -0.49904E+08
 
   -0.49820E+08         0.10417E+04         0.00000E+00
    0.10417E+04        -0.97600E+08         0.00000E+00
    0.00000E+00         0.00000E+00        -0.49896E+08
 
   -0.49809E+08         0.11237E+04         0.00000E+00
    0.11237E+04        -0.97600E+08         0.00000E+00
    0.00000E+00         0.00000E+00        -0.49887E+08
 
   -0.49797E+08         0.12054E+04         0.00000E+00
    0.12054E+04        -0.97600E+08         0.00000E+00
    0.00000E+00         0.00000E+00        -0.49879E+08
 
   -0.49785E+08         0.12876E+04         0.00000E+00
    0.12876E+04        -0.97600E+08         0.00000E+00
    0.00000E+00         0.00000E+00        -0.49870E+08
 
   -0.49772E+08         0.13711E+04         0.00000E+00
    0.13711E+04        -0.97600E+08         0.00000E+00
    0.00000E+00         0.00000E+00        -0.49861E+08
 
   -0.49758E+08         0.14564E+04         0.00000E+00
    0.14564E+04        -0.97600E+08         0.00000E+00
    0.00000E+00         0.00000E+00        -0.49851E+08
 
   -0.49743E+08         0.15442E+04         0.00000E+00
    0.15442E+04        -0.97600E+08         0.00000E+00
    0.00000E+00         0.00000E+00        -0.49841E+08
 
   -0.49727E+08         0.16351E+04         0.00000E+00
    0.16351E+04        -0.97600E+08         0.00000E+00
    0.00000E+00         0.00000E+00        -0.49830E+08
 
   -0.49711E+08         0.17296E+04         0.00000E+00
    0.17296E+04        -0.97600E+08         0.00000E+00
    0.00000E+00         0.00000E+00        -0.49819E+08
 
   -0.49693E+08         0.18281E+04         0.00000E+00
    0.18281E+04        -0.97600E+08         0.00000E+00
    0.00000E+00         0.00000E+00        -0.49808E+08
 
   -0.49675E+08         0.19312E+04         0.00000E+00
    0.19312E+04        -0.97600E+08         0.00000E+00
    0.00000E+00         0.00000E+00        -0.49795E+08
 
   -0.49655E+08         0.20393E+04         0.00000E+00
    0.20393E+04        -0.97600E+08         0.00000E+00
    0.00000E+00         0.00000E+00        -0.49782E+08
 
   -0.49634E+08         0.21529E+04         0.00000E+00
    0.21529E+04        -0.97600E+08         0.00000E+00
    0.00000E+00         0.00000E+00        -0.49769E+08
 
   -0.49612E+08         0.22723E+04         0.00000E+00
    0.22723E+04        -0.97600E+08         0.00000E+00
    0.00000E+00         0.00000E+00        -0.49755E+08
 
   -0.49589E+08         0.23980E+04         0.00000E+00
    0.23980E+04        -0.97600E+08         0.00000E+00
    0.00000E+00         0.00000E+00        -0.49740E+08
 
   -0.49565E+08         0.25305E+04         0.00000E+00
    0.25305E+04        -0.97600E+08         0.00000E+00
    0.00000E+00         0.00000E+00        -0.49724E+08
 
   -0.49539E+08         0.26702E+04         0.00000E+00
    0.26702E+04        -0.97600E+08         0.00000E+00
    0.00000E+00         0.00000E+00        -0.49707E+08
 
   -0.49512E+08         0.28174E+04         0.00000E+00
    0.28174E+04        -0.97600E+08         0.00000E+00
    0.00000E+00         0.00000E+00        -0.49690E+08
 
   -0.49483E+08         0.29728E+04         0.00000E+00
    0.29728E+04        -0.97600E+08         0.00000E+00
    0.00000E+00         0.00000E+00        -0.49671E+08
 
   -0.49453E+08         0.31367E+04         0.00000E+00
    0.31367E+04        -0.97600E+08         0.00000E+00
    0.00000E+00         0.00000E+00        -0.49651E+08
 
   -0.49421E+08         0.33097E+04         0.00000E+00
    0.33097E+04        -0.97600E+08         0.00000E+00
    0.00000E+00         0.00000E+00        -0.49631E+08
 
   -0.49387E+08         0.34921E+04         0.00000E+00
    0.34921E+04        -0.97600E+08         0.00000E+00
    0.00000E+00         0.00000E+00        -0.49609E+08
 
   -0.49351E+08         0.36846E+04         0.00000E+00
    0.36846E+04        -0.97600E+08         0.00000E+00
    0.00000E+00         0.00000E+00        -0.49586E+08
 
   -0.49314E+08         0.38877E+04         0.00000E+00
    0.38877E+04        -0.97600E+08         0.00000E+00
    0.00000E+00         0.00000E+00        -0.49562E+08
 
   -0.49274E+08         0.41019E+04         0.00000E+00
    0.41019E+04        -0.97600E+08         0.00000E+00
    0.00000E+00         0.00000E+00        -0.49536E+08
 
   -0.49232E+08         0.43277E+04         0.00000E+00
    0.43277E+04        -0.97600E+08         0.00000E+00
    0.00000E+00         0.00000E+00        -0.49509E+08
 
   -0.49188E+08         0.45658E+04         0.00000E+00
    0.45658E+04        -0.97600E+08         0.00000E+00
    0.00000E+00         0.00000E+00        -0.49480E+08
 
   -0.49142E+08         0.48168E+04         0.00000E+00
    0.48168E+04        -0.97600E+08         0.00000E+00
    0.00000E+00         0.00000E+00        -0.49450E+08
 
   -0.49093E+08         0.50812E+04         0.00000E+00
    0.50812E+04        -0.97600E+08         0.00000E+00
    0.00000E+00         0.00000E+00        -0.49418E+08
 
   -0.49041E+08         0.53598E+04         0.00000E+00
    0.53598E+04        -0.97600E+08         0.00000E+00
    0.00000E+00         0.00000E+00        -0.49384E+08
 
   -0.48986E+08         0.56531E+04         0.00000E+00
    0.56531E+04        -0.97600E+08         0.00000E+00
    0.00000E+00         0.00000E+00        -0.49349E+08
 
   -0.48929E+08         0.59619E+04         0.00000E+00
    0.59619E+04        -0.97600E+08         0.00000E+00
    0.00000E+00         0.00000E+00        -0.49311E+08
 
   -0.48868E+08         0.62869E+04         0.00000E+00
    0.62869E+04        -0.97600E+08         0.00000E+00
    0.00000E+00         0.00000E+00        -0.49271E+08
 
   -0.48804E+08         0.66286E+04         0.00000E+00
    0.66286E+04        -0.97600E+08         0.00000E+00
    0.00000E+00         0.00000E+00        -0.49229E+08
 
   -0.48737E+08         0.69879E+04         0.00000E+00
    0.69879E+04        -0.97600E+08         0.00000E+00
    0.00000E+00         0.00000E+00        -0.49184E+08
 
   -0.48666E+08         0.73655E+04         0.00000E+00
    0.73655E+04        -0.97600E+08         0.00000E+00
    0.00000E+00         0.00000E+00        -0.49137E+08
 
   -0.48591E+08         0.77620E+04         0.00000E+00
    0.77620E+04        -0.97600E+08         0.00000E+00
    0.00000E+00         0.00000E+00        -0.49088E+08
 
   -0.48512E+08         0.81782E+04         0.00000E+00
    0.81782E+04        -0.97600E+08         0.00000E+00
    0.00000E+00         0.00000E+00        -0.49035E+08
 
   -0.48429E+08         0.86147E+04         0.00000E+00
    0.86147E+04        -0.97600E+08         0.00000E+00
    0.00000E+00         0.00000E+00        -0.48979E+08
 
   -0.48341E+08         0.90723E+04         0.00000E+00
    0.90723E+04        -0.97600E+08         0.00000E+00
    0.00000E+00         0.00000E+00        -0.48920E+08
 
   -0.48249E+08         0.95515E+04         0.00000E+00
    0.95515E+04        -0.97600E+08         0.00000E+00
    0.00000E+00         0.00000E+00        -0.48858E+08
 
   -0.48152E+08         0.10053E+05         0.00000E+00
    0.10053E+05        -0.97600E+08         0.00000E+00
    0.00000E+00         0.00000E+00        -0.48792E+08
 
   -0.48050E+08         0.10577E+05         0.00000E+00
    0.10577E+05        -0.97600E+08         0.00000E+00
    0.00000E+00         0.00000E+00        -0.48723E+08
 
   -0.47943E+08         0.11125E+05         0.00000E+00
    0.11125E+05        -0.97600E+08         0.00000E+00
    0.00000E+00         0.00000E+00        -0.48649E+08
 
   -0.47830E+08         0.11696E+05         0.00000E+00
    0.11696E+05        -0.97600E+08         0.00000E+00
    0.00000E+00         0.00000E+00        -0.48571E+08
 
   -0.47711E+08         0.12291E+05         0.00000E+00
    0.12291E+05        -0.97600E+08         0.00000E+00
    0.00000E+00         0.00000E+00        -0.48488E+08
 
   -0.47586E+08         0.12910E+05         0.00000E+00
    0.12910E+05        -0.97600E+08         0.00000E+00
    0.00000E+00         0.00000E+00        -0.48401E+08
 
   -0.47456E+08         0.13553E+05         0.00000E+00
    0.13553E+05        -0.97600E+08         0.00000E+00
    0.00000E+00         0.00000E+00        -0.48309E+08
 
   -0.47318E+08         0.14219E+05         0.00000E+00
    0.14219E+05        -0.97600E+08         0.00000E+00
    0.00000E+00         0.00000E+00        -0.48211E+08
 
   -0.47175E+08         0.14907E+05         0.00000E+00
    0.14907E+05        -0.97600E+08         0.00000E+00
    0.00000E+00         0.00000E+00        -0.48107E+08
 
   -0.47024E+08         0.15618E+05         0.00000E+00
    0.15618E+05        -0.97600E+08         0.00000E+00
    0.00000E+00         0.00000E+00        -0.47998E+08
 
   -0.46866E+08         0.16348E+05         0.00000E+00
    0.16348E+05        -0.97600E+08         0.00000E+00
    0.00000E+00         0.00000E+00        -0.47882E+08
 
   -0.46701E+08         0.17095E+05         0.00000E+00
    0.17095E+05        -0.97600E+08         0.00000E+00
    0.00000E+00         0.00000E+00        -0.47759E+08
 
   -0.46529E+08         0.17858E+05         0.00000E+00
    0.17858E+05        -0.97600E+08         0.00000E+00
    0.00000E+00         0.00000E+00        -0.47629E+08
 
   -0.46349E+08         0.18630E+05         0.00000E+00
    0.18630E+05        -0.97600E+08         0.00000E+00
    0.00000E+00         0.00000E+00        -0.47491E+08
 
   -0.46162E+08         0.19409E+05         0.00000E+00
    0.19409E+05        -0.97600E+08         0.00000E+00
    0.00000E+00         0.00000E+00        -0.47346E+08
 
   -0.45967E+08         0.20186E+05         0.00000E+00
    0.20186E+05        -0.97600E+08         0.00000E+00
    0.00000E+00         0.00000E+00        -0.47191E+08
 
   -0.45765E+08         0.20954E+05         0.00000E+00
    0.20954E+05        -0.97600E+08         0.00000E+00
    0.00000E+00         0.00000E+00        -0.47027E+08
 
   -0.45556E+08         0.21702E+05         0.00000E+00
    0.21702E+05        -0.97600E+08         0.00000E+00
    0.00000E+00         0.00000E+00        -0.46854E+08
 
   -0.45339E+08         0.22416E+05         0.00000E+00
    0.22416E+05        -0.97600E+08         0.00000E+00
    0.00000E+00         0.00000E+00        -0.46670E+08
 
   -0.45116E+08         0.23081E+05         0.00000E+00
    0.23081E+05        -0.97600E+08         0.00000E+00
    0.00000E+00         0.00000E+00        -0.46475E+08
 
   -0.44887E+08         0.23677E+05         0.00000E+00
    0.23677E+05        -0.97600E+08         0.00000E+00
    0.00000E+00         0.00000E+00        -0.46268E+08
 
   -0.44653E+08         0.24179E+05         0.00000E+00
    0.24179E+05        -0.97600E+08         0.00000E+00
    0.00000E+00         0.00000E+00        -0.46049E+08
 
   -0.44415E+08         0.24556E+05         0.00000E+00
    0.24556E+05        -0.97600E+08         0.00000E+00
    0.00000E+00         0.00000E+00        -0.45816E+08
 
   -0.44174E+08         0.24774E+05         0.00000E+00
    0.24774E+05        -0.97600E+08         0.00000E+00
    0.00000E+00         0.00000E+00        -0.45569E+08
 
   -0.43933E+08         0.24789E+05         0.00000E+00
    0.24789E+05        -0.97600E+08         0.00000E+00
    0.00000E+00         0.00000E+00        -0.45307E+08
 
   -0.43692E+08         0.24551E+05         0.00000E+00
    0.24551E+05        -0.97600E+08         0.00000E+00
    0.00000E+00         0.00000E+00        -0.45029E+08
 
   -0.43456E+08         0.23999E+05         0.00000E+00
    0.23999E+05        -0.97600E+08         0.00000E+00
    0.00000E+00         0.00000E+00        -0.44734E+08
 
   -0.43227E+08         0.23064E+05         0.00000E+00
    0.23064E+05        -0.97600E+08         0.00000E+00
    0.00000E+00         0.00000E+00        -0.44420E+08
 
   -0.43009E+08         0.21670E+05         0.00000E+00
    0.21670E+05        -0.97600E+08         0.00000E+00
    0.00000E+00         0.00000E+00        -0.44086E+08
 
   -0.42807E+08         0.19728E+05         0.00000E+00
    0.19728E+05        -0.97600E+08         0.00000E+00
    0.00000E+00         0.00000E+00        -0.43732E+08
 
   -0.42626E+08         0.17145E+05         0.00000E+00
    0.17145E+05        -0.97600E+08         0.00000E+00
    0.00000E+00         0.00000E+00        -0.43354E+08
 
   -0.42473E+08         0.13821E+05         0.00000E+00
    0.13821E+05        -0.97600E+08         0.00000E+00
    0.00000E+00         0.00000E+00        -0.42953E+08
 
   -0.42354E+08         0.96551E+04         0.00000E+00
    0.96551E+04        -0.97600E+08         0.00000E+00
    0.00000E+00         0.00000E+00        -0.42526E+08
 
   -0.42277E+08         0.45528E+04         0.00000E+00
    0.45528E+04        -0.97600E+08         0.00000E+00
    0.00000E+00         0.00000E+00        -0.42071E+08
 
   -0.42251E+08        -0.15699E+04         0.00000E+00
   -0.15699E+04        -0.97600E+08         0.00000E+00
    0.00000E+00         0.00000E+00        -0.41587E+08
 
   -0.42284E+08        -0.87784E+04         0.00000E+00
   -0.87784E+04        -0.97600E+08         0.00000E+00
    0.00000E+00         0.00000E+00        -0.41071E+08
 
   -0.42386E+08        -0.17113E+05         0.00000E+00
   -0.17113E+05        -0.97600E+08         0.00000E+00
    0.00000E+00         0.00000E+00        -0.40520E+08
 
   -0.42565E+08        -0.26597E+05         0.00000E+00
   -0.26597E+05        -0.97600E+08         0.00000E+00
    0.00000E+00         0.00000E+00        -0.39933E+08
 
   -0.42828E+08        -0.37247E+05         0.00000E+00
   -0.37247E+05        -0.97600E+08         0.00000E+00
    0.00000E+00         0.00000E+00        -0.39306E+08
 
   -0.43183E+08        -0.49126E+05         0.00000E+00
   -0.49126E+05        -0.97600E+08         0.00000E+00
    0.00000E+00         0.00000E+00        -0.38636E+08
 
   -0.43633E+08        -0.62689E+05         0.00000E+00
   -0.62689E+05        -0.97600E+08         0.00000E+00
    0.00000E+00         0.00000E+00        -0.37920E+08
 
   -0.44180E+08        -0.77856E+05         0.00000E+00
   -0.77856E+05        -0.97601E+08         0.00000E+00
    0.00000E+00         0.00000E+00        -0.37154E+08
 
   -0.44828E+08        -0.10252E+06         0.00000E+00
   -0.10252E+06        -0.97599E+08         0.00000E+00
    0.00000E+00         0.00000E+00        -0.36334E+08
 
   -0.45459E+08        -0.14923E+06         0.00000E+00
   -0.14923E+06        -0.97613E+08         0.00000E+00
    0.00000E+00         0.00000E+00        -0.35455E+08
 
SCALARS stresss double 
LOOKUP_TABLE default
  -65856565.5932945     
  -65851335.6957757     
  -65846377.4091379     
  -65841644.6429305     
  -65837109.7642232     
  -65832715.7003611     
  -65828408.9333219     
  -65824135.4111856     
  -65819845.6858273     
  -65815495.1435846     
  -65811044.4818457     
  -65806459.2511311     
  -65801709.2281951     
  -65796767.6389245     
  -65791610.3928743     
  -65786215.3702167     
  -65780561.7925438     
  -65774629.6823191     
  -65768399.4079277     
  -65761851.3054036     
  -65754965.3662155     
  -65747720.9801348     
  -65740096.7228768     
  -65732070.1792442     
  -65723617.7937295     
  -65714714.7417460     
  -65705334.8157982     
  -65695450.3219325     
  -65685031.9826965     
  -65674048.8436017     
  -65662468.1807104     
  -65650255.4074967     
  -65637373.9795455     
  -65623785.2960001     
  -65609448.5969295     
  -65594320.8560010     
  -65578356.6680165     
  -65561508.1309950     
  -65543724.7225993     
  -65524953.1707918     
  -65505137.3186862     
  -65484217.9836397     
  -65462132.8107042     
  -65438816.1206379     
  -65414198.7527715     
  -65388207.9031327     
  -65360766.9583506     
  -65331795.3260164     
  -65301208.2623478     
  -65268916.6982067     
  -65234827.0647653     
  -65198841.1203928     
  -65160855.7806435     
  -65120762.9535993     
  -65078449.3832103     
  -65033796.5037104     
  -64986680.3086413     
  -64936971.2384740     
  -64884534.0912526     
  -64829227.9610374     
  -64770906.2091501     
  -64709416.4732127     
  -64644600.7185902     
  -64576295.3359488     
  -64504331.2869571     
  -64428534.2974017     
  -64348725.0927578     
  -64264719.6650398     
  -64176329.5509005     
  -64083362.0886697     
  -63985620.6053171     
  -63882904.4620111     
  -63775008.8576198     
  -63661724.2515101     
  -63542835.2185178     
  -63418118.4879382     
  -63287339.8427159     
  -63150249.4626440     
  -63006575.1844996     
  -62856013.0215248     
  -62698214.1346436     
  -62532767.2803572     
  -62359175.5814538     
  -62176826.2872883     
  -61984952.0346734     
  -61782582.0188634     
  -61568481.5275963     
  -61341078.5234873     
  -61098376.7907091     
  -60837856.2580725     
  -60556364.9151972     
  -60250007.9592917     
  -59914057.2437156     
  -59542882.8692409     
  -59130017.2226534     
  -58668177.1276302     
  -58149993.0873674     
  -57567378.6883545     
  -56916289.7241648     
  -56189626.3223299     
  -65855812.8418773     
  -65850825.7240412     
  -65845925.3478638     
  -65841243.4106936     
  -65836734.3322788     
  -65832357.8610360     
  -65828061.0363433     
  -65823793.0610430     
  -65819505.5207376     
  -65815154.7262557     
  -65810701.8044437     
  -65806112.5620718     
  -65801356.8824682     
  -65796408.0259464     
  -65791241.8931189     
  -65785836.3357964     
  -65780170.5393707     
  -65774224.4889712     
  -65767978.5172288     
  -65761412.9266845     
  -65754507.6770294     
  -65747242.1268601     
  -65739594.8199909     
  -65731543.3072797     
  -65723063.9960390     
  -65714132.0202586     
  -65704721.1259717     
  -65694803.5670992     
  -65684350.0079874     
  -65673329.4296103     
  -65661709.0370394     
  -65649454.1663063     
  -65636528.1892102     
  -65622892.4149653     
  -65608505.9878506     
  -65593325.7802462     
  -65577306.2806117     
  -65560399.4760953     
  -65542554.7295798     
  -65523718.6510617     
  -65503834.9633476     
  -65482844.3621319     
  -65460684.3705980     
  -65437289.1887744     
  -65412589.5379734     
  -65386512.5007531     
  -65358981.3569704     
  -65329915.4166512     
  -65299229.8505825     
  -65266835.5197423     
  -65232638.8049334     
  -65196541.4382748     
  -65158440.3385239     
  -65118227.4525783     
  -65075789.6059094     
  -65031008.3651192     
  -64983759.9162722     
  -64933914.9631150     
  -64881338.6497274     
  -64825890.5124936     
  -64767424.4664921     
  -64705788.8313587     
  -64640826.4012577     
  -64572374.5626277     
  -64500265.4615987     
  -64424326.2201024     
  -64344379.1953099     
  -64260242.2706155     
  -64171729.1572860     
  -64078649.6733098     
  -63980809.9489251     
  -63878012.4855838     
  -63770055.9653310     
  -63656734.6691332     
  -63537837.3137589     
  -63413145.0554463     
  -63282428.3327858     
  -63145442.1290840     
  -63001919.1244247     
  -62851560.0789439     
  -62694020.6420687     
  -62528893.6207741     
  -62355685.5697926     
  -62173786.4028475     
  -61982430.5870452     
  -61780648.4253003     
  -61567205.9962657     
  -61340532.7208014     
  -61098636.1971405     
  -60839006.0059546     
  -60558509.7962026     
  -60253293.6931563     
  -59918695.1059190     
  -59549221.1964347     
  -59138556.5689210     
  -58679893.6781164     
  -58165944.7600162     
  -57591079.4625935     
  -56948639.6455052     
  -56257494.8790429     
  -65855108.1132663     
  -65850292.0857116     
  -65845469.6111223     
  -65840832.2371949     
  -65836352.6859605     
  -65831994.5102278     
  -65827709.3713038     
  -65823448.1688861     
  -65819163.9605355     
  -65814813.8045748     
  -65810359.3253973     
  -65805766.5909576     
  -65801005.6260022     
  -65796049.7514763     
  -65790874.8858378     
  -65785458.8749329     
  -65779780.8870277     
  -65773820.8853581     
  -65767559.1791130     
  -65760976.0468983     
  -65754051.4238864     
  -65746764.6428631     
  -65739094.2195803     
  -65731017.6735791     
  -65722511.3766746     
  -65713550.4223890     
  -65704108.5106887     
  -65694157.8433604     
  -65683669.0262340     
  -65672610.9752049     
  -65660950.8236439     
  -65648653.8293031     
  -65635683.2792576     
  -65622000.3917654     
  -65607564.2142052     
  -65592331.5164731     
  -65576256.6793921     
  -65559291.5778332     
  -65541385.4583585     
  -65522484.8112988     
  -65502533.2372635     
  -65481471.3081675     
  -65459236.4229413     
  -65435762.6581842     
  -65410980.6141198     
  -65384817.2563329     
  -65357195.7538983     
  -65328035.3146777     
  -65297251.0187435     
  -65264753.6511096     
  -65230449.5352072     
  -65194240.3688346     
  -65156023.0646467     
  -65115689.5976260     
  -65073126.8623933     
  -65028216.5436619     
  -64980835.0036051     
  -64930853.1903729     
  -64878136.5724214     
  -64822545.1036606     
  -64763933.2246221     
  -64702149.9047766     
  -64637038.7306813     
  -64568438.0436073     
  -64496181.1284562     
  -64420096.4527920     
  -64340007.9502994     
  -64255735.3363827     
  -64167094.4343110     
  -64073897.4774723     
  -63975953.3359287     
  -63873067.5924033     
  -63765042.3626667     
  -63651675.7164567     
  -63532760.5057829     
  -63408082.3458390     
  -63277416.4178811     
  -63140522.6715646     
  -62997138.8950597     
  -62846970.9943554     
  -62689679.6796552     
  -62524862.6003170     
  -62352030.8086387     
  -62170578.2813695     
  -61979743.1144665     
  -61778558.9723019     
  -61565795.5081653     
  -61339886.8717614     
  -61098848.3923710     
  -60840183.1472262     
  -60560783.5750149     
  -60256837.5407993     
  -59923758.1172762     
  -59556164.0046424     
  -59147956.4915414     
  -58692577.1599340     
  -58183414.4170100     
  -57615396.5095750     
  -56984544.5404647     
  -56318494.6153178     
  -65854438.6785889     
  -65849748.1446435     
  -65845006.6551435     
  -65840413.5787162     
  -65835964.5987427     
  -65831626.1915543     
  -65827354.0755926     
  -65823100.9369366     
  -65818821.1358448     
  -65814472.5054125     
  -65810017.1567740     
  -65805421.4469135     
  -65800655.5657474     
  -65795692.9229298     
  -65790509.4796700     
  -65785083.0981742     
  -65779392.9482820     
  -65773418.9867125     
  -65767141.5114766     
  -65760540.7868203     
  -65753596.7306886     
  -65746288.6554647     
  -65738595.0527207     
  -65730493.4133496     
  -65721960.0753876     
  -65712970.0928752     
  -65703497.1201395     
  -65693513.3068431     
  -65682989.1999970     
  -65671893.6498865     
  -65660193.7174779     
  -65647854.5814101     
  -65634839.4430955     
  -65621109.4288074     
  -65606623.4879107     
  -65591338.2866137     
  -65575208.0968006     
  -65558184.6796464     
  -65540217.1638372     
  -65521251.9183186     
  -65501232.4195881     
  -65480099.1136338     
  -65457789.2727111     
  -65434236.8472435     
  -65409372.3132379     
  -65383122.5157320     
  -65355410.5089248     
  -65326155.3938126     
  -65295272.1543475     
  -65262671.4933548     
  -65228259.6697200     
  -65191938.3386482     
  -65153604.3971489     
  -65113149.8372813     
  -65070461.6101212     
  -65025421.5038627     
  -64977906.0399440     
  -64927786.3915530     
  -64874928.3293008     
  -64819192.1991893     
  -64760432.9381835     
  -64698500.1326116     
  -64633238.1241340     
  -64564486.1669487     
  -64492078.6379932     
  -64415845.2988390     
  -64335611.6033384     
  -64251199.0383449     
  -64162425.4753403     
  -64069105.4977317     
  -63971050.6509612     
  -63868069.5392125     
  -63759967.6620253     
  -63646546.8449821     
  -63527604.0690731     
  -63402929.4415486     
  -63272302.9752193     
  -63135489.7516644     
  -62992232.9355515     
  -62842243.9821342     
  -62685189.2395800     
  -62520671.9964684     
  -62348208.8715851     
  -62167199.3045462     
  -61976886.8104385     
  -61776310.6582664     
  -61564246.8040930     
  -61339137.3856386     
  -61099009.1053482     
  -60841382.6550862     
  -60563178.7757053     
  -60260631.2284803     
  -59929227.3463165     
  -59563701.6532175     
  -59158147.9349691     
  -58706270.7783961     
  -58202053.6238160     
  -57640856.6020884     
  -57022063.3839758     
  -56374487.2275371     
  -65853796.0559602     
  -65849200.6867761     
  -65844536.3086094     
  -65839988.3351929     
  -65835570.4622444     
  -65831253.2055530     
  -65826995.3845756     
  -65822751.5409572     
  -65818477.1980413     
  -65814130.9588312     
  -65809675.4190168     
  -65805077.2440736     
  -65800306.8133039     
  -65795337.6510403     
  -65790145.7857598     
  -65784709.1177742     
  -65779006.8369978     
  -65773018.9088653     
  -65766725.6324308     
  -65760107.2671471     
  -65753143.7210414     
  -65745814.2915306     
  -65738097.4499207     
  -65729970.6611561     
  -65721410.2312394     
  -65712391.1757370     
  -65702887.1037835     
  -65692870.1129398     
  -65682310.6911074     
  -65671177.6224353     
  -65659437.8947871     
  -65647056.6068564     
  -65633996.8734543     
  -65620219.7278395     
  -65605684.0202454     
  -65590346.3119836     
  -65574160.7646886     
  -65557079.0244105     
  -65539050.1003898     
  -65520020.2384499     
  -65499932.7890383     
  -65478728.0700404     
  -65456343.2245783     
  -65432712.0741080     
  -65407764.9672377     
  -65381428.6248176     
  -65353625.9819953     
  -65324276.0281046     
  -65293293.6454540     
  -65260589.4483171     
  -65226069.6236948     
  -65189635.7757315     
  -65151184.7760201     
  -65110608.6224212     
  -65067794.3094593     
  -65022623.7138185     
  -64974973.4989415     
  -64924715.0432111     
  -64871714.3966274     
  -64815832.2712313     
  -64756924.0707046     
  -64694839.9644752     
  -64629425.0111510     
  -64560519.3349979     
  -64487958.3572181     
  -64411573.0806530     
  -64331190.4217995     
  -64246633.5771806     
  -64157722.4014653     
  -64064273.7614895     
  -63966101.8124955     
  -63863018.1193206     
  -63754831.5145380     
  -63641347.5461761     
  -63522367.3178790     
  -63397685.4624929     
  -63267086.9143048     
  -63130342.0540807     
  -62987199.6937302     
  -62837377.2440306     
  -62680547.2713785     
  -62516319.5030064     
  -62344217.1943554     
  -62163646.6451350     
  -61973858.5722698     
  -61773900.0703857     
  -61562556.0964200     
  -61338279.9500106     
  -61099113.2914076     
  -60842598.2373128     
  -60565687.4111155     
  -60264663.4034786     
  -59935087.6613075     
  -59571810.1247747     
  -59169097.2042879     
  -58720927.3815414     
  -58221740.8110338     
  -57667494.1063183     
  -57060214.2274222     
  -56426714.8406456     
  -65853174.2974897     
  -65848653.1216096     
  -65844059.5051890     
  -65839557.0095497     
  -65835170.7536012     
  -65830875.8315968     
  -65826633.5403464     
  -65822400.1648010     
  -65818132.3053105     
  -65813789.3028561     
  -65809334.2388678     
  -65804734.1021539     
  -65799959.4845934     
  -65794984.0499047     
  -65789783.9176936     
  -65784337.0476848     
  -65778622.6681163     
  -65772620.7682334     
  -65766311.6602878     
  -65759675.6084828     
  -65752692.5182386     
  -65745341.6774553     
  -65737601.5411058     
  -65729449.5509041     
  -65720861.9825828     
  -65711813.8142579     
  -65702278.6103294     
  -65692228.4162899     
  -65681633.6606464     
  -65670463.0608919     
  -65658683.5310900     
  -65646260.0891587     
  -65633155.7623690     
  -65619331.4899328     
  -65604746.0218309     
  -65589355.8132644     
  -65573114.9143000     
  -65555974.8544242     
  -65537884.5218497     
  -65518790.0375231     
  -65498634.6238836     
  -65477358.4685106     
  -65454898.5829008     
  -65431188.6567095     
  -65406158.9079118     
  -65379735.9294671     
  -65351842.5332195     
  -65322397.5919489     
  -65291315.8806869     
  -65258507.9186583     
  -65223879.8134826     
  -65187333.1095899     
  -65148764.6431650     
  -65108066.4063372     
  -65065125.4237743     
  -65019823.6453113     
  -64972037.8587335     
  -64921639.6273140     
  -64868495.2571473     
  -64812465.7996603     
  -64753407.0948567     
  -64691169.8607438     
  -64625599.8338717     
  -64556537.9647768     
  -64483820.6701273     
  -64407280.1401833     
  -64326744.6953747     
  -64242039.1788625     
  -64152985.3621857     
  -64059402.3277151     
  -63961106.7736395     
  -63857913.1634464     
  -63749633.6109502     
  -63636077.3523750     
  -63517049.6071231     
  -63392349.5669605     
  -63261767.1777698     
  -63125078.2873990     
  -62982037.6267775     
  -62832368.9697457     
  -62675751.6823844     
  -62511802.7305080     
  -62340053.0750818     
  -62159917.2683991     
  -61970655.0008672     
  -61771323.3924400     
  -61560719.0611006     
  -61337309.5773634     
  -61099155.0473732     
  -60843822.6380853     
  -60568300.2854019     
  -60268921.6672164     
  -59941322.6875360     
  -59580464.3393557     
  -59180773.5835067     
  -58736487.1805339     
  -58242412.1227490     
  -57695181.8171310     
  -57098507.2678016     
  -56476049.9073890     
  -65852569.0439267     
  -65848107.0778070     
  -65843577.3891259     
  -65839120.0503515     
  -65834765.9153430     
  -65830494.3612350     
  -65826268.7818551     
  -65822047.0014782     
  -65817786.6221815     
  -65813447.6830014     
  -65808993.7493222     
  -65804392.1462553     
  -65799613.6998148     
  -65794632.2369158     
  -65789423.9914712     
  -65783967.0035276     
  -65778240.5576366     
  -65772224.6818017     
  -65765899.7135444     
  -65759245.9313224     
  -65752243.2452450     
  -65744870.9391443     
  -65737107.4555989     
  -65728930.2158202     
  -65720315.4670431     
  -65711238.1509647     
  -65701671.7877162     
  -65691588.3707600     
  -65680958.2689275     
  -65669750.1325375     
  -65657930.8011587     
  -65645465.2111024     
  -65632316.3011603     
  -65618444.9154634     
  -65603809.7026152     
  -65588367.0104877     
  -65572070.7762557     
  -65554872.4113944     
  -65536720.6814946     
  -65517561.5808574     
  -65497338.2019346     
  -65475990.5997721     
  -65453455.6517170     
  -65429666.9127517     
  -65404554.4669351     
  -65378044.7755719     
  -65350060.5228783     
  -65320520.4601008     
  -65289339.2492538     
  -65256427.3078898     
  -65221690.6565992     
  -65185030.7712647     
  -65146344.4424617     
  -65105523.6448085     
  -65062455.4195226     
  -65017021.7739165     
  -64969099.6020688     
  -64918560.6313925     
  -64865271.4002720     
  -64809093.2722849     
  -64749882.4927012     
  -64687490.2928448     
  -64621763.0473705     
  -64552542.4883626     
  -64479665.9781369     
  -64402966.8394077     
  -64322274.7366238     
  -64237416.0952687     
  -64148214.5360844     
  -64054491.2876856     
  -63956065.5229391     
  -63852754.5405811     
  -63744373.6825354     
  -63630735.8377410     
  -63511650.3333868     
  -63386920.9526115     
  -63256342.7423692     
  -63119697.1850691     
  -62976745.2021731     
  -62827217.3378422     
  -62670800.3386468     
  -62507119.2072902     
  -62335713.6755156     
  -62156007.9335263     
  -61967272.4035100     
  -61768576.4076879     
  -61558730.8462349     
  -61336220.6101749     
  -61099127.6390237     
  -60845047.6433610     
  -60571007.0618706     
  -60273392.6421624     
  -59947914.6506175     
  -59589639.5945887     
  -59193144.4704062     
  -58752895.2819066     
  -58264011.4236908     
  -57723761.4802611     
  -57136712.1581103     
  -56523133.1176276     
  -65851976.9777654     
  -65847563.2225988     
  -65843090.9910553     
  -65838677.9196884     
  -65834356.3465206     
  -65830109.0922920     
  -65825901.3477984     
  -65821692.2506765     
  -65817440.3199714     
  -65813106.2516839     
  -65808654.0895697     
  -65804051.5067009     
  -65799269.5833764     
  -65794282.3326999     
  -65789066.1254656     
  -65783599.1025619     
  -65777860.6225899     
  -65771830.7671005     
  -65765489.9108607     
  -65758818.3560316     
  -65751796.0246768     
  -65744402.2019947     
  -65736615.3221018     
  -65728412.7884324     
  -65719770.8214975     
  -65710664.3276081     
  -65701066.7830932     
  -65690950.1294238     
  -65680284.6754754     
  -65669039.0038745     
  -65657179.8789997     
  -65644672.1547233     
  -65631478.6804167     
  -65617560.2040941     
  -65602875.2718545     
  -65587380.1230179     
  -65571028.5805370     
  -65553771.9364207     
  -65535558.8320333     
  -65516335.1332476     
  -65496043.8005318     
  -65474624.7541470     
  -65452014.7347384     
  -65428147.1597053     
  -65402951.9758622     
  -65376355.5090394     
  -65348280.3114308     
  -65318645.0076871     
  -65287364.1409643     
  -65254348.0203980     
  -65219502.5717581     
  -65182729.1933767     
  -65143924.6198167     
  -65102980.7961702     
  -65059784.7663344     
  -65014218.5791047     
  -64966159.2164317     
  -64915478.5486888     
  -64862043.3222522     
  -64805715.1850521     
  -64746350.7559292     
  -64683801.7435354     
  -64617915.1199779     
  -64548533.3532553     
  -64475494.7005019     
  -64398633.5608087     
  -64317780.8815115     
  -64232764.6047856     
  -64143410.1314980     
  -64049540.7657266     
  -63950978.0851896     
  -63847542.1588689     
  -63739051.5020436     
  -63625322.6192712     
  -63506168.9359757     
  -63381398.8575886     
  -63250812.6201322     
  -63114197.5065872     
  -62971320.8989109     
  -62821920.5170077     
  -62665691.0662739     
  -62502266.3809111     
  -62331196.0228224     
  -62151915.1959269     
  -61963706.7971196     
  -61765654.5033666     
  -61556586.0798171     
  -61335006.7296745     
  -61099023.5236803     
  -60846264.0882768     
  -60573796.3475350     
  -60278061.9060398     
  -59954844.7376476     
  -59599311.1439794     
  -59206176.2385224     
  -58770102.9869593     
  -58286480.3991240     
  -57753091.1217385     
  -57174738.5303710     
  -56568453.1767211     
  -65851395.4919481     
  -65847021.6948671     
  -65842601.1353740     
  -65838231.0821577     
  -65833942.4140006     
  -65829720.3208209     
  -65825531.4786086     
  -65821336.1173627     
  -65817093.5767139     
  -65812765.1679134     
  -65808315.4048381     
  -65803712.3189142     
  -65798927.2638083     
  -65793934.4610556     
  -65788710.4403757     
  -65783233.4636481     
  -65777482.9810091     
  -65771439.1421789     
  -65765082.3710363     
  -65758393.0028240     
  -65751350.9787797     
  -65743935.5908731     
  -65736125.2686725     
  -65727897.4005495     
  -65719228.1820552     
  -65710092.4851420     
  -65700463.7427991     
  -65690313.8445421     
  -65679613.0390068     
  -65668329.8406075     
  -65656430.9378344     
  -65643881.1012877     
  -65630643.0899758     
  -65616677.5547571     
  -65601942.9380963     
  -65586395.3695352     
  -65569988.5564694     
  -65552673.6699795     
  -65534399.2255901     
  -65515110.9589506     
  -65494751.6965329     
  -65473261.2215417     
  -65450576.1353403     
  -65426629.7148019     
  -65401351.7661250     
  -65374668.4757928     
  -65346502.2595188     
  -65316771.6102155     
  -65285390.9462448     
  -65252270.4614666     
  -65217315.9789019     
  -65180428.8101667     
  -65141505.6232172     
  -65100438.3213782     
  -65057113.9370935     
  -65011414.5443390     
  -64963217.1941591     
  -64912393.8782956     
  -64858811.5263440     
  -64802332.0422437     
  -64742812.3860897     
  -64680104.7071680     
  -64614056.5335884     
  -64544511.0227341     
  -64471307.2747255     
  -64394280.7078382     
  -64313263.4899344     
  -64228085.0129001     
  -64138572.3871815     
  -64044550.9199516     
  -63945844.5222541     
  -63842275.9665061     
  -63733666.8846817     
  -63619837.3578622     
  -63500604.8980641     
  -63375782.5617439     
  -63245175.8596693     
  -63108578.0388904     
  -62965763.2089886     
  -62816476.6676645     
  -62660421.6532105     
  -62497241.6202013     
  -62326497.0119997     
  -62147635.4102882     
  -61959953.9122465     
  -61762552.6762821     
  -61554278.8774470     
  -61333660.9672928     
  -61098834.3666803     
  -60847461.8788561     
  -60576655.7371724     
  -60282914.0014469     
  -59962093.3009003     
  -59609453.9069661     
  -59219835.4128841     
  -58788066.1482493     
  -58309760.1699454     
  -57783058.5926040     
  -57212572.8609854     
  -56612395.1311438     
  -65850822.4802355     
  -65846482.3401210     
  -65842108.4367299     
  -65837779.9807362     
  -65833524.4613412     
  -65829328.3368150     
  -65825159.4166899     
  -65820978.8112435     
  -65816746.5768523     
  -65812424.5970978     
  -65807977.8462206     
  -65803374.7233064     
  -65798586.8736719     
  -65793588.7488873     
  -65788357.0591734     
  -65782870.2072052     
  -65777107.7518932     
  -65771049.9255738     
  -65764677.2129823     
  -65757969.9917351     
  -65750908.2294040     
  -65743471.2300924     
  -65735637.4227040     
  -65727384.1832381     
  -65718687.6840348     
  -65709522.7637022     
  -65699862.8123420     
  -65689679.6675422     
  -65678943.5174101     
  -65667622.8076226     
  -65655684.1500801     
  -65643092.2312744     
  -65629809.7189052     
  -65615797.1656348     
  -65601012.9091612     
  -65585412.9680180     
  -65568950.9327056     
  -65551577.8519085     
  -65533242.1136902     
  -65513889.3216713     
  -65493462.1663008     
  -65471900.2914359     
  -65449140.1565539     
  -65425114.8950274     
  -65399754.1690284     
  -65372984.0217712     
  -65344726.7279698     
  -65314900.6435834     
  -65283420.0561534     
  -65250195.0372974     
  -65215131.2992304     
  -65178130.0575330     
  -65139087.9027786     
  -65097896.6840698     
  -65054443.4080121     
  -65008610.1571664     
  -64960274.0325516     
  -64909307.1252896     
  -64855576.5229665     
  -64798944.3566628     
  -64739267.8948094     
  -64676399.6899474     
  -64610187.7839589     
  -64540475.9762005     
  -64467104.1569531     
  -64389908.7053710     
  -64308722.9462369     
  -64223377.6527851     
  -64133701.5729677     
  -64039521.9430025     
  -63940664.9338897     
  -63836955.9526592     
  -63728219.6891291     
  -63614279.7594262     
  -63494957.7479202     
  -63370071.3879774     
  -63239431.5476354     
  -63102837.5979559     
  -62960070.6391672     
  -62810883.9439260     
  -62654989.8514488     
  -62492042.2178196     
  -62321613.4089225     
  -62143164.7343348     
  -61956009.1978561     
  -61759265.5391664     
  -61551802.8507541     
  -61332175.7166731     
  -61098551.0567512     
  -60848630.0161347     
  -60579571.8410002     
  -60287932.4800599     
  -59969639.9363821     
  -59620042.4352184     
  -59234089.2981499     
  -58806743.8792807     
  -58333794.8227341     
  -57813582.1085770     
  -57250244.2256010     
  -56655270.9443765     
  -65850256.1991332     
  -65845944.8408264     
  -65841613.3265420     
  -65837325.0182331     
  -65833102.8126499     
  -65828933.4227098     
  -65824785.4059117     
  -65820620.5465450     
  -65816399.5109320     
  -65812084.7108721     
  -65807641.5705181     
  -65803038.8651615     
  -65798248.5494683     
  -65793245.3261329     
  -65788006.1070461     
  -65782509.4551635     
  -65776735.0551669     
  -65770663.2362752     
  -65764274.5556901     
  -65757549.4425937     
  -65750467.8979782     
  -65743009.2433866     
  -65735151.9108986     
  -65726873.2668002     
  -65718149.4619425     
  -65708955.3025846     
  -65699264.1363774     
  -65689047.7489975     
  -65678276.2677255     
  -65666918.0689684     
  -65654939.6873305     
  -65642305.7243549     
  -65628978.7554842     
  -65614919.2341419     
  -65600085.3921243     
  -65584433.1357259     
  -65567915.9372089     
  -65550484.7213899     
  -65532087.7472441     
  -65512670.4845484     
  -65492175.4856895     
  -65470542.2528702     
  -65447707.1010555     
  -65423603.0171142     
  -65398159.5157453     
  -65371302.4929274     
  -65342954.0777997     
  -65313032.4840836     
  -65281451.8623905     
  -65248122.1550279     
  -65212948.9552257     
  -65175833.3730651     
  -65136671.9107892     
  -65095356.3506198     
  -65051773.6587011     
  -65005805.9093041     
  -64957330.2339771     
  -64906218.8008567     
  -64852338.8298518     
  -64795552.6498111     
  -64735717.8040021     
  -64672687.2101752     
  -64606309.3809945     
  -64536428.7095111     
  -64462885.8223568     
  -64385518.0001444     
  -64304159.6597154     
  -64218642.8858752     
  -64128797.9904207     
  -64034454.0627885     
  -63935439.4585805     
  -63831582.1484007     
  -63722709.8185853     
  -63608649.5760614     
  -63489227.0602097     
  -63364264.7036893     
  -63233578.8103468     
  -63096975.0306079     
  -62954241.7130010     
  -62805140.4958958     
  -62649393.3796644     
  -62486665.3933295     
  -62316541.8540050     
  -62138499.1332859     
  -61951867.8268901     
  -61755787.3277666     
  -61549151.1165740     
  -61330542.7458197     
  -61098163.7215823     
  -60849756.6182038     
  -60582530.3087792     
  -60293099.9470082     
  -59977463.5161631     
  -59631050.9875763     
  -59248906.1997951     
  -58826097.9968307     
  -58358534.1263370     
  -57844606.4046934     
  -57287805.3118585     
  -56697339.6340114     
  -65849695.1735817     
  -65845408.7898616     
  -65841116.0858787     
  -65836866.5471760     
  -65832677.7732724     
  -65828535.8531979     
  -65824409.6910482     
  -65820261.5418684     
  -65816052.5753657     
  -65811745.6869371     
  -65807306.7400977     
  -65802704.8945224     
  -65797912.4315456     
  -65792904.3256885     
  -65787657.7113341     
  -65782151.3309117     
  -65776365.0116355     
  -65770279.1936862     
  -65763874.5181955     
  -65757131.4749903     
  -65750030.1054798     
  -65742549.7538836     
  -65734668.8592436     
  -65726364.7807482     
  -65717613.6494487     
  -65708390.2402227     
  -65698667.8586871     
  -65688418.2386064     
  -65677611.4461237     
  -65666215.7878352     
  -65654197.7203357     
  -65641521.7593741     
  -65628150.3871847     
  -65614043.9569066     
  -65599160.5932984     
  -65583456.0891814     
  -65566883.7972357     
  -65549394.5169344     
  -65530936.3765319     
  -65511454.7101393     
  -65490891.9300312     
  -65469187.3944344     
  -65446277.2711559     
  -65422094.3975322     
  -65396568.1373100     
  -65369624.2352243     
  -65341184.6702122     
  -65311167.5084093     
  -65279486.7573095     
  -65246052.2227472     
  -65210769.3706753     
  -65173539.1960757     
  -65134258.1017506     
  -65092817.7901923     
  -65049105.1722346     
  -65003002.2967195     
  -64954386.3059699     
  -64903129.4224103     
  -64849098.9721867     
  -64792157.4520577     
  -64732162.6460677     
  -64668967.7984845     
  -64602421.8490222     
  -64532369.7352959     
  -64458652.7655046     
  -64381109.0611867     
  -64299574.0651108     
  -64213881.1024310     
  -64123861.9734826     
  -64029347.5432243     
  -63930168.2743780     
  -63826154.6276625     
  -63717137.2218501     
  -63602946.6072752     
  -63483412.4573789     
  -63358361.9223443     
  -63227616.8155540     
  -63090989.2165318     
  -62948274.9731346     
  -62799244.4723068     
  -62643629.9262775     
  -62481108.2967877     
  -62311278.8664667     
  -62133634.3850024     
  -61947524.7025750     
  -61752111.9086691     
  -61546316.3067873     
  -61328753.2094636     
  -61097661.7434156     
  -60850828.9398710     
  -60585515.8525915     
  -60298398.0949092     
  -59985542.2097856     
  -59642453.6133173     
  -59264255.4543713     
  -58846092.9260753     
  -58383935.0187525     
  -57876097.9593339     
  -57325321.7229330     
  -56738821.0244346     
  -65849138.1303973     
  -65844873.7322322     
  -65840616.8759414     
  -65836404.8664746     
  -65832249.6292555     
  -65828135.8954999     
  -65824032.5174224     
  -65819902.0200731     
  -65815705.9722702     
  -65811407.7089154     
  -65806973.5227648     
  -65802372.9660785     
  -65797578.6640036     
  -65792565.8833278     
  -65787312.0014627     
  -65781795.9592397     
  -65775997.7429358     
  -65769897.9175801     
  -65763477.2195414     
  -65756716.2082424     
  -65749594.9724035     
  -65742092.8840759     
  -65734188.3929836     
  -65725858.8537801     
  -65717080.3793638     
  -65707827.7141652     
  -65698074.1221566     
  -65687791.2851707     
  -65676949.2078862     
  -65665516.1265357     
  -65653458.4189826     
  -65640740.5143315     
  -65627324.8006522     
  -65613171.5297520     
  -65598238.7182145     
  -65582482.0441526     
  -65565854.7393183     
  -65548307.4763641     
  -65529788.2511871     
  -65510242.2604047     
  -65489611.7741216     
  -65467836.0042541     
  -65444850.9687889     
  -65420589.3524796     
  -65394980.3646118     
  -65367949.5946308     
  -65339418.8665981     
  -65309306.0936565     
  -65277525.1339230     
  -65243985.6495092     
  -65208592.9706918     
  -65171247.9676268     
  -65131846.9324147     
  -65090281.4747884     
  -65046438.4352107     
  -65000199.8197048     
  -64951442.7613209     
  -64900039.5137022     
  -64845857.4827463     
  -64788759.3027984     
  -64728602.9640810     
  -64665241.9980630     
  -64598525.7270530     
  -64528299.5832652     
  -64454405.5007186     
  -64376682.3802325     
  -64294966.6230903     
  -64209092.7220956     
  -64118893.8891150     
  -64024202.6849676     
  -63924851.5997473     
  -63820673.5082080     
  -63711501.8944376     
  -63597170.7012588     
  -63477513.6111159     
  -63352362.5051468     
  -63221544.7743658     
  -63084879.0704900     
  -62942168.9838661     
  -62793194.0234989     
  -62637697.1529331     
  -62475368.0128417     
  -62305820.8491979     
  -62128566.0858145     
  -61942974.4654597     
  -61748232.7878523     
  -61543290.5787610     
  -61326797.6617150     
  -61097033.7743693     
  -60851833.3904763     
  -60588512.2673826     
  -60303807.7275182     
  -59993853.5019214     
  -59654224.2058242     
  -59280107.3934205     
  -58866695.7850757     
  -58409962.1049347     
  -57908040.5645438     
  -57362865.9069960     
  -56779905.4512586     
  -65848583.9498873     
  -65844339.1886410     
  -65840115.7635595     
  -65835940.2225426     
  -65831818.6467792     
  -65827733.8097617     
  -65823654.1307942     
  -65819542.2082037     
  -65815359.9093613     
  -65811070.9662281     
  -65806642.0916454     
  -65802043.2390558     
  -65797247.3945978     
  -65792230.1376181     
  -65786969.1088700     
  -65781443.4662758     
  -65775633.3714811     
  -65769519.5280531     
  -65763082.7787353     
  -65756303.7613568     
  -65749162.6187277     
  -65741638.7557901     
  -65733710.6365925     
  -65725355.6137532     
  -65716549.7836137     
  -65707267.8610518     
  -65697483.0687537     
  -65687167.0365744     
  -65676289.7073838     
  -65664819.2464839     
  -65652721.9522756     
  -65639962.1663613     
  -65626502.1816870     
  -65612302.1476783     
  -65597319.9716042     
  -65581511.2156347     
  -65564828.9892473     
  -65547223.8367952     
  -65528643.6201796     
  -65509033.3966928     
  -65488335.2922046     
  -65466488.3699767     
  -65443428.4954992     
  -65419088.1978719     
  -65393396.5283852     
  -65366278.9171156     
  -65337657.0285324     
  -65307448.6173254     
  -65275567.3859097     
  -65241922.8453428     
  -65206420.1817295     
  -65168960.1305553     
  -65129438.8618161     
  -65087747.8792891     
  -65043773.9378056     
  -64997398.9829458     
  -64948500.1181632     
  -64896949.6049260     
  -64842614.9020183     
  -64785358.7506051     
  -64725039.3119701     
  -64661510.3648642     
  -64594621.5690314     
  -64524218.8005031     
  -64450144.5624180     
  -64372238.4721241     
  -64290337.8207152     
  -64204278.1944403     
  -64113894.1379313     
  -64019019.8261537     
  -63919489.6944200     
  -63815138.9526181     
  -63705803.8797193     
  -63591321.7562134     
  -63471530.2438881     
  -63346265.9628266     
  -63215361.9433258     
  -63078643.5447408     
  -62935922.3339723     
  -62786987.3047296     
  -62631592.6983948     
  -62469441.5653292     
  -62300164.0942142     
  -62123289.6570158     
  -61938211.5011717     
  -61744143.1199504     
  -61540065.6263716     
  -61324666.0690150     
  -61096267.7513856     
  -60852755.5502076     
  -60591502.4483422     
  -60309308.7750430     
  -60002374.2038319     
  -59666336.5208865     
  -59296433.2892570     
  -58887876.4740493     
  -58436587.5039691     
  -57940431.6218151     
  -57400513.7301798     
  -56820760.8143951     
  -65848031.6297092     
  -65843804.6684652     
  -65839612.7415077     
  -65835472.8129806     
  -65831385.0721113     
  -65827329.8495199     
  -65823274.7774605     
  -65819182.3374838     
  -65815014.5998967     
  -65810735.6539964     
  -65806312.6250784     
  -65801715.8771105     
  -65796918.7746401     
  -65791897.2298326     
  -65786629.1669296     
  -65781093.9794194     
  -65775272.0204032     
  -65769144.1454724     
  -65762691.3147037     
  -65755894.2529898     
  -65748733.1638787     
  -65741187.4901543     
  -65733235.7137436     
  -65724855.1876560     
  -65716021.9932140     
  -65706710.8165898     
  -65696894.8395044     
  -65686545.6397617     
  -65675633.0980557     
  -65664125.3081753     
  -65651988.4883161     
  -65639186.8917130     
  -65625682.7152245     
  -65611436.0048422     
  -65596404.5573808     
  -65580543.8178319     
  -65563806.7720534     
  -65546143.8346203     
  -65527502.7317993     
  -65507828.3797232     
  -65487062.7579576     
  -65465144.7787575     
  -65442010.1524285     
  -65417591.2493303     
  -65391816.9592010     
  -65364612.5486397     
  -65335899.5177691     
  -65305595.4573188     
  -65273613.9076158     
  -65239864.2212600     
  -65204251.4315985     
  -65166676.1294926     
  -65127034.3513016     
  -65085217.4814938     
  -65041112.1738236     
  -64994600.2955843     
  -64945558.9000494     
  -64893860.2328125     
  -64839371.7783194     
  -64781956.3533659     
  -64721472.2546846     
  -64657773.4678068     
  -64590709.9440727     
  -64520127.9517475     
  -64445870.5054503     
  -64367777.8751999     
  -64285688.1718971     
  -64199437.9994978     
  -64108863.1548232     
  -64013799.3431282     
  -63914082.8602502     
  -63809551.1692954     
  -63700043.2700990     
  -63585399.7217254     
  -63465462.1305548     
  -63340071.8575315     
  -63209067.6266360     
  -63072281.6316562     
  -62929533.6397932     
  -62780622.4798155     
  -62625314.1828486     
  -62463325.9223721     
  -62294304.7886924     
  -62117800.3520175     
  -61933229.9488802     
  -61739835.7182176     
  -61536632.6916071     
  -61322347.8233770     
  -61095350.9108065     
  -60853580.1850402     
  -60594468.4047872     
  -60314880.3026004     
  -60011080.4552387     
  -59678764.1645150     
  -59313205.2913752     
  -58909607.6887645     
  -58463790.3221167     
  -57973279.1910588     
  -57438342.5921327     
  -56861537.8448487     
  -65847480.2571798     
  -65843269.6764374     
  -65839107.7442922     
  -65835002.7915176     
  -65830949.1322434     
  -65826924.2622705     
  -65822894.7045242     
  -65818822.6433904     
  -65814670.2626616     
  -65810401.9729681     
  -65805985.3065170     
  -65801391.0482243     
  -65796592.9588988     
  -65791567.3038578     
  -65786292.3108684     
  -65780747.6272687     
  -65774913.8134888     
  -65768771.8904211     
  -65762302.9462443     
  -65755487.8014042     
  -65748306.7266919     
  -65740739.2075639     
  -65732763.7472780     
  -65724357.7015803     
  -65715497.1382437     
  -65706156.7155290     
  -65696309.5744708     
  -65685927.2407150     
  -65674979.5323883     
  -65663434.4711660     
  -65651258.1942824     
  -65638414.8657320     
  -65624866.5853166     
  -65610573.2945393     
  -65595492.6786205     
  -65579580.0641393     
  -65562788.3119895     
  -65545067.7054914     
  -65526365.8336384     
  -65506627.4695696     
  -65485794.4444741     
  -65463805.5172436     
  -65440596.2403021     
  -65416098.8221692     
  -65390241.9874554     
  -65362950.8351482     
  -65334146.6962368     
  -65303746.9919395     
  -65271665.0940573     
  -65237810.1892617     
  -65202087.1494755     
  -65164396.4108831     
  -65124633.8645549     
  -65082690.7621542     
  -65038453.6407413     
  -64991804.2712750     
  -64942619.6360225     
  -64890771.9407173     
  -64836128.6679024     
  -64778552.6784153     
  -64717902.3683517     
  -64654031.8889637     
  -64586791.4366874     
  -64516027.6196567     
  -64441583.9054065     
  -64363301.1516693     
  -64281018.2178405     
  -64194572.6482858     
  -64103801.4095782     
  -64008541.6511760     
  -63908631.4420768     
  -63803910.4134817     
  -63694220.2082155     
  -63579404.6001908     
  -63459309.1000543     
  -63333779.8048264     
  -63202661.1785285     
  -63065792.3665355     
  -62923001.5485728     
  -62774097.7250974     
  -62618859.2126108     
  -62457018.0019610     
  -62288239.0215841     
  -62112093.2641538     
  -61928023.7104580     
  -61735303.0651814     
  -61532982.5767468     
  -61319831.7559191     
  -61094269.8026307     
  -60854291.2603463     
  -60597391.2706054     
  -60320500.5125018     
  -60019947.7146887     
  -59691480.5561463     
  -59330396.3477552     
  -58931864.8347379     
  -58491555.9418335     
  -58006599.6989140     
  -57476430.4579499     
  -56902374.1388118     
  -65846928.9875285     
  -65842733.7155256     
  -65838600.6602430     
  -65834530.2733997     
  -65830511.0361707     
  -65826517.2901992     
  -65822514.1603065     
  -65818463.3658103     
  -65814327.1219961     
  -65810070.1294652     
  -65805660.3244392     
  -65801068.9246022     
  -65796270.1054956     
  -65791240.5060983     
  -65785958.6776802     
  -65780404.5395443     
  -65774558.8751118     
  -65768402.8836389     
  -65761917.7919732     
  -65755084.5244233     
  -65747883.4253718     
  -65740294.0276449     
  -65732294.8591733     
  -65723863.2806913     
  -65714975.3478185     
  -65705605.6916369     
  -65695727.4127268     
  -65685311.9844324     
  -65674329.1618940     
  -65662746.8940520     
  -65650531.2364101     
  -65637646.2628399     
  -65624053.9751120     
  -65609714.2091845     
  -65594584.5375436     
  -65578620.1671235     
  -65561773.8325120     
  -65543995.6843006     
  -65525233.1725736     
  -65505430.9256427     
  -65484530.6242482     
  -65462470.8715587     
  -65439187.0594135     
  -65414611.2313823     
  -65388671.9433571     
  -65361294.1225595     
  -65332398.9260285     
  -65301903.5998850     
  -65269721.3409178     
  -65235761.1623407     
  -65199927.7659115     
  -65162121.4229968     
  -65122237.8676172     
  -65080168.2050030     
  -65035798.8397467     
  -64989011.4282356     
  -64939682.8606803     
  -64887685.2787008     
  -64832886.1350550     
  -64775148.3026541     
  -64714330.2404219     
  -64650286.2237365     
  -64582866.6469908     
  -64511918.4050621     
  -64437285.3589237     
  -64358808.8879721     
  -64276328.5274713     
  -64189682.6833182     
  -64098709.4074880     
  -64003247.2052458     
  -63903135.8285864     
  -63798216.9882882     
  -63688334.8881741     
  -63573336.4482855     
  -63453071.0371607     
  -63327389.4757949     
  -63196142.0057786     
  -63059174.8306105     
  -62916324.7420505     
  -62767411.2337278     
  -62612225.3852348     
  -62450514.6780213     
  -62281962.7907938     
  -62106163.3351302     
  -61922586.4603373     
  -61730537.3239835     
  -61529105.6571254     
  -61317106.1507015     
  -61093010.3045109     
  -60854871.9532349     
  -60600251.3114965     
  -60326146.7406525     
  -60028950.7379499     
  -59704458.8713074     
  -59347980.1031687     
  -58954625.8475129     
  -58519875.2451501     
  -58040416.1844457     
  -57514855.4427138     
  -56943397.3243125     
  -65846377.0263942     
  -65842196.2874905     
  -65838091.3407022     
  -65834055.3407629     
  -65830070.9767074     
  -65826109.1711074     
  -65822133.3948855     
  -65818104.7492780     
  -65813985.4078609     
  -65809740.3353526     
  -65805337.8722664     
  -65800749.6825706     
  -65795950.3758016     
  -65790916.9853766     
  -65785628.4060343     
  -65780064.8470069     
  -65774207.3301615     
  -65768037.2459592     
  -65761535.9702703     
  -65754684.5393825     
  -65747463.3774488     
  -65739852.0692170     
  -65731829.1705084     
  -65723372.0491976     
  -65714456.7500622     
  -65705057.8776731     
  -65695148.4923346     
  -65684700.0149054     
  -65673682.1370894     
  -65662062.7344488     
  -65649807.7799719     
  -65636881.2565143     
  -65623245.0668365     
  -65608858.9402926     
  -65593680.3354955     
  -65577664.3385042     
  -65560763.5562624     
  -65542928.0051627     
  -65524104.9947480     
  -65504239.0066723     
  -65483271.5691567     
  -65461141.1272860     
  -65437782.9096092     
  -65413128.7916280     
  -65387107.1569151     
  -65359642.7567538     
  -65330656.5693944     
  -65300065.6602411     
  -65267783.0445449     
  -65233717.5544807     
  -65197773.7128367     
  -65159851.6159403     
  -65119846.8289039     
  -65077650.2967789     
  -65033148.2757723     
  -64986222.2892909     
  -64936749.1142320     
  -64884600.8035998     
  -64829644.7521886     
  -64771743.8126598     
  -64710756.4698043     
  -64646537.0810196     
  -64578936.1909027     
  -64507800.9272069     
  -64432975.4839719     
  -64354301.6951236     
  -64271619.6978519     
  -64184768.6791020     
  -64093587.6899464     
  -63997916.5006705     
  -63897596.4531805     
  -63792471.2457385     
  -63682387.5568025     
  -63567195.3784800     
  -63446747.8843114     
  -63320900.5992420     
  -63189509.5703593     
  -63052428.1542413     
  -62909501.9402995     
  -62760561.2202719     
  -62605410.2950088     
  -62443812.7869565     
  -62275472.0109196     
  -62100005.3641077     
  -61916911.6560528     
  -61725530.3504098     
  -61524991.8944921     
  -61314158.7589015     
  -61091557.6355701     
  -60855304.6637269     
  -60603027.9292917     
  -60331795.4472686     
  -60038063.5448461     
  -59717671.9659735     
  -59365930.7689385     
  -58977870.9352956     
  -58548743.8389236     
  -58074756.9673079     
  -57553695.7336211     
  -56984727.6084194     
  -65845823.6153806     
  -65841656.8920022     
  -65837579.6069764     
  -65833578.0477578     
  -65829629.1327087     
  -65825700.1395532     
  -65821752.6607537     
  -65817747.0432869     
  -65813645.3559417     
  -65809412.8080247     
  -65805018.1482894     
  -65800433.5024776     
  -65795633.9343291     
  -65790596.8928289     
  -65785301.6361794     
  -65779728.6813718     
  -65773859.3039666     
  -65767675.0982417     
  -65761157.5992204     
  -65754287.9630783     
  -65747046.6997352     
  -65739413.4502532     
  -65731366.8014300     
  -65722884.1303194     
  -65713941.4720793     
  -65704513.4053632     
  -65694572.9503203     
  -65684091.4750957     
  -65673038.6074735     
  -65661382.1489703     
  -65649087.9892567     
  -65636120.0192696     
  -65622440.0417740     
  -65608007.6784597     
  -65592780.2729277     
  -65576712.7891353     
  -65559757.7050482     
  -65541864.9013956     
  -65522981.5455522     
  -65503051.9706891     
  -65482017.5504408     
  -65459816.5694510     
  -65436384.0902704     
  -65411651.8172133     
  -65385547.9579230     
  -65357997.0835605     
  -65328919.9887293     
  -65298233.5524730     
  -65265850.6019445     
  -65231679.7806548     
  -65195625.4235619     
  -65157587.4416629     
  -65117461.2192173     
  -65075137.5272457     
  -65030502.4575231     
  -64983437.3819113     
  -64933818.9425474     
  -64881519.0790910     
  -64826405.0999184     
  -64768339.8047855     
  -64707181.6669882     
  -64642785.0833506     
  -64575000.7003300     
  -64503675.8239696     
  -64428654.9201254     
  -64349780.2090444     
  -64266892.3545809     
  -64179831.2426230     
  -64088436.8350376     
  -63992550.0738803     
  -63892013.7948409     
  -63786673.5878224     
  -63676378.5149316     
  -63560981.5605965     
  -63440339.6434994     
  -63314312.9639939     
  -63182763.3922312     
  -63045551.5202936     
  -62902531.9058080     
  -62753545.9256191     
  -62598411.5388420     
  -62436909.1346596     
  -62268762.5215478     
  -62093614.0174190     
  -61910992.5494698     
  -61720273.7056095     
  -61520630.8509800     
  -61310976.8133679     
  -61089896.3701161     
  -60855571.0249168     
  -60605699.6636580     
  -60337422.2022009     
  -60047259.3753429     
  -59731092.2837553     
  -59384222.9617402     
  -59001582.2619448     
  -58578161.3160990     
  -58109654.6412159     
  -57593029.7209290     
  -57026479.8781008     
  -65845268.0198146     
  -65841115.0248510     
  -65837065.2555901     
  -65833098.4253351     
  -65829185.6715999     
  -65825290.4282045     
  -65821372.2135901     
  -65817390.5026690     
  -65813307.2077871     
  -65809087.7704085     
  -65804701.3555997     
  -65800120.5685920     
  -65795320.9486216     
  -65790280.3817968     
  -65784978.5098427     
  -65779396.1752172     
  -65773514.9222142     
  -65767316.5613026     
  -65760782.7965517     
  -65753894.9117150     
  -65746633.5082776     
  -65738978.2878396     
  -65730907.8711152     
  -65722399.6462564     
  -65713429.6399250     
  -65703972.4053716     
  -65694000.9226492     
  -65683486.5069125     
  -65672398.7215064     
  -65660705.2932079     
  -65648372.0275499     
  -65635362.7226369     
  -65621639.0802466     
  -65607160.6133427     
  -65591884.5493779     
  -65575765.7289846     
  -65558756.4998234     
  -65540806.6055013     
  -65521863.0696054     
  -65501870.0750053     
  -65480768.8386885     
  -65458497.4825027     
  -65434990.9002971     
  -65410180.6220773     
  -65383994.6759437     
  -65356357.4487426     
  -65327189.5465597     
  -65296407.6564139     
  -65263924.4107720     
  -65229648.2568199     
  -65193483.3327772     
  -65155329.3539598     
  -65115081.5117546     
  -65072630.3892070     
  -65027861.8974992     
  -64980657.2382433     
  -64930892.8971998     
  -64878440.6757462     
  -64823167.7671339     
  -64764936.8852499     
  -64703606.4541557     
  -64639030.8670485     
  -64571060.8233372     
  -64499543.7520728     
  -64424324.3288200     
  -64345245.0908749     
  -64262147.1521768     
  -64174871.0138155     
  -64083257.4581127     
  -63987148.5031086     
  -63886388.3789965     
  -63780824.4675567     
  -63670308.1186974     
  -63554695.2234058     
  -63433846.3782305     
  -63307626.4212912     
  -63175903.0522649     
  -63038544.1676975     
  -62895413.4477951     
  -62746363.6221971     
  -62591226.7225278     
  -62429800.5039879     
  -62261830.0960939     
  -62086983.8389117     
  -61904822.1986974     
  -61714758.6695156     
  -61516011.7037091     
  -61307547.0436049     
  -61088010.4513566     
  -60855651.9123027     
  -60608244.1915097     
  -60343001.6652883     
  -60056510.6358371     
  -59744691.7466445     
  -59402831.5115566     
  -59025743.5858352     
  -58608130.5662639     
  -58145145.3143594     
  -57632936.2600185     
  -57068765.4789083     
  -65844709.5180819     
  -65840570.1755753     
  -65836548.0622687     
  -65832616.4856880     
  -65828740.7521276     
  -65824880.2693946     
  -65820992.3131394     
  -65817035.3880353     
  -65812971.2109774     
  -65808765.4509787     
  -65804387.7020255     
  -65799811.0690027     
  -65795011.5891404     
  -65789967.6077143     
  -65784659.1701244     
  -65779067.4618893     
  -65773174.3108651     
  -65766961.7558393     
  -65760411.6795713     
  -65753505.5008478     
  -65746223.9183087     
  -65738546.6981323     
  -65730452.4977340     
  -65721918.7181545     
  -65712921.3785759     
  -65703435.0072753     
  -65693432.5442012     
  -65682885.2511893     
  -65671762.6265868     
  -65660032.3217088     
  -65647660.0571126     
  -65634609.5371434     
  -65620842.3615949     
  -65606317.9336408     
  -65590993.3634510     
  -65574823.3671160     
  -65557760.1606693     
  -65539753.3491465     
  -65520749.8107359     
  -65500693.5761960     
  -65479525.7038137     
  -65457184.1502954     
  -65433603.6380886     
  -65408715.5197728     
  -65382447.6402924     
  -65354724.1979821     
  -65325465.6055301     
  -65294588.3522525     
  -65262004.8693219     
  -65227623.3999081     
  -65191347.8765468     
  -65153077.8084708     
  -65112708.1821121     
  -65070129.3785161     
  -65025227.1120122     
  -64977882.3951351     
  -64927971.5355005     
  -64875366.1710792     
  -64819933.3510607     
  -64761535.6702155     
  -64700031.4652804     
  -64635275.0823389     
  -64567117.2243027     
  -64495405.3872783     
  -64419984.3935927     
  -64340697.0272717     
  -64257384.7744470     
  -64169888.6660185     
  -64078050.2123528     
  -63981712.4090898     
  -63880720.7783859     
  -63774924.3900549     
  -63664176.7808641     
  -63548336.6562613     
  -63427268.2155388     
  -63300840.8872723     
  -63168928.1952905     
  -63031405.3951791     
  -62888145.4267589     
  -62739012.6194836     
  -62583853.4673813     
  -62422483.6626933     
  -62254670.4511872     
  -62080109.2609107     
  -61898393.4806850     
  -61708976.2549712     
  -61511123.2600499     
  -61303855.6912473     
  -61085883.2052262     
  -60855527.4524964     
  -60610638.3244764     
  -60348507.5622887     
  -60065788.8366687     
  -59758441.6300667     
  -59421731.2404494     
  -59050339.8661910     
  -58638657.1362121     
  -58181268.0347699     
  -57673495.0176762     
  -57111693.7631543     
  -65844147.3920573     
  -65840021.8246978     
  -65836027.7849851     
  -65832132.2263974     
  -65828294.5272845     
  -65824469.8968617     
  -65820613.2241941     
  -65816681.9662680     
  -65812637.6193194     
  -65808446.0837855     
  -65804077.4000702     
  -65799505.1955157     
  -65794706.0291471     
  -65789658.7279904     
  -65784343.7613868     
  -65778742.6754012     
  -65772837.5960649     
  -65766610.8023531     
  -65760044.3650970     
  -65753119.8453244     
  -65745818.0441958     
  -65738118.7963131     
  -65730000.7984117     
  -65721441.4660717     
  -65712416.8118994     
  -65702901.3395362     
  -65692867.9487455     
  -65682287.8476601     
  -65671130.4690297     
  -65659363.3879562     
  -65646952.2391615     
  -65633860.6322934     
  -65620050.0641580     
  -65605479.8270749     
  -65590106.9127996     
  -65573885.9116682     
  -65556768.9067749     
  -65538705.3631428     
  -65519642.0119613     
  -65499522.7300782     
  -65478288.4150383     
  -65455876.8560682     
  -65432222.6015243     
  -65407256.8234479     
  -65380907.1800175     
  -65353097.6768607     
  -65323748.5283854     
  -65292776.0205181     
  -65260092.3765144     
  -65225605.6278168     
  -65189219.4923010     
  -65150833.2626764     
  -65110341.7082846     
  -65067634.9940803     
  -65022598.6211959     
  -64975113.3941547     
  -64925055.4205261     
  -64872296.1495842     
  -64816702.4573119     
  -64758136.7858560     
  -64696457.3462153     
  -64631518.3934648     
  -64563170.5840596     
  -64491261.4245637     
  -64415635.8203054     
  -64336136.7306894     
  -64252605.9348385     
  -64164884.9064149     
  -64072815.7893191     
  -63976242.4557472     
  -63875011.6139174     
  -63768973.9135998     
  -63657984.9721620     
  -63541906.2107676     
  -63420605.3480607     
  -63293956.3455423     
  -63161838.5332698     
  -63024134.5651616     
  -62880726.7592474     
  -62731491.2698072     
  -62576289.4172410     
  -62414955.3717992     
  -62247279.2565872     
  -62072984.6158032     
  -61891699.1045065     
  -61702917.2225788     
  -61505953.9735794     
  -61299888.5260914     
  -61083497.3544530     
  -60855177.0315472     
  -60612858.0048175     
  -60353912.6570332     
  -60075064.5219073     
  -59772312.4232416     
  -59440896.7145890     
  -59075356.8444912     
  -58669748.6338796     
  -58218064.3517407     
  -57714786.8745603     
  -57155373.4774174     
  -65843580.9182519     
  -65839469.4406835     
  -65835504.1663414     
  -65831645.6343571     
  -65827847.1473786     
  -65824059.5476550     
  -65820235.2176676     
  -65816330.5110607     
  -65812306.6930619     
  -65808129.9084882     
  -65803770.6668519     
  -65799203.1435485     
  -65794404.4445818     
  -65789353.9018860     
  -65784032.4291387     
  -65778421.9503285     
  -65772504.9040504     
  -65766263.8210675     
  -65759680.9693871     
  -65752738.0592239     
  -65745415.9993885     
  -65737694.6965439     
  -65729552.8891880     
  -65720968.0089434     
  -65711916.0626227     
  -65702371.5294729     
  -65692307.2689150     
  -65681694.4349363     
  -65670502.3940450     
  -65658698.6443470     
  -65646248.7338482     
  -65633116.1765474     
  -65619262.3652543     
  -65604646.4803686     
  -65589225.3941037     
  -65572953.5698358     
  -65555782.9564163     
  -65537662.8774265     
  -65518539.9154678     
  -65498357.7916915     
  -65477057.2408698     
  -65454575.8824252     
  -65430848.0879434     
  -65405804.8458252     
  -65379373.6238815     
  -65351478.2308423     
  -65322038.6779532     
  -65290971.0420628     
  -65258187.3318800     
  -65223595.3593944     
  -65187098.6188251     
  -65148596.1758888     
  -65107982.5706608     
  -65065147.7378612     
  -65019976.9490121     
  -64972350.7816019     
  -64922145.1211388     
  -64869231.2027652     
  -64813475.6999291     
  -64754740.8684134     
  -64692884.7547675     
  -64627761.4787852     
  -64559221.6000226     
  -64487112.5782858     
  -64411279.3373526     
  -64331564.9396424     
  -64247811.3767719     
  -64159860.4764545     
  -64067554.9194883     
  -63970739.3508687     
  -63869261.5555228     
  -63762973.6507202     
  -63651733.2226425     
  -63535404.3024787     
  -63413858.0361606     
  -63286972.8498241     
  -63154633.8485869     
  -63016731.1078284     
  -62873156.4228475     
  -62723797.9744308     
  -62568532.2458281     
  -62407212.3944206     
  -62239652.1456313     
  -62065604.1482343     
  -61884731.6253325     
  -61696572.0962833     
  -61500491.9607660     
  -61295630.8627580     
  -61080835.0330050     
  -60854579.3031300     
  -60614878.3002115     
  -60359188.7205355     
  -60084307.1925488     
  -59786273.6761678     
  -59460301.9722080     
  -59100780.6050485     
  -58701414.1647993     
  -58255577.9743184     
  -57756894.3675368     
  -57199914.0445399     
  -65843009.3593641     
  -65838912.4766813     
  -65834976.9355018     
  -65831156.6895692     
  -65827398.7632402     
  -65823649.4641900     
  -65819858.5717495     
  -65815981.3034931     
  -65811978.6991268     
  -65807817.1703946     
  -65803467.7240414     
  -65798905.1120216     
  -65794107.0139364     
  -65789053.2903861     
  -65783725.3199147     
  -65778105.4216990     
  -65772176.3610523     
  -65765920.9318423     
  -65759321.6080658     
  -65752360.2557933     
  -65745017.8963636     
  -65737274.5119198     
  -65729108.8849767     
  -65720498.4645463     
  -65711419.2523014     
  -65701845.7032329     
  -65691750.6361812     
  -65681105.1504828     
  -65669878.5457150     
  -65658038.2421709     
  -65645549.7002383     
  -65632376.3373026     
  -65618479.4411610     
  -65603818.0792277     
  -65588349.0030507     
  -65572026.5478490     
  -65554802.5269371     
  -65536626.1210376     
  -65517443.7625898     
  -65497199.0152759     
  -65475832.4490810     
  -65453281.5113136     
  -65429480.3941228     
  -65404359.8991806     
  -65377847.3003397     
  -65349866.2052511     
  -65320336.4171238     
  -65289173.7980433     
  -65256290.1355412     
  -65221593.0144234     
  -65184985.6962450     
  -65146367.0092397     
  -65105631.2520141     
  -65062668.1148693     
  -65017362.6232490     
  -64969595.1085128     
  -64919241.2119982     
  -64866171.9291576     
  -64810253.7014157     
  -64751348.5642439     
  -64689314.3607615     
  -64624005.0308600     
  -64555270.9863000     
  -64482959.5823261     
  -64406915.6958501     
  -64326982.4189514     
  -64243001.8739569     
  -64154816.1522589     
  -64062268.3727708     
  -63965203.8467706     
  -63863471.3230033     
  -63756924.2692678     
  -63645422.1230436     
  -63528831.4126254     
  -63407026.6101054     
  -63279890.5266845     
  -63147313.9974496     
  -63009194.5253421     
  -62865433.4613842     
  -62715931.1899098     
  -62560579.6644555     
  -62399251.5050148     
  -62231784.7262035     
  -62057962.0279177     
  -61877483.4590983     
  -61689931.1797091     
  -61494725.0184224     
  -61291067.5780650     
  -61077877.8010630     
  -60853712.1968651     
  -60616673.3978770     
  -60364306.4978507     
  -60093485.2243472     
  -59800293.8348647     
  -59479920.2300766     
  -59126597.1160384     
  -58733663.7878001     
  -58293854.4950316     
  -57799902.1628793     
  -57245426.7856114     
  -65842431.9559613     
  -65838350.3670802     
  -65834445.8098667     
  -65830665.3689126     
  -65826949.5295706     
  -65823239.8964341     
  -65819483.5731265     
  -65815634.6326335     
  -65811653.9113497     
  -65807508.1205007     
  -65803168.7977987     
  -65798611.3032439     
  -65793813.9181225     
  -65788757.0560664     
  -65783422.5811488     
  -65777793.2248783     
  -65771852.0931937     
  -65765582.2540857     
  -65758966.3960471     
  -65751986.5473812     
  -65744623.8465690     
  -65736858.3544205     
  -65728668.8995240     
  -65720032.9494622     
  -65710926.5012879     
  -65701323.9857638     
  -65691198.1808274     
  -65680520.1305941     
  -65669259.0669715     
  -65657382.3315893     
  -65644855.2962917     
  -65631641.2808721     
  -65617701.4670941     
  -65602994.8083212     
  -65587477.9343164     
  -65571105.0509526     
  -65553827.8347269     
  -65535595.3220994     
  -65516353.7937882     
  -65496046.6542512     
  -65474614.3066887     
  -65451994.0240018     
  -65428119.8162558     
  -65402922.2953211     
  -65376328.5375177     
  -65348261.9452502     
  -65318642.1088283     
  -65287384.6698991     
  -65254401.1881921     
  -65219599.0136021     
  -65182881.1660086     
  -65144146.2256652     
  -65103288.2374892     
  -65060196.6331526     
  -65014756.1755155     
  -64966846.9306592     
  -64916344.2735659     
  -64863118.9343399     
  -64807037.0927583     
  -64747960.5298518     
  -64685746.8460897     
  -64620249.7565194     
  -64551319.4737890     
  -64478803.1902199     
  -64402545.6698073     
  -64322389.9599685     
  -64238178.2306887     
  -64149752.7450078     
  -64056956.9590134     
  -63959636.7409474     
  -63857641.6868668     
  -63750826.4934913     
  -63639052.3261645     
  -63522188.0898664     
  -63400111.4722842     
  -63272709.5783326     
  -63139878.9133971     
  -63001524.3962132     
  -62857556.9903218     
  -62707889.4347169     
  -62552429.4300766     
  -62391069.4990590     
  -62223672.5922200     
  -62050052.3630550     
  -61869946.8978670     
  -61682984.5732657     
  -61488640.6419686     
  -61286183.1291948     
  -61074606.6606790     
  -60852552.9270521     
  -60618216.5985227     
  -60369235.6735287     
  -60102565.7816238     
  -59814340.0668053     
  -59499723.5709419     
  -59152791.7501169     
  -58766507.9751766     
  -58332941.1518207     
  -57843897.5558762     
  -57292026.1213477     
  -65841847.9180440     
  -65837782.5238908     
  -65833910.4966540     
  -65830171.6499966     
  -65826499.6084508     
  -65822831.1042097     
  -65819110.5182575     
  -65815290.7961594     
  -65811332.6107227     
  -65807203.0155281     
  -65802874.1187022     
  -65798321.9227941     
  -65793525.3403334     
  -65788465.3629534     
  -65783124.3610430     
  -65777485.4954500     
  -65771532.2263842     
  -65765247.9066618     
  -65758615.4474550     
  -65751617.0453698     
  -65744233.9603648     
  -65736446.3348598     
  -65728233.0453650     
  -65719571.5790413     
  -65710437.9286974     
  -65700806.5007845     
  -65690650.0319235     
  -65679939.5103705     
  -65668644.0995739     
  -65656731.0616138     
  -65644165.6788410     
  -65630911.1724653     
  -65616928.6171889     
  -65602176.8512598     
  -65586612.3815432     
  -65570189.2833869     
  -65552859.0952015     
  -65534570.7077976     
  -65515270.2486296     
  -65494900.9611943     
  -65473403.0799295     
  -65450713.7010566     
  -65426766.6499282     
  -65401492.3455615     
  -65374817.6631882     
  -65346665.7958175     
  -65316956.1160150     
  -65285604.0393287     
  -65252520.8910756     
  -65217613.7785212     
  -65180785.4708653     
  -65141934.2898848     
  -65100954.0145837     
  -65057733.8037825     
  -65012158.1412282     
  -64964106.8085386     
  -64913454.8921025     
  -64860072.8309375     
  -64803826.5134385     
  -64744577.4319134     
  -64682182.9047493     
  -64616496.3769213     
  -64547367.8102571     
  -64474644.1752691     
  -64398170.0562806     
  -64317788.3807846     
  -64233341.2821246     
  -64144671.1013070     
  -64051621.5284825     
  -63954038.8767038     
  -63851773.4691528     
  -63744681.1051072     
  -63632624.5482462     
  -63515474.9520588     
  -63393113.0994669     
  -63265430.2854840     
  -63132328.6109070     
  -62993720.3798111     
  -62849526.2023600     
  -62699671.2961237     
  -62544079.3536677     
  -62382663.2031422     
  -62215311.3356238     
  -62041869.2143631     
  -61862114.1258988     
  -61675722.1920443     
  -61482226.0445492     
  -61280961.5727407     
  -61071002.0722813     
  -60851078.0021072     
  -60619480.3106373     
  -60373944.8365588     
  -60111514.7285128     
  -59828378.0787431     
  -59519682.6142540     
  -59179348.7822591     
  -58799957.0614725     
  -58372886.6039272     
  -57888970.9951292     
  -57339830.7889980     
  -65841256.4162468     
  -65837208.3329569     
  -65833370.6945494     
  -65829675.5152135     
  -65826049.1730342     
  -65822423.3595953     
  -65818739.7146815     
  -65814950.1009828     
  -65811015.0856345     
  -65806902.1179545     
  -65802583.9216730     
  -65798037.1793927     
  -65793241.4658985     
  -65788178.3763798     
  -65782830.8084302     
  -65777182.3690924     
  -65771216.8862096     
  -65764918.0077946     
  -65758268.8755413     
  -65751251.8601047     
  -65743848.3469644     
  -65736038.5628356     
  -65727801.4337805     
  -65719114.4673633     
  -65709953.6523770     
  -65700293.3707562     
  -65690106.3172996     
  -65679363.4236941     
  -65668033.7840870     
  -65656084.5800849     
  -65643481.0035717     
  -65630186.1761674     
  -65616161.0644797     
  -65601364.3905772     
  -65585752.5373209     
  -65569279.4483657     
  -65551896.5227813     
  -65533552.5043576     
  -65514193.3657628     
  -65493762.1878170     
  -65472199.0342385     
  -65449440.8223192     
  -65425421.1900945     
  -65400070.3606995     
  -65373315.0047453     
  -65345078.1017205     
  -65315278.8016235     
  -65283832.2882650     
  -65250649.6459582     
  -65215637.7316395     
  -65178699.0548410     
  -65139731.6683786     
  -65098629.0731262     
  -65055280.1408316     
  -65009569.0595931     
  -64961375.3073605     
  -64910573.6596560     
  -64857034.2386170     
  -64800622.6114353     
  -64741199.9472880     
  -64678623.2428671     
  -64612745.6275917     
  -64543416.7604063     
  -64470483.3306362     
  -64393789.6755074     
  -64313178.5264164     
  -64228491.8945396     
  -64139572.1035324     
  -64046262.9723265     
  -63948411.1437713     
  -63845867.5442443     
  -63738488.9443622     
  -63626139.5703539     
  -63508692.6880449     
  -63386032.0450990     
  -63258053.0102852     
  -63124663.1890954     
  -62985782.2210085     
  -62841340.3732155     
  -62691275.4373319     
  -62535527.3089313     
  -62374029.4854674     
  -62206696.5588828     
  -62033406.6097054     
  -61853977.2364275     
  -61668133.7845234     
  -61475468.1770499     
  -61275386.5847265     
  -61067043.9721925     
  -60849263.2350081     
  -60620436.0456549     
  -60378401.4457290     
  -60120296.5392105     
  -59842371.9293936     
  -59539766.1725363     
  -59206250.8614939     
  -58834020.6640113     
  -58413740.6985034     
  -57935216.6312829     
  -57388965.1099283     
  -65840656.5724279     
  -65836627.1499923     
  -65832826.0955927     
  -65829176.9561195     
  -65825598.4114471     
  -65822016.9494083     
  -65818371.4823429     
  -65814612.8638723     
  -65810701.6321017     
  -65806605.6960348     
  -65802298.4458890     
  -65797757.2847680     
  -65792962.4821317     
  -65787896.2628310     
  -65782542.0726313     
  -65776883.9814477     
  -65770906.1978183     
  -65764592.6749693     
  -65757926.7926003     
  -65750891.1008223     
  -65743467.1143712     
  -65735635.1466764     
  -65727374.1747519     
  -65718661.7272006     
  -65709473.7888706     
  -65699784.7168526     
  -65689567.1635193     
  -65678792.0032045     
  -65667428.2598583     
  -65655443.0336510     
  -65642801.4250015     
  -65629466.4549191     
  -65615398.9808793     
  -65600557.6077091     
  -65584898.5931662     
  -65568375.7480564     
  -65550940.3308698     
  -65532540.9370236     
  -65513123.3828979     
  -65492630.5849424     
  -65471002.4342244     
  -65448175.6668812     
  -65424083.7310526     
  -65398656.6509899     
  -65371820.8891788     
  -65343499.2074895     
  -65313610.5285583     
  -65282069.7988469     
  -65248787.8551015     
  -65213671.2962556     
  -65176622.3632104     
  -65137538.8293593     
  -65096313.9052490     
  -65052836.1613489     
  -65006989.4735812     
  -64958652.9970232     
  -64907701.1740432     
  -64854003.7840712     
  -64797426.0432163     
  -64737828.7630180     
  -64675068.5787113     
  -64608998.2584534     
  -64539467.1059215     
  -64466321.4694216     
  -64389405.3710218     
  -64308561.2689725     
  -64223630.9655611     
  -64134456.6701558     
  -64040882.2230185     
  -63942754.4789036     
  -63839924.8396636     
  -63732250.9110864     
  -63619598.2397597     
  -63501842.0594527     
  -63378868.9416249     
  -63250578.1992913     
  -63116882.8355034     
  -62977709.7549524     
  -62832998.8675808     
  -62682700.6048418     
  -62526771.2413113     
  -62365165.2667495     
  -62197823.8879815     
  -62024658.5593249     
  -61845528.2491536     
  -61660208.9521055     
  -61468353.7490607     
  -61269441.4816857     
  -61062711.7913274     
  -60847083.7550453     
  -60621054.4145373     
  -60382571.7963600     
  -60128874.2088915     
  -59856283.8396858     
  -59559940.8959887     
  -59233478.4528298     
  -58868707.0571991     
  -58455554.2040210     
  -57982732.8903897     
  -57439560.3441417     
  -65840047.4493687     
  -65836038.2964485     
  -65832276.3874837     
  -65828675.9782743     
  -65825147.5309230     
  -65821612.1777486     
  -65818006.1549115     
  -65814279.4120546     
  -65810392.5539800     
  -65806314.0238086     
  -65802017.9346871     
  -65797482.4535111     
  -65792688.5781708     
  -65787619.1897871     
  -65782258.3033063     
  -65776590.4679891     
  -65770600.2858026     
  -65764272.0248299     
  -65757589.3098815     
  -65750534.8755752     
  -65743090.3693174     
  -65735236.1933884     
  -65726951.3769165     
  -65718213.4699778     
  -65708998.4533865     
  -65699280.6589307     
  -65689032.6958538     
  -65678225.3802750     
  -65666827.6649950     
  -65654806.5677468     
  -65642127.0964592     
  -65628752.1704968     
  -65614642.5371595     
  -65599756.6829733     
  -65584050.7395015     
  -65567478.3835581     
  -65549990.7318322     
  -65531536.2300359     
  -65512060.5367820     
  -65491506.4024816     
  -65469813.5436451     
  -65446918.5130588     
  -65422754.5664179     
  -65397251.5261177     
  -65370335.6430463     
  -65341929.4573891     
  -65311951.6596583     
  -65280316.9533897     
  -65246935.9212318     
  -65211714.8964773     
  -65174555.8424654     
  -65135356.2427402     
  -65094009.0053562     
  -65050402.3853276     
  -65004419.9298981     
  -64955940.4520850     
  -64904838.0388225     
  -64850982.1009965     
  -64794237.4737189     
  -64734464.5763175     
  -64671519.6426894     
  -64605255.0338372     
  -64535519.6455018     
  -64462159.4247222     
  -64385018.0097495     
  -64303937.5077981     
  -64218759.4243801     
  -64129325.7560446     
  -64035480.2547756     
  -63937069.8664509     
  -63833946.3368491     
  -63725967.9657331     
  -63613001.4713188     
  -63494923.9025013     
  -63371624.5028371     
  -63243006.3864930     
  -63108987.8299595     
  -62969502.9119532     
  -62824501.1452498     
  -62673945.6360504     
  -62517809.1773137     
  -62356067.5315040     
  -62188688.9859037     
  -62015619.0716774     
  -61836759.1284556     
  -61651937.1695039     
  -61460869.2508292     
  -61263109.2428923     
  -61057984.4752397     
  -60844514.0211827     
  -60621305.1263212     
  -60386420.9893842     
  -60137209.1670241     
  -59870074.0035450     
  -59580170.9083978     
  -59261009.2458055     
  -58904022.4813328     
  -58498378.4841207     
  -58031623.0716166     
  -57491756.1712167     
  -65839428.0392737     
  -65835441.0552267     
  -65831721.2565206     
  -65828172.6066856     
  -65824696.7621898     
  -65821209.3685728     
  -65817644.0810752     
  -65813950.0837888     
  -65810088.1631549     
  -65806027.3810876     
  -65801742.6354533     
  -65797212.9029207     
  -65792419.9448086     
  -65787347.3255564     
  -65781979.6502999     
  -65776301.9638811     
  -65770299.2740770     
  -65763956.1730733     
  -65757256.5374989     
  -65750183.2911555     
  -65742718.2171977     
  -65734841.8086008     
  -65726533.1475200     
  -65717769.8057333     
  -65708527.7597625     
  -65698781.3155013     
  -65688503.0382548     
  -65677663.6849887     
  -65666232.1363432     
  -65654175.3265722     
  -65641458.1700647     
  -65628043.4834920     
  -65613891.9029307     
  -65598961.7955488     
  -65583209.1656344     
  -65566587.5548810     
  -65549047.9369733     
  -65530538.6066084     
  -65511005.0631767     
  -65490389.8894092     
  -65468632.6253829     
  -65445669.6383672     
  -65421433.9890956     
  -65395855.2951706     
  -65368859.5924442     
  -65340369.1953884     
  -65310302.5576674     
  -65278574.1343531     
  -65245094.2475083     
  -65209768.9571866     
  -65172499.9402807     
  -65133184.3801009     
  -65091714.8700886     
  -65047979.3356695     
  -65001860.9789472     
  -64953238.2517281     
  -64901984.8632590     
  -64847969.8300591     
  -64791057.5763214     
  -64731108.0945483     
  -64667977.1773333     
  -64601516.7324790     
  -64531575.1948763     
  -64457998.0496712     
  -64380628.4820827     
  -64299308.1695992     
  -64213878.2319401     
  -64124180.3527389     
  -64030058.0839528     
  -63931358.3389115     
  -63827933.0719123     
  -63719641.1304028     
  -63606350.2488393     
  -63487939.1298106     
  -63364299.5262431     
  -63235338.1963829     
  -63100978.5485152     
  -62961161.7224815     
  -62815846.7674008     
  -62665009.4670662     
  -62508639.2341137     
  -62346733.3397128     
  -62179287.5665925     
  -62006282.1698598     
  -61827661.8023281     
  -61643307.8059993     
  -61453000.9762525     
  -61256372.5338311     
  -61052840.5056783     
  -60841527.8373285     
  -60621156.9891705     
  -60389912.9037475     
  -60145261.1948505     
  -59883700.4023987     
  -59600417.4381903     
  -59288817.5269051     
  -58939970.3651877     
  -58542265.0812377     
  -58081995.9674492     
  -57545702.3426755     
  -65838797.2506959     
  -65834834.6662643     
  -65831160.3914335     
  -65827666.8920141     
  -65824246.3641176     
  -65820808.8682704     
  -65817285.6257818     
  -65813625.2288974     
  -65809788.7797012     
  -65805746.0534254     
  -65801472.7994964     
  -65796948.8528373     
  -65792156.7743147     
  -65787080.8391017     
  -65781706.2634807     
  -65776018.6038359     
  -65770003.2857517     
  -65763645.2343401     
  -65756928.5843383     
  -65749836.4530162     
  -65742350.7620044     
  -65734452.0965106     
  -65726119.5923710     
  -65717330.8430796     
  -65708061.8204322     
  -65698286.8036984     
  -65687978.3133285     
  -65677107.0461138     
  -65665641.8094639     
  -65653549.4530711     
  -65640794.7967085     
  -65627340.5532916     
  -65613147.2466214     
  -65598173.1234564     
  -65582374.0597374     
  -65565703.4609249     
  -65548112.1565158     
  -65529548.2889056     
  -65509957.1968338     
  -65489281.2937385     
  -65467459.9414183     
  -65444429.3194931     
  -65420122.2912536     
  -65394468.2666092     
  -65367393.0629772     
  -65338818.7651290     
  -65308663.5852006     
  -65276841.7243074     
  -65243263.2374859     
  -65207833.9040049     
  -65170455.1054757     
  -65131023.7146467     
  -65089431.9982820     
  -65045567.5381425     
  -64999313.1747877     
  -64950546.9797158     
  -64899142.2622821     
  -64844967.6188537     
  -64787887.0328028     
  -64727760.0351845     
  -64664441.9372705     
  -64597784.1475025     
  -64527634.5868010     
  -64453838.2174589     
  -64376237.7019343     
  -64294674.2085412     
  -64208988.3811011     
  -64119021.4887030     
  -64024616.7694130     
  -63925620.9774578     
  -63821886.1363709     
  -63713271.4898479     
  -63599645.6264372     
  -63480888.7322096     
  -63356894.8954469     
  -63227574.3470565     
  -63092855.4674413     
  -62952686.3222651     
  -62807035.4030266     
  -62655891.1407310     
  -62499259.6294463     
  -62337159.8388585     
  -62169615.4093831     
  -61996641.9086292     
  -61818228.1820490     
  -61634310.1475874     
  -61444735.0469498     
  -61249213.7309956     
  -61047257.9238157     
  -60838098.3698015     
  -60620577.9144696     
  -60393010.1731072     
  -60152988.3488156     
  -59897118.6267941     
  -59620638.4494717     
  -59316873.5146187     
  -58976550.4401243     
  -58587265.1727561     
  -58133966.5015730     
  -57601560.5590959     
  -65838153.8934357     
  -65834218.3220711     
  -65830593.4884355     
  -65827158.9177030     
  -65823796.6286188     
  -65820411.0481941     
  -65816931.1714069     
  -65813305.2092423     
  -65809494.7320030     
  -65805470.3320581     
  -65801208.6819048     
  -65796690.5254632     
  -65791899.2602477     
  -65786819.8998590     
  -65781438.2925735     
  -65775740.5219628     
  -65769712.4430015     
  -65763339.3221034     
  -65756605.5579616     
  -65749494.4651913     
  -65741988.1062587     
  -65734067.1598251     
  -65725710.8157923     
  -65716896.6891617     
  -65707600.7463904     
  -65697797.2392500     
  -65687458.6423090     
  -65676555.5910798     
  -65665056.8186119     
  -65652929.0889108     
  -65640137.1260313     
  -65626643.5380571     
  -65612408.7354589     
  -65597390.8435370     
  -65581545.6088263     
  -65564826.2994574     
  -65547183.5995782     
  -65528565.4980195     
  -65508917.1714710     
  -65488180.8624964     
  -65466295.7528039     
  -65443197.8322677     
  -65418819.7642933     
  -65393090.7482370     
  -65365936.3797268     
  -65337278.5098924     
  -65307035.1047092     
  -65275120.1058970     
  -65241443.2950793     
  -65205910.1632514     
  -65168421.7879731     
  -65128874.7211666     
  -65087160.8909228     
  -65043167.5213346     
  -64996777.0750853     
  -64947867.2243419     
  -64896310.8564331     
  -64841976.1218511     
  -64784726.5332928     
  -64724421.1257644     
  -64660914.6891807     
  -64594058.0863846     
  -64523698.6710395     
  -64449680.8213345     
  -64371846.6067701     
  -64290036.6063262     
  -64204090.8967772     
  -64113850.2295498     
  -64019157.4128674     
  -63919858.9124341     
  -63815806.6778563     
  -63706860.1924551     
  -63592888.7298782     
  -63473773.7805358     
  -63349411.5825358     
  -63219715.6533402     
  -63084619.1672785     
  -62944076.9574755     
  -62798066.8355002     
  -62646589.8148365     
  -62489668.6917617     
  -62327344.2763131     
  -62159668.3738959     
  -61986692.3920086     
  -61808450.1825801     
  -61624933.4200337     
  -61436057.4374551     
  -61241614.9480918     
  -61041214.3552980     
  -60834198.1672722     
  -60619534.9244654     
  -60395674.1677850     
  -60160346.8916930     
  -59910281.7086276     
  -59640788.2791485     
  -59345142.6584521     
  -59013757.7220941     
  -58633428.8531798     
  -58187656.3746515     
  -57659506.6370888     
  -65837496.6608425     
  -65833591.1633359     
  -65830020.2579086     
  -65826648.8082009     
  -65823347.8857628     
  -65820016.3070945     
  -65816581.1188200     
  -65812990.3991352     
  -65809206.3568341     
  -65805200.5138199     
  -65800950.5413836     
  -65796438.1451697     
  -65791647.5972574     
  -65786564.6775480     
  -65781175.8869869     
  -65775467.8516162     
  -65769426.8669326     
  -65763038.5485525     
  -65756287.5645105     
  -65749157.4302138     
  -65741630.3509434     
  -65733687.0997057     
  -65725306.9205741     
  -65716467.4496185     
  -65707144.6471587     
  -65697312.7364475     
  -65686944.1450316     
  -65676009.4459547     
  -65664477.2967133     
  -65652314.3744601     
  -65639485.3064034     
  -65625952.5947057     
  -65611676.5354483     
  -65596615.1314324     
  -65580723.9987392     
  -65563956.2670924     
  -65546262.4741506     
  -65527590.4539459     
  -65507885.2197478     
  -65487088.8416973     
  -65465140.3196371     
  -65441975.4516383     
  -65417526.6988191     
  -65391723.0471691     
  -65364489.8672191     
  -65335748.7725652     
  -65305417.4784460     
  -65273409.6618018     
  -65239634.8245205     
  -65203998.1619022     
  -65166400.4387539     
  -65126737.8759846     
  -65084902.0510984     
  -65040779.8166010     
  -64994253.2410582     
  -64945199.5783738     
  -64893491.2718074     
  -64838996.0003393     
  -64781576.7762106     
  -64721092.1038316     
  -64657396.2117411     
  -64590339.3709065     
  -64519768.3143264     
  -64445526.7745874     
  -64367456.1576190     
  -64285396.3722460     
  -64199186.8360519     
  -64108667.6782378     
  -64013681.1591890     
  -63914073.3238268     
  -63809695.9007929     
  -63700408.4512011     
  -63586080.7578944     
  -63466595.4274246     
  -63341850.6504698     
  -63211763.0299392     
  -63076270.3369320     
  -62935333.9899922     
  -62788940.9692647     
  -62637104.7705213     
  -62479864.8706358     
  -62317284.0120721     
  -62149442.4153825     
  -61976427.7914751     
  -61798319.7437027     
  -61615166.8128502     
  -61426954.0015766     
  -61233558.0637299     
  -61034687.0372623     
  -60829799.1834372     
  -60617994.1639402     
  -60397864.9829041     
  -60167291.2331100     
  -59923139.9674879     
  -59660817.2876036     
  -59373584.9069184     
  -59051581.3371881     
  -58680804.1830800     
  -58243194.7002195     
  -57719733.0476973     
  -65836824.1087907     
  -65832952.2748181     
  -65829440.4332556     
  -65826136.7384469     
  -65822900.5090346     
  -65819625.0733977     
  -65816235.8883292     
  -65812681.1856698     
  -65808923.9993851     
  -65804936.9010258     
  -65800698.6400718     
  -65796191.9382890     
  -65791401.9808751     
  -65786315.3419745     
  -65780919.1956324     
  -65775200.7252338     
  -65769146.6774436     
  -65762743.0244759     
  -65755974.7086052     
  -65748825.4490312     
  -65741277.5954327     
  -65733312.0157088     
  -65724908.0079237     
  -65716043.2285401     
  -65706693.6307502     
  -65696833.4081165     
  -65686434.9399068     
  -65675468.7354194     
  -65663903.3753434     
  -65651705.4487696     
  -65638839.4849049     
  -65625267.8788884     
  -65610950.8113530     
  -65595846.1615637     
  -65579909.4141164     
  -65563093.5592678     
  -65545348.9870735     
  -65526623.3755604     
  -65506861.5732395     
  -65486005.4763167     
  -65463993.9010324     
  -65440762.4516378     
  -65416243.3846086     
  -65390365.4697996     
  -65363053.8493885     
  -65334229.8956026     
  -65303811.0684246     
  -65271710.7746973     
  -65237838.2303180     
  -65202098.3275436     
  -65164391.5098092     
  -65124613.6569103     
  -65082655.9839426     
  -65038404.9580068     
  -64991742.2374157     
  -64942544.6389889     
  -64890684.1399869     
  -64836027.9223522     
  -64778438.4681928     
  -64717773.7168609     
  -64653887.2955545     
  -64586628.8370886     
  -64515844.4003096     
  -64441377.0105089     
  -64363067.3390617     
  -64280754.5432089     
  -64194277.2882611     
  -64103474.9752384     
  -64008189.1966929     
  -63908265.4417007     
  -63803555.0670452     
  -63693917.5445807     
  -63579222.9834807     
  -63459354.9090791     
  -63334213.2554624     
  -63203717.4945942     
  -63067809.7778030     
  -62926457.9027374     
  -62779657.8366348     
  -62627435.4208380     
  -62469846.7474214     
  -62306976.5318162     
  -62138933.6005116     
  -61965842.3647206     
  -61787828.8518916     
  -61604999.5042136     
  -61417410.4999498     
  -61225024.7506730     
  -61027652.8474546     
  -60824872.8026693     
  -60615920.9163617     
  -60399541.4336036     
  -60173773.8811217     
  -59935640.8744446     
  -59680671.5317335     
  -59402153.9547996     
  -59090003.1670163     
  -58729435.9285409     
  -58300718.6002661     
  -57782451.9305586     
  -65836134.6303805     
  -65832300.6818790     
  -65828853.7826110     
  -65825622.9447540     
  -65822454.9206157     
  -65819237.8072558     
  -65815895.9204819     
  -65812377.9689646     
  -65808648.0132367     
  -65804679.8013195     
  -65800453.2433362     
  -65795952.1328918     
  -65791162.6072937     
  -65786072.0628244     
  -65780668.3667388     
  -65774939.2741740     
  -65768871.9930834     
  -65762452.8591391     
  -65755667.0932432     
  -65748498.6209216     
  -65740929.9374208     
  -65732942.0057279     
  -65724514.1774186     
  -65715624.1284289     
  -65706247.8036359     
  -65696359.3655865     
  -65685931.1438937     
  -65674933.5827450     
  -65663335.1847049     
  -65651102.4495501     
  -65638199.8073053     
  -65624589.5449726     
  -65610231.7266739     
  -65595084.1071121     
  -65579102.0383775     
  -65562238.3702241     
  -65544443.3440145     
  -65525664.4805942     
  -65505846.4624126     
  -65484931.0102647     
  -65462856.7550925     
  -65439559.1053565     
  -65414970.1105800     
  -65389018.3217683     
  -65361628.6495442     
  -65332722.2209905     
  -65302216.2363809     
  -65270023.8272114     
  -65236053.9172091     
  -65200211.0883243     
  -65162395.4540887     
  -65122502.5431819     
  -65080423.1965768     
  -65036043.4822644     
  -64989244.6322916     
  -64939903.0077032     
  -64887890.0979643     
  -64833072.5625908     
  -64775312.3240118     
  -64714466.7221763     
  -64650388.7430654     
  -64582927.3351087     
  -64511927.8294794     
  -64437232.4823329     
  -64358681.1591947     
  -64276112.1837427     
  -64189363.3750513     
  -64098273.2986721     
  -64002682.7573861     
  -63902436.5466038     
  -63797385.4965309     
  -63687388.8174998     
  -63572316.7551582     
  -63452053.5470186     
  -63326500.6493524     
  -63195580.1712442     
  -63059238.4079441     
  -62917449.3050668     
  -62770217.6046994     
  -62617581.3194761     
  -62459613.0461266     
  -62296419.4602928     
  -62128138.1235816     
  -61954930.4749779     
  -61776969.5629230     
  -61594420.6868301     
  -61407412.6288238     
  -61215996.5067061     
  -61020088.3355638     
  -60819389.8688594     
  -60613279.6248993     
  -60400661.0581563     
  -60179745.4064286     
  -59947728.9362581     
  -59700292.4701464     
  -59430796.4870322     
  -59128996.2935036     
  -58779363.8922526     
  -58360373.7101126     
  -57847898.7198194     
  -65835426.4251007     
  -65831635.3482279     
  -65828260.1243062     
  -65825107.7371849     
  -65822011.5965004     
  -65818855.0023001     
  -65815561.6767030     
  -65812081.1623055     
  -65808378.7602708     
  -65804429.5274864     
  -65800214.6195424     
  -65795718.9585471     
  -65790929.6731362     
  -65785835.0094481     
  -65780423.5476586     
  -65774683.6285459     
  -65768602.9309057     
  -65762168.1601616     
  -65755364.8196950     
  -65748177.0434055     
  -65740587.4728507     
  -65732577.1659336     
  -65724125.5269560     
  -65715210.2501565     
  -65705807.2707089     
  -65695890.7186611     
  -65685432.8724741     
  -65674404.1097701     
  -65662772.8536069     
  -65650505.5131525     
  -65637566.4180442     
  -65623917.7460202     
  -65609519.4436305     
  -65594329.1399966     
  -65578302.0537016     
  -65561390.8929812     
  -65543545.7494441     
  -65524713.9856100     
  -65504840.1165984     
  -65483865.6863583     
  -65461729.1388805     
  -65438365.6849101     
  -65413707.1647599     
  -65387681.9079248     
  -65360214.5903319     
  -65331226.0902071     
  -65300633.3437311     
  -65268349.2018800     
  -65234282.2901152     
  -65198336.8729045     
  -65160412.7254463     
  -65120405.0154095     
  -65078204.1980472     
  -65033695.9286650     
  -64986760.9971711     
  -64937275.2902918     
  -64885109.7880596     
  -64830130.6023345     
  -64772199.0664816     
  -64711171.8868519     
  -64646901.3684611     
  -64579235.7292044     
  -64508019.5190742     
  -64433094.1631557     
  -64354298.6495720     
  -64271470.3859700     
  -64184446.2504090     
  -64093063.8644164     
  -63997163.1171822     
  -63896587.9699337     
  -63791188.5677984     
  -63680823.6821338     
  -63565363.4982053     
  -63444692.7497973     
  -63318714.1819525     
  -63187352.2931829     
  -63050557.2662332     
  -62908308.9382071     
  -62760620.5823094     
  -62607542.1696237     
  -62449162.6445027     
  -62285610.5749964     
  -62117052.3231508     
  -61943686.6109066     
  -61765734.0252187     
  -61583419.5947620     
  -61396946.0501033     
  -61206454.6871863     
  -61011969.7568845     
  -60813320.7176519     
  -60610033.9186488     
  -60401180.1297276     
  -60185154.4208368     
  -59959345.6024732     
  -59719616.7105522     
  -59459451.4456191     
  -59168523.2307139     
  -58830620.7080203     
  -58422314.5105574     
  -57916336.5621918     
  -65834697.4607556     
  -65830955.1758092     
  -65827659.3472520     
  -65824591.5133847     
  -65821571.0711880     
  -65818477.1870370     
  -65815233.6397606     
  -65811791.1921786     
  -65808116.6105203     
  -65804186.3972265     
  -65799983.0398003     
  -65795492.6460670     
  -65790703.3752108     
  -65785604.3506375     
  -65780184.8846680     
  -65774433.9170348     
  -65768339.6063188     
  -65761889.0333893     
  -65755067.9873981     
  -65747860.8121593     
  -65740250.2958413     
  -65732217.5907137     
  -65723742.1527037     
  -65714801.6929236     
  -65705372.1352510     
  -65695427.5755881     
  -65684940.2396260     
  -65673880.4368760     
  -65662216.5094423     
  -65649914.7745474     
  -65636939.4602101     
  -65623252.6337686     
  -65608814.1231400     
  -65593581.4308548     
  -65577509.6410053     
  -65560551.3193171     
  -65542656.4066131     
  -65523772.1059761     
  -65503842.7639664     
  -65482809.7462930     
  -65460611.3083888     
  -65437182.4614081     
  -65412454.8342491     
  -65386356.5322945     
  -65358811.9936964     
  -65329741.8441809     
  -65299062.7515267     
  -65266687.2810995     
  -65232523.7540875     
  -65196476.1104009     
  -65158443.7785813     
  -65118321.5555105     
  -65075999.4992558     
  -65031362.8390063     
  -64984291.9068117     
  -64934662.0967061     
  -64882343.8578285     
  -64827202.7293430     
  -64769099.4263538     
  -64707889.9876032     
  -64643425.9975583     
  -64575554.8975578     
  -64504120.4029707     
  -64428963.0458348     
  -64349920.8651220     
  -64266830.2695570     
  -64179527.1006573     
  -64087847.9261744     
  -63991631.5960810     
  -63890721.0942684     
  -63784965.7185628     
  -63674223.6187445     
  -63558364.7158486     
  -63437274.0146878     
  -63310855.3033732     
  -63179035.2061991     
  -63041767.5165510     
  -62899037.6807253     
  -62750867.2271392     
  -62597317.8329558     
  -62438494.5853294     
  -62274547.8201344     
  -62105672.6990658     
  -61932105.4070210     
  -61754114.5039187     
  -61571985.5312211     
  -61385996.4226772     
  -61196380.5393221     
  -61003273.1083881     
  -60806635.2122386     
  -60606146.6443540     
  -60401053.6773558     
  -60189947.5715993     
  -59970429.1973210     
  -59738575.8081645     
  -59488049.3567643     
  -59208533.9473352     
  -58883228.9329309     
  -58486704.3547733     
  -57988061.7705644     
  -65833945.4258136     
  -65830259.0083333     
  -65827051.4377168     
  -65824074.7736473     
  -65821133.9416091     
  -65818104.9258449     
  -65814912.3140435     
  -65811508.4981760     
  -65807861.9419458     
  -65803950.7328883     
  -65799758.7776842     
  -65795273.4272328     
  -65790483.9102560     
  -65785380.2543931     
  -65779952.5227617     
  -65774190.2667228     
  -65768082.1329324     
  -65761615.5827662     
  -65754776.6938490     
  -65747550.0209252     
  -65739918.4986145     
  -65731863.3726134     
  -65723364.1490505     
  -65714398.5542193     
  -65704942.4988967     
  -65694970.0430313     
  -65684453.3577998     
  -65673362.6829649     
  -65661666.2781677     
  -65649330.3673052     
  -65636319.0755225     
  -65622594.3586115     
  -65608115.9247972     
  -65592841.1490222     
  -65576724.9799214     
  -65559719.8397448     
  -65541775.5175281     
  -65522839.0558419     
  -65502854.6314982     
  -65481763.4306156     
  -65459503.5185097     
  -65436009.7049221     
  -65411213.4051891     
  -65385042.4980398     
  -65357421.1808407     
  -65328269.8232487     
  -65297504.8204109     
  -65265038.4470789     
  -65230778.7142579     
  -65194629.2303309     
  -65156489.0689761     
  -65116252.6466434     
  -65073809.6128902     
  -65029044.7575135     
  -64981837.9391583     
  -64932064.0409795     
  -64879592.9599634     
  -64824289.6377487     
  -64766014.1422027     
  -64704621.8106652     
  -64639963.4676760     
  -64571885.7321675     
  -64500231.4315537     
  -64424840.1428650     
  -64345548.8840404     
  -64262192.9816342     
  -64174607.1444239     
  -64082626.7755158     
  -63986089.5583089     
  -63884837.3536538     
  -63778718.4461995     
  -63667590.1764533     
  -63551321.9904118     
  -63429798.9293253     
  -63302925.5663126     
  -63170630.3716986     
  -63032870.4519536     
  -62889636.5540226     
  -62740958.1528060     
  -62586908.3387341     
  -62427608.0878781     
  -62263229.3208652     
  -62093995.9298777     
  -61920181.6646556     
  -61742103.4056797     
  -61560107.8973301     
  -61374549.4350425     
  -61185755.2382220     
  -60993974.1672781     
  -60799302.7828557     
  -60601579.9038694     
  -60400235.5165271     
  -60194069.5533229     
  -59980914.8781250     
  -59757096.1206341     
  -59516511.7669091     
  -59248963.7125553     
  -58937197.2251341     
  -58553714.9759449     
  -58063410.6474758     
  -65833167.6689119     
  -65829545.6408793     
  -65826436.5143629     
  -65823558.1366342     
  -65820700.8698810     
  -65817738.8195798     
  -65814598.2256389     
  -65811233.5327713     
  -65807615.1401504     
  -65803722.8611603     
  -65799542.1089259     
  -65795061.5345035     
  -65790271.4746713     
  -65785162.8876815     
  -65779726.6054388     
  -65773952.8029046     
  -65767830.6224005     
  -65761347.9102014     
  -65754491.0344942     
  -65747244.7614211     
  -65739592.1714205     
  -65731514.6022745     
  -65722991.6085566     
  -65714000.9297792     
  -65704518.4616008     
  -65694518.2260403     
  -65683972.3378907     
  -65672850.9654371     
  -65661122.2842816     
  -65648752.4235756     
  -65635705.4043116     
  -65621943.0695792     
  -65607425.0068557     
  -65592108.4625108     
  -65575948.2487768     
  -65558896.6434898     
  -65540903.2829283     
  -65521915.0481135     
  -65501875.9449601     
  -65480726.9786934     
  -65458406.0230039     
  -65434847.6844523     
  -65409983.1627253     
  -65383740.1074232     
  -65356042.4721874     
  -65326810.3671118     
  -65295959.9105693     
  -65263403.0817874     
  -65229047.5757816     
  -65192796.6625517     
  -65154549.0528333     
  -65114198.7731378     
  -65071635.0533451     
  -65026742.2307551     
  -64979399.6752519     
  -64929481.7411283     
  -64876857.7521836     
  -64821392.0279399     
  -64762943.9602985     
  -64701368.1516571     
  -64636514.6274920     
  -64568229.1386975     
  -64496353.5715659     
  -64420726.4862344     
  -64341183.8076571     
  -64257559.6966899     
  -64169687.6325764     
  -64077401.7418770     
  -63980538.4124215     
  -63878938.2338497     
  -63772448.3081920     
  -63660924.9739664     
  -63544236.9844146     
  -63422269.1733039     
  -63294926.6283031     
  -63162139.3697907     
  -63023867.4988297     
  -62880106.7278327     
  -62730894.1360340     
  -62576313.8929972     
  -62416502.5595347     
  -62251653.3977812     
  -62082018.8906228     
  -61907910.3734482     
  -61729693.3041861     
  -61547776.2218573     
  -61362590.8392458     
  -61174559.9247494     
  -60984048.5320794     
  -60791292.4700703     
  -60596295.0976108     
  -60398678.2894485     
  -60197463.1390228     
  -59990734.6224869     
  -59775098.7189679     
  -59544750.8457100     
  -59289730.8478501     
  -58992515.3416507     
  -58623525.1283219     
  -58142768.1462343     
  -65832361.1208415     
  -65828813.8395595     
  -65825814.8737694     
  -65823042.3545962     
  -65820272.5844737     
  -65817379.5058487     
  -65814291.9221737     
  -65810966.7609502     
  -65807376.5980233     
  -65803503.1127189     
  -65799333.3110821     
  -65794857.2007083     
  -65790066.2642359     
  -65784952.4161862     
  -65779507.2744830     
  -65773721.6488987     
  -65767585.1842620     
  -65761086.1154363     
  -65754211.1026188     
  -65746945.1232498     
  -65739271.4024636     
  -65731171.3683751     
  -65722624.6219039     
  -65713608.9135456     
  -65704100.1216028     
  -65694072.2280219     
  -65683497.2892151     
  -65672345.4001678     
  -65660584.6508049     
  -65648181.0740691     
  -65635098.5854986     
  -65621298.9143187     
  -65606741.5262075     
  -65591383.5379897     
  -65575179.6245728     
  -65558081.9184676     
  -65540039.9022606     
  -65521000.2944255     
  -65500906.9288751     
  -65479700.6286867     
  -65457319.0744692     
  -65433696.6678935     
  -65408764.3909718     
  -65382449.6617687     
  -65354676.1873342     
  -65325363.8147907     
  -65294428.3816822     
  -65261781.5669027     
  -65227330.7437803     
  -65190978.8371981     
  -65152624.1870057     
  -65112160.4204196     
  -65069476.3366411     
  -65024455.8075554     
  -64976977.6991321     
  -64926915.8190472     
  -64874138.8971213     
  -64818510.6064337     
  -64759889.6344715     
  -64698129.8154356     
  -64633080.3368880     
  -64564586.0363155     
  -64492487.8059404     
  -64416623.1272550     
  -64336826.7602789     
  -64252931.6164322     
  -64164769.8481241     
  -64072174.1925271     
  -63974979.6113642     
  -63873025.2725317     
  -63766156.9225308     
  -63654229.7002475     
  -63537111.4416189     
  -63414686.5197201     
  -63286860.2539084     
  -63153563.9023326     
  -63014760.2210304     
  -62870449.5257188     
  -62720676.1238459     
  -62565534.8878302     
  -62405177.6075671     
  -62239818.5816292     
  -62069738.6709566     
  -61895286.7333275     
  -61716876.9663702     
  -61534980.1919186     
  -61350106.4861428     
  -61162775.7452053     
  -60973471.6663100     
  -60782572.9718845     
  -60590252.9742382     
  -60396333.5148920     
  -60200069.2313096     
  -59999817.2486547     
  -59792499.3453028     
  -59572669.2152212     
  -59330734.5483359     
  -59049147.6370127     
  -58696317.7926372     
  -58226579.0375472     
  -65831522.1921984     
  -65828062.3778559     
  -65825187.0489046     
  -65822528.3260741     
  -65819849.8795045     
  -65817027.6590817     
  -65813993.9723670     
  -65810708.6597080     
  -65807146.7153187     
  -65803291.8218313     
  -65799132.6631748     
  -65794660.6587180     
  -65789868.4738150     
  -65784749.0040452     
  -65779294.6697373     
  -65773496.9258525     
  -65767345.9257754     
  -65760830.2959066     
  -65753936.9892338     
  -65746651.1938065     
  -65738956.2778279     
  -65730833.7575678     
  -65722263.2778473     
  -65713222.5976263     
  -65703687.5753948     
  -65693632.1507121     
  -65683028.3194857     
  -65671846.1014866     
  -65660053.4992594     
  -65647616.4480359     
  -65634498.7565778     
  -65620662.0390758     
  -65606065.6383629     
  -65590666.5407643     
  -65574419.2829616     
  -65557275.8512601     
  -65539185.5736559     
  -65520095.0051172     
  -65499947.8064962     
  -65478684.6175175     
  -65456242.9243091     
  -65432556.9220010     
  -65407557.3729730     
  -65381171.4614192     
  -65353322.6450120     
  -65323930.5045778     
  -65292910.5928737     
  -65260174.2837548     
  -65225628.6232819     
  -65189176.1846176     
  -65150714.9289254     
  -65110138.0749326     
  -65067333.9803401     
  -65022186.0388996     
  -64974572.5977347     
  -64924366.9003933     
  -64871437.0621956     
  -64815646.0857415     
  -64756851.9259632     
  -64694907.6159341     
  -64629661.4667759     
  -64560957.3575097     
  -64488635.1336114     
  -64412531.1363748     
  -64332478.8890042     
  -64248309.9696237     
  -64159855.1060871     
  -64066945.5324950     
  -63969414.6524903     
  -63867100.0594418     
  -63759845.9680597     
  -63647506.1151365     
  -63529947.1880166     
  -63407052.8366574     
  -63278728.3168658     
  -63144905.7959256     
  -63005550.3239590     
  -62860666.4305489     
  -62710305.2407684     
  -62554571.9106903     
  -62393633.0510149     
  -62227723.6282397     
  -62057152.5936166     
  -61882306.1769883     
  -61703647.3793189     
  -61521709.6846434     
  -61337082.3619810     
  -61150383.8928421     
  -60962218.9447796     
  -60773112.6946114     
  -60583413.6868017     
  -60393151.6475291     
  -60201826.9330505     
  -60008088.4775871     
  -59809208.3996544     
  -59600160.0463009     
  -59371853.0631783     
  -59107024.7107395     
  -58772275.0011170     
  -58315362.5565115     
  -65830646.6364958     
  -65827290.1007988     
  -65824553.8827228     
  -65822017.1027713     
  -65819433.6122681     
  -65816683.9905351     
  -65813704.9651906     
  -65810459.7174345     
  -65806925.8981640     
  -65803089.3259132     
  -65798940.4453068     
  -65794472.1411006     
  -65789678.2970529     
  -65784552.8135840     
  -65779088.9288702     
  -65773278.7525452     
  -65767112.9517533     
  -65760580.5466056     
  -65753668.7829621     
  -65746363.0581857     
  -65738646.8814007     
  -65730501.8544201     
  -65721907.6631637     
  -65712842.0722543     
  -65703280.9176869     
  -65693198.0941482     
  -65682565.5347871     
  -65671353.1821543     
  -65659528.9496485     
  -65647058.6732487     
  -65633906.0535967     
  -65620032.5886754     
  -65605397.4974326     
  -65589957.6347552     
  -65573667.3982253     
  -65556478.6270937     
  -65538340.4939045     
  -65519199.3892047     
  -65498998.7997769     
  -65477679.1808397     
  -65455177.8226979     
  -65431428.7123548     
  -65406362.3906666     
  -65379905.8056983     
  -65351982.1630394     
  -65322510.7739888     
  -65291406.9026579     
  -65258581.6132687     
  -65223941.6191584     
  -65187389.1353017     
  -65148821.7365298     
  -65108132.2240574     
  -65065208.5034546     
  -65019933.4778343     
  -64972184.9607818     
  -64921835.6144682     
  -64868752.9194818     
  -64812799.1842223     
  -64753831.6032678     
  -64691702.3759907     
  -64626258.8989124     
  -64557344.0478906     
  -64484796.5693056     
  -64408451.6029617     
  -64328141.3635133     
  -64243696.0118842     
  -64154944.7533289     
  -64061717.2044553     
  -63963845.0775338     
  -63861164.2364943     
  -63753517.1847688     
  -63640756.0499050     
  -63522746.1327516     
  -63399370.0886036     
  -63270532.8021586     
  -63136167.0048468     
  -62996239.6586099     
  -62850759.0899396     
  -62699782.7960319     
  -62543425.7537733     
  -62381868.9326811     
  -62215367.5336456     
  -62044258.2331923     
  -61868964.3928335     
  -61689997.7778605     
  -61507954.7997902     
  -61323504.6263125     
  -61137365.6512010     
  -60950265.7025611     
  -60762879.8074259     
  -60575736.8553430     
  -60389082.1473693     
  -60202673.6337332     
  -60015471.0504659     
  -59825130.9360955     
  -59627107.4061442     
  -59412942.7067672     
  -59166032.8924253     
  -58851568.6867925     
  -58409731.9881283     
  -65829729.3630643     
  -65826496.0362303     
  -65823916.6173735     
  -65821509.8856624     
  -65819024.6999891     
  -65816349.2482124     
  -65813425.5085372     
  -65810220.4332449     
  -65806714.5584805     
  -65802895.9650466     
  -65798756.9382502     
  -65794291.8797558     
  -65789495.9260547     
  -65784364.0050365     
  -65778890.1871362     
  -65773067.2451833     
  -65766886.3643919     
  -65760336.9599419     
  -65753406.5699246     
  -65746080.7990897     
  -65738343.2947995     
  -65730175.7413533     
  -65721557.8626061     
  -65712467.4257492     
  -65702880.2413764     
  -65692770.1566406     
  -65682109.0395522     
  -65670866.7533430     
  -65659011.1204380     
  -65646507.8759832     
  -65633320.6111387     
  -65619410.7065021     
  -65604737.2561061     
  -65589256.9824790     
  -65572924.1432549     
  -65555690.4298152     
  -65537504.8584300     
  -65518313.6543557     
  -65498060.1293429     
  -65476684.5530080     
  -65454124.0185497     
  -65430312.3033234     
  -65405179.7248445     
  -65378652.9928656     
  -65350655.0582783     
  -65321104.9597139     
  -65289917.6688859     
  -65257003.9359063     
  -65222270.1360607     
  -65185618.1198148     
  -65146945.0681829     
  -65106143.3560250     
  -65063100.4263535     
  -65017698.6793649     
  -64969815.3806674     
  -64919322.5940905     
  -64866087.1455704     
  -64809970.6259299     
  -64750829.4419629     
  -64688514.9271625     
  -64622873.5256981     
  -64553747.0659749     
  -64480973.1433154     
  -64404385.6350693     
  -64323815.3758294     
  -64239091.0254626     
  -64150040.1683542     
  -64056490.6885755     
  -63958272.4725363     
  -63855219.4978243     
  -63747172.3740259     
  -63633981.4077523     
  -63515510.2689767     
  -63391640.3377960     
  -63262275.8080182     
  -63127349.6139118     
  -62986830.2255449     
  -62840729.3216521     
  -62689110.2907508     
  -62532097.4234008     
  -62369885.5312048     
  -62202749.5493698     
  -62031053.4351844     
  -61855257.3483602     
  -61675921.6728078     
  -61493705.8932963     
  -61309359.6512302     
  -61123702.4392425     
  -60937587.2866402     
  -60751842.3006357     
  -60567181.6352701     
  -60384073.5615828     
  -60202545.1036972     
  -60021884.9168824     
  -59840166.6704374     
  -59653386.7169629     
  -59453838.4057959     
  -59226001.4933155     
  -58934344.8086318     
  -58510421.4323352     
  -65828764.1749047     
  -65825679.5870777     
  -65823276.9943931     
  -65821008.0038836     
  -65818624.1182956     
  -65816024.2161753     
  -65813156.2273921     
  -65809991.3163164     
  -65806513.1132900     
  -65802712.0814708     
  -65798582.4230078     
  -65794120.1055352     
  -65789321.5510546     
  -65784182.7362567     
  -65778698.5771315     
  -65772862.5171948     
  -65766666.2630984     
  -65760099.6255985     
  -65753150.4336233     
  -65745804.4967325     
  -65738045.5972944     
  -65729855.4985823     
  -65721213.9588521     
  -65712098.7444778     
  -65702485.6375134     
  -65692348.4347468     
  -65681658.9365397     
  -65670386.9246150     
  -65658500.1285359     
  -65645964.1809994     
  -65632742.5623047     
  -65618796.5344833     
  -65604085.0656338     
  -65588564.7450267     
  -65572189.6895283     
  -65554911.4418702     
  -65536678.8612669     
  -65517438.0068615     
  -65497132.0144634     
  -65475700.9670465     
  -65453081.7594829     
  -65429207.9580277     
  -65404009.6551114     
  -65377413.3200754     
  -65349341.6465843     
  -65319713.3975650     
  -65288443.2486895     
  -65255441.6316039     
  -65220614.5783523     
  -65183863.5687211     
  -65145085.3825947     
  -65104171.9598278     
  -65061010.2706635     
  -65015482.2003455     
  -64967464.4523364     
  -64916828.4754609     
  -64863440.4214190     
  -64807161.1404470     
  -64747846.2245278     
  -64685346.1095266     
  -64619506.2499614     
  -64550167.3829529     
  -64477165.9012481     
  -64400334.3591755     
  -64319502.1400547     
  -64234496.3189774     
  -64145142.7610705     
  -64051267.5023204     
  -63952698.4677261     
  -63849267.5897851     
  -63740813.3987505     
  -63627184.1642288     
  -63508241.6746314     
  -63383865.7454884     
  -63253959.5478426     
  -63118455.8412540     
  -62977324.1787913     
  -62830579.1189235     
  -62678289.4250637     
  -62520588.1494066     
  -62357683.3731948     
  -62189869.1978548     
  -62017536.3353213     
  -61841181.3139697     
  -61661412.8798424     
  -61478953.6117432     
  -61294634.0619177     
  -61109375.8582878     
  -60924159.1100725     
  -60739968.0481411     
  -60557706.7895912     
  -60378073.6228714     
  -60201375.5875131     
  -60027247.4934691     
  -59854210.0750548     
  -59678864.9683137     
  -59494356.7039925     
  -59286688.4849191     
  -59020695.9062379     
  -58618323.2974769     
  -65827743.3908557     
  -65824840.8660196     
  -65822637.3479658     
  -65820512.8703595     
  -65818232.9059499     
  -65815709.7115962     
  -65812897.7619239     
  -65809772.8851940     
  -65806321.9838890     
  -65802538.0190641     
  -65798417.1803361     
  -65793957.0478451     
  -65789155.3600707     
  -65784009.1624249     
  -65778514.2285411     
  -65772664.6790159     
  -65766452.7443151     
  -65759868.6303881     
  -65752900.4548251     
  -65745534.2287480     
  -65737753.8657350     
  -65729541.2040561     
  -65720876.0324580     
  -65711736.1128139     
  -65702097.1952713     
  -65691933.0232449     
  -65681215.3268100     
  -65669913.8039025     
  -65657996.0892749     
  -65645427.7115240     
  -65632172.0386937     
  -65618190.2130695     
  -65603441.0758084     
  -65587881.0820452     
  -65571464.2070884     
  -65554141.8442774     
  -65535862.6950335     
  -65516572.6516107     
  -65496214.6730219     
  -65474728.6546172     
  -65452051.2917869     
  -65428115.9383034     
  -65402852.4598454     
  -65376187.0833306     
  -65348042.2427612     
  -65318336.4224248     
  -65286983.9984231     
  -65253895.0797101     
  -65218975.3500390     
  -65182125.9125082     
  -65143243.1387372     
  -65102218.5251269     
  -65058938.5591658     
  -65013284.5993648     
  -64965132.7731577     
  -64914353.8980226     
  -64860813.4321962     
  -64804371.4627143     
  -64744882.7401539     
  -64682196.7714707     
  -64616157.9847262     
  -64546605.9824365     
  -64473375.9037582     
  -64396298.9198984     
  -64315202.8920764     
  -64229913.2271240     
  -64140253.9725113     
  -64046049.2002117     
  -63947124.7373455     
  -63843310.3108869     
  -63734442.1835203     
  -63620366.3675897     
  -63500942.5131445     
  -63376048.5731305     
  -63245586.3520227     
  -63109488.0410115     
  -62967723.8296535     
  -62820310.6557235     
  -62667322.1052177     
  -62508899.3945012     
  -62345263.2453943     
  -62176726.2880104     
  -62003705.3791166     
  -61826732.8871682     
  -61646465.5490105     
  -61463688.9277282     
  -61279314.7784449     
  -61094367.7408991     
  -60909956.7081540     
  -60727224.8751066     
  -60547270.7624766     
  -60371029.3665319     
  -60199097.9018928     
  -60031473.9346438     
  -59867150.7959640     
  -59703400.0358003     
  -59534302.0886132     
  -59347767.1612037     
  -59110613.3158296     
  -58734542.3301752     
  -65826657.2831511     
  -65823981.2867429     
  -65822000.6410723     
  -65820025.9159222     
  -65817852.1812711     
  -65815406.5763099     
  -65812650.7667878     
  -65809565.6666730     
  -65806141.5949973     
  -65802374.1228027     
  -65798261.4902324     
  -65793802.9342419     
  -65788997.5385465     
  -65783843.4357423     
  -65778337.2678809     
  -65772473.8378774     
  -65766245.9013426     
  -65759644.0581083     
  -65752656.7114441     
  -65745270.0700953     
  -65737468.1744746     
  -65729232.9333973     
  -65720544.1618110     
  -65711379.6131032     
  -65701715.0019156     
  -65691524.0151077     
  -65680778.3097054     
  -65669447.4974883     
  -65657499.1163938     
  -65644898.5892334     
  -65631609.1703872     
  -65617591.8812174     
  -65602805.4349444     
  -65587206.1517148     
  -65570747.8645217     
  -65553381.8166075     
  -65535056.5509075     
  -65515717.7920611     
  -65495308.3214858     
  -65473767.8459871     
  -65451032.8603854     
  -65427036.5046614     
  -65401708.4161573     
  -65374974.5774382     
  -65346757.1605095     
  -65316974.3681907     
  -65285540.2736051     
  -65252364.6589197     
  -65217352.8546985     
  -65180405.5815080     
  -65141418.7957569     
  -65100283.5421554     
  -65056885.8156902     
  -65011106.4366272     
  -64962820.9427925     
  -64911899.5043139     
  -64858206.8671178     
  -64801602.3328464     
  -64741939.7845406     
  -64679067.7694682     
  -64612829.6529685     
  -64543063.8601928     
  -64469604.2262579     
  -64392280.4796898     
  -64310918.8892479     
  -64225343.1103507     
  -64135375.2745212     
  -64040837.3735451     
  -63941552.9994294     
  -63837349.5116775     
  -63728060.7146119     
  -63613530.1390736     
  -63493615.0340491     
  -63368191.1834551     
  -63237158.6696723     
  -63100448.7059116     
  -62958031.6504199     
  -62809926.2919126     
  -62656210.4505759     
  -62497032.8635964     
  -62332626.2068609     
  -62163320.9308535     
  -61989559.3416260     
  -61811909.0171472     
  -61631074.1947867     
  -61447903.1761662     
  -61263389.0586648     
  -61078660.2019169     
  -60894955.7961292     
  -60713580.6309402     
  -60535831.7560970     
  -60362887.2514993     
  -60195643.5940110     
  -60034477.2296352     
  -59878874.8552510     
  -59726838.3294988     
  -59573476.3883113     
  -59408820.9492884     
  -59203902.7343034     
  -58860476.0303590     
  -65825493.2090011     
  -65823104.6305899     
  -65821370.3180338     
  -65819548.5341482     
  -65817483.1688521     
  -65815115.6596459     
  -65812415.9139187     
  -65809370.1932188     
  -65805972.3742932     
  -65802220.7380571     
  -65798115.6314340     
  -65793657.9900031     
  -65788848.2689784     
  -65783685.7051211     
  -65778167.8182334     
  -65772290.0975839     
  -65766045.8241573     
  -65759425.9893958     
  -65752419.2784250     
  -65745012.0929650     
  -65737188.5952964     
  -65728930.7598454     
  -65720218.4230835     
  -65711029.3256244     
  -65701339.1427728     
  -65691121.5014783     
  -65680347.9828267     
  -65668988.1099870     
  -65657009.3220196     
  -65644376.9342354     
  -65631054.0859311     
  -65617001.6763704     
  -65602178.2898611     
  -65586540.1107317     
  -65570040.8289375     
  -65552631.5369595     
  -65534260.6186002     
  -65514873.6302128     
  -65494413.1748768     
  -65472818.7699963     
  -65450026.7088027     
  -65425969.9162519     
  -65400577.7998455     
  -65373776.0959635     
  -65345486.7123762     
  -65315627.5677206     
  -65284112.4288566     
  -65250850.7472082     
  -65215747.4954052     
  -65178703.0058152     
  -65139612.8128850     
  -65098367.5016174     
  -65054852.5650023     
  -65008948.2738292     
  -64960529.5630554     
  -64909465.9398144     
  -64855621.4192747     
  -64798854.4959421     
  -64739018.1596838     
  -64675959.9678435     
  -64609522.1873541     
  -64539542.0238567     
  -64465851.9586064     
  -64388280.2185012     
  -64306651.4100356     
  -64220787.3544989     
  -64130508.1694011     
  -64035633.6500607     
  -63935985.0155288     
  -63831387.0945598     
  -63721671.0399697     
  -63606677.6730971     
  -63486261.5735095     
  -63360296.0414650     
  -63228679.0702463     
  -63091340.4697416     
  -62948250.2779557     
  -62799428.5782915     
  -62644956.8005289     
  -62484990.5130622     
  -62319773.6011266     
  -62149653.5552115     
  -61975097.3473776     
  -61796707.0297106     
  -61615233.7266628     
  -61431588.0914960     
  -61246844.5422705     
  -61062235.6911583     
  -60879132.3302435     
  -60699003.2608951     
  -60523347.8309208     
  -60353593.2259161     
  -60190943.3085639     
  -60036167.8016542     
  -59889267.0990069     
  -59749010.9714233     
  -59611686.6423304     
  -59469364.4328496     
  -59300031.8773930     
  -58997938.7930990     
  -65824234.2139959     
  -65822219.0205411     
  -65820749.6682318     
  -65819082.1629060     
  -65817127.1988525     
  -65814837.8005377     
  -65812193.8985104     
  -65809186.9981164     
  -65805814.7529590     
  -65802078.2094070     
  -65797979.8810665     
  -65793522.4376156     
  -65788707.7305585     
  -65783536.1158557     
  -65778005.9989811     
  -65772113.5582914     
  -65765852.5992319     
  -65759214.5015777     
  -65752188.2276240     
  -65744760.3666856     
  -65736915.1973395     
  -65728634.7541978     
  -65719898.8901864     
  -65710685.3285538     
  -65700969.7012033     
  -65690725.5716463     
  -65679924.4420141     
  -65668535.7443260     
  -65656526.8166505     
  -65643862.8650535     
  -65630506.9123188     
  -65616419.7344431     
  -65601559.7858622     
  -65585883.1142866     
  -65569343.2659446     
  -65551891.1819362     
  -65533475.0863317     
  -65514040.3665803     
  -65493529.4467407     
  -65471881.6540245     
  -65449033.0791256     
  -65424916.4308210     
  -65399460.8853552     
  -65372591.9311814     
  -65344231.2097041     
  -65314296.3527766     
  -65282700.8178392     
  -65249353.7217612     
  -65214159.6746558     
  -65177018.6152033     
  -65137825.6493436     
  -65096470.8945868     
  -65052839.3326894     
  -65006810.6740309     
  -64958259.2377719     
  -64907053.8527835     
  -64853057.7854547     
  -64796128.7018828     
  -64736118.6736511     
  -64672874.2385219     
  -64606236.5299639     
  -64536041.4926290     
  -64462120.2047806     
  -64384299.3334282     
  -64302401.7536445     
  -64216247.3704126     
  -64125654.1895156     
  -64030439.6935655     
  -63930422.5903794     
  -63825425.0135472     
  -63715275.2691028     
  -63599811.2373704     
  -63478884.5547494     
  -63352365.7153150     
  -63220150.2450449     
  -63082166.1096927     
  -62938382.5171646     
  -62788820.2615243     
  -62633563.7212931     
  -62472774.5598953     
  -62306707.0683192     
  -62135724.9234575     
  -61960318.8904624     
  -61781124.6524709     
  -61598939.4803888     
  -61414735.8453095     
  -61229669.2972152     
  -61045077.0444139     
  -60862462.5805068     
  -60683460.8556759     
  -60509777.0745378     
  -60343092.6489854     
  -60184927.4795687     
  -60036452.6517721     
  -59898213.7488181     
  -59769733.8877839     
  -59648733.4486756     
  -59528934.1781268     
  -59397848.5301153     
  -59149361.5240871     
  -65822856.6843044     
  -65821340.6811194     
  -65820139.9774807     
  -65818628.8916642     
  -65816785.5101730     
  -65814573.8736092     
  -65811985.4256451     
  -65809016.6156173     
  -65805669.1651067     
  -65801946.8795266     
  -65797854.5143509     
  -65793396.4961854     
  -65788576.0988408     
  -65783394.8092690     
  -65777851.9255414     
  -65771944.3162768     
  -65765666.3093507     
  -65759009.6685240     
  -65751963.6276922     
  -65744514.9576314     
  -65736648.0470273     
  -65728344.9847528     
  -65719585.6347261     
  -65710347.6979305     
  -65700606.7585718     
  -65690336.3130233     
  -65679507.7813266     
  -65668090.5017284     
  -65656051.7091396     
  -65643356.4986106     
  -65629967.7749748     
  -65615846.1898031     
  -65600950.0667190     
  -65585235.3160450     
  -65568655.3396321     
  -65551160.9266212     
  -65532700.1408047     
  -65513218.2001637     
  -65492657.3491164     
  -65470956.7239570     
  -65448052.2119689     
  -65423876.3046748     
  -65398357.9457339     
  -65371422.3740298     
  -65342990.9625771     
  -65312981.0539646     
  -65281305.7931902     
  -65247873.9589050     
  -65212589.7942895     
  -65175352.8390383     
  -65136057.7642498     
  -65094594.2123974     
  -65050846.6450407     
  -65004694.2015223     
  -64956010.5726286     
  -64904663.8940949     
  -64850516.6659539     
  -64793425.7051232     
  -64733242.1403489     
  -64669811.4607698     
  -64602973.6320043     
  -64532563.2969562     
  -64458410.0825221     
  -64380339.0383298     
  -64298171.2396078     
  -64211724.5935095     
  -64120814.8968572     
  -64025257.2035101     
  -63924867.5715146     
  -63819465.2739523     
  -63708875.5729029     
  -63592933.1729181     
  -63471486.4883831     
  -63344402.8770766     
  -63211575.0085902     
  -63072928.5485676     
  -62928431.3443076     
  -62778104.2889129     
  -62622034.0125722     
  -62460387.4907697     
  -62293428.5572270     
  -62121536.1472108     
  -61945223.8548180     
  -61765160.0400924     
  -61582187.2502250     
  -61397339.0835529     
  -61211851.8699428     
  -61027167.5306929     
  -60844923.2150481     
  -60666921.6935833     
  -60495077.7608398     
  -60331330.3721494     
  -60177526.3084024     
  -60035237.2655930     
  -59905595.8182008     
  -59788835.9062079     
  -59684324.2316987     
  -59587352.6978910     
  -59495043.4907295     
  -59318127.1642141     
  -65821326.2110359     
  -65820501.3235586     
  -65819535.7599835     
  -65818193.6886839     
  -65816458.2772175     
  -65814325.1763018     
  -65811791.0539731     
  -65808859.6388702     
  -65805536.0242811     
  -65801827.0969521     
  -65797739.8008645     
  -65793280.3821332     
  -65788453.5449076     
  -65783261.9225355     
  -65777705.7090296     
  -65771782.4637291     
  -65765487.0334175     
  -65758811.5605013     
  -65751745.5439565     
  -65744275.9291297     
  -65736387.2079943     
  -65728061.5172546     
  -65719278.7259596     
  -65710016.5076219     
  -65700250.3942209     
  -65689953.8111230     
  -65679098.0930238     
  -65667652.4816962     
  -65655584.1066792     
  -65642857.9502118     
  -65629436.7977387     
  -65615281.1752536     
  -65600349.2746514     
  -65584596.8681279     
  -65567977.2125455     
  -65550440.9445567     
  -65531935.9671789     
  -65512407.3284220     
  -65491797.0925050     
  -65470044.2041519     
  -65447084.3464355     
  -65422849.7926349     
  -65397269.2525857     
  -65370267.7140597     
  -65341766.2797678     
  -65311682.0006772     
  -65279927.7064580     
  -65246411.8340338     
  -65211038.2554092     
  -65173706.1061893     
  -65134309.6165175     
  -65092737.9465352     
  -65048875.0289241     
  -65002599.4216858     
  -64953784.1750188     
  -64902296.7170627     
  -64847998.7643838     
  -64790746.2644736     
  -64730389.3792779     
  -64666772.5209204     
  -64599734.4535010     
  -64529108.4781915     
  -64454722.7229664     
  -64376400.5634219     
  -64293961.2073530     
  -64207220.4833209     
  -64115991.8825706     
  -64020087.9145143     
  -63919321.8488205     
  -63813509.9320073     
  -63702474.1833849     
  -63586045.8940133     
  -63464069.9726378     
  -63336410.3033863     
  -63202956.2998675     
  -63063630.8568417     
  -62918399.9101652     
  -62767283.8130165     
  -62610370.7140544     
  -62447832.0709727     
  -62279940.3371995     
  -62107088.7031891     
  -61929812.5341022     
  -61748811.8011126     
  -61564973.3180077     
  -61379390.9742723     
  -61193381.3104307     
  -61008490.9712121     
  -60826491.2006261     
  -60649354.7742849     
  -60479207.2406862     
  -60318254.0941429     
  -60168661.4906356     
  -60032447.9337687     
  -59911233.8269901     
  -59806297.7305474     
  -59717755.1694035     
  -59645409.3672922     
  -59587095.6761333     
  -59509161.6429386     
