# vtk DataFile Version 3.0
vtk output
ASCII
DATASET UNSTRUCTURED_GRID
POINTS      5151 double 
  0.00000000E+00  0.00000000E+00  0.00000000E+00
  1.00000000E+01  0.00000000E+00  0.00000000E+00
  2.00000000E+01  0.00000000E+00  0.00000000E+00
  3.00000000E+01  0.00000000E+00  0.00000000E+00
  4.00000000E+01  0.00000000E+00  0.00000000E+00
  5.00000000E+01  0.00000000E+00  0.00000000E+00
  6.00000000E+01  0.00000000E+00  0.00000000E+00
  7.00000000E+01  0.00000000E+00  0.00000000E+00
  8.00000000E+01  0.00000000E+00  0.00000000E+00
  9.00000000E+01  0.00000000E+00  0.00000000E+00
  1.00000000E+02  0.00000000E+00  0.00000000E+00
  1.10000000E+02  0.00000000E+00  0.00000000E+00
  1.20000000E+02  0.00000000E+00  0.00000000E+00
  1.30000000E+02  0.00000000E+00  0.00000000E+00
  1.40000000E+02  0.00000000E+00  0.00000000E+00
  1.50000000E+02  0.00000000E+00  0.00000000E+00
  1.60000000E+02  0.00000000E+00  0.00000000E+00
  1.70000000E+02  0.00000000E+00  0.00000000E+00
  1.80000000E+02  0.00000000E+00  0.00000000E+00
  1.90000000E+02  0.00000000E+00  0.00000000E+00
  2.00000000E+02  0.00000000E+00  0.00000000E+00
  2.10000000E+02  0.00000000E+00  0.00000000E+00
  2.20000000E+02  0.00000000E+00  0.00000000E+00
  2.30000000E+02  0.00000000E+00  0.00000000E+00
  2.40000000E+02  0.00000000E+00  0.00000000E+00
  2.50000000E+02  0.00000000E+00  0.00000000E+00
  2.60000000E+02  0.00000000E+00  0.00000000E+00
  2.70000000E+02  0.00000000E+00  0.00000000E+00
  2.80000000E+02  0.00000000E+00  0.00000000E+00
  2.90000000E+02  0.00000000E+00  0.00000000E+00
  3.00000000E+02  0.00000000E+00  0.00000000E+00
  3.10000000E+02  0.00000000E+00  0.00000000E+00
  3.20000000E+02  0.00000000E+00  0.00000000E+00
  3.30000000E+02  0.00000000E+00  0.00000000E+00
  3.40000000E+02  0.00000000E+00  0.00000000E+00
  3.50000000E+02  0.00000000E+00  0.00000000E+00
  3.60000000E+02  0.00000000E+00  0.00000000E+00
  3.70000000E+02  0.00000000E+00  0.00000000E+00
  3.80000000E+02  0.00000000E+00  0.00000000E+00
  3.90000000E+02  0.00000000E+00  0.00000000E+00
  4.00000000E+02  0.00000000E+00  0.00000000E+00
  4.10000000E+02  0.00000000E+00  0.00000000E+00
  4.20000000E+02  0.00000000E+00  0.00000000E+00
  4.30000000E+02  0.00000000E+00  0.00000000E+00
  4.40000000E+02  0.00000000E+00  0.00000000E+00
  4.50000000E+02  0.00000000E+00  0.00000000E+00
  4.60000000E+02  0.00000000E+00  0.00000000E+00
  4.70000000E+02  0.00000000E+00  0.00000000E+00
  4.80000000E+02  0.00000000E+00  0.00000000E+00
  4.90000000E+02  0.00000000E+00  0.00000000E+00
  5.00000000E+02  0.00000000E+00  0.00000000E+00
  5.10000000E+02  0.00000000E+00  0.00000000E+00
  5.20000000E+02  0.00000000E+00  0.00000000E+00
  5.30000000E+02  0.00000000E+00  0.00000000E+00
  5.40000000E+02  0.00000000E+00  0.00000000E+00
  5.50000000E+02  0.00000000E+00  0.00000000E+00
  5.60000000E+02  0.00000000E+00  0.00000000E+00
  5.70000000E+02  0.00000000E+00  0.00000000E+00
  5.80000000E+02  0.00000000E+00  0.00000000E+00
  5.90000000E+02  0.00000000E+00  0.00000000E+00
  6.00000000E+02  0.00000000E+00  0.00000000E+00
  6.10000000E+02  0.00000000E+00  0.00000000E+00
  6.20000000E+02  0.00000000E+00  0.00000000E+00
  6.30000000E+02  0.00000000E+00  0.00000000E+00
  6.40000000E+02  0.00000000E+00  0.00000000E+00
  6.50000000E+02  0.00000000E+00  0.00000000E+00
  6.60000000E+02  0.00000000E+00  0.00000000E+00
  6.70000000E+02  0.00000000E+00  0.00000000E+00
  6.80000000E+02  0.00000000E+00  0.00000000E+00
  6.90000000E+02  0.00000000E+00  0.00000000E+00
  7.00000000E+02  0.00000000E+00  0.00000000E+00
  7.10000000E+02  0.00000000E+00  0.00000000E+00
  7.20000000E+02  0.00000000E+00  0.00000000E+00
  7.30000000E+02  0.00000000E+00  0.00000000E+00
  7.40000000E+02  0.00000000E+00  0.00000000E+00
  7.50000000E+02  0.00000000E+00  0.00000000E+00
  7.60000000E+02  0.00000000E+00  0.00000000E+00
  7.70000000E+02  0.00000000E+00  0.00000000E+00
  7.80000000E+02  0.00000000E+00  0.00000000E+00
  7.90000000E+02  0.00000000E+00  0.00000000E+00
  8.00000000E+02  0.00000000E+00  0.00000000E+00
  8.10000000E+02  0.00000000E+00  0.00000000E+00
  8.20000000E+02  0.00000000E+00  0.00000000E+00
  8.30000000E+02  0.00000000E+00  0.00000000E+00
  8.40000000E+02  0.00000000E+00  0.00000000E+00
  8.50000000E+02  0.00000000E+00  0.00000000E+00
  8.60000000E+02  0.00000000E+00  0.00000000E+00
  8.70000000E+02  0.00000000E+00  0.00000000E+00
  8.80000000E+02  0.00000000E+00  0.00000000E+00
  8.90000000E+02  0.00000000E+00  0.00000000E+00
  9.00000000E+02  0.00000000E+00  0.00000000E+00
  9.10000000E+02  0.00000000E+00  0.00000000E+00
  9.20000000E+02  0.00000000E+00  0.00000000E+00
  9.30000000E+02  0.00000000E+00  0.00000000E+00
  9.40000000E+02  0.00000000E+00  0.00000000E+00
  9.50000000E+02  0.00000000E+00  0.00000000E+00
  9.60000000E+02  0.00000000E+00  0.00000000E+00
  9.70000000E+02  0.00000000E+00  0.00000000E+00
  9.80000000E+02  0.00000000E+00  0.00000000E+00
  9.90000000E+02  0.00000000E+00  0.00000000E+00
  1.00000000E+03  0.00000000E+00  0.00000000E+00
  0.00000000E+00  2.00000000E+00  0.00000000E+00
  1.00000000E+01  2.00000000E+00  0.00000000E+00
  2.00000000E+01  2.00000000E+00  0.00000000E+00
  3.00000000E+01  2.00000000E+00  0.00000000E+00
  4.00000000E+01  2.00000000E+00  0.00000000E+00
  5.00000000E+01  2.00000000E+00  0.00000000E+00
  6.00000000E+01  2.00000000E+00  0.00000000E+00
  7.00000000E+01  2.00000000E+00  0.00000000E+00
  8.00000000E+01  2.00000000E+00  0.00000000E+00
  9.00000000E+01  2.00000000E+00  0.00000000E+00
  1.00000000E+02  2.00000000E+00  0.00000000E+00
  1.10000000E+02  2.00000000E+00  0.00000000E+00
  1.20000000E+02  2.00000000E+00  0.00000000E+00
  1.30000000E+02  2.00000000E+00  0.00000000E+00
  1.40000000E+02  2.00000000E+00  0.00000000E+00
  1.50000000E+02  2.00000000E+00  0.00000000E+00
  1.60000000E+02  2.00000000E+00  0.00000000E+00
  1.70000000E+02  2.00000000E+00  0.00000000E+00
  1.80000000E+02  2.00000000E+00  0.00000000E+00
  1.90000000E+02  2.00000000E+00  0.00000000E+00
  2.00000000E+02  2.00000000E+00  0.00000000E+00
  2.10000000E+02  2.00000000E+00  0.00000000E+00
  2.20000000E+02  2.00000000E+00  0.00000000E+00
  2.30000000E+02  2.00000000E+00  0.00000000E+00
  2.40000000E+02  2.00000000E+00  0.00000000E+00
  2.50000000E+02  2.00000000E+00  0.00000000E+00
  2.60000000E+02  2.00000000E+00  0.00000000E+00
  2.70000000E+02  2.00000000E+00  0.00000000E+00
  2.80000000E+02  2.00000000E+00  0.00000000E+00
  2.90000000E+02  2.00000000E+00  0.00000000E+00
  3.00000000E+02  2.00000000E+00  0.00000000E+00
  3.10000000E+02  2.00000000E+00  0.00000000E+00
  3.20000000E+02  2.00000000E+00  0.00000000E+00
  3.30000000E+02  2.00000000E+00  0.00000000E+00
  3.40000000E+02  2.00000000E+00  0.00000000E+00
  3.50000000E+02  2.00000000E+00  0.00000000E+00
  3.60000000E+02  2.00000000E+00  0.00000000E+00
  3.70000000E+02  2.00000000E+00  0.00000000E+00
  3.80000000E+02  2.00000000E+00  0.00000000E+00
  3.90000000E+02  2.00000000E+00  0.00000000E+00
  4.00000000E+02  2.00000000E+00  0.00000000E+00
  4.10000000E+02  2.00000000E+00  0.00000000E+00
  4.20000000E+02  2.00000000E+00  0.00000000E+00
  4.30000000E+02  2.00000000E+00  0.00000000E+00
  4.40000000E+02  2.00000000E+00  0.00000000E+00
  4.50000000E+02  2.00000000E+00  0.00000000E+00
  4.60000000E+02  2.00000000E+00  0.00000000E+00
  4.70000000E+02  2.00000000E+00  0.00000000E+00
  4.80000000E+02  2.00000000E+00  0.00000000E+00
  4.90000000E+02  2.00000000E+00  0.00000000E+00
  5.00000000E+02  2.00000000E+00  0.00000000E+00
  5.10000000E+02  2.00000000E+00  0.00000000E+00
  5.20000000E+02  2.00000000E+00  0.00000000E+00
  5.30000000E+02  2.00000000E+00  0.00000000E+00
  5.40000000E+02  2.00000000E+00  0.00000000E+00
  5.50000000E+02  2.00000000E+00  0.00000000E+00
  5.60000000E+02  2.00000000E+00  0.00000000E+00
  5.70000000E+02  2.00000000E+00  0.00000000E+00
  5.80000000E+02  2.00000000E+00  0.00000000E+00
  5.90000000E+02  2.00000000E+00  0.00000000E+00
  6.00000000E+02  2.00000000E+00  0.00000000E+00
  6.10000000E+02  2.00000000E+00  0.00000000E+00
  6.20000000E+02  2.00000000E+00  0.00000000E+00
  6.30000000E+02  2.00000000E+00  0.00000000E+00
  6.40000000E+02  2.00000000E+00  0.00000000E+00
  6.50000000E+02  2.00000000E+00  0.00000000E+00
  6.60000000E+02  2.00000000E+00  0.00000000E+00
  6.70000000E+02  2.00000000E+00  0.00000000E+00
  6.80000000E+02  2.00000000E+00  0.00000000E+00
  6.90000000E+02  2.00000000E+00  0.00000000E+00
  7.00000000E+02  2.00000000E+00  0.00000000E+00
  7.10000000E+02  2.00000000E+00  0.00000000E+00
  7.20000000E+02  2.00000000E+00  0.00000000E+00
  7.30000000E+02  2.00000000E+00  0.00000000E+00
  7.40000000E+02  2.00000000E+00  0.00000000E+00
  7.50000000E+02  2.00000000E+00  0.00000000E+00
  7.60000000E+02  2.00000000E+00  0.00000000E+00
  7.70000000E+02  2.00000000E+00  0.00000000E+00
  7.80000000E+02  2.00000000E+00  0.00000000E+00
  7.90000000E+02  2.00000000E+00  0.00000000E+00
  8.00000000E+02  2.00000000E+00  0.00000000E+00
  8.10000000E+02  2.00000000E+00  0.00000000E+00
  8.20000000E+02  2.00000000E+00  0.00000000E+00
  8.30000000E+02  2.00000000E+00  0.00000000E+00
  8.40000000E+02  2.00000000E+00  0.00000000E+00
  8.50000000E+02  2.00000000E+00  0.00000000E+00
  8.60000000E+02  2.00000000E+00  0.00000000E+00
  8.70000000E+02  2.00000000E+00  0.00000000E+00
  8.80000000E+02  2.00000000E+00  0.00000000E+00
  8.90000000E+02  2.00000000E+00  0.00000000E+00
  9.00000000E+02  2.00000000E+00  0.00000000E+00
  9.10000000E+02  2.00000000E+00  0.00000000E+00
  9.20000000E+02  2.00000000E+00  0.00000000E+00
  9.30000000E+02  2.00000000E+00  0.00000000E+00
  9.40000000E+02  2.00000000E+00  0.00000000E+00
  9.50000000E+02  2.00000000E+00  0.00000000E+00
  9.60000000E+02  2.00000000E+00  0.00000000E+00
  9.70000000E+02  2.00000000E+00  0.00000000E+00
  9.80000000E+02  2.00000000E+00  0.00000000E+00
  9.90000000E+02  2.00000000E+00  0.00000000E+00
  1.00000000E+03  2.00000000E+00  0.00000000E+00
  0.00000000E+00  4.00000000E+00  0.00000000E+00
  1.00000000E+01  4.00000000E+00  0.00000000E+00
  2.00000000E+01  4.00000000E+00  0.00000000E+00
  3.00000000E+01  4.00000000E+00  0.00000000E+00
  4.00000000E+01  4.00000000E+00  0.00000000E+00
  5.00000000E+01  4.00000000E+00  0.00000000E+00
  6.00000000E+01  4.00000000E+00  0.00000000E+00
  7.00000000E+01  4.00000000E+00  0.00000000E+00
  8.00000000E+01  4.00000000E+00  0.00000000E+00
  9.00000000E+01  4.00000000E+00  0.00000000E+00
  1.00000000E+02  4.00000000E+00  0.00000000E+00
  1.10000000E+02  4.00000000E+00  0.00000000E+00
  1.20000000E+02  4.00000000E+00  0.00000000E+00
  1.30000000E+02  4.00000000E+00  0.00000000E+00
  1.40000000E+02  4.00000000E+00  0.00000000E+00
  1.50000000E+02  4.00000000E+00  0.00000000E+00
  1.60000000E+02  4.00000000E+00  0.00000000E+00
  1.70000000E+02  4.00000000E+00  0.00000000E+00
  1.80000000E+02  4.00000000E+00  0.00000000E+00
  1.90000000E+02  4.00000000E+00  0.00000000E+00
  2.00000000E+02  4.00000000E+00  0.00000000E+00
  2.10000000E+02  4.00000000E+00  0.00000000E+00
  2.20000000E+02  4.00000000E+00  0.00000000E+00
  2.30000000E+02  4.00000000E+00  0.00000000E+00
  2.40000000E+02  4.00000000E+00  0.00000000E+00
  2.50000000E+02  4.00000000E+00  0.00000000E+00
  2.60000000E+02  4.00000000E+00  0.00000000E+00
  2.70000000E+02  4.00000000E+00  0.00000000E+00
  2.80000000E+02  4.00000000E+00  0.00000000E+00
  2.90000000E+02  4.00000000E+00  0.00000000E+00
  3.00000000E+02  4.00000000E+00  0.00000000E+00
  3.10000000E+02  4.00000000E+00  0.00000000E+00
  3.20000000E+02  4.00000000E+00  0.00000000E+00
  3.30000000E+02  4.00000000E+00  0.00000000E+00
  3.40000000E+02  4.00000000E+00  0.00000000E+00
  3.50000000E+02  4.00000000E+00  0.00000000E+00
  3.60000000E+02  4.00000000E+00  0.00000000E+00
  3.70000000E+02  4.00000000E+00  0.00000000E+00
  3.80000000E+02  4.00000000E+00  0.00000000E+00
  3.90000000E+02  4.00000000E+00  0.00000000E+00
  4.00000000E+02  4.00000000E+00  0.00000000E+00
  4.10000000E+02  4.00000000E+00  0.00000000E+00
  4.20000000E+02  4.00000000E+00  0.00000000E+00
  4.30000000E+02  4.00000000E+00  0.00000000E+00
  4.40000000E+02  4.00000000E+00  0.00000000E+00
  4.50000000E+02  4.00000000E+00  0.00000000E+00
  4.60000000E+02  4.00000000E+00  0.00000000E+00
  4.70000000E+02  4.00000000E+00  0.00000000E+00
  4.80000000E+02  4.00000000E+00  0.00000000E+00
  4.90000000E+02  4.00000000E+00  0.00000000E+00
  5.00000000E+02  4.00000000E+00  0.00000000E+00
  5.10000000E+02  4.00000000E+00  0.00000000E+00
  5.20000000E+02  4.00000000E+00  0.00000000E+00
  5.30000000E+02  4.00000000E+00  0.00000000E+00
  5.40000000E+02  4.00000000E+00  0.00000000E+00
  5.50000000E+02  4.00000000E+00  0.00000000E+00
  5.60000000E+02  4.00000000E+00  0.00000000E+00
  5.70000000E+02  4.00000000E+00  0.00000000E+00
  5.80000000E+02  4.00000000E+00  0.00000000E+00
  5.90000000E+02  4.00000000E+00  0.00000000E+00
  6.00000000E+02  4.00000000E+00  0.00000000E+00
  6.10000000E+02  4.00000000E+00  0.00000000E+00
  6.20000000E+02  4.00000000E+00  0.00000000E+00
  6.30000000E+02  4.00000000E+00  0.00000000E+00
  6.40000000E+02  4.00000000E+00  0.00000000E+00
  6.50000000E+02  4.00000000E+00  0.00000000E+00
  6.60000000E+02  4.00000000E+00  0.00000000E+00
  6.70000000E+02  4.00000000E+00  0.00000000E+00
  6.80000000E+02  4.00000000E+00  0.00000000E+00
  6.90000000E+02  4.00000000E+00  0.00000000E+00
  7.00000000E+02  4.00000000E+00  0.00000000E+00
  7.10000000E+02  4.00000000E+00  0.00000000E+00
  7.20000000E+02  4.00000000E+00  0.00000000E+00
  7.30000000E+02  4.00000000E+00  0.00000000E+00
  7.40000000E+02  4.00000000E+00  0.00000000E+00
  7.50000000E+02  4.00000000E+00  0.00000000E+00
  7.60000000E+02  4.00000000E+00  0.00000000E+00
  7.70000000E+02  4.00000000E+00  0.00000000E+00
  7.80000000E+02  4.00000000E+00  0.00000000E+00
  7.90000000E+02  4.00000000E+00  0.00000000E+00
  8.00000000E+02  4.00000000E+00  0.00000000E+00
  8.10000000E+02  4.00000000E+00  0.00000000E+00
  8.20000000E+02  4.00000000E+00  0.00000000E+00
  8.30000000E+02  4.00000000E+00  0.00000000E+00
  8.40000000E+02  4.00000000E+00  0.00000000E+00
  8.50000000E+02  4.00000000E+00  0.00000000E+00
  8.60000000E+02  4.00000000E+00  0.00000000E+00
  8.70000000E+02  4.00000000E+00  0.00000000E+00
  8.80000000E+02  4.00000000E+00  0.00000000E+00
  8.90000000E+02  4.00000000E+00  0.00000000E+00
  9.00000000E+02  4.00000000E+00  0.00000000E+00
  9.10000000E+02  4.00000000E+00  0.00000000E+00
  9.20000000E+02  4.00000000E+00  0.00000000E+00
  9.30000000E+02  4.00000000E+00  0.00000000E+00
  9.40000000E+02  4.00000000E+00  0.00000000E+00
  9.50000000E+02  4.00000000E+00  0.00000000E+00
  9.60000000E+02  4.00000000E+00  0.00000000E+00
  9.70000000E+02  4.00000000E+00  0.00000000E+00
  9.80000000E+02  4.00000000E+00  0.00000000E+00
  9.90000000E+02  4.00000000E+00  0.00000000E+00
  1.00000000E+03  4.00000000E+00  0.00000000E+00
  0.00000000E+00  6.00000000E+00  0.00000000E+00
  1.00000000E+01  6.00000000E+00  0.00000000E+00
  2.00000000E+01  6.00000000E+00  0.00000000E+00
  3.00000000E+01  6.00000000E+00  0.00000000E+00
  4.00000000E+01  6.00000000E+00  0.00000000E+00
  5.00000000E+01  6.00000000E+00  0.00000000E+00
  6.00000000E+01  6.00000000E+00  0.00000000E+00
  7.00000000E+01  6.00000000E+00  0.00000000E+00
  8.00000000E+01  6.00000000E+00  0.00000000E+00
  9.00000000E+01  6.00000000E+00  0.00000000E+00
  1.00000000E+02  6.00000000E+00  0.00000000E+00
  1.10000000E+02  6.00000000E+00  0.00000000E+00
  1.20000000E+02  6.00000000E+00  0.00000000E+00
  1.30000000E+02  6.00000000E+00  0.00000000E+00
  1.40000000E+02  6.00000000E+00  0.00000000E+00
  1.50000000E+02  6.00000000E+00  0.00000000E+00
  1.60000000E+02  6.00000000E+00  0.00000000E+00
  1.70000000E+02  6.00000000E+00  0.00000000E+00
  1.80000000E+02  6.00000000E+00  0.00000000E+00
  1.90000000E+02  6.00000000E+00  0.00000000E+00
  2.00000000E+02  6.00000000E+00  0.00000000E+00
  2.10000000E+02  6.00000000E+00  0.00000000E+00
  2.20000000E+02  6.00000000E+00  0.00000000E+00
  2.30000000E+02  6.00000000E+00  0.00000000E+00
  2.40000000E+02  6.00000000E+00  0.00000000E+00
  2.50000000E+02  6.00000000E+00  0.00000000E+00
  2.60000000E+02  6.00000000E+00  0.00000000E+00
  2.70000000E+02  6.00000000E+00  0.00000000E+00
  2.80000000E+02  6.00000000E+00  0.00000000E+00
  2.90000000E+02  6.00000000E+00  0.00000000E+00
  3.00000000E+02  6.00000000E+00  0.00000000E+00
  3.10000000E+02  6.00000000E+00  0.00000000E+00
  3.20000000E+02  6.00000000E+00  0.00000000E+00
  3.30000000E+02  6.00000000E+00  0.00000000E+00
  3.40000000E+02  6.00000000E+00  0.00000000E+00
  3.50000000E+02  6.00000000E+00  0.00000000E+00
  3.60000000E+02  6.00000000E+00  0.00000000E+00
  3.70000000E+02  6.00000000E+00  0.00000000E+00
  3.80000000E+02  6.00000000E+00  0.00000000E+00
  3.90000000E+02  6.00000000E+00  0.00000000E+00
  4.00000000E+02  6.00000000E+00  0.00000000E+00
  4.10000000E+02  6.00000000E+00  0.00000000E+00
  4.20000000E+02  6.00000000E+00  0.00000000E+00
  4.30000000E+02  6.00000000E+00  0.00000000E+00
  4.40000000E+02  6.00000000E+00  0.00000000E+00
  4.50000000E+02  6.00000000E+00  0.00000000E+00
  4.60000000E+02  6.00000000E+00  0.00000000E+00
  4.70000000E+02  6.00000000E+00  0.00000000E+00
  4.80000000E+02  6.00000000E+00  0.00000000E+00
  4.90000000E+02  6.00000000E+00  0.00000000E+00
  5.00000000E+02  6.00000000E+00  0.00000000E+00
  5.10000000E+02  6.00000000E+00  0.00000000E+00
  5.20000000E+02  6.00000000E+00  0.00000000E+00
  5.30000000E+02  6.00000000E+00  0.00000000E+00
  5.40000000E+02  6.00000000E+00  0.00000000E+00
  5.50000000E+02  6.00000000E+00  0.00000000E+00
  5.60000000E+02  6.00000000E+00  0.00000000E+00
  5.70000000E+02  6.00000000E+00  0.00000000E+00
  5.80000000E+02  6.00000000E+00  0.00000000E+00
  5.90000000E+02  6.00000000E+00  0.00000000E+00
  6.00000000E+02  6.00000000E+00  0.00000000E+00
  6.10000000E+02  6.00000000E+00  0.00000000E+00
  6.20000000E+02  6.00000000E+00  0.00000000E+00
  6.30000000E+02  6.00000000E+00  0.00000000E+00
  6.40000000E+02  6.00000000E+00  0.00000000E+00
  6.50000000E+02  6.00000000E+00  0.00000000E+00
  6.60000000E+02  6.00000000E+00  0.00000000E+00
  6.70000000E+02  6.00000000E+00  0.00000000E+00
  6.80000000E+02  6.00000000E+00  0.00000000E+00
  6.90000000E+02  6.00000000E+00  0.00000000E+00
  7.00000000E+02  6.00000000E+00  0.00000000E+00
  7.10000000E+02  6.00000000E+00  0.00000000E+00
  7.20000000E+02  6.00000000E+00  0.00000000E+00
  7.30000000E+02  6.00000000E+00  0.00000000E+00
  7.40000000E+02  6.00000000E+00  0.00000000E+00
  7.50000000E+02  6.00000000E+00  0.00000000E+00
  7.60000000E+02  6.00000000E+00  0.00000000E+00
  7.70000000E+02  6.00000000E+00  0.00000000E+00
  7.80000000E+02  6.00000000E+00  0.00000000E+00
  7.90000000E+02  6.00000000E+00  0.00000000E+00
  8.00000000E+02  6.00000000E+00  0.00000000E+00
  8.10000000E+02  6.00000000E+00  0.00000000E+00
  8.20000000E+02  6.00000000E+00  0.00000000E+00
  8.30000000E+02  6.00000000E+00  0.00000000E+00
  8.40000000E+02  6.00000000E+00  0.00000000E+00
  8.50000000E+02  6.00000000E+00  0.00000000E+00
  8.60000000E+02  6.00000000E+00  0.00000000E+00
  8.70000000E+02  6.00000000E+00  0.00000000E+00
  8.80000000E+02  6.00000000E+00  0.00000000E+00
  8.90000000E+02  6.00000000E+00  0.00000000E+00
  9.00000000E+02  6.00000000E+00  0.00000000E+00
  9.10000000E+02  6.00000000E+00  0.00000000E+00
  9.20000000E+02  6.00000000E+00  0.00000000E+00
  9.30000000E+02  6.00000000E+00  0.00000000E+00
  9.40000000E+02  6.00000000E+00  0.00000000E+00
  9.50000000E+02  6.00000000E+00  0.00000000E+00
  9.60000000E+02  6.00000000E+00  0.00000000E+00
  9.70000000E+02  6.00000000E+00  0.00000000E+00
  9.80000000E+02  6.00000000E+00  0.00000000E+00
  9.90000000E+02  6.00000000E+00  0.00000000E+00
  1.00000000E+03  6.00000000E+00  0.00000000E+00
  0.00000000E+00  8.00000000E+00  0.00000000E+00
  1.00000000E+01  8.00000000E+00  0.00000000E+00
  2.00000000E+01  8.00000000E+00  0.00000000E+00
  3.00000000E+01  8.00000000E+00  0.00000000E+00
  4.00000000E+01  8.00000000E+00  0.00000000E+00
  5.00000000E+01  8.00000000E+00  0.00000000E+00
  6.00000000E+01  8.00000000E+00  0.00000000E+00
  7.00000000E+01  8.00000000E+00  0.00000000E+00
  8.00000000E+01  8.00000000E+00  0.00000000E+00
  9.00000000E+01  8.00000000E+00  0.00000000E+00
  1.00000000E+02  8.00000000E+00  0.00000000E+00
  1.10000000E+02  8.00000000E+00  0.00000000E+00
  1.20000000E+02  8.00000000E+00  0.00000000E+00
  1.30000000E+02  8.00000000E+00  0.00000000E+00
  1.40000000E+02  8.00000000E+00  0.00000000E+00
  1.50000000E+02  8.00000000E+00  0.00000000E+00
  1.60000000E+02  8.00000000E+00  0.00000000E+00
  1.70000000E+02  8.00000000E+00  0.00000000E+00
  1.80000000E+02  8.00000000E+00  0.00000000E+00
  1.90000000E+02  8.00000000E+00  0.00000000E+00
  2.00000000E+02  8.00000000E+00  0.00000000E+00
  2.10000000E+02  8.00000000E+00  0.00000000E+00
  2.20000000E+02  8.00000000E+00  0.00000000E+00
  2.30000000E+02  8.00000000E+00  0.00000000E+00
  2.40000000E+02  8.00000000E+00  0.00000000E+00
  2.50000000E+02  8.00000000E+00  0.00000000E+00
  2.60000000E+02  8.00000000E+00  0.00000000E+00
  2.70000000E+02  8.00000000E+00  0.00000000E+00
  2.80000000E+02  8.00000000E+00  0.00000000E+00
  2.90000000E+02  8.00000000E+00  0.00000000E+00
  3.00000000E+02  8.00000000E+00  0.00000000E+00
  3.10000000E+02  8.00000000E+00  0.00000000E+00
  3.20000000E+02  8.00000000E+00  0.00000000E+00
  3.30000000E+02  8.00000000E+00  0.00000000E+00
  3.40000000E+02  8.00000000E+00  0.00000000E+00
  3.50000000E+02  8.00000000E+00  0.00000000E+00
  3.60000000E+02  8.00000000E+00  0.00000000E+00
  3.70000000E+02  8.00000000E+00  0.00000000E+00
  3.80000000E+02  8.00000000E+00  0.00000000E+00
  3.90000000E+02  8.00000000E+00  0.00000000E+00
  4.00000000E+02  8.00000000E+00  0.00000000E+00
  4.10000000E+02  8.00000000E+00  0.00000000E+00
  4.20000000E+02  8.00000000E+00  0.00000000E+00
  4.30000000E+02  8.00000000E+00  0.00000000E+00
  4.40000000E+02  8.00000000E+00  0.00000000E+00
  4.50000000E+02  8.00000000E+00  0.00000000E+00
  4.60000000E+02  8.00000000E+00  0.00000000E+00
  4.70000000E+02  8.00000000E+00  0.00000000E+00
  4.80000000E+02  8.00000000E+00  0.00000000E+00
  4.90000000E+02  8.00000000E+00  0.00000000E+00
  5.00000000E+02  8.00000000E+00  0.00000000E+00
  5.10000000E+02  8.00000000E+00  0.00000000E+00
  5.20000000E+02  8.00000000E+00  0.00000000E+00
  5.30000000E+02  8.00000000E+00  0.00000000E+00
  5.40000000E+02  8.00000000E+00  0.00000000E+00
  5.50000000E+02  8.00000000E+00  0.00000000E+00
  5.60000000E+02  8.00000000E+00  0.00000000E+00
  5.70000000E+02  8.00000000E+00  0.00000000E+00
  5.80000000E+02  8.00000000E+00  0.00000000E+00
  5.90000000E+02  8.00000000E+00  0.00000000E+00
  6.00000000E+02  8.00000000E+00  0.00000000E+00
  6.10000000E+02  8.00000000E+00  0.00000000E+00
  6.20000000E+02  8.00000000E+00  0.00000000E+00
  6.30000000E+02  8.00000000E+00  0.00000000E+00
  6.40000000E+02  8.00000000E+00  0.00000000E+00
  6.50000000E+02  8.00000000E+00  0.00000000E+00
  6.60000000E+02  8.00000000E+00  0.00000000E+00
  6.70000000E+02  8.00000000E+00  0.00000000E+00
  6.80000000E+02  8.00000000E+00  0.00000000E+00
  6.90000000E+02  8.00000000E+00  0.00000000E+00
  7.00000000E+02  8.00000000E+00  0.00000000E+00
  7.10000000E+02  8.00000000E+00  0.00000000E+00
  7.20000000E+02  8.00000000E+00  0.00000000E+00
  7.30000000E+02  8.00000000E+00  0.00000000E+00
  7.40000000E+02  8.00000000E+00  0.00000000E+00
  7.50000000E+02  8.00000000E+00  0.00000000E+00
  7.60000000E+02  8.00000000E+00  0.00000000E+00
  7.70000000E+02  8.00000000E+00  0.00000000E+00
  7.80000000E+02  8.00000000E+00  0.00000000E+00
  7.90000000E+02  8.00000000E+00  0.00000000E+00
  8.00000000E+02  8.00000000E+00  0.00000000E+00
  8.10000000E+02  8.00000000E+00  0.00000000E+00
  8.20000000E+02  8.00000000E+00  0.00000000E+00
  8.30000000E+02  8.00000000E+00  0.00000000E+00
  8.40000000E+02  8.00000000E+00  0.00000000E+00
  8.50000000E+02  8.00000000E+00  0.00000000E+00
  8.60000000E+02  8.00000000E+00  0.00000000E+00
  8.70000000E+02  8.00000000E+00  0.00000000E+00
  8.80000000E+02  8.00000000E+00  0.00000000E+00
  8.90000000E+02  8.00000000E+00  0.00000000E+00
  9.00000000E+02  8.00000000E+00  0.00000000E+00
  9.10000000E+02  8.00000000E+00  0.00000000E+00
  9.20000000E+02  8.00000000E+00  0.00000000E+00
  9.30000000E+02  8.00000000E+00  0.00000000E+00
  9.40000000E+02  8.00000000E+00  0.00000000E+00
  9.50000000E+02  8.00000000E+00  0.00000000E+00
  9.60000000E+02  8.00000000E+00  0.00000000E+00
  9.70000000E+02  8.00000000E+00  0.00000000E+00
  9.80000000E+02  8.00000000E+00  0.00000000E+00
  9.90000000E+02  8.00000000E+00  0.00000000E+00
  1.00000000E+03  8.00000000E+00  0.00000000E+00
  0.00000000E+00  1.00000000E+01  0.00000000E+00
  1.00000000E+01  1.00000000E+01  0.00000000E+00
  2.00000000E+01  1.00000000E+01  0.00000000E+00
  3.00000000E+01  1.00000000E+01  0.00000000E+00
  4.00000000E+01  1.00000000E+01  0.00000000E+00
  5.00000000E+01  1.00000000E+01  0.00000000E+00
  6.00000000E+01  1.00000000E+01  0.00000000E+00
  7.00000000E+01  1.00000000E+01  0.00000000E+00
  8.00000000E+01  1.00000000E+01  0.00000000E+00
  9.00000000E+01  1.00000000E+01  0.00000000E+00
  1.00000000E+02  1.00000000E+01  0.00000000E+00
  1.10000000E+02  1.00000000E+01  0.00000000E+00
  1.20000000E+02  1.00000000E+01  0.00000000E+00
  1.30000000E+02  1.00000000E+01  0.00000000E+00
  1.40000000E+02  1.00000000E+01  0.00000000E+00
  1.50000000E+02  1.00000000E+01  0.00000000E+00
  1.60000000E+02  1.00000000E+01  0.00000000E+00
  1.70000000E+02  1.00000000E+01  0.00000000E+00
  1.80000000E+02  1.00000000E+01  0.00000000E+00
  1.90000000E+02  1.00000000E+01  0.00000000E+00
  2.00000000E+02  1.00000000E+01  0.00000000E+00
  2.10000000E+02  1.00000000E+01  0.00000000E+00
  2.20000000E+02  1.00000000E+01  0.00000000E+00
  2.30000000E+02  1.00000000E+01  0.00000000E+00
  2.40000000E+02  1.00000000E+01  0.00000000E+00
  2.50000000E+02  1.00000000E+01  0.00000000E+00
  2.60000000E+02  1.00000000E+01  0.00000000E+00
  2.70000000E+02  1.00000000E+01  0.00000000E+00
  2.80000000E+02  1.00000000E+01  0.00000000E+00
  2.90000000E+02  1.00000000E+01  0.00000000E+00
  3.00000000E+02  1.00000000E+01  0.00000000E+00
  3.10000000E+02  1.00000000E+01  0.00000000E+00
  3.20000000E+02  1.00000000E+01  0.00000000E+00
  3.30000000E+02  1.00000000E+01  0.00000000E+00
  3.40000000E+02  1.00000000E+01  0.00000000E+00
  3.50000000E+02  1.00000000E+01  0.00000000E+00
  3.60000000E+02  1.00000000E+01  0.00000000E+00
  3.70000000E+02  1.00000000E+01  0.00000000E+00
  3.80000000E+02  1.00000000E+01  0.00000000E+00
  3.90000000E+02  1.00000000E+01  0.00000000E+00
  4.00000000E+02  1.00000000E+01  0.00000000E+00
  4.10000000E+02  1.00000000E+01  0.00000000E+00
  4.20000000E+02  1.00000000E+01  0.00000000E+00
  4.30000000E+02  1.00000000E+01  0.00000000E+00
  4.40000000E+02  1.00000000E+01  0.00000000E+00
  4.50000000E+02  1.00000000E+01  0.00000000E+00
  4.60000000E+02  1.00000000E+01  0.00000000E+00
  4.70000000E+02  1.00000000E+01  0.00000000E+00
  4.80000000E+02  1.00000000E+01  0.00000000E+00
  4.90000000E+02  1.00000000E+01  0.00000000E+00
  5.00000000E+02  1.00000000E+01  0.00000000E+00
  5.10000000E+02  1.00000000E+01  0.00000000E+00
  5.20000000E+02  1.00000000E+01  0.00000000E+00
  5.30000000E+02  1.00000000E+01  0.00000000E+00
  5.40000000E+02  1.00000000E+01  0.00000000E+00
  5.50000000E+02  1.00000000E+01  0.00000000E+00
  5.60000000E+02  1.00000000E+01  0.00000000E+00
  5.70000000E+02  1.00000000E+01  0.00000000E+00
  5.80000000E+02  1.00000000E+01  0.00000000E+00
  5.90000000E+02  1.00000000E+01  0.00000000E+00
  6.00000000E+02  1.00000000E+01  0.00000000E+00
  6.10000000E+02  1.00000000E+01  0.00000000E+00
  6.20000000E+02  1.00000000E+01  0.00000000E+00
  6.30000000E+02  1.00000000E+01  0.00000000E+00
  6.40000000E+02  1.00000000E+01  0.00000000E+00
  6.50000000E+02  1.00000000E+01  0.00000000E+00
  6.60000000E+02  1.00000000E+01  0.00000000E+00
  6.70000000E+02  1.00000000E+01  0.00000000E+00
  6.80000000E+02  1.00000000E+01  0.00000000E+00
  6.90000000E+02  1.00000000E+01  0.00000000E+00
  7.00000000E+02  1.00000000E+01  0.00000000E+00
  7.10000000E+02  1.00000000E+01  0.00000000E+00
  7.20000000E+02  1.00000000E+01  0.00000000E+00
  7.30000000E+02  1.00000000E+01  0.00000000E+00
  7.40000000E+02  1.00000000E+01  0.00000000E+00
  7.50000000E+02  1.00000000E+01  0.00000000E+00
  7.60000000E+02  1.00000000E+01  0.00000000E+00
  7.70000000E+02  1.00000000E+01  0.00000000E+00
  7.80000000E+02  1.00000000E+01  0.00000000E+00
  7.90000000E+02  1.00000000E+01  0.00000000E+00
  8.00000000E+02  1.00000000E+01  0.00000000E+00
  8.10000000E+02  1.00000000E+01  0.00000000E+00
  8.20000000E+02  1.00000000E+01  0.00000000E+00
  8.30000000E+02  1.00000000E+01  0.00000000E+00
  8.40000000E+02  1.00000000E+01  0.00000000E+00
  8.50000000E+02  1.00000000E+01  0.00000000E+00
  8.60000000E+02  1.00000000E+01  0.00000000E+00
  8.70000000E+02  1.00000000E+01  0.00000000E+00
  8.80000000E+02  1.00000000E+01  0.00000000E+00
  8.90000000E+02  1.00000000E+01  0.00000000E+00
  9.00000000E+02  1.00000000E+01  0.00000000E+00
  9.10000000E+02  1.00000000E+01  0.00000000E+00
  9.20000000E+02  1.00000000E+01  0.00000000E+00
  9.30000000E+02  1.00000000E+01  0.00000000E+00
  9.40000000E+02  1.00000000E+01  0.00000000E+00
  9.50000000E+02  1.00000000E+01  0.00000000E+00
  9.60000000E+02  1.00000000E+01  0.00000000E+00
  9.70000000E+02  1.00000000E+01  0.00000000E+00
  9.80000000E+02  1.00000000E+01  0.00000000E+00
  9.90000000E+02  1.00000000E+01  0.00000000E+00
  1.00000000E+03  1.00000000E+01  0.00000000E+00
  0.00000000E+00  1.20000000E+01  0.00000000E+00
  1.00000000E+01  1.20000000E+01  0.00000000E+00
  2.00000000E+01  1.20000000E+01  0.00000000E+00
  3.00000000E+01  1.20000000E+01  0.00000000E+00
  4.00000000E+01  1.20000000E+01  0.00000000E+00
  5.00000000E+01  1.20000000E+01  0.00000000E+00
  6.00000000E+01  1.20000000E+01  0.00000000E+00
  7.00000000E+01  1.20000000E+01  0.00000000E+00
  8.00000000E+01  1.20000000E+01  0.00000000E+00
  9.00000000E+01  1.20000000E+01  0.00000000E+00
  1.00000000E+02  1.20000000E+01  0.00000000E+00
  1.10000000E+02  1.20000000E+01  0.00000000E+00
  1.20000000E+02  1.20000000E+01  0.00000000E+00
  1.30000000E+02  1.20000000E+01  0.00000000E+00
  1.40000000E+02  1.20000000E+01  0.00000000E+00
  1.50000000E+02  1.20000000E+01  0.00000000E+00
  1.60000000E+02  1.20000000E+01  0.00000000E+00
  1.70000000E+02  1.20000000E+01  0.00000000E+00
  1.80000000E+02  1.20000000E+01  0.00000000E+00
  1.90000000E+02  1.20000000E+01  0.00000000E+00
  2.00000000E+02  1.20000000E+01  0.00000000E+00
  2.10000000E+02  1.20000000E+01  0.00000000E+00
  2.20000000E+02  1.20000000E+01  0.00000000E+00
  2.30000000E+02  1.20000000E+01  0.00000000E+00
  2.40000000E+02  1.20000000E+01  0.00000000E+00
  2.50000000E+02  1.20000000E+01  0.00000000E+00
  2.60000000E+02  1.20000000E+01  0.00000000E+00
  2.70000000E+02  1.20000000E+01  0.00000000E+00
  2.80000000E+02  1.20000000E+01  0.00000000E+00
  2.90000000E+02  1.20000000E+01  0.00000000E+00
  3.00000000E+02  1.20000000E+01  0.00000000E+00
  3.10000000E+02  1.20000000E+01  0.00000000E+00
  3.20000000E+02  1.20000000E+01  0.00000000E+00
  3.30000000E+02  1.20000000E+01  0.00000000E+00
  3.40000000E+02  1.20000000E+01  0.00000000E+00
  3.50000000E+02  1.20000000E+01  0.00000000E+00
  3.60000000E+02  1.20000000E+01  0.00000000E+00
  3.70000000E+02  1.20000000E+01  0.00000000E+00
  3.80000000E+02  1.20000000E+01  0.00000000E+00
  3.90000000E+02  1.20000000E+01  0.00000000E+00
  4.00000000E+02  1.20000000E+01  0.00000000E+00
  4.10000000E+02  1.20000000E+01  0.00000000E+00
  4.20000000E+02  1.20000000E+01  0.00000000E+00
  4.30000000E+02  1.20000000E+01  0.00000000E+00
  4.40000000E+02  1.20000000E+01  0.00000000E+00
  4.50000000E+02  1.20000000E+01  0.00000000E+00
  4.60000000E+02  1.20000000E+01  0.00000000E+00
  4.70000000E+02  1.20000000E+01  0.00000000E+00
  4.80000000E+02  1.20000000E+01  0.00000000E+00
  4.90000000E+02  1.20000000E+01  0.00000000E+00
  5.00000000E+02  1.20000000E+01  0.00000000E+00
  5.10000000E+02  1.20000000E+01  0.00000000E+00
  5.20000000E+02  1.20000000E+01  0.00000000E+00
  5.30000000E+02  1.20000000E+01  0.00000000E+00
  5.40000000E+02  1.20000000E+01  0.00000000E+00
  5.50000000E+02  1.20000000E+01  0.00000000E+00
  5.60000000E+02  1.20000000E+01  0.00000000E+00
  5.70000000E+02  1.20000000E+01  0.00000000E+00
  5.80000000E+02  1.20000000E+01  0.00000000E+00
  5.90000000E+02  1.20000000E+01  0.00000000E+00
  6.00000000E+02  1.20000000E+01  0.00000000E+00
  6.10000000E+02  1.20000000E+01  0.00000000E+00
  6.20000000E+02  1.20000000E+01  0.00000000E+00
  6.30000000E+02  1.20000000E+01  0.00000000E+00
  6.40000000E+02  1.20000000E+01  0.00000000E+00
  6.50000000E+02  1.20000000E+01  0.00000000E+00
  6.60000000E+02  1.20000000E+01  0.00000000E+00
  6.70000000E+02  1.20000000E+01  0.00000000E+00
  6.80000000E+02  1.20000000E+01  0.00000000E+00
  6.90000000E+02  1.20000000E+01  0.00000000E+00
  7.00000000E+02  1.20000000E+01  0.00000000E+00
  7.10000000E+02  1.20000000E+01  0.00000000E+00
  7.20000000E+02  1.20000000E+01  0.00000000E+00
  7.30000000E+02  1.20000000E+01  0.00000000E+00
  7.40000000E+02  1.20000000E+01  0.00000000E+00
  7.50000000E+02  1.20000000E+01  0.00000000E+00
  7.60000000E+02  1.20000000E+01  0.00000000E+00
  7.70000000E+02  1.20000000E+01  0.00000000E+00
  7.80000000E+02  1.20000000E+01  0.00000000E+00
  7.90000000E+02  1.20000000E+01  0.00000000E+00
  8.00000000E+02  1.20000000E+01  0.00000000E+00
  8.10000000E+02  1.20000000E+01  0.00000000E+00
  8.20000000E+02  1.20000000E+01  0.00000000E+00
  8.30000000E+02  1.20000000E+01  0.00000000E+00
  8.40000000E+02  1.20000000E+01  0.00000000E+00
  8.50000000E+02  1.20000000E+01  0.00000000E+00
  8.60000000E+02  1.20000000E+01  0.00000000E+00
  8.70000000E+02  1.20000000E+01  0.00000000E+00
  8.80000000E+02  1.20000000E+01  0.00000000E+00
  8.90000000E+02  1.20000000E+01  0.00000000E+00
  9.00000000E+02  1.20000000E+01  0.00000000E+00
  9.10000000E+02  1.20000000E+01  0.00000000E+00
  9.20000000E+02  1.20000000E+01  0.00000000E+00
  9.30000000E+02  1.20000000E+01  0.00000000E+00
  9.40000000E+02  1.20000000E+01  0.00000000E+00
  9.50000000E+02  1.20000000E+01  0.00000000E+00
  9.60000000E+02  1.20000000E+01  0.00000000E+00
  9.70000000E+02  1.20000000E+01  0.00000000E+00
  9.80000000E+02  1.20000000E+01  0.00000000E+00
  9.90000000E+02  1.20000000E+01  0.00000000E+00
  1.00000000E+03  1.20000000E+01  0.00000000E+00
  0.00000000E+00  1.40000000E+01  0.00000000E+00
  1.00000000E+01  1.40000000E+01  0.00000000E+00
  2.00000000E+01  1.40000000E+01  0.00000000E+00
  3.00000000E+01  1.40000000E+01  0.00000000E+00
  4.00000000E+01  1.40000000E+01  0.00000000E+00
  5.00000000E+01  1.40000000E+01  0.00000000E+00
  6.00000000E+01  1.40000000E+01  0.00000000E+00
  7.00000000E+01  1.40000000E+01  0.00000000E+00
  8.00000000E+01  1.40000000E+01  0.00000000E+00
  9.00000000E+01  1.40000000E+01  0.00000000E+00
  1.00000000E+02  1.40000000E+01  0.00000000E+00
  1.10000000E+02  1.40000000E+01  0.00000000E+00
  1.20000000E+02  1.40000000E+01  0.00000000E+00
  1.30000000E+02  1.40000000E+01  0.00000000E+00
  1.40000000E+02  1.40000000E+01  0.00000000E+00
  1.50000000E+02  1.40000000E+01  0.00000000E+00
  1.60000000E+02  1.40000000E+01  0.00000000E+00
  1.70000000E+02  1.40000000E+01  0.00000000E+00
  1.80000000E+02  1.40000000E+01  0.00000000E+00
  1.90000000E+02  1.40000000E+01  0.00000000E+00
  2.00000000E+02  1.40000000E+01  0.00000000E+00
  2.10000000E+02  1.40000000E+01  0.00000000E+00
  2.20000000E+02  1.40000000E+01  0.00000000E+00
  2.30000000E+02  1.40000000E+01  0.00000000E+00
  2.40000000E+02  1.40000000E+01  0.00000000E+00
  2.50000000E+02  1.40000000E+01  0.00000000E+00
  2.60000000E+02  1.40000000E+01  0.00000000E+00
  2.70000000E+02  1.40000000E+01  0.00000000E+00
  2.80000000E+02  1.40000000E+01  0.00000000E+00
  2.90000000E+02  1.40000000E+01  0.00000000E+00
  3.00000000E+02  1.40000000E+01  0.00000000E+00
  3.10000000E+02  1.40000000E+01  0.00000000E+00
  3.20000000E+02  1.40000000E+01  0.00000000E+00
  3.30000000E+02  1.40000000E+01  0.00000000E+00
  3.40000000E+02  1.40000000E+01  0.00000000E+00
  3.50000000E+02  1.40000000E+01  0.00000000E+00
  3.60000000E+02  1.40000000E+01  0.00000000E+00
  3.70000000E+02  1.40000000E+01  0.00000000E+00
  3.80000000E+02  1.40000000E+01  0.00000000E+00
  3.90000000E+02  1.40000000E+01  0.00000000E+00
  4.00000000E+02  1.40000000E+01  0.00000000E+00
  4.10000000E+02  1.40000000E+01  0.00000000E+00
  4.20000000E+02  1.40000000E+01  0.00000000E+00
  4.30000000E+02  1.40000000E+01  0.00000000E+00
  4.40000000E+02  1.40000000E+01  0.00000000E+00
  4.50000000E+02  1.40000000E+01  0.00000000E+00
  4.60000000E+02  1.40000000E+01  0.00000000E+00
  4.70000000E+02  1.40000000E+01  0.00000000E+00
  4.80000000E+02  1.40000000E+01  0.00000000E+00
  4.90000000E+02  1.40000000E+01  0.00000000E+00
  5.00000000E+02  1.40000000E+01  0.00000000E+00
  5.10000000E+02  1.40000000E+01  0.00000000E+00
  5.20000000E+02  1.40000000E+01  0.00000000E+00
  5.30000000E+02  1.40000000E+01  0.00000000E+00
  5.40000000E+02  1.40000000E+01  0.00000000E+00
  5.50000000E+02  1.40000000E+01  0.00000000E+00
  5.60000000E+02  1.40000000E+01  0.00000000E+00
  5.70000000E+02  1.40000000E+01  0.00000000E+00
  5.80000000E+02  1.40000000E+01  0.00000000E+00
  5.90000000E+02  1.40000000E+01  0.00000000E+00
  6.00000000E+02  1.40000000E+01  0.00000000E+00
  6.10000000E+02  1.40000000E+01  0.00000000E+00
  6.20000000E+02  1.40000000E+01  0.00000000E+00
  6.30000000E+02  1.40000000E+01  0.00000000E+00
  6.40000000E+02  1.40000000E+01  0.00000000E+00
  6.50000000E+02  1.40000000E+01  0.00000000E+00
  6.60000000E+02  1.40000000E+01  0.00000000E+00
  6.70000000E+02  1.40000000E+01  0.00000000E+00
  6.80000000E+02  1.40000000E+01  0.00000000E+00
  6.90000000E+02  1.40000000E+01  0.00000000E+00
  7.00000000E+02  1.40000000E+01  0.00000000E+00
  7.10000000E+02  1.40000000E+01  0.00000000E+00
  7.20000000E+02  1.40000000E+01  0.00000000E+00
  7.30000000E+02  1.40000000E+01  0.00000000E+00
  7.40000000E+02  1.40000000E+01  0.00000000E+00
  7.50000000E+02  1.40000000E+01  0.00000000E+00
  7.60000000E+02  1.40000000E+01  0.00000000E+00
  7.70000000E+02  1.40000000E+01  0.00000000E+00
  7.80000000E+02  1.40000000E+01  0.00000000E+00
  7.90000000E+02  1.40000000E+01  0.00000000E+00
  8.00000000E+02  1.40000000E+01  0.00000000E+00
  8.10000000E+02  1.40000000E+01  0.00000000E+00
  8.20000000E+02  1.40000000E+01  0.00000000E+00
  8.30000000E+02  1.40000000E+01  0.00000000E+00
  8.40000000E+02  1.40000000E+01  0.00000000E+00
  8.50000000E+02  1.40000000E+01  0.00000000E+00
  8.60000000E+02  1.40000000E+01  0.00000000E+00
  8.70000000E+02  1.40000000E+01  0.00000000E+00
  8.80000000E+02  1.40000000E+01  0.00000000E+00
  8.90000000E+02  1.40000000E+01  0.00000000E+00
  9.00000000E+02  1.40000000E+01  0.00000000E+00
  9.10000000E+02  1.40000000E+01  0.00000000E+00
  9.20000000E+02  1.40000000E+01  0.00000000E+00
  9.30000000E+02  1.40000000E+01  0.00000000E+00
  9.40000000E+02  1.40000000E+01  0.00000000E+00
  9.50000000E+02  1.40000000E+01  0.00000000E+00
  9.60000000E+02  1.40000000E+01  0.00000000E+00
  9.70000000E+02  1.40000000E+01  0.00000000E+00
  9.80000000E+02  1.40000000E+01  0.00000000E+00
  9.90000000E+02  1.40000000E+01  0.00000000E+00
  1.00000000E+03  1.40000000E+01  0.00000000E+00
  0.00000000E+00  1.60000000E+01  0.00000000E+00
  1.00000000E+01  1.60000000E+01  0.00000000E+00
  2.00000000E+01  1.60000000E+01  0.00000000E+00
  3.00000000E+01  1.60000000E+01  0.00000000E+00
  4.00000000E+01  1.60000000E+01  0.00000000E+00
  5.00000000E+01  1.60000000E+01  0.00000000E+00
  6.00000000E+01  1.60000000E+01  0.00000000E+00
  7.00000000E+01  1.60000000E+01  0.00000000E+00
  8.00000000E+01  1.60000000E+01  0.00000000E+00
  9.00000000E+01  1.60000000E+01  0.00000000E+00
  1.00000000E+02  1.60000000E+01  0.00000000E+00
  1.10000000E+02  1.60000000E+01  0.00000000E+00
  1.20000000E+02  1.60000000E+01  0.00000000E+00
  1.30000000E+02  1.60000000E+01  0.00000000E+00
  1.40000000E+02  1.60000000E+01  0.00000000E+00
  1.50000000E+02  1.60000000E+01  0.00000000E+00
  1.60000000E+02  1.60000000E+01  0.00000000E+00
  1.70000000E+02  1.60000000E+01  0.00000000E+00
  1.80000000E+02  1.60000000E+01  0.00000000E+00
  1.90000000E+02  1.60000000E+01  0.00000000E+00
  2.00000000E+02  1.60000000E+01  0.00000000E+00
  2.10000000E+02  1.60000000E+01  0.00000000E+00
  2.20000000E+02  1.60000000E+01  0.00000000E+00
  2.30000000E+02  1.60000000E+01  0.00000000E+00
  2.40000000E+02  1.60000000E+01  0.00000000E+00
  2.50000000E+02  1.60000000E+01  0.00000000E+00
  2.60000000E+02  1.60000000E+01  0.00000000E+00
  2.70000000E+02  1.60000000E+01  0.00000000E+00
  2.80000000E+02  1.60000000E+01  0.00000000E+00
  2.90000000E+02  1.60000000E+01  0.00000000E+00
  3.00000000E+02  1.60000000E+01  0.00000000E+00
  3.10000000E+02  1.60000000E+01  0.00000000E+00
  3.20000000E+02  1.60000000E+01  0.00000000E+00
  3.30000000E+02  1.60000000E+01  0.00000000E+00
  3.40000000E+02  1.60000000E+01  0.00000000E+00
  3.50000000E+02  1.60000000E+01  0.00000000E+00
  3.60000000E+02  1.60000000E+01  0.00000000E+00
  3.70000000E+02  1.60000000E+01  0.00000000E+00
  3.80000000E+02  1.60000000E+01  0.00000000E+00
  3.90000000E+02  1.60000000E+01  0.00000000E+00
  4.00000000E+02  1.60000000E+01  0.00000000E+00
  4.10000000E+02  1.60000000E+01  0.00000000E+00
  4.20000000E+02  1.60000000E+01  0.00000000E+00
  4.30000000E+02  1.60000000E+01  0.00000000E+00
  4.40000000E+02  1.60000000E+01  0.00000000E+00
  4.50000000E+02  1.60000000E+01  0.00000000E+00
  4.60000000E+02  1.60000000E+01  0.00000000E+00
  4.70000000E+02  1.60000000E+01  0.00000000E+00
  4.80000000E+02  1.60000000E+01  0.00000000E+00
  4.90000000E+02  1.60000000E+01  0.00000000E+00
  5.00000000E+02  1.60000000E+01  0.00000000E+00
  5.10000000E+02  1.60000000E+01  0.00000000E+00
  5.20000000E+02  1.60000000E+01  0.00000000E+00
  5.30000000E+02  1.60000000E+01  0.00000000E+00
  5.40000000E+02  1.60000000E+01  0.00000000E+00
  5.50000000E+02  1.60000000E+01  0.00000000E+00
  5.60000000E+02  1.60000000E+01  0.00000000E+00
  5.70000000E+02  1.60000000E+01  0.00000000E+00
  5.80000000E+02  1.60000000E+01  0.00000000E+00
  5.90000000E+02  1.60000000E+01  0.00000000E+00
  6.00000000E+02  1.60000000E+01  0.00000000E+00
  6.10000000E+02  1.60000000E+01  0.00000000E+00
  6.20000000E+02  1.60000000E+01  0.00000000E+00
  6.30000000E+02  1.60000000E+01  0.00000000E+00
  6.40000000E+02  1.60000000E+01  0.00000000E+00
  6.50000000E+02  1.60000000E+01  0.00000000E+00
  6.60000000E+02  1.60000000E+01  0.00000000E+00
  6.70000000E+02  1.60000000E+01  0.00000000E+00
  6.80000000E+02  1.60000000E+01  0.00000000E+00
  6.90000000E+02  1.60000000E+01  0.00000000E+00
  7.00000000E+02  1.60000000E+01  0.00000000E+00
  7.10000000E+02  1.60000000E+01  0.00000000E+00
  7.20000000E+02  1.60000000E+01  0.00000000E+00
  7.30000000E+02  1.60000000E+01  0.00000000E+00
  7.40000000E+02  1.60000000E+01  0.00000000E+00
  7.50000000E+02  1.60000000E+01  0.00000000E+00
  7.60000000E+02  1.60000000E+01  0.00000000E+00
  7.70000000E+02  1.60000000E+01  0.00000000E+00
  7.80000000E+02  1.60000000E+01  0.00000000E+00
  7.90000000E+02  1.60000000E+01  0.00000000E+00
  8.00000000E+02  1.60000000E+01  0.00000000E+00
  8.10000000E+02  1.60000000E+01  0.00000000E+00
  8.20000000E+02  1.60000000E+01  0.00000000E+00
  8.30000000E+02  1.60000000E+01  0.00000000E+00
  8.40000000E+02  1.60000000E+01  0.00000000E+00
  8.50000000E+02  1.60000000E+01  0.00000000E+00
  8.60000000E+02  1.60000000E+01  0.00000000E+00
  8.70000000E+02  1.60000000E+01  0.00000000E+00
  8.80000000E+02  1.60000000E+01  0.00000000E+00
  8.90000000E+02  1.60000000E+01  0.00000000E+00
  9.00000000E+02  1.60000000E+01  0.00000000E+00
  9.10000000E+02  1.60000000E+01  0.00000000E+00
  9.20000000E+02  1.60000000E+01  0.00000000E+00
  9.30000000E+02  1.60000000E+01  0.00000000E+00
  9.40000000E+02  1.60000000E+01  0.00000000E+00
  9.50000000E+02  1.60000000E+01  0.00000000E+00
  9.60000000E+02  1.60000000E+01  0.00000000E+00
  9.70000000E+02  1.60000000E+01  0.00000000E+00
  9.80000000E+02  1.60000000E+01  0.00000000E+00
  9.90000000E+02  1.60000000E+01  0.00000000E+00
  1.00000000E+03  1.60000000E+01  0.00000000E+00
  0.00000000E+00  1.80000000E+01  0.00000000E+00
  1.00000000E+01  1.80000000E+01  0.00000000E+00
  2.00000000E+01  1.80000000E+01  0.00000000E+00
  3.00000000E+01  1.80000000E+01  0.00000000E+00
  4.00000000E+01  1.80000000E+01  0.00000000E+00
  5.00000000E+01  1.80000000E+01  0.00000000E+00
  6.00000000E+01  1.80000000E+01  0.00000000E+00
  7.00000000E+01  1.80000000E+01  0.00000000E+00
  8.00000000E+01  1.80000000E+01  0.00000000E+00
  9.00000000E+01  1.80000000E+01  0.00000000E+00
  1.00000000E+02  1.80000000E+01  0.00000000E+00
  1.10000000E+02  1.80000000E+01  0.00000000E+00
  1.20000000E+02  1.80000000E+01  0.00000000E+00
  1.30000000E+02  1.80000000E+01  0.00000000E+00
  1.40000000E+02  1.80000000E+01  0.00000000E+00
  1.50000000E+02  1.80000000E+01  0.00000000E+00
  1.60000000E+02  1.80000000E+01  0.00000000E+00
  1.70000000E+02  1.80000000E+01  0.00000000E+00
  1.80000000E+02  1.80000000E+01  0.00000000E+00
  1.90000000E+02  1.80000000E+01  0.00000000E+00
  2.00000000E+02  1.80000000E+01  0.00000000E+00
  2.10000000E+02  1.80000000E+01  0.00000000E+00
  2.20000000E+02  1.80000000E+01  0.00000000E+00
  2.30000000E+02  1.80000000E+01  0.00000000E+00
  2.40000000E+02  1.80000000E+01  0.00000000E+00
  2.50000000E+02  1.80000000E+01  0.00000000E+00
  2.60000000E+02  1.80000000E+01  0.00000000E+00
  2.70000000E+02  1.80000000E+01  0.00000000E+00
  2.80000000E+02  1.80000000E+01  0.00000000E+00
  2.90000000E+02  1.80000000E+01  0.00000000E+00
  3.00000000E+02  1.80000000E+01  0.00000000E+00
  3.10000000E+02  1.80000000E+01  0.00000000E+00
  3.20000000E+02  1.80000000E+01  0.00000000E+00
  3.30000000E+02  1.80000000E+01  0.00000000E+00
  3.40000000E+02  1.80000000E+01  0.00000000E+00
  3.50000000E+02  1.80000000E+01  0.00000000E+00
  3.60000000E+02  1.80000000E+01  0.00000000E+00
  3.70000000E+02  1.80000000E+01  0.00000000E+00
  3.80000000E+02  1.80000000E+01  0.00000000E+00
  3.90000000E+02  1.80000000E+01  0.00000000E+00
  4.00000000E+02  1.80000000E+01  0.00000000E+00
  4.10000000E+02  1.80000000E+01  0.00000000E+00
  4.20000000E+02  1.80000000E+01  0.00000000E+00
  4.30000000E+02  1.80000000E+01  0.00000000E+00
  4.40000000E+02  1.80000000E+01  0.00000000E+00
  4.50000000E+02  1.80000000E+01  0.00000000E+00
  4.60000000E+02  1.80000000E+01  0.00000000E+00
  4.70000000E+02  1.80000000E+01  0.00000000E+00
  4.80000000E+02  1.80000000E+01  0.00000000E+00
  4.90000000E+02  1.80000000E+01  0.00000000E+00
  5.00000000E+02  1.80000000E+01  0.00000000E+00
  5.10000000E+02  1.80000000E+01  0.00000000E+00
  5.20000000E+02  1.80000000E+01  0.00000000E+00
  5.30000000E+02  1.80000000E+01  0.00000000E+00
  5.40000000E+02  1.80000000E+01  0.00000000E+00
  5.50000000E+02  1.80000000E+01  0.00000000E+00
  5.60000000E+02  1.80000000E+01  0.00000000E+00
  5.70000000E+02  1.80000000E+01  0.00000000E+00
  5.80000000E+02  1.80000000E+01  0.00000000E+00
  5.90000000E+02  1.80000000E+01  0.00000000E+00
  6.00000000E+02  1.80000000E+01  0.00000000E+00
  6.10000000E+02  1.80000000E+01  0.00000000E+00
  6.20000000E+02  1.80000000E+01  0.00000000E+00
  6.30000000E+02  1.80000000E+01  0.00000000E+00
  6.40000000E+02  1.80000000E+01  0.00000000E+00
  6.50000000E+02  1.80000000E+01  0.00000000E+00
  6.60000000E+02  1.80000000E+01  0.00000000E+00
  6.70000000E+02  1.80000000E+01  0.00000000E+00
  6.80000000E+02  1.80000000E+01  0.00000000E+00
  6.90000000E+02  1.80000000E+01  0.00000000E+00
  7.00000000E+02  1.80000000E+01  0.00000000E+00
  7.10000000E+02  1.80000000E+01  0.00000000E+00
  7.20000000E+02  1.80000000E+01  0.00000000E+00
  7.30000000E+02  1.80000000E+01  0.00000000E+00
  7.40000000E+02  1.80000000E+01  0.00000000E+00
  7.50000000E+02  1.80000000E+01  0.00000000E+00
  7.60000000E+02  1.80000000E+01  0.00000000E+00
  7.70000000E+02  1.80000000E+01  0.00000000E+00
  7.80000000E+02  1.80000000E+01  0.00000000E+00
  7.90000000E+02  1.80000000E+01  0.00000000E+00
  8.00000000E+02  1.80000000E+01  0.00000000E+00
  8.10000000E+02  1.80000000E+01  0.00000000E+00
  8.20000000E+02  1.80000000E+01  0.00000000E+00
  8.30000000E+02  1.80000000E+01  0.00000000E+00
  8.40000000E+02  1.80000000E+01  0.00000000E+00
  8.50000000E+02  1.80000000E+01  0.00000000E+00
  8.60000000E+02  1.80000000E+01  0.00000000E+00
  8.70000000E+02  1.80000000E+01  0.00000000E+00
  8.80000000E+02  1.80000000E+01  0.00000000E+00
  8.90000000E+02  1.80000000E+01  0.00000000E+00
  9.00000000E+02  1.80000000E+01  0.00000000E+00
  9.10000000E+02  1.80000000E+01  0.00000000E+00
  9.20000000E+02  1.80000000E+01  0.00000000E+00
  9.30000000E+02  1.80000000E+01  0.00000000E+00
  9.40000000E+02  1.80000000E+01  0.00000000E+00
  9.50000000E+02  1.80000000E+01  0.00000000E+00
  9.60000000E+02  1.80000000E+01  0.00000000E+00
  9.70000000E+02  1.80000000E+01  0.00000000E+00
  9.80000000E+02  1.80000000E+01  0.00000000E+00
  9.90000000E+02  1.80000000E+01  0.00000000E+00
  1.00000000E+03  1.80000000E+01  0.00000000E+00
  0.00000000E+00  2.00000000E+01  0.00000000E+00
  1.00000000E+01  2.00000000E+01  0.00000000E+00
  2.00000000E+01  2.00000000E+01  0.00000000E+00
  3.00000000E+01  2.00000000E+01  0.00000000E+00
  4.00000000E+01  2.00000000E+01  0.00000000E+00
  5.00000000E+01  2.00000000E+01  0.00000000E+00
  6.00000000E+01  2.00000000E+01  0.00000000E+00
  7.00000000E+01  2.00000000E+01  0.00000000E+00
  8.00000000E+01  2.00000000E+01  0.00000000E+00
  9.00000000E+01  2.00000000E+01  0.00000000E+00
  1.00000000E+02  2.00000000E+01  0.00000000E+00
  1.10000000E+02  2.00000000E+01  0.00000000E+00
  1.20000000E+02  2.00000000E+01  0.00000000E+00
  1.30000000E+02  2.00000000E+01  0.00000000E+00
  1.40000000E+02  2.00000000E+01  0.00000000E+00
  1.50000000E+02  2.00000000E+01  0.00000000E+00
  1.60000000E+02  2.00000000E+01  0.00000000E+00
  1.70000000E+02  2.00000000E+01  0.00000000E+00
  1.80000000E+02  2.00000000E+01  0.00000000E+00
  1.90000000E+02  2.00000000E+01  0.00000000E+00
  2.00000000E+02  2.00000000E+01  0.00000000E+00
  2.10000000E+02  2.00000000E+01  0.00000000E+00
  2.20000000E+02  2.00000000E+01  0.00000000E+00
  2.30000000E+02  2.00000000E+01  0.00000000E+00
  2.40000000E+02  2.00000000E+01  0.00000000E+00
  2.50000000E+02  2.00000000E+01  0.00000000E+00
  2.60000000E+02  2.00000000E+01  0.00000000E+00
  2.70000000E+02  2.00000000E+01  0.00000000E+00
  2.80000000E+02  2.00000000E+01  0.00000000E+00
  2.90000000E+02  2.00000000E+01  0.00000000E+00
  3.00000000E+02  2.00000000E+01  0.00000000E+00
  3.10000000E+02  2.00000000E+01  0.00000000E+00
  3.20000000E+02  2.00000000E+01  0.00000000E+00
  3.30000000E+02  2.00000000E+01  0.00000000E+00
  3.40000000E+02  2.00000000E+01  0.00000000E+00
  3.50000000E+02  2.00000000E+01  0.00000000E+00
  3.60000000E+02  2.00000000E+01  0.00000000E+00
  3.70000000E+02  2.00000000E+01  0.00000000E+00
  3.80000000E+02  2.00000000E+01  0.00000000E+00
  3.90000000E+02  2.00000000E+01  0.00000000E+00
  4.00000000E+02  2.00000000E+01  0.00000000E+00
  4.10000000E+02  2.00000000E+01  0.00000000E+00
  4.20000000E+02  2.00000000E+01  0.00000000E+00
  4.30000000E+02  2.00000000E+01  0.00000000E+00
  4.40000000E+02  2.00000000E+01  0.00000000E+00
  4.50000000E+02  2.00000000E+01  0.00000000E+00
  4.60000000E+02  2.00000000E+01  0.00000000E+00
  4.70000000E+02  2.00000000E+01  0.00000000E+00
  4.80000000E+02  2.00000000E+01  0.00000000E+00
  4.90000000E+02  2.00000000E+01  0.00000000E+00
  5.00000000E+02  2.00000000E+01  0.00000000E+00
  5.10000000E+02  2.00000000E+01  0.00000000E+00
  5.20000000E+02  2.00000000E+01  0.00000000E+00
  5.30000000E+02  2.00000000E+01  0.00000000E+00
  5.40000000E+02  2.00000000E+01  0.00000000E+00
  5.50000000E+02  2.00000000E+01  0.00000000E+00
  5.60000000E+02  2.00000000E+01  0.00000000E+00
  5.70000000E+02  2.00000000E+01  0.00000000E+00
  5.80000000E+02  2.00000000E+01  0.00000000E+00
  5.90000000E+02  2.00000000E+01  0.00000000E+00
  6.00000000E+02  2.00000000E+01  0.00000000E+00
  6.10000000E+02  2.00000000E+01  0.00000000E+00
  6.20000000E+02  2.00000000E+01  0.00000000E+00
  6.30000000E+02  2.00000000E+01  0.00000000E+00
  6.40000000E+02  2.00000000E+01  0.00000000E+00
  6.50000000E+02  2.00000000E+01  0.00000000E+00
  6.60000000E+02  2.00000000E+01  0.00000000E+00
  6.70000000E+02  2.00000000E+01  0.00000000E+00
  6.80000000E+02  2.00000000E+01  0.00000000E+00
  6.90000000E+02  2.00000000E+01  0.00000000E+00
  7.00000000E+02  2.00000000E+01  0.00000000E+00
  7.10000000E+02  2.00000000E+01  0.00000000E+00
  7.20000000E+02  2.00000000E+01  0.00000000E+00
  7.30000000E+02  2.00000000E+01  0.00000000E+00
  7.40000000E+02  2.00000000E+01  0.00000000E+00
  7.50000000E+02  2.00000000E+01  0.00000000E+00
  7.60000000E+02  2.00000000E+01  0.00000000E+00
  7.70000000E+02  2.00000000E+01  0.00000000E+00
  7.80000000E+02  2.00000000E+01  0.00000000E+00
  7.90000000E+02  2.00000000E+01  0.00000000E+00
  8.00000000E+02  2.00000000E+01  0.00000000E+00
  8.10000000E+02  2.00000000E+01  0.00000000E+00
  8.20000000E+02  2.00000000E+01  0.00000000E+00
  8.30000000E+02  2.00000000E+01  0.00000000E+00
  8.40000000E+02  2.00000000E+01  0.00000000E+00
  8.50000000E+02  2.00000000E+01  0.00000000E+00
  8.60000000E+02  2.00000000E+01  0.00000000E+00
  8.70000000E+02  2.00000000E+01  0.00000000E+00
  8.80000000E+02  2.00000000E+01  0.00000000E+00
  8.90000000E+02  2.00000000E+01  0.00000000E+00
  9.00000000E+02  2.00000000E+01  0.00000000E+00
  9.10000000E+02  2.00000000E+01  0.00000000E+00
  9.20000000E+02  2.00000000E+01  0.00000000E+00
  9.30000000E+02  2.00000000E+01  0.00000000E+00
  9.40000000E+02  2.00000000E+01  0.00000000E+00
  9.50000000E+02  2.00000000E+01  0.00000000E+00
  9.60000000E+02  2.00000000E+01  0.00000000E+00
  9.70000000E+02  2.00000000E+01  0.00000000E+00
  9.80000000E+02  2.00000000E+01  0.00000000E+00
  9.90000000E+02  2.00000000E+01  0.00000000E+00
  1.00000000E+03  2.00000000E+01  0.00000000E+00
  0.00000000E+00  2.20000000E+01  0.00000000E+00
  1.00000000E+01  2.20000000E+01  0.00000000E+00
  2.00000000E+01  2.20000000E+01  0.00000000E+00
  3.00000000E+01  2.20000000E+01  0.00000000E+00
  4.00000000E+01  2.20000000E+01  0.00000000E+00
  5.00000000E+01  2.20000000E+01  0.00000000E+00
  6.00000000E+01  2.20000000E+01  0.00000000E+00
  7.00000000E+01  2.20000000E+01  0.00000000E+00
  8.00000000E+01  2.20000000E+01  0.00000000E+00
  9.00000000E+01  2.20000000E+01  0.00000000E+00
  1.00000000E+02  2.20000000E+01  0.00000000E+00
  1.10000000E+02  2.20000000E+01  0.00000000E+00
  1.20000000E+02  2.20000000E+01  0.00000000E+00
  1.30000000E+02  2.20000000E+01  0.00000000E+00
  1.40000000E+02  2.20000000E+01  0.00000000E+00
  1.50000000E+02  2.20000000E+01  0.00000000E+00
  1.60000000E+02  2.20000000E+01  0.00000000E+00
  1.70000000E+02  2.20000000E+01  0.00000000E+00
  1.80000000E+02  2.20000000E+01  0.00000000E+00
  1.90000000E+02  2.20000000E+01  0.00000000E+00
  2.00000000E+02  2.20000000E+01  0.00000000E+00
  2.10000000E+02  2.20000000E+01  0.00000000E+00
  2.20000000E+02  2.20000000E+01  0.00000000E+00
  2.30000000E+02  2.20000000E+01  0.00000000E+00
  2.40000000E+02  2.20000000E+01  0.00000000E+00
  2.50000000E+02  2.20000000E+01  0.00000000E+00
  2.60000000E+02  2.20000000E+01  0.00000000E+00
  2.70000000E+02  2.20000000E+01  0.00000000E+00
  2.80000000E+02  2.20000000E+01  0.00000000E+00
  2.90000000E+02  2.20000000E+01  0.00000000E+00
  3.00000000E+02  2.20000000E+01  0.00000000E+00
  3.10000000E+02  2.20000000E+01  0.00000000E+00
  3.20000000E+02  2.20000000E+01  0.00000000E+00
  3.30000000E+02  2.20000000E+01  0.00000000E+00
  3.40000000E+02  2.20000000E+01  0.00000000E+00
  3.50000000E+02  2.20000000E+01  0.00000000E+00
  3.60000000E+02  2.20000000E+01  0.00000000E+00
  3.70000000E+02  2.20000000E+01  0.00000000E+00
  3.80000000E+02  2.20000000E+01  0.00000000E+00
  3.90000000E+02  2.20000000E+01  0.00000000E+00
  4.00000000E+02  2.20000000E+01  0.00000000E+00
  4.10000000E+02  2.20000000E+01  0.00000000E+00
  4.20000000E+02  2.20000000E+01  0.00000000E+00
  4.30000000E+02  2.20000000E+01  0.00000000E+00
  4.40000000E+02  2.20000000E+01  0.00000000E+00
  4.50000000E+02  2.20000000E+01  0.00000000E+00
  4.60000000E+02  2.20000000E+01  0.00000000E+00
  4.70000000E+02  2.20000000E+01  0.00000000E+00
  4.80000000E+02  2.20000000E+01  0.00000000E+00
  4.90000000E+02  2.20000000E+01  0.00000000E+00
  5.00000000E+02  2.20000000E+01  0.00000000E+00
  5.10000000E+02  2.20000000E+01  0.00000000E+00
  5.20000000E+02  2.20000000E+01  0.00000000E+00
  5.30000000E+02  2.20000000E+01  0.00000000E+00
  5.40000000E+02  2.20000000E+01  0.00000000E+00
  5.50000000E+02  2.20000000E+01  0.00000000E+00
  5.60000000E+02  2.20000000E+01  0.00000000E+00
  5.70000000E+02  2.20000000E+01  0.00000000E+00
  5.80000000E+02  2.20000000E+01  0.00000000E+00
  5.90000000E+02  2.20000000E+01  0.00000000E+00
  6.00000000E+02  2.20000000E+01  0.00000000E+00
  6.10000000E+02  2.20000000E+01  0.00000000E+00
  6.20000000E+02  2.20000000E+01  0.00000000E+00
  6.30000000E+02  2.20000000E+01  0.00000000E+00
  6.40000000E+02  2.20000000E+01  0.00000000E+00
  6.50000000E+02  2.20000000E+01  0.00000000E+00
  6.60000000E+02  2.20000000E+01  0.00000000E+00
  6.70000000E+02  2.20000000E+01  0.00000000E+00
  6.80000000E+02  2.20000000E+01  0.00000000E+00
  6.90000000E+02  2.20000000E+01  0.00000000E+00
  7.00000000E+02  2.20000000E+01  0.00000000E+00
  7.10000000E+02  2.20000000E+01  0.00000000E+00
  7.20000000E+02  2.20000000E+01  0.00000000E+00
  7.30000000E+02  2.20000000E+01  0.00000000E+00
  7.40000000E+02  2.20000000E+01  0.00000000E+00
  7.50000000E+02  2.20000000E+01  0.00000000E+00
  7.60000000E+02  2.20000000E+01  0.00000000E+00
  7.70000000E+02  2.20000000E+01  0.00000000E+00
  7.80000000E+02  2.20000000E+01  0.00000000E+00
  7.90000000E+02  2.20000000E+01  0.00000000E+00
  8.00000000E+02  2.20000000E+01  0.00000000E+00
  8.10000000E+02  2.20000000E+01  0.00000000E+00
  8.20000000E+02  2.20000000E+01  0.00000000E+00
  8.30000000E+02  2.20000000E+01  0.00000000E+00
  8.40000000E+02  2.20000000E+01  0.00000000E+00
  8.50000000E+02  2.20000000E+01  0.00000000E+00
  8.60000000E+02  2.20000000E+01  0.00000000E+00
  8.70000000E+02  2.20000000E+01  0.00000000E+00
  8.80000000E+02  2.20000000E+01  0.00000000E+00
  8.90000000E+02  2.20000000E+01  0.00000000E+00
  9.00000000E+02  2.20000000E+01  0.00000000E+00
  9.10000000E+02  2.20000000E+01  0.00000000E+00
  9.20000000E+02  2.20000000E+01  0.00000000E+00
  9.30000000E+02  2.20000000E+01  0.00000000E+00
  9.40000000E+02  2.20000000E+01  0.00000000E+00
  9.50000000E+02  2.20000000E+01  0.00000000E+00
  9.60000000E+02  2.20000000E+01  0.00000000E+00
  9.70000000E+02  2.20000000E+01  0.00000000E+00
  9.80000000E+02  2.20000000E+01  0.00000000E+00
  9.90000000E+02  2.20000000E+01  0.00000000E+00
  1.00000000E+03  2.20000000E+01  0.00000000E+00
  0.00000000E+00  2.40000000E+01  0.00000000E+00
  1.00000000E+01  2.40000000E+01  0.00000000E+00
  2.00000000E+01  2.40000000E+01  0.00000000E+00
  3.00000000E+01  2.40000000E+01  0.00000000E+00
  4.00000000E+01  2.40000000E+01  0.00000000E+00
  5.00000000E+01  2.40000000E+01  0.00000000E+00
  6.00000000E+01  2.40000000E+01  0.00000000E+00
  7.00000000E+01  2.40000000E+01  0.00000000E+00
  8.00000000E+01  2.40000000E+01  0.00000000E+00
  9.00000000E+01  2.40000000E+01  0.00000000E+00
  1.00000000E+02  2.40000000E+01  0.00000000E+00
  1.10000000E+02  2.40000000E+01  0.00000000E+00
  1.20000000E+02  2.40000000E+01  0.00000000E+00
  1.30000000E+02  2.40000000E+01  0.00000000E+00
  1.40000000E+02  2.40000000E+01  0.00000000E+00
  1.50000000E+02  2.40000000E+01  0.00000000E+00
  1.60000000E+02  2.40000000E+01  0.00000000E+00
  1.70000000E+02  2.40000000E+01  0.00000000E+00
  1.80000000E+02  2.40000000E+01  0.00000000E+00
  1.90000000E+02  2.40000000E+01  0.00000000E+00
  2.00000000E+02  2.40000000E+01  0.00000000E+00
  2.10000000E+02  2.40000000E+01  0.00000000E+00
  2.20000000E+02  2.40000000E+01  0.00000000E+00
  2.30000000E+02  2.40000000E+01  0.00000000E+00
  2.40000000E+02  2.40000000E+01  0.00000000E+00
  2.50000000E+02  2.40000000E+01  0.00000000E+00
  2.60000000E+02  2.40000000E+01  0.00000000E+00
  2.70000000E+02  2.40000000E+01  0.00000000E+00
  2.80000000E+02  2.40000000E+01  0.00000000E+00
  2.90000000E+02  2.40000000E+01  0.00000000E+00
  3.00000000E+02  2.40000000E+01  0.00000000E+00
  3.10000000E+02  2.40000000E+01  0.00000000E+00
  3.20000000E+02  2.40000000E+01  0.00000000E+00
  3.30000000E+02  2.40000000E+01  0.00000000E+00
  3.40000000E+02  2.40000000E+01  0.00000000E+00
  3.50000000E+02  2.40000000E+01  0.00000000E+00
  3.60000000E+02  2.40000000E+01  0.00000000E+00
  3.70000000E+02  2.40000000E+01  0.00000000E+00
  3.80000000E+02  2.40000000E+01  0.00000000E+00
  3.90000000E+02  2.40000000E+01  0.00000000E+00
  4.00000000E+02  2.40000000E+01  0.00000000E+00
  4.10000000E+02  2.40000000E+01  0.00000000E+00
  4.20000000E+02  2.40000000E+01  0.00000000E+00
  4.30000000E+02  2.40000000E+01  0.00000000E+00
  4.40000000E+02  2.40000000E+01  0.00000000E+00
  4.50000000E+02  2.40000000E+01  0.00000000E+00
  4.60000000E+02  2.40000000E+01  0.00000000E+00
  4.70000000E+02  2.40000000E+01  0.00000000E+00
  4.80000000E+02  2.40000000E+01  0.00000000E+00
  4.90000000E+02  2.40000000E+01  0.00000000E+00
  5.00000000E+02  2.40000000E+01  0.00000000E+00
  5.10000000E+02  2.40000000E+01  0.00000000E+00
  5.20000000E+02  2.40000000E+01  0.00000000E+00
  5.30000000E+02  2.40000000E+01  0.00000000E+00
  5.40000000E+02  2.40000000E+01  0.00000000E+00
  5.50000000E+02  2.40000000E+01  0.00000000E+00
  5.60000000E+02  2.40000000E+01  0.00000000E+00
  5.70000000E+02  2.40000000E+01  0.00000000E+00
  5.80000000E+02  2.40000000E+01  0.00000000E+00
  5.90000000E+02  2.40000000E+01  0.00000000E+00
  6.00000000E+02  2.40000000E+01  0.00000000E+00
  6.10000000E+02  2.40000000E+01  0.00000000E+00
  6.20000000E+02  2.40000000E+01  0.00000000E+00
  6.30000000E+02  2.40000000E+01  0.00000000E+00
  6.40000000E+02  2.40000000E+01  0.00000000E+00
  6.50000000E+02  2.40000000E+01  0.00000000E+00
  6.60000000E+02  2.40000000E+01  0.00000000E+00
  6.70000000E+02  2.40000000E+01  0.00000000E+00
  6.80000000E+02  2.40000000E+01  0.00000000E+00
  6.90000000E+02  2.40000000E+01  0.00000000E+00
  7.00000000E+02  2.40000000E+01  0.00000000E+00
  7.10000000E+02  2.40000000E+01  0.00000000E+00
  7.20000000E+02  2.40000000E+01  0.00000000E+00
  7.30000000E+02  2.40000000E+01  0.00000000E+00
  7.40000000E+02  2.40000000E+01  0.00000000E+00
  7.50000000E+02  2.40000000E+01  0.00000000E+00
  7.60000000E+02  2.40000000E+01  0.00000000E+00
  7.70000000E+02  2.40000000E+01  0.00000000E+00
  7.80000000E+02  2.40000000E+01  0.00000000E+00
  7.90000000E+02  2.40000000E+01  0.00000000E+00
  8.00000000E+02  2.40000000E+01  0.00000000E+00
  8.10000000E+02  2.40000000E+01  0.00000000E+00
  8.20000000E+02  2.40000000E+01  0.00000000E+00
  8.30000000E+02  2.40000000E+01  0.00000000E+00
  8.40000000E+02  2.40000000E+01  0.00000000E+00
  8.50000000E+02  2.40000000E+01  0.00000000E+00
  8.60000000E+02  2.40000000E+01  0.00000000E+00
  8.70000000E+02  2.40000000E+01  0.00000000E+00
  8.80000000E+02  2.40000000E+01  0.00000000E+00
  8.90000000E+02  2.40000000E+01  0.00000000E+00
  9.00000000E+02  2.40000000E+01  0.00000000E+00
  9.10000000E+02  2.40000000E+01  0.00000000E+00
  9.20000000E+02  2.40000000E+01  0.00000000E+00
  9.30000000E+02  2.40000000E+01  0.00000000E+00
  9.40000000E+02  2.40000000E+01  0.00000000E+00
  9.50000000E+02  2.40000000E+01  0.00000000E+00
  9.60000000E+02  2.40000000E+01  0.00000000E+00
  9.70000000E+02  2.40000000E+01  0.00000000E+00
  9.80000000E+02  2.40000000E+01  0.00000000E+00
  9.90000000E+02  2.40000000E+01  0.00000000E+00
  1.00000000E+03  2.40000000E+01  0.00000000E+00
  0.00000000E+00  2.60000000E+01  0.00000000E+00
  1.00000000E+01  2.60000000E+01  0.00000000E+00
  2.00000000E+01  2.60000000E+01  0.00000000E+00
  3.00000000E+01  2.60000000E+01  0.00000000E+00
  4.00000000E+01  2.60000000E+01  0.00000000E+00
  5.00000000E+01  2.60000000E+01  0.00000000E+00
  6.00000000E+01  2.60000000E+01  0.00000000E+00
  7.00000000E+01  2.60000000E+01  0.00000000E+00
  8.00000000E+01  2.60000000E+01  0.00000000E+00
  9.00000000E+01  2.60000000E+01  0.00000000E+00
  1.00000000E+02  2.60000000E+01  0.00000000E+00
  1.10000000E+02  2.60000000E+01  0.00000000E+00
  1.20000000E+02  2.60000000E+01  0.00000000E+00
  1.30000000E+02  2.60000000E+01  0.00000000E+00
  1.40000000E+02  2.60000000E+01  0.00000000E+00
  1.50000000E+02  2.60000000E+01  0.00000000E+00
  1.60000000E+02  2.60000000E+01  0.00000000E+00
  1.70000000E+02  2.60000000E+01  0.00000000E+00
  1.80000000E+02  2.60000000E+01  0.00000000E+00
  1.90000000E+02  2.60000000E+01  0.00000000E+00
  2.00000000E+02  2.60000000E+01  0.00000000E+00
  2.10000000E+02  2.60000000E+01  0.00000000E+00
  2.20000000E+02  2.60000000E+01  0.00000000E+00
  2.30000000E+02  2.60000000E+01  0.00000000E+00
  2.40000000E+02  2.60000000E+01  0.00000000E+00
  2.50000000E+02  2.60000000E+01  0.00000000E+00
  2.60000000E+02  2.60000000E+01  0.00000000E+00
  2.70000000E+02  2.60000000E+01  0.00000000E+00
  2.80000000E+02  2.60000000E+01  0.00000000E+00
  2.90000000E+02  2.60000000E+01  0.00000000E+00
  3.00000000E+02  2.60000000E+01  0.00000000E+00
  3.10000000E+02  2.60000000E+01  0.00000000E+00
  3.20000000E+02  2.60000000E+01  0.00000000E+00
  3.30000000E+02  2.60000000E+01  0.00000000E+00
  3.40000000E+02  2.60000000E+01  0.00000000E+00
  3.50000000E+02  2.60000000E+01  0.00000000E+00
  3.60000000E+02  2.60000000E+01  0.00000000E+00
  3.70000000E+02  2.60000000E+01  0.00000000E+00
  3.80000000E+02  2.60000000E+01  0.00000000E+00
  3.90000000E+02  2.60000000E+01  0.00000000E+00
  4.00000000E+02  2.60000000E+01  0.00000000E+00
  4.10000000E+02  2.60000000E+01  0.00000000E+00
  4.20000000E+02  2.60000000E+01  0.00000000E+00
  4.30000000E+02  2.60000000E+01  0.00000000E+00
  4.40000000E+02  2.60000000E+01  0.00000000E+00
  4.50000000E+02  2.60000000E+01  0.00000000E+00
  4.60000000E+02  2.60000000E+01  0.00000000E+00
  4.70000000E+02  2.60000000E+01  0.00000000E+00
  4.80000000E+02  2.60000000E+01  0.00000000E+00
  4.90000000E+02  2.60000000E+01  0.00000000E+00
  5.00000000E+02  2.60000000E+01  0.00000000E+00
  5.10000000E+02  2.60000000E+01  0.00000000E+00
  5.20000000E+02  2.60000000E+01  0.00000000E+00
  5.30000000E+02  2.60000000E+01  0.00000000E+00
  5.40000000E+02  2.60000000E+01  0.00000000E+00
  5.50000000E+02  2.60000000E+01  0.00000000E+00
  5.60000000E+02  2.60000000E+01  0.00000000E+00
  5.70000000E+02  2.60000000E+01  0.00000000E+00
  5.80000000E+02  2.60000000E+01  0.00000000E+00
  5.90000000E+02  2.60000000E+01  0.00000000E+00
  6.00000000E+02  2.60000000E+01  0.00000000E+00
  6.10000000E+02  2.60000000E+01  0.00000000E+00
  6.20000000E+02  2.60000000E+01  0.00000000E+00
  6.30000000E+02  2.60000000E+01  0.00000000E+00
  6.40000000E+02  2.60000000E+01  0.00000000E+00
  6.50000000E+02  2.60000000E+01  0.00000000E+00
  6.60000000E+02  2.60000000E+01  0.00000000E+00
  6.70000000E+02  2.60000000E+01  0.00000000E+00
  6.80000000E+02  2.60000000E+01  0.00000000E+00
  6.90000000E+02  2.60000000E+01  0.00000000E+00
  7.00000000E+02  2.60000000E+01  0.00000000E+00
  7.10000000E+02  2.60000000E+01  0.00000000E+00
  7.20000000E+02  2.60000000E+01  0.00000000E+00
  7.30000000E+02  2.60000000E+01  0.00000000E+00
  7.40000000E+02  2.60000000E+01  0.00000000E+00
  7.50000000E+02  2.60000000E+01  0.00000000E+00
  7.60000000E+02  2.60000000E+01  0.00000000E+00
  7.70000000E+02  2.60000000E+01  0.00000000E+00
  7.80000000E+02  2.60000000E+01  0.00000000E+00
  7.90000000E+02  2.60000000E+01  0.00000000E+00
  8.00000000E+02  2.60000000E+01  0.00000000E+00
  8.10000000E+02  2.60000000E+01  0.00000000E+00
  8.20000000E+02  2.60000000E+01  0.00000000E+00
  8.30000000E+02  2.60000000E+01  0.00000000E+00
  8.40000000E+02  2.60000000E+01  0.00000000E+00
  8.50000000E+02  2.60000000E+01  0.00000000E+00
  8.60000000E+02  2.60000000E+01  0.00000000E+00
  8.70000000E+02  2.60000000E+01  0.00000000E+00
  8.80000000E+02  2.60000000E+01  0.00000000E+00
  8.90000000E+02  2.60000000E+01  0.00000000E+00
  9.00000000E+02  2.60000000E+01  0.00000000E+00
  9.10000000E+02  2.60000000E+01  0.00000000E+00
  9.20000000E+02  2.60000000E+01  0.00000000E+00
  9.30000000E+02  2.60000000E+01  0.00000000E+00
  9.40000000E+02  2.60000000E+01  0.00000000E+00
  9.50000000E+02  2.60000000E+01  0.00000000E+00
  9.60000000E+02  2.60000000E+01  0.00000000E+00
  9.70000000E+02  2.60000000E+01  0.00000000E+00
  9.80000000E+02  2.60000000E+01  0.00000000E+00
  9.90000000E+02  2.60000000E+01  0.00000000E+00
  1.00000000E+03  2.60000000E+01  0.00000000E+00
  0.00000000E+00  2.80000000E+01  0.00000000E+00
  1.00000000E+01  2.80000000E+01  0.00000000E+00
  2.00000000E+01  2.80000000E+01  0.00000000E+00
  3.00000000E+01  2.80000000E+01  0.00000000E+00
  4.00000000E+01  2.80000000E+01  0.00000000E+00
  5.00000000E+01  2.80000000E+01  0.00000000E+00
  6.00000000E+01  2.80000000E+01  0.00000000E+00
  7.00000000E+01  2.80000000E+01  0.00000000E+00
  8.00000000E+01  2.80000000E+01  0.00000000E+00
  9.00000000E+01  2.80000000E+01  0.00000000E+00
  1.00000000E+02  2.80000000E+01  0.00000000E+00
  1.10000000E+02  2.80000000E+01  0.00000000E+00
  1.20000000E+02  2.80000000E+01  0.00000000E+00
  1.30000000E+02  2.80000000E+01  0.00000000E+00
  1.40000000E+02  2.80000000E+01  0.00000000E+00
  1.50000000E+02  2.80000000E+01  0.00000000E+00
  1.60000000E+02  2.80000000E+01  0.00000000E+00
  1.70000000E+02  2.80000000E+01  0.00000000E+00
  1.80000000E+02  2.80000000E+01  0.00000000E+00
  1.90000000E+02  2.80000000E+01  0.00000000E+00
  2.00000000E+02  2.80000000E+01  0.00000000E+00
  2.10000000E+02  2.80000000E+01  0.00000000E+00
  2.20000000E+02  2.80000000E+01  0.00000000E+00
  2.30000000E+02  2.80000000E+01  0.00000000E+00
  2.40000000E+02  2.80000000E+01  0.00000000E+00
  2.50000000E+02  2.80000000E+01  0.00000000E+00
  2.60000000E+02  2.80000000E+01  0.00000000E+00
  2.70000000E+02  2.80000000E+01  0.00000000E+00
  2.80000000E+02  2.80000000E+01  0.00000000E+00
  2.90000000E+02  2.80000000E+01  0.00000000E+00
  3.00000000E+02  2.80000000E+01  0.00000000E+00
  3.10000000E+02  2.80000000E+01  0.00000000E+00
  3.20000000E+02  2.80000000E+01  0.00000000E+00
  3.30000000E+02  2.80000000E+01  0.00000000E+00
  3.40000000E+02  2.80000000E+01  0.00000000E+00
  3.50000000E+02  2.80000000E+01  0.00000000E+00
  3.60000000E+02  2.80000000E+01  0.00000000E+00
  3.70000000E+02  2.80000000E+01  0.00000000E+00
  3.80000000E+02  2.80000000E+01  0.00000000E+00
  3.90000000E+02  2.80000000E+01  0.00000000E+00
  4.00000000E+02  2.80000000E+01  0.00000000E+00
  4.10000000E+02  2.80000000E+01  0.00000000E+00
  4.20000000E+02  2.80000000E+01  0.00000000E+00
  4.30000000E+02  2.80000000E+01  0.00000000E+00
  4.40000000E+02  2.80000000E+01  0.00000000E+00
  4.50000000E+02  2.80000000E+01  0.00000000E+00
  4.60000000E+02  2.80000000E+01  0.00000000E+00
  4.70000000E+02  2.80000000E+01  0.00000000E+00
  4.80000000E+02  2.80000000E+01  0.00000000E+00
  4.90000000E+02  2.80000000E+01  0.00000000E+00
  5.00000000E+02  2.80000000E+01  0.00000000E+00
  5.10000000E+02  2.80000000E+01  0.00000000E+00
  5.20000000E+02  2.80000000E+01  0.00000000E+00
  5.30000000E+02  2.80000000E+01  0.00000000E+00
  5.40000000E+02  2.80000000E+01  0.00000000E+00
  5.50000000E+02  2.80000000E+01  0.00000000E+00
  5.60000000E+02  2.80000000E+01  0.00000000E+00
  5.70000000E+02  2.80000000E+01  0.00000000E+00
  5.80000000E+02  2.80000000E+01  0.00000000E+00
  5.90000000E+02  2.80000000E+01  0.00000000E+00
  6.00000000E+02  2.80000000E+01  0.00000000E+00
  6.10000000E+02  2.80000000E+01  0.00000000E+00
  6.20000000E+02  2.80000000E+01  0.00000000E+00
  6.30000000E+02  2.80000000E+01  0.00000000E+00
  6.40000000E+02  2.80000000E+01  0.00000000E+00
  6.50000000E+02  2.80000000E+01  0.00000000E+00
  6.60000000E+02  2.80000000E+01  0.00000000E+00
  6.70000000E+02  2.80000000E+01  0.00000000E+00
  6.80000000E+02  2.80000000E+01  0.00000000E+00
  6.90000000E+02  2.80000000E+01  0.00000000E+00
  7.00000000E+02  2.80000000E+01  0.00000000E+00
  7.10000000E+02  2.80000000E+01  0.00000000E+00
  7.20000000E+02  2.80000000E+01  0.00000000E+00
  7.30000000E+02  2.80000000E+01  0.00000000E+00
  7.40000000E+02  2.80000000E+01  0.00000000E+00
  7.50000000E+02  2.80000000E+01  0.00000000E+00
  7.60000000E+02  2.80000000E+01  0.00000000E+00
  7.70000000E+02  2.80000000E+01  0.00000000E+00
  7.80000000E+02  2.80000000E+01  0.00000000E+00
  7.90000000E+02  2.80000000E+01  0.00000000E+00
  8.00000000E+02  2.80000000E+01  0.00000000E+00
  8.10000000E+02  2.80000000E+01  0.00000000E+00
  8.20000000E+02  2.80000000E+01  0.00000000E+00
  8.30000000E+02  2.80000000E+01  0.00000000E+00
  8.40000000E+02  2.80000000E+01  0.00000000E+00
  8.50000000E+02  2.80000000E+01  0.00000000E+00
  8.60000000E+02  2.80000000E+01  0.00000000E+00
  8.70000000E+02  2.80000000E+01  0.00000000E+00
  8.80000000E+02  2.80000000E+01  0.00000000E+00
  8.90000000E+02  2.80000000E+01  0.00000000E+00
  9.00000000E+02  2.80000000E+01  0.00000000E+00
  9.10000000E+02  2.80000000E+01  0.00000000E+00
  9.20000000E+02  2.80000000E+01  0.00000000E+00
  9.30000000E+02  2.80000000E+01  0.00000000E+00
  9.40000000E+02  2.80000000E+01  0.00000000E+00
  9.50000000E+02  2.80000000E+01  0.00000000E+00
  9.60000000E+02  2.80000000E+01  0.00000000E+00
  9.70000000E+02  2.80000000E+01  0.00000000E+00
  9.80000000E+02  2.80000000E+01  0.00000000E+00
  9.90000000E+02  2.80000000E+01  0.00000000E+00
  1.00000000E+03  2.80000000E+01  0.00000000E+00
  0.00000000E+00  3.00000000E+01  0.00000000E+00
  1.00000000E+01  3.00000000E+01  0.00000000E+00
  2.00000000E+01  3.00000000E+01  0.00000000E+00
  3.00000000E+01  3.00000000E+01  0.00000000E+00
  4.00000000E+01  3.00000000E+01  0.00000000E+00
  5.00000000E+01  3.00000000E+01  0.00000000E+00
  6.00000000E+01  3.00000000E+01  0.00000000E+00
  7.00000000E+01  3.00000000E+01  0.00000000E+00
  8.00000000E+01  3.00000000E+01  0.00000000E+00
  9.00000000E+01  3.00000000E+01  0.00000000E+00
  1.00000000E+02  3.00000000E+01  0.00000000E+00
  1.10000000E+02  3.00000000E+01  0.00000000E+00
  1.20000000E+02  3.00000000E+01  0.00000000E+00
  1.30000000E+02  3.00000000E+01  0.00000000E+00
  1.40000000E+02  3.00000000E+01  0.00000000E+00
  1.50000000E+02  3.00000000E+01  0.00000000E+00
  1.60000000E+02  3.00000000E+01  0.00000000E+00
  1.70000000E+02  3.00000000E+01  0.00000000E+00
  1.80000000E+02  3.00000000E+01  0.00000000E+00
  1.90000000E+02  3.00000000E+01  0.00000000E+00
  2.00000000E+02  3.00000000E+01  0.00000000E+00
  2.10000000E+02  3.00000000E+01  0.00000000E+00
  2.20000000E+02  3.00000000E+01  0.00000000E+00
  2.30000000E+02  3.00000000E+01  0.00000000E+00
  2.40000000E+02  3.00000000E+01  0.00000000E+00
  2.50000000E+02  3.00000000E+01  0.00000000E+00
  2.60000000E+02  3.00000000E+01  0.00000000E+00
  2.70000000E+02  3.00000000E+01  0.00000000E+00
  2.80000000E+02  3.00000000E+01  0.00000000E+00
  2.90000000E+02  3.00000000E+01  0.00000000E+00
  3.00000000E+02  3.00000000E+01  0.00000000E+00
  3.10000000E+02  3.00000000E+01  0.00000000E+00
  3.20000000E+02  3.00000000E+01  0.00000000E+00
  3.30000000E+02  3.00000000E+01  0.00000000E+00
  3.40000000E+02  3.00000000E+01  0.00000000E+00
  3.50000000E+02  3.00000000E+01  0.00000000E+00
  3.60000000E+02  3.00000000E+01  0.00000000E+00
  3.70000000E+02  3.00000000E+01  0.00000000E+00
  3.80000000E+02  3.00000000E+01  0.00000000E+00
  3.90000000E+02  3.00000000E+01  0.00000000E+00
  4.00000000E+02  3.00000000E+01  0.00000000E+00
  4.10000000E+02  3.00000000E+01  0.00000000E+00
  4.20000000E+02  3.00000000E+01  0.00000000E+00
  4.30000000E+02  3.00000000E+01  0.00000000E+00
  4.40000000E+02  3.00000000E+01  0.00000000E+00
  4.50000000E+02  3.00000000E+01  0.00000000E+00
  4.60000000E+02  3.00000000E+01  0.00000000E+00
  4.70000000E+02  3.00000000E+01  0.00000000E+00
  4.80000000E+02  3.00000000E+01  0.00000000E+00
  4.90000000E+02  3.00000000E+01  0.00000000E+00
  5.00000000E+02  3.00000000E+01  0.00000000E+00
  5.10000000E+02  3.00000000E+01  0.00000000E+00
  5.20000000E+02  3.00000000E+01  0.00000000E+00
  5.30000000E+02  3.00000000E+01  0.00000000E+00
  5.40000000E+02  3.00000000E+01  0.00000000E+00
  5.50000000E+02  3.00000000E+01  0.00000000E+00
  5.60000000E+02  3.00000000E+01  0.00000000E+00
  5.70000000E+02  3.00000000E+01  0.00000000E+00
  5.80000000E+02  3.00000000E+01  0.00000000E+00
  5.90000000E+02  3.00000000E+01  0.00000000E+00
  6.00000000E+02  3.00000000E+01  0.00000000E+00
  6.10000000E+02  3.00000000E+01  0.00000000E+00
  6.20000000E+02  3.00000000E+01  0.00000000E+00
  6.30000000E+02  3.00000000E+01  0.00000000E+00
  6.40000000E+02  3.00000000E+01  0.00000000E+00
  6.50000000E+02  3.00000000E+01  0.00000000E+00
  6.60000000E+02  3.00000000E+01  0.00000000E+00
  6.70000000E+02  3.00000000E+01  0.00000000E+00
  6.80000000E+02  3.00000000E+01  0.00000000E+00
  6.90000000E+02  3.00000000E+01  0.00000000E+00
  7.00000000E+02  3.00000000E+01  0.00000000E+00
  7.10000000E+02  3.00000000E+01  0.00000000E+00
  7.20000000E+02  3.00000000E+01  0.00000000E+00
  7.30000000E+02  3.00000000E+01  0.00000000E+00
  7.40000000E+02  3.00000000E+01  0.00000000E+00
  7.50000000E+02  3.00000000E+01  0.00000000E+00
  7.60000000E+02  3.00000000E+01  0.00000000E+00
  7.70000000E+02  3.00000000E+01  0.00000000E+00
  7.80000000E+02  3.00000000E+01  0.00000000E+00
  7.90000000E+02  3.00000000E+01  0.00000000E+00
  8.00000000E+02  3.00000000E+01  0.00000000E+00
  8.10000000E+02  3.00000000E+01  0.00000000E+00
  8.20000000E+02  3.00000000E+01  0.00000000E+00
  8.30000000E+02  3.00000000E+01  0.00000000E+00
  8.40000000E+02  3.00000000E+01  0.00000000E+00
  8.50000000E+02  3.00000000E+01  0.00000000E+00
  8.60000000E+02  3.00000000E+01  0.00000000E+00
  8.70000000E+02  3.00000000E+01  0.00000000E+00
  8.80000000E+02  3.00000000E+01  0.00000000E+00
  8.90000000E+02  3.00000000E+01  0.00000000E+00
  9.00000000E+02  3.00000000E+01  0.00000000E+00
  9.10000000E+02  3.00000000E+01  0.00000000E+00
  9.20000000E+02  3.00000000E+01  0.00000000E+00
  9.30000000E+02  3.00000000E+01  0.00000000E+00
  9.40000000E+02  3.00000000E+01  0.00000000E+00
  9.50000000E+02  3.00000000E+01  0.00000000E+00
  9.60000000E+02  3.00000000E+01  0.00000000E+00
  9.70000000E+02  3.00000000E+01  0.00000000E+00
  9.80000000E+02  3.00000000E+01  0.00000000E+00
  9.90000000E+02  3.00000000E+01  0.00000000E+00
  1.00000000E+03  3.00000000E+01  0.00000000E+00
  0.00000000E+00  3.20000000E+01  0.00000000E+00
  1.00000000E+01  3.20000000E+01  0.00000000E+00
  2.00000000E+01  3.20000000E+01  0.00000000E+00
  3.00000000E+01  3.20000000E+01  0.00000000E+00
  4.00000000E+01  3.20000000E+01  0.00000000E+00
  5.00000000E+01  3.20000000E+01  0.00000000E+00
  6.00000000E+01  3.20000000E+01  0.00000000E+00
  7.00000000E+01  3.20000000E+01  0.00000000E+00
  8.00000000E+01  3.20000000E+01  0.00000000E+00
  9.00000000E+01  3.20000000E+01  0.00000000E+00
  1.00000000E+02  3.20000000E+01  0.00000000E+00
  1.10000000E+02  3.20000000E+01  0.00000000E+00
  1.20000000E+02  3.20000000E+01  0.00000000E+00
  1.30000000E+02  3.20000000E+01  0.00000000E+00
  1.40000000E+02  3.20000000E+01  0.00000000E+00
  1.50000000E+02  3.20000000E+01  0.00000000E+00
  1.60000000E+02  3.20000000E+01  0.00000000E+00
  1.70000000E+02  3.20000000E+01  0.00000000E+00
  1.80000000E+02  3.20000000E+01  0.00000000E+00
  1.90000000E+02  3.20000000E+01  0.00000000E+00
  2.00000000E+02  3.20000000E+01  0.00000000E+00
  2.10000000E+02  3.20000000E+01  0.00000000E+00
  2.20000000E+02  3.20000000E+01  0.00000000E+00
  2.30000000E+02  3.20000000E+01  0.00000000E+00
  2.40000000E+02  3.20000000E+01  0.00000000E+00
  2.50000000E+02  3.20000000E+01  0.00000000E+00
  2.60000000E+02  3.20000000E+01  0.00000000E+00
  2.70000000E+02  3.20000000E+01  0.00000000E+00
  2.80000000E+02  3.20000000E+01  0.00000000E+00
  2.90000000E+02  3.20000000E+01  0.00000000E+00
  3.00000000E+02  3.20000000E+01  0.00000000E+00
  3.10000000E+02  3.20000000E+01  0.00000000E+00
  3.20000000E+02  3.20000000E+01  0.00000000E+00
  3.30000000E+02  3.20000000E+01  0.00000000E+00
  3.40000000E+02  3.20000000E+01  0.00000000E+00
  3.50000000E+02  3.20000000E+01  0.00000000E+00
  3.60000000E+02  3.20000000E+01  0.00000000E+00
  3.70000000E+02  3.20000000E+01  0.00000000E+00
  3.80000000E+02  3.20000000E+01  0.00000000E+00
  3.90000000E+02  3.20000000E+01  0.00000000E+00
  4.00000000E+02  3.20000000E+01  0.00000000E+00
  4.10000000E+02  3.20000000E+01  0.00000000E+00
  4.20000000E+02  3.20000000E+01  0.00000000E+00
  4.30000000E+02  3.20000000E+01  0.00000000E+00
  4.40000000E+02  3.20000000E+01  0.00000000E+00
  4.50000000E+02  3.20000000E+01  0.00000000E+00
  4.60000000E+02  3.20000000E+01  0.00000000E+00
  4.70000000E+02  3.20000000E+01  0.00000000E+00
  4.80000000E+02  3.20000000E+01  0.00000000E+00
  4.90000000E+02  3.20000000E+01  0.00000000E+00
  5.00000000E+02  3.20000000E+01  0.00000000E+00
  5.10000000E+02  3.20000000E+01  0.00000000E+00
  5.20000000E+02  3.20000000E+01  0.00000000E+00
  5.30000000E+02  3.20000000E+01  0.00000000E+00
  5.40000000E+02  3.20000000E+01  0.00000000E+00
  5.50000000E+02  3.20000000E+01  0.00000000E+00
  5.60000000E+02  3.20000000E+01  0.00000000E+00
  5.70000000E+02  3.20000000E+01  0.00000000E+00
  5.80000000E+02  3.20000000E+01  0.00000000E+00
  5.90000000E+02  3.20000000E+01  0.00000000E+00
  6.00000000E+02  3.20000000E+01  0.00000000E+00
  6.10000000E+02  3.20000000E+01  0.00000000E+00
  6.20000000E+02  3.20000000E+01  0.00000000E+00
  6.30000000E+02  3.20000000E+01  0.00000000E+00
  6.40000000E+02  3.20000000E+01  0.00000000E+00
  6.50000000E+02  3.20000000E+01  0.00000000E+00
  6.60000000E+02  3.20000000E+01  0.00000000E+00
  6.70000000E+02  3.20000000E+01  0.00000000E+00
  6.80000000E+02  3.20000000E+01  0.00000000E+00
  6.90000000E+02  3.20000000E+01  0.00000000E+00
  7.00000000E+02  3.20000000E+01  0.00000000E+00
  7.10000000E+02  3.20000000E+01  0.00000000E+00
  7.20000000E+02  3.20000000E+01  0.00000000E+00
  7.30000000E+02  3.20000000E+01  0.00000000E+00
  7.40000000E+02  3.20000000E+01  0.00000000E+00
  7.50000000E+02  3.20000000E+01  0.00000000E+00
  7.60000000E+02  3.20000000E+01  0.00000000E+00
  7.70000000E+02  3.20000000E+01  0.00000000E+00
  7.80000000E+02  3.20000000E+01  0.00000000E+00
  7.90000000E+02  3.20000000E+01  0.00000000E+00
  8.00000000E+02  3.20000000E+01  0.00000000E+00
  8.10000000E+02  3.20000000E+01  0.00000000E+00
  8.20000000E+02  3.20000000E+01  0.00000000E+00
  8.30000000E+02  3.20000000E+01  0.00000000E+00
  8.40000000E+02  3.20000000E+01  0.00000000E+00
  8.50000000E+02  3.20000000E+01  0.00000000E+00
  8.60000000E+02  3.20000000E+01  0.00000000E+00
  8.70000000E+02  3.20000000E+01  0.00000000E+00
  8.80000000E+02  3.20000000E+01  0.00000000E+00
  8.90000000E+02  3.20000000E+01  0.00000000E+00
  9.00000000E+02  3.20000000E+01  0.00000000E+00
  9.10000000E+02  3.20000000E+01  0.00000000E+00
  9.20000000E+02  3.20000000E+01  0.00000000E+00
  9.30000000E+02  3.20000000E+01  0.00000000E+00
  9.40000000E+02  3.20000000E+01  0.00000000E+00
  9.50000000E+02  3.20000000E+01  0.00000000E+00
  9.60000000E+02  3.20000000E+01  0.00000000E+00
  9.70000000E+02  3.20000000E+01  0.00000000E+00
  9.80000000E+02  3.20000000E+01  0.00000000E+00
  9.90000000E+02  3.20000000E+01  0.00000000E+00
  1.00000000E+03  3.20000000E+01  0.00000000E+00
  0.00000000E+00  3.40000000E+01  0.00000000E+00
  1.00000000E+01  3.40000000E+01  0.00000000E+00
  2.00000000E+01  3.40000000E+01  0.00000000E+00
  3.00000000E+01  3.40000000E+01  0.00000000E+00
  4.00000000E+01  3.40000000E+01  0.00000000E+00
  5.00000000E+01  3.40000000E+01  0.00000000E+00
  6.00000000E+01  3.40000000E+01  0.00000000E+00
  7.00000000E+01  3.40000000E+01  0.00000000E+00
  8.00000000E+01  3.40000000E+01  0.00000000E+00
  9.00000000E+01  3.40000000E+01  0.00000000E+00
  1.00000000E+02  3.40000000E+01  0.00000000E+00
  1.10000000E+02  3.40000000E+01  0.00000000E+00
  1.20000000E+02  3.40000000E+01  0.00000000E+00
  1.30000000E+02  3.40000000E+01  0.00000000E+00
  1.40000000E+02  3.40000000E+01  0.00000000E+00
  1.50000000E+02  3.40000000E+01  0.00000000E+00
  1.60000000E+02  3.40000000E+01  0.00000000E+00
  1.70000000E+02  3.40000000E+01  0.00000000E+00
  1.80000000E+02  3.40000000E+01  0.00000000E+00
  1.90000000E+02  3.40000000E+01  0.00000000E+00
  2.00000000E+02  3.40000000E+01  0.00000000E+00
  2.10000000E+02  3.40000000E+01  0.00000000E+00
  2.20000000E+02  3.40000000E+01  0.00000000E+00
  2.30000000E+02  3.40000000E+01  0.00000000E+00
  2.40000000E+02  3.40000000E+01  0.00000000E+00
  2.50000000E+02  3.40000000E+01  0.00000000E+00
  2.60000000E+02  3.40000000E+01  0.00000000E+00
  2.70000000E+02  3.40000000E+01  0.00000000E+00
  2.80000000E+02  3.40000000E+01  0.00000000E+00
  2.90000000E+02  3.40000000E+01  0.00000000E+00
  3.00000000E+02  3.40000000E+01  0.00000000E+00
  3.10000000E+02  3.40000000E+01  0.00000000E+00
  3.20000000E+02  3.40000000E+01  0.00000000E+00
  3.30000000E+02  3.40000000E+01  0.00000000E+00
  3.40000000E+02  3.40000000E+01  0.00000000E+00
  3.50000000E+02  3.40000000E+01  0.00000000E+00
  3.60000000E+02  3.40000000E+01  0.00000000E+00
  3.70000000E+02  3.40000000E+01  0.00000000E+00
  3.80000000E+02  3.40000000E+01  0.00000000E+00
  3.90000000E+02  3.40000000E+01  0.00000000E+00
  4.00000000E+02  3.40000000E+01  0.00000000E+00
  4.10000000E+02  3.40000000E+01  0.00000000E+00
  4.20000000E+02  3.40000000E+01  0.00000000E+00
  4.30000000E+02  3.40000000E+01  0.00000000E+00
  4.40000000E+02  3.40000000E+01  0.00000000E+00
  4.50000000E+02  3.40000000E+01  0.00000000E+00
  4.60000000E+02  3.40000000E+01  0.00000000E+00
  4.70000000E+02  3.40000000E+01  0.00000000E+00
  4.80000000E+02  3.40000000E+01  0.00000000E+00
  4.90000000E+02  3.40000000E+01  0.00000000E+00
  5.00000000E+02  3.40000000E+01  0.00000000E+00
  5.10000000E+02  3.40000000E+01  0.00000000E+00
  5.20000000E+02  3.40000000E+01  0.00000000E+00
  5.30000000E+02  3.40000000E+01  0.00000000E+00
  5.40000000E+02  3.40000000E+01  0.00000000E+00
  5.50000000E+02  3.40000000E+01  0.00000000E+00
  5.60000000E+02  3.40000000E+01  0.00000000E+00
  5.70000000E+02  3.40000000E+01  0.00000000E+00
  5.80000000E+02  3.40000000E+01  0.00000000E+00
  5.90000000E+02  3.40000000E+01  0.00000000E+00
  6.00000000E+02  3.40000000E+01  0.00000000E+00
  6.10000000E+02  3.40000000E+01  0.00000000E+00
  6.20000000E+02  3.40000000E+01  0.00000000E+00
  6.30000000E+02  3.40000000E+01  0.00000000E+00
  6.40000000E+02  3.40000000E+01  0.00000000E+00
  6.50000000E+02  3.40000000E+01  0.00000000E+00
  6.60000000E+02  3.40000000E+01  0.00000000E+00
  6.70000000E+02  3.40000000E+01  0.00000000E+00
  6.80000000E+02  3.40000000E+01  0.00000000E+00
  6.90000000E+02  3.40000000E+01  0.00000000E+00
  7.00000000E+02  3.40000000E+01  0.00000000E+00
  7.10000000E+02  3.40000000E+01  0.00000000E+00
  7.20000000E+02  3.40000000E+01  0.00000000E+00
  7.30000000E+02  3.40000000E+01  0.00000000E+00
  7.40000000E+02  3.40000000E+01  0.00000000E+00
  7.50000000E+02  3.40000000E+01  0.00000000E+00
  7.60000000E+02  3.40000000E+01  0.00000000E+00
  7.70000000E+02  3.40000000E+01  0.00000000E+00
  7.80000000E+02  3.40000000E+01  0.00000000E+00
  7.90000000E+02  3.40000000E+01  0.00000000E+00
  8.00000000E+02  3.40000000E+01  0.00000000E+00
  8.10000000E+02  3.40000000E+01  0.00000000E+00
  8.20000000E+02  3.40000000E+01  0.00000000E+00
  8.30000000E+02  3.40000000E+01  0.00000000E+00
  8.40000000E+02  3.40000000E+01  0.00000000E+00
  8.50000000E+02  3.40000000E+01  0.00000000E+00
  8.60000000E+02  3.40000000E+01  0.00000000E+00
  8.70000000E+02  3.40000000E+01  0.00000000E+00
  8.80000000E+02  3.40000000E+01  0.00000000E+00
  8.90000000E+02  3.40000000E+01  0.00000000E+00
  9.00000000E+02  3.40000000E+01  0.00000000E+00
  9.10000000E+02  3.40000000E+01  0.00000000E+00
  9.20000000E+02  3.40000000E+01  0.00000000E+00
  9.30000000E+02  3.40000000E+01  0.00000000E+00
  9.40000000E+02  3.40000000E+01  0.00000000E+00
  9.50000000E+02  3.40000000E+01  0.00000000E+00
  9.60000000E+02  3.40000000E+01  0.00000000E+00
  9.70000000E+02  3.40000000E+01  0.00000000E+00
  9.80000000E+02  3.40000000E+01  0.00000000E+00
  9.90000000E+02  3.40000000E+01  0.00000000E+00
  1.00000000E+03  3.40000000E+01  0.00000000E+00
  0.00000000E+00  3.60000000E+01  0.00000000E+00
  1.00000000E+01  3.60000000E+01  0.00000000E+00
  2.00000000E+01  3.60000000E+01  0.00000000E+00
  3.00000000E+01  3.60000000E+01  0.00000000E+00
  4.00000000E+01  3.60000000E+01  0.00000000E+00
  5.00000000E+01  3.60000000E+01  0.00000000E+00
  6.00000000E+01  3.60000000E+01  0.00000000E+00
  7.00000000E+01  3.60000000E+01  0.00000000E+00
  8.00000000E+01  3.60000000E+01  0.00000000E+00
  9.00000000E+01  3.60000000E+01  0.00000000E+00
  1.00000000E+02  3.60000000E+01  0.00000000E+00
  1.10000000E+02  3.60000000E+01  0.00000000E+00
  1.20000000E+02  3.60000000E+01  0.00000000E+00
  1.30000000E+02  3.60000000E+01  0.00000000E+00
  1.40000000E+02  3.60000000E+01  0.00000000E+00
  1.50000000E+02  3.60000000E+01  0.00000000E+00
  1.60000000E+02  3.60000000E+01  0.00000000E+00
  1.70000000E+02  3.60000000E+01  0.00000000E+00
  1.80000000E+02  3.60000000E+01  0.00000000E+00
  1.90000000E+02  3.60000000E+01  0.00000000E+00
  2.00000000E+02  3.60000000E+01  0.00000000E+00
  2.10000000E+02  3.60000000E+01  0.00000000E+00
  2.20000000E+02  3.60000000E+01  0.00000000E+00
  2.30000000E+02  3.60000000E+01  0.00000000E+00
  2.40000000E+02  3.60000000E+01  0.00000000E+00
  2.50000000E+02  3.60000000E+01  0.00000000E+00
  2.60000000E+02  3.60000000E+01  0.00000000E+00
  2.70000000E+02  3.60000000E+01  0.00000000E+00
  2.80000000E+02  3.60000000E+01  0.00000000E+00
  2.90000000E+02  3.60000000E+01  0.00000000E+00
  3.00000000E+02  3.60000000E+01  0.00000000E+00
  3.10000000E+02  3.60000000E+01  0.00000000E+00
  3.20000000E+02  3.60000000E+01  0.00000000E+00
  3.30000000E+02  3.60000000E+01  0.00000000E+00
  3.40000000E+02  3.60000000E+01  0.00000000E+00
  3.50000000E+02  3.60000000E+01  0.00000000E+00
  3.60000000E+02  3.60000000E+01  0.00000000E+00
  3.70000000E+02  3.60000000E+01  0.00000000E+00
  3.80000000E+02  3.60000000E+01  0.00000000E+00
  3.90000000E+02  3.60000000E+01  0.00000000E+00
  4.00000000E+02  3.60000000E+01  0.00000000E+00
  4.10000000E+02  3.60000000E+01  0.00000000E+00
  4.20000000E+02  3.60000000E+01  0.00000000E+00
  4.30000000E+02  3.60000000E+01  0.00000000E+00
  4.40000000E+02  3.60000000E+01  0.00000000E+00
  4.50000000E+02  3.60000000E+01  0.00000000E+00
  4.60000000E+02  3.60000000E+01  0.00000000E+00
  4.70000000E+02  3.60000000E+01  0.00000000E+00
  4.80000000E+02  3.60000000E+01  0.00000000E+00
  4.90000000E+02  3.60000000E+01  0.00000000E+00
  5.00000000E+02  3.60000000E+01  0.00000000E+00
  5.10000000E+02  3.60000000E+01  0.00000000E+00
  5.20000000E+02  3.60000000E+01  0.00000000E+00
  5.30000000E+02  3.60000000E+01  0.00000000E+00
  5.40000000E+02  3.60000000E+01  0.00000000E+00
  5.50000000E+02  3.60000000E+01  0.00000000E+00
  5.60000000E+02  3.60000000E+01  0.00000000E+00
  5.70000000E+02  3.60000000E+01  0.00000000E+00
  5.80000000E+02  3.60000000E+01  0.00000000E+00
  5.90000000E+02  3.60000000E+01  0.00000000E+00
  6.00000000E+02  3.60000000E+01  0.00000000E+00
  6.10000000E+02  3.60000000E+01  0.00000000E+00
  6.20000000E+02  3.60000000E+01  0.00000000E+00
  6.30000000E+02  3.60000000E+01  0.00000000E+00
  6.40000000E+02  3.60000000E+01  0.00000000E+00
  6.50000000E+02  3.60000000E+01  0.00000000E+00
  6.60000000E+02  3.60000000E+01  0.00000000E+00
  6.70000000E+02  3.60000000E+01  0.00000000E+00
  6.80000000E+02  3.60000000E+01  0.00000000E+00
  6.90000000E+02  3.60000000E+01  0.00000000E+00
  7.00000000E+02  3.60000000E+01  0.00000000E+00
  7.10000000E+02  3.60000000E+01  0.00000000E+00
  7.20000000E+02  3.60000000E+01  0.00000000E+00
  7.30000000E+02  3.60000000E+01  0.00000000E+00
  7.40000000E+02  3.60000000E+01  0.00000000E+00
  7.50000000E+02  3.60000000E+01  0.00000000E+00
  7.60000000E+02  3.60000000E+01  0.00000000E+00
  7.70000000E+02  3.60000000E+01  0.00000000E+00
  7.80000000E+02  3.60000000E+01  0.00000000E+00
  7.90000000E+02  3.60000000E+01  0.00000000E+00
  8.00000000E+02  3.60000000E+01  0.00000000E+00
  8.10000000E+02  3.60000000E+01  0.00000000E+00
  8.20000000E+02  3.60000000E+01  0.00000000E+00
  8.30000000E+02  3.60000000E+01  0.00000000E+00
  8.40000000E+02  3.60000000E+01  0.00000000E+00
  8.50000000E+02  3.60000000E+01  0.00000000E+00
  8.60000000E+02  3.60000000E+01  0.00000000E+00
  8.70000000E+02  3.60000000E+01  0.00000000E+00
  8.80000000E+02  3.60000000E+01  0.00000000E+00
  8.90000000E+02  3.60000000E+01  0.00000000E+00
  9.00000000E+02  3.60000000E+01  0.00000000E+00
  9.10000000E+02  3.60000000E+01  0.00000000E+00
  9.20000000E+02  3.60000000E+01  0.00000000E+00
  9.30000000E+02  3.60000000E+01  0.00000000E+00
  9.40000000E+02  3.60000000E+01  0.00000000E+00
  9.50000000E+02  3.60000000E+01  0.00000000E+00
  9.60000000E+02  3.60000000E+01  0.00000000E+00
  9.70000000E+02  3.60000000E+01  0.00000000E+00
  9.80000000E+02  3.60000000E+01  0.00000000E+00
  9.90000000E+02  3.60000000E+01  0.00000000E+00
  1.00000000E+03  3.60000000E+01  0.00000000E+00
  0.00000000E+00  3.80000000E+01  0.00000000E+00
  1.00000000E+01  3.80000000E+01  0.00000000E+00
  2.00000000E+01  3.80000000E+01  0.00000000E+00
  3.00000000E+01  3.80000000E+01  0.00000000E+00
  4.00000000E+01  3.80000000E+01  0.00000000E+00
  5.00000000E+01  3.80000000E+01  0.00000000E+00
  6.00000000E+01  3.80000000E+01  0.00000000E+00
  7.00000000E+01  3.80000000E+01  0.00000000E+00
  8.00000000E+01  3.80000000E+01  0.00000000E+00
  9.00000000E+01  3.80000000E+01  0.00000000E+00
  1.00000000E+02  3.80000000E+01  0.00000000E+00
  1.10000000E+02  3.80000000E+01  0.00000000E+00
  1.20000000E+02  3.80000000E+01  0.00000000E+00
  1.30000000E+02  3.80000000E+01  0.00000000E+00
  1.40000000E+02  3.80000000E+01  0.00000000E+00
  1.50000000E+02  3.80000000E+01  0.00000000E+00
  1.60000000E+02  3.80000000E+01  0.00000000E+00
  1.70000000E+02  3.80000000E+01  0.00000000E+00
  1.80000000E+02  3.80000000E+01  0.00000000E+00
  1.90000000E+02  3.80000000E+01  0.00000000E+00
  2.00000000E+02  3.80000000E+01  0.00000000E+00
  2.10000000E+02  3.80000000E+01  0.00000000E+00
  2.20000000E+02  3.80000000E+01  0.00000000E+00
  2.30000000E+02  3.80000000E+01  0.00000000E+00
  2.40000000E+02  3.80000000E+01  0.00000000E+00
  2.50000000E+02  3.80000000E+01  0.00000000E+00
  2.60000000E+02  3.80000000E+01  0.00000000E+00
  2.70000000E+02  3.80000000E+01  0.00000000E+00
  2.80000000E+02  3.80000000E+01  0.00000000E+00
  2.90000000E+02  3.80000000E+01  0.00000000E+00
  3.00000000E+02  3.80000000E+01  0.00000000E+00
  3.10000000E+02  3.80000000E+01  0.00000000E+00
  3.20000000E+02  3.80000000E+01  0.00000000E+00
  3.30000000E+02  3.80000000E+01  0.00000000E+00
  3.40000000E+02  3.80000000E+01  0.00000000E+00
  3.50000000E+02  3.80000000E+01  0.00000000E+00
  3.60000000E+02  3.80000000E+01  0.00000000E+00
  3.70000000E+02  3.80000000E+01  0.00000000E+00
  3.80000000E+02  3.80000000E+01  0.00000000E+00
  3.90000000E+02  3.80000000E+01  0.00000000E+00
  4.00000000E+02  3.80000000E+01  0.00000000E+00
  4.10000000E+02  3.80000000E+01  0.00000000E+00
  4.20000000E+02  3.80000000E+01  0.00000000E+00
  4.30000000E+02  3.80000000E+01  0.00000000E+00
  4.40000000E+02  3.80000000E+01  0.00000000E+00
  4.50000000E+02  3.80000000E+01  0.00000000E+00
  4.60000000E+02  3.80000000E+01  0.00000000E+00
  4.70000000E+02  3.80000000E+01  0.00000000E+00
  4.80000000E+02  3.80000000E+01  0.00000000E+00
  4.90000000E+02  3.80000000E+01  0.00000000E+00
  5.00000000E+02  3.80000000E+01  0.00000000E+00
  5.10000000E+02  3.80000000E+01  0.00000000E+00
  5.20000000E+02  3.80000000E+01  0.00000000E+00
  5.30000000E+02  3.80000000E+01  0.00000000E+00
  5.40000000E+02  3.80000000E+01  0.00000000E+00
  5.50000000E+02  3.80000000E+01  0.00000000E+00
  5.60000000E+02  3.80000000E+01  0.00000000E+00
  5.70000000E+02  3.80000000E+01  0.00000000E+00
  5.80000000E+02  3.80000000E+01  0.00000000E+00
  5.90000000E+02  3.80000000E+01  0.00000000E+00
  6.00000000E+02  3.80000000E+01  0.00000000E+00
  6.10000000E+02  3.80000000E+01  0.00000000E+00
  6.20000000E+02  3.80000000E+01  0.00000000E+00
  6.30000000E+02  3.80000000E+01  0.00000000E+00
  6.40000000E+02  3.80000000E+01  0.00000000E+00
  6.50000000E+02  3.80000000E+01  0.00000000E+00
  6.60000000E+02  3.80000000E+01  0.00000000E+00
  6.70000000E+02  3.80000000E+01  0.00000000E+00
  6.80000000E+02  3.80000000E+01  0.00000000E+00
  6.90000000E+02  3.80000000E+01  0.00000000E+00
  7.00000000E+02  3.80000000E+01  0.00000000E+00
  7.10000000E+02  3.80000000E+01  0.00000000E+00
  7.20000000E+02  3.80000000E+01  0.00000000E+00
  7.30000000E+02  3.80000000E+01  0.00000000E+00
  7.40000000E+02  3.80000000E+01  0.00000000E+00
  7.50000000E+02  3.80000000E+01  0.00000000E+00
  7.60000000E+02  3.80000000E+01  0.00000000E+00
  7.70000000E+02  3.80000000E+01  0.00000000E+00
  7.80000000E+02  3.80000000E+01  0.00000000E+00
  7.90000000E+02  3.80000000E+01  0.00000000E+00
  8.00000000E+02  3.80000000E+01  0.00000000E+00
  8.10000000E+02  3.80000000E+01  0.00000000E+00
  8.20000000E+02  3.80000000E+01  0.00000000E+00
  8.30000000E+02  3.80000000E+01  0.00000000E+00
  8.40000000E+02  3.80000000E+01  0.00000000E+00
  8.50000000E+02  3.80000000E+01  0.00000000E+00
  8.60000000E+02  3.80000000E+01  0.00000000E+00
  8.70000000E+02  3.80000000E+01  0.00000000E+00
  8.80000000E+02  3.80000000E+01  0.00000000E+00
  8.90000000E+02  3.80000000E+01  0.00000000E+00
  9.00000000E+02  3.80000000E+01  0.00000000E+00
  9.10000000E+02  3.80000000E+01  0.00000000E+00
  9.20000000E+02  3.80000000E+01  0.00000000E+00
  9.30000000E+02  3.80000000E+01  0.00000000E+00
  9.40000000E+02  3.80000000E+01  0.00000000E+00
  9.50000000E+02  3.80000000E+01  0.00000000E+00
  9.60000000E+02  3.80000000E+01  0.00000000E+00
  9.70000000E+02  3.80000000E+01  0.00000000E+00
  9.80000000E+02  3.80000000E+01  0.00000000E+00
  9.90000000E+02  3.80000000E+01  0.00000000E+00
  1.00000000E+03  3.80000000E+01  0.00000000E+00
  0.00000000E+00  4.00000000E+01  0.00000000E+00
  1.00000000E+01  4.00000000E+01  0.00000000E+00
  2.00000000E+01  4.00000000E+01  0.00000000E+00
  3.00000000E+01  4.00000000E+01  0.00000000E+00
  4.00000000E+01  4.00000000E+01  0.00000000E+00
  5.00000000E+01  4.00000000E+01  0.00000000E+00
  6.00000000E+01  4.00000000E+01  0.00000000E+00
  7.00000000E+01  4.00000000E+01  0.00000000E+00
  8.00000000E+01  4.00000000E+01  0.00000000E+00
  9.00000000E+01  4.00000000E+01  0.00000000E+00
  1.00000000E+02  4.00000000E+01  0.00000000E+00
  1.10000000E+02  4.00000000E+01  0.00000000E+00
  1.20000000E+02  4.00000000E+01  0.00000000E+00
  1.30000000E+02  4.00000000E+01  0.00000000E+00
  1.40000000E+02  4.00000000E+01  0.00000000E+00
  1.50000000E+02  4.00000000E+01  0.00000000E+00
  1.60000000E+02  4.00000000E+01  0.00000000E+00
  1.70000000E+02  4.00000000E+01  0.00000000E+00
  1.80000000E+02  4.00000000E+01  0.00000000E+00
  1.90000000E+02  4.00000000E+01  0.00000000E+00
  2.00000000E+02  4.00000000E+01  0.00000000E+00
  2.10000000E+02  4.00000000E+01  0.00000000E+00
  2.20000000E+02  4.00000000E+01  0.00000000E+00
  2.30000000E+02  4.00000000E+01  0.00000000E+00
  2.40000000E+02  4.00000000E+01  0.00000000E+00
  2.50000000E+02  4.00000000E+01  0.00000000E+00
  2.60000000E+02  4.00000000E+01  0.00000000E+00
  2.70000000E+02  4.00000000E+01  0.00000000E+00
  2.80000000E+02  4.00000000E+01  0.00000000E+00
  2.90000000E+02  4.00000000E+01  0.00000000E+00
  3.00000000E+02  4.00000000E+01  0.00000000E+00
  3.10000000E+02  4.00000000E+01  0.00000000E+00
  3.20000000E+02  4.00000000E+01  0.00000000E+00
  3.30000000E+02  4.00000000E+01  0.00000000E+00
  3.40000000E+02  4.00000000E+01  0.00000000E+00
  3.50000000E+02  4.00000000E+01  0.00000000E+00
  3.60000000E+02  4.00000000E+01  0.00000000E+00
  3.70000000E+02  4.00000000E+01  0.00000000E+00
  3.80000000E+02  4.00000000E+01  0.00000000E+00
  3.90000000E+02  4.00000000E+01  0.00000000E+00
  4.00000000E+02  4.00000000E+01  0.00000000E+00
  4.10000000E+02  4.00000000E+01  0.00000000E+00
  4.20000000E+02  4.00000000E+01  0.00000000E+00
  4.30000000E+02  4.00000000E+01  0.00000000E+00
  4.40000000E+02  4.00000000E+01  0.00000000E+00
  4.50000000E+02  4.00000000E+01  0.00000000E+00
  4.60000000E+02  4.00000000E+01  0.00000000E+00
  4.70000000E+02  4.00000000E+01  0.00000000E+00
  4.80000000E+02  4.00000000E+01  0.00000000E+00
  4.90000000E+02  4.00000000E+01  0.00000000E+00
  5.00000000E+02  4.00000000E+01  0.00000000E+00
  5.10000000E+02  4.00000000E+01  0.00000000E+00
  5.20000000E+02  4.00000000E+01  0.00000000E+00
  5.30000000E+02  4.00000000E+01  0.00000000E+00
  5.40000000E+02  4.00000000E+01  0.00000000E+00
  5.50000000E+02  4.00000000E+01  0.00000000E+00
  5.60000000E+02  4.00000000E+01  0.00000000E+00
  5.70000000E+02  4.00000000E+01  0.00000000E+00
  5.80000000E+02  4.00000000E+01  0.00000000E+00
  5.90000000E+02  4.00000000E+01  0.00000000E+00
  6.00000000E+02  4.00000000E+01  0.00000000E+00
  6.10000000E+02  4.00000000E+01  0.00000000E+00
  6.20000000E+02  4.00000000E+01  0.00000000E+00
  6.30000000E+02  4.00000000E+01  0.00000000E+00
  6.40000000E+02  4.00000000E+01  0.00000000E+00
  6.50000000E+02  4.00000000E+01  0.00000000E+00
  6.60000000E+02  4.00000000E+01  0.00000000E+00
  6.70000000E+02  4.00000000E+01  0.00000000E+00
  6.80000000E+02  4.00000000E+01  0.00000000E+00
  6.90000000E+02  4.00000000E+01  0.00000000E+00
  7.00000000E+02  4.00000000E+01  0.00000000E+00
  7.10000000E+02  4.00000000E+01  0.00000000E+00
  7.20000000E+02  4.00000000E+01  0.00000000E+00
  7.30000000E+02  4.00000000E+01  0.00000000E+00
  7.40000000E+02  4.00000000E+01  0.00000000E+00
  7.50000000E+02  4.00000000E+01  0.00000000E+00
  7.60000000E+02  4.00000000E+01  0.00000000E+00
  7.70000000E+02  4.00000000E+01  0.00000000E+00
  7.80000000E+02  4.00000000E+01  0.00000000E+00
  7.90000000E+02  4.00000000E+01  0.00000000E+00
  8.00000000E+02  4.00000000E+01  0.00000000E+00
  8.10000000E+02  4.00000000E+01  0.00000000E+00
  8.20000000E+02  4.00000000E+01  0.00000000E+00
  8.30000000E+02  4.00000000E+01  0.00000000E+00
  8.40000000E+02  4.00000000E+01  0.00000000E+00
  8.50000000E+02  4.00000000E+01  0.00000000E+00
  8.60000000E+02  4.00000000E+01  0.00000000E+00
  8.70000000E+02  4.00000000E+01  0.00000000E+00
  8.80000000E+02  4.00000000E+01  0.00000000E+00
  8.90000000E+02  4.00000000E+01  0.00000000E+00
  9.00000000E+02  4.00000000E+01  0.00000000E+00
  9.10000000E+02  4.00000000E+01  0.00000000E+00
  9.20000000E+02  4.00000000E+01  0.00000000E+00
  9.30000000E+02  4.00000000E+01  0.00000000E+00
  9.40000000E+02  4.00000000E+01  0.00000000E+00
  9.50000000E+02  4.00000000E+01  0.00000000E+00
  9.60000000E+02  4.00000000E+01  0.00000000E+00
  9.70000000E+02  4.00000000E+01  0.00000000E+00
  9.80000000E+02  4.00000000E+01  0.00000000E+00
  9.90000000E+02  4.00000000E+01  0.00000000E+00
  1.00000000E+03  4.00000000E+01  0.00000000E+00
  0.00000000E+00  4.20000000E+01  0.00000000E+00
  1.00000000E+01  4.20000000E+01  0.00000000E+00
  2.00000000E+01  4.20000000E+01  0.00000000E+00
  3.00000000E+01  4.20000000E+01  0.00000000E+00
  4.00000000E+01  4.20000000E+01  0.00000000E+00
  5.00000000E+01  4.20000000E+01  0.00000000E+00
  6.00000000E+01  4.20000000E+01  0.00000000E+00
  7.00000000E+01  4.20000000E+01  0.00000000E+00
  8.00000000E+01  4.20000000E+01  0.00000000E+00
  9.00000000E+01  4.20000000E+01  0.00000000E+00
  1.00000000E+02  4.20000000E+01  0.00000000E+00
  1.10000000E+02  4.20000000E+01  0.00000000E+00
  1.20000000E+02  4.20000000E+01  0.00000000E+00
  1.30000000E+02  4.20000000E+01  0.00000000E+00
  1.40000000E+02  4.20000000E+01  0.00000000E+00
  1.50000000E+02  4.20000000E+01  0.00000000E+00
  1.60000000E+02  4.20000000E+01  0.00000000E+00
  1.70000000E+02  4.20000000E+01  0.00000000E+00
  1.80000000E+02  4.20000000E+01  0.00000000E+00
  1.90000000E+02  4.20000000E+01  0.00000000E+00
  2.00000000E+02  4.20000000E+01  0.00000000E+00
  2.10000000E+02  4.20000000E+01  0.00000000E+00
  2.20000000E+02  4.20000000E+01  0.00000000E+00
  2.30000000E+02  4.20000000E+01  0.00000000E+00
  2.40000000E+02  4.20000000E+01  0.00000000E+00
  2.50000000E+02  4.20000000E+01  0.00000000E+00
  2.60000000E+02  4.20000000E+01  0.00000000E+00
  2.70000000E+02  4.20000000E+01  0.00000000E+00
  2.80000000E+02  4.20000000E+01  0.00000000E+00
  2.90000000E+02  4.20000000E+01  0.00000000E+00
  3.00000000E+02  4.20000000E+01  0.00000000E+00
  3.10000000E+02  4.20000000E+01  0.00000000E+00
  3.20000000E+02  4.20000000E+01  0.00000000E+00
  3.30000000E+02  4.20000000E+01  0.00000000E+00
  3.40000000E+02  4.20000000E+01  0.00000000E+00
  3.50000000E+02  4.20000000E+01  0.00000000E+00
  3.60000000E+02  4.20000000E+01  0.00000000E+00
  3.70000000E+02  4.20000000E+01  0.00000000E+00
  3.80000000E+02  4.20000000E+01  0.00000000E+00
  3.90000000E+02  4.20000000E+01  0.00000000E+00
  4.00000000E+02  4.20000000E+01  0.00000000E+00
  4.10000000E+02  4.20000000E+01  0.00000000E+00
  4.20000000E+02  4.20000000E+01  0.00000000E+00
  4.30000000E+02  4.20000000E+01  0.00000000E+00
  4.40000000E+02  4.20000000E+01  0.00000000E+00
  4.50000000E+02  4.20000000E+01  0.00000000E+00
  4.60000000E+02  4.20000000E+01  0.00000000E+00
  4.70000000E+02  4.20000000E+01  0.00000000E+00
  4.80000000E+02  4.20000000E+01  0.00000000E+00
  4.90000000E+02  4.20000000E+01  0.00000000E+00
  5.00000000E+02  4.20000000E+01  0.00000000E+00
  5.10000000E+02  4.20000000E+01  0.00000000E+00
  5.20000000E+02  4.20000000E+01  0.00000000E+00
  5.30000000E+02  4.20000000E+01  0.00000000E+00
  5.40000000E+02  4.20000000E+01  0.00000000E+00
  5.50000000E+02  4.20000000E+01  0.00000000E+00
  5.60000000E+02  4.20000000E+01  0.00000000E+00
  5.70000000E+02  4.20000000E+01  0.00000000E+00
  5.80000000E+02  4.20000000E+01  0.00000000E+00
  5.90000000E+02  4.20000000E+01  0.00000000E+00
  6.00000000E+02  4.20000000E+01  0.00000000E+00
  6.10000000E+02  4.20000000E+01  0.00000000E+00
  6.20000000E+02  4.20000000E+01  0.00000000E+00
  6.30000000E+02  4.20000000E+01  0.00000000E+00
  6.40000000E+02  4.20000000E+01  0.00000000E+00
  6.50000000E+02  4.20000000E+01  0.00000000E+00
  6.60000000E+02  4.20000000E+01  0.00000000E+00
  6.70000000E+02  4.20000000E+01  0.00000000E+00
  6.80000000E+02  4.20000000E+01  0.00000000E+00
  6.90000000E+02  4.20000000E+01  0.00000000E+00
  7.00000000E+02  4.20000000E+01  0.00000000E+00
  7.10000000E+02  4.20000000E+01  0.00000000E+00
  7.20000000E+02  4.20000000E+01  0.00000000E+00
  7.30000000E+02  4.20000000E+01  0.00000000E+00
  7.40000000E+02  4.20000000E+01  0.00000000E+00
  7.50000000E+02  4.20000000E+01  0.00000000E+00
  7.60000000E+02  4.20000000E+01  0.00000000E+00
  7.70000000E+02  4.20000000E+01  0.00000000E+00
  7.80000000E+02  4.20000000E+01  0.00000000E+00
  7.90000000E+02  4.20000000E+01  0.00000000E+00
  8.00000000E+02  4.20000000E+01  0.00000000E+00
  8.10000000E+02  4.20000000E+01  0.00000000E+00
  8.20000000E+02  4.20000000E+01  0.00000000E+00
  8.30000000E+02  4.20000000E+01  0.00000000E+00
  8.40000000E+02  4.20000000E+01  0.00000000E+00
  8.50000000E+02  4.20000000E+01  0.00000000E+00
  8.60000000E+02  4.20000000E+01  0.00000000E+00
  8.70000000E+02  4.20000000E+01  0.00000000E+00
  8.80000000E+02  4.20000000E+01  0.00000000E+00
  8.90000000E+02  4.20000000E+01  0.00000000E+00
  9.00000000E+02  4.20000000E+01  0.00000000E+00
  9.10000000E+02  4.20000000E+01  0.00000000E+00
  9.20000000E+02  4.20000000E+01  0.00000000E+00
  9.30000000E+02  4.20000000E+01  0.00000000E+00
  9.40000000E+02  4.20000000E+01  0.00000000E+00
  9.50000000E+02  4.20000000E+01  0.00000000E+00
  9.60000000E+02  4.20000000E+01  0.00000000E+00
  9.70000000E+02  4.20000000E+01  0.00000000E+00
  9.80000000E+02  4.20000000E+01  0.00000000E+00
  9.90000000E+02  4.20000000E+01  0.00000000E+00
  1.00000000E+03  4.20000000E+01  0.00000000E+00
  0.00000000E+00  4.40000000E+01  0.00000000E+00
  1.00000000E+01  4.40000000E+01  0.00000000E+00
  2.00000000E+01  4.40000000E+01  0.00000000E+00
  3.00000000E+01  4.40000000E+01  0.00000000E+00
  4.00000000E+01  4.40000000E+01  0.00000000E+00
  5.00000000E+01  4.40000000E+01  0.00000000E+00
  6.00000000E+01  4.40000000E+01  0.00000000E+00
  7.00000000E+01  4.40000000E+01  0.00000000E+00
  8.00000000E+01  4.40000000E+01  0.00000000E+00
  9.00000000E+01  4.40000000E+01  0.00000000E+00
  1.00000000E+02  4.40000000E+01  0.00000000E+00
  1.10000000E+02  4.40000000E+01  0.00000000E+00
  1.20000000E+02  4.40000000E+01  0.00000000E+00
  1.30000000E+02  4.40000000E+01  0.00000000E+00
  1.40000000E+02  4.40000000E+01  0.00000000E+00
  1.50000000E+02  4.40000000E+01  0.00000000E+00
  1.60000000E+02  4.40000000E+01  0.00000000E+00
  1.70000000E+02  4.40000000E+01  0.00000000E+00
  1.80000000E+02  4.40000000E+01  0.00000000E+00
  1.90000000E+02  4.40000000E+01  0.00000000E+00
  2.00000000E+02  4.40000000E+01  0.00000000E+00
  2.10000000E+02  4.40000000E+01  0.00000000E+00
  2.20000000E+02  4.40000000E+01  0.00000000E+00
  2.30000000E+02  4.40000000E+01  0.00000000E+00
  2.40000000E+02  4.40000000E+01  0.00000000E+00
  2.50000000E+02  4.40000000E+01  0.00000000E+00
  2.60000000E+02  4.40000000E+01  0.00000000E+00
  2.70000000E+02  4.40000000E+01  0.00000000E+00
  2.80000000E+02  4.40000000E+01  0.00000000E+00
  2.90000000E+02  4.40000000E+01  0.00000000E+00
  3.00000000E+02  4.40000000E+01  0.00000000E+00
  3.10000000E+02  4.40000000E+01  0.00000000E+00
  3.20000000E+02  4.40000000E+01  0.00000000E+00
  3.30000000E+02  4.40000000E+01  0.00000000E+00
  3.40000000E+02  4.40000000E+01  0.00000000E+00
  3.50000000E+02  4.40000000E+01  0.00000000E+00
  3.60000000E+02  4.40000000E+01  0.00000000E+00
  3.70000000E+02  4.40000000E+01  0.00000000E+00
  3.80000000E+02  4.40000000E+01  0.00000000E+00
  3.90000000E+02  4.40000000E+01  0.00000000E+00
  4.00000000E+02  4.40000000E+01  0.00000000E+00
  4.10000000E+02  4.40000000E+01  0.00000000E+00
  4.20000000E+02  4.40000000E+01  0.00000000E+00
  4.30000000E+02  4.40000000E+01  0.00000000E+00
  4.40000000E+02  4.40000000E+01  0.00000000E+00
  4.50000000E+02  4.40000000E+01  0.00000000E+00
  4.60000000E+02  4.40000000E+01  0.00000000E+00
  4.70000000E+02  4.40000000E+01  0.00000000E+00
  4.80000000E+02  4.40000000E+01  0.00000000E+00
  4.90000000E+02  4.40000000E+01  0.00000000E+00
  5.00000000E+02  4.40000000E+01  0.00000000E+00
  5.10000000E+02  4.40000000E+01  0.00000000E+00
  5.20000000E+02  4.40000000E+01  0.00000000E+00
  5.30000000E+02  4.40000000E+01  0.00000000E+00
  5.40000000E+02  4.40000000E+01  0.00000000E+00
  5.50000000E+02  4.40000000E+01  0.00000000E+00
  5.60000000E+02  4.40000000E+01  0.00000000E+00
  5.70000000E+02  4.40000000E+01  0.00000000E+00
  5.80000000E+02  4.40000000E+01  0.00000000E+00
  5.90000000E+02  4.40000000E+01  0.00000000E+00
  6.00000000E+02  4.40000000E+01  0.00000000E+00
  6.10000000E+02  4.40000000E+01  0.00000000E+00
  6.20000000E+02  4.40000000E+01  0.00000000E+00
  6.30000000E+02  4.40000000E+01  0.00000000E+00
  6.40000000E+02  4.40000000E+01  0.00000000E+00
  6.50000000E+02  4.40000000E+01  0.00000000E+00
  6.60000000E+02  4.40000000E+01  0.00000000E+00
  6.70000000E+02  4.40000000E+01  0.00000000E+00
  6.80000000E+02  4.40000000E+01  0.00000000E+00
  6.90000000E+02  4.40000000E+01  0.00000000E+00
  7.00000000E+02  4.40000000E+01  0.00000000E+00
  7.10000000E+02  4.40000000E+01  0.00000000E+00
  7.20000000E+02  4.40000000E+01  0.00000000E+00
  7.30000000E+02  4.40000000E+01  0.00000000E+00
  7.40000000E+02  4.40000000E+01  0.00000000E+00
  7.50000000E+02  4.40000000E+01  0.00000000E+00
  7.60000000E+02  4.40000000E+01  0.00000000E+00
  7.70000000E+02  4.40000000E+01  0.00000000E+00
  7.80000000E+02  4.40000000E+01  0.00000000E+00
  7.90000000E+02  4.40000000E+01  0.00000000E+00
  8.00000000E+02  4.40000000E+01  0.00000000E+00
  8.10000000E+02  4.40000000E+01  0.00000000E+00
  8.20000000E+02  4.40000000E+01  0.00000000E+00
  8.30000000E+02  4.40000000E+01  0.00000000E+00
  8.40000000E+02  4.40000000E+01  0.00000000E+00
  8.50000000E+02  4.40000000E+01  0.00000000E+00
  8.60000000E+02  4.40000000E+01  0.00000000E+00
  8.70000000E+02  4.40000000E+01  0.00000000E+00
  8.80000000E+02  4.40000000E+01  0.00000000E+00
  8.90000000E+02  4.40000000E+01  0.00000000E+00
  9.00000000E+02  4.40000000E+01  0.00000000E+00
  9.10000000E+02  4.40000000E+01  0.00000000E+00
  9.20000000E+02  4.40000000E+01  0.00000000E+00
  9.30000000E+02  4.40000000E+01  0.00000000E+00
  9.40000000E+02  4.40000000E+01  0.00000000E+00
  9.50000000E+02  4.40000000E+01  0.00000000E+00
  9.60000000E+02  4.40000000E+01  0.00000000E+00
  9.70000000E+02  4.40000000E+01  0.00000000E+00
  9.80000000E+02  4.40000000E+01  0.00000000E+00
  9.90000000E+02  4.40000000E+01  0.00000000E+00
  1.00000000E+03  4.40000000E+01  0.00000000E+00
  0.00000000E+00  4.60000000E+01  0.00000000E+00
  1.00000000E+01  4.60000000E+01  0.00000000E+00
  2.00000000E+01  4.60000000E+01  0.00000000E+00
  3.00000000E+01  4.60000000E+01  0.00000000E+00
  4.00000000E+01  4.60000000E+01  0.00000000E+00
  5.00000000E+01  4.60000000E+01  0.00000000E+00
  6.00000000E+01  4.60000000E+01  0.00000000E+00
  7.00000000E+01  4.60000000E+01  0.00000000E+00
  8.00000000E+01  4.60000000E+01  0.00000000E+00
  9.00000000E+01  4.60000000E+01  0.00000000E+00
  1.00000000E+02  4.60000000E+01  0.00000000E+00
  1.10000000E+02  4.60000000E+01  0.00000000E+00
  1.20000000E+02  4.60000000E+01  0.00000000E+00
  1.30000000E+02  4.60000000E+01  0.00000000E+00
  1.40000000E+02  4.60000000E+01  0.00000000E+00
  1.50000000E+02  4.60000000E+01  0.00000000E+00
  1.60000000E+02  4.60000000E+01  0.00000000E+00
  1.70000000E+02  4.60000000E+01  0.00000000E+00
  1.80000000E+02  4.60000000E+01  0.00000000E+00
  1.90000000E+02  4.60000000E+01  0.00000000E+00
  2.00000000E+02  4.60000000E+01  0.00000000E+00
  2.10000000E+02  4.60000000E+01  0.00000000E+00
  2.20000000E+02  4.60000000E+01  0.00000000E+00
  2.30000000E+02  4.60000000E+01  0.00000000E+00
  2.40000000E+02  4.60000000E+01  0.00000000E+00
  2.50000000E+02  4.60000000E+01  0.00000000E+00
  2.60000000E+02  4.60000000E+01  0.00000000E+00
  2.70000000E+02  4.60000000E+01  0.00000000E+00
  2.80000000E+02  4.60000000E+01  0.00000000E+00
  2.90000000E+02  4.60000000E+01  0.00000000E+00
  3.00000000E+02  4.60000000E+01  0.00000000E+00
  3.10000000E+02  4.60000000E+01  0.00000000E+00
  3.20000000E+02  4.60000000E+01  0.00000000E+00
  3.30000000E+02  4.60000000E+01  0.00000000E+00
  3.40000000E+02  4.60000000E+01  0.00000000E+00
  3.50000000E+02  4.60000000E+01  0.00000000E+00
  3.60000000E+02  4.60000000E+01  0.00000000E+00
  3.70000000E+02  4.60000000E+01  0.00000000E+00
  3.80000000E+02  4.60000000E+01  0.00000000E+00
  3.90000000E+02  4.60000000E+01  0.00000000E+00
  4.00000000E+02  4.60000000E+01  0.00000000E+00
  4.10000000E+02  4.60000000E+01  0.00000000E+00
  4.20000000E+02  4.60000000E+01  0.00000000E+00
  4.30000000E+02  4.60000000E+01  0.00000000E+00
  4.40000000E+02  4.60000000E+01  0.00000000E+00
  4.50000000E+02  4.60000000E+01  0.00000000E+00
  4.60000000E+02  4.60000000E+01  0.00000000E+00
  4.70000000E+02  4.60000000E+01  0.00000000E+00
  4.80000000E+02  4.60000000E+01  0.00000000E+00
  4.90000000E+02  4.60000000E+01  0.00000000E+00
  5.00000000E+02  4.60000000E+01  0.00000000E+00
  5.10000000E+02  4.60000000E+01  0.00000000E+00
  5.20000000E+02  4.60000000E+01  0.00000000E+00
  5.30000000E+02  4.60000000E+01  0.00000000E+00
  5.40000000E+02  4.60000000E+01  0.00000000E+00
  5.50000000E+02  4.60000000E+01  0.00000000E+00
  5.60000000E+02  4.60000000E+01  0.00000000E+00
  5.70000000E+02  4.60000000E+01  0.00000000E+00
  5.80000000E+02  4.60000000E+01  0.00000000E+00
  5.90000000E+02  4.60000000E+01  0.00000000E+00
  6.00000000E+02  4.60000000E+01  0.00000000E+00
  6.10000000E+02  4.60000000E+01  0.00000000E+00
  6.20000000E+02  4.60000000E+01  0.00000000E+00
  6.30000000E+02  4.60000000E+01  0.00000000E+00
  6.40000000E+02  4.60000000E+01  0.00000000E+00
  6.50000000E+02  4.60000000E+01  0.00000000E+00
  6.60000000E+02  4.60000000E+01  0.00000000E+00
  6.70000000E+02  4.60000000E+01  0.00000000E+00
  6.80000000E+02  4.60000000E+01  0.00000000E+00
  6.90000000E+02  4.60000000E+01  0.00000000E+00
  7.00000000E+02  4.60000000E+01  0.00000000E+00
  7.10000000E+02  4.60000000E+01  0.00000000E+00
  7.20000000E+02  4.60000000E+01  0.00000000E+00
  7.30000000E+02  4.60000000E+01  0.00000000E+00
  7.40000000E+02  4.60000000E+01  0.00000000E+00
  7.50000000E+02  4.60000000E+01  0.00000000E+00
  7.60000000E+02  4.60000000E+01  0.00000000E+00
  7.70000000E+02  4.60000000E+01  0.00000000E+00
  7.80000000E+02  4.60000000E+01  0.00000000E+00
  7.90000000E+02  4.60000000E+01  0.00000000E+00
  8.00000000E+02  4.60000000E+01  0.00000000E+00
  8.10000000E+02  4.60000000E+01  0.00000000E+00
  8.20000000E+02  4.60000000E+01  0.00000000E+00
  8.30000000E+02  4.60000000E+01  0.00000000E+00
  8.40000000E+02  4.60000000E+01  0.00000000E+00
  8.50000000E+02  4.60000000E+01  0.00000000E+00
  8.60000000E+02  4.60000000E+01  0.00000000E+00
  8.70000000E+02  4.60000000E+01  0.00000000E+00
  8.80000000E+02  4.60000000E+01  0.00000000E+00
  8.90000000E+02  4.60000000E+01  0.00000000E+00
  9.00000000E+02  4.60000000E+01  0.00000000E+00
  9.10000000E+02  4.60000000E+01  0.00000000E+00
  9.20000000E+02  4.60000000E+01  0.00000000E+00
  9.30000000E+02  4.60000000E+01  0.00000000E+00
  9.40000000E+02  4.60000000E+01  0.00000000E+00
  9.50000000E+02  4.60000000E+01  0.00000000E+00
  9.60000000E+02  4.60000000E+01  0.00000000E+00
  9.70000000E+02  4.60000000E+01  0.00000000E+00
  9.80000000E+02  4.60000000E+01  0.00000000E+00
  9.90000000E+02  4.60000000E+01  0.00000000E+00
  1.00000000E+03  4.60000000E+01  0.00000000E+00
  0.00000000E+00  4.80000000E+01  0.00000000E+00
  1.00000000E+01  4.80000000E+01  0.00000000E+00
  2.00000000E+01  4.80000000E+01  0.00000000E+00
  3.00000000E+01  4.80000000E+01  0.00000000E+00
  4.00000000E+01  4.80000000E+01  0.00000000E+00
  5.00000000E+01  4.80000000E+01  0.00000000E+00
  6.00000000E+01  4.80000000E+01  0.00000000E+00
  7.00000000E+01  4.80000000E+01  0.00000000E+00
  8.00000000E+01  4.80000000E+01  0.00000000E+00
  9.00000000E+01  4.80000000E+01  0.00000000E+00
  1.00000000E+02  4.80000000E+01  0.00000000E+00
  1.10000000E+02  4.80000000E+01  0.00000000E+00
  1.20000000E+02  4.80000000E+01  0.00000000E+00
  1.30000000E+02  4.80000000E+01  0.00000000E+00
  1.40000000E+02  4.80000000E+01  0.00000000E+00
  1.50000000E+02  4.80000000E+01  0.00000000E+00
  1.60000000E+02  4.80000000E+01  0.00000000E+00
  1.70000000E+02  4.80000000E+01  0.00000000E+00
  1.80000000E+02  4.80000000E+01  0.00000000E+00
  1.90000000E+02  4.80000000E+01  0.00000000E+00
  2.00000000E+02  4.80000000E+01  0.00000000E+00
  2.10000000E+02  4.80000000E+01  0.00000000E+00
  2.20000000E+02  4.80000000E+01  0.00000000E+00
  2.30000000E+02  4.80000000E+01  0.00000000E+00
  2.40000000E+02  4.80000000E+01  0.00000000E+00
  2.50000000E+02  4.80000000E+01  0.00000000E+00
  2.60000000E+02  4.80000000E+01  0.00000000E+00
  2.70000000E+02  4.80000000E+01  0.00000000E+00
  2.80000000E+02  4.80000000E+01  0.00000000E+00
  2.90000000E+02  4.80000000E+01  0.00000000E+00
  3.00000000E+02  4.80000000E+01  0.00000000E+00
  3.10000000E+02  4.80000000E+01  0.00000000E+00
  3.20000000E+02  4.80000000E+01  0.00000000E+00
  3.30000000E+02  4.80000000E+01  0.00000000E+00
  3.40000000E+02  4.80000000E+01  0.00000000E+00
  3.50000000E+02  4.80000000E+01  0.00000000E+00
  3.60000000E+02  4.80000000E+01  0.00000000E+00
  3.70000000E+02  4.80000000E+01  0.00000000E+00
  3.80000000E+02  4.80000000E+01  0.00000000E+00
  3.90000000E+02  4.80000000E+01  0.00000000E+00
  4.00000000E+02  4.80000000E+01  0.00000000E+00
  4.10000000E+02  4.80000000E+01  0.00000000E+00
  4.20000000E+02  4.80000000E+01  0.00000000E+00
  4.30000000E+02  4.80000000E+01  0.00000000E+00
  4.40000000E+02  4.80000000E+01  0.00000000E+00
  4.50000000E+02  4.80000000E+01  0.00000000E+00
  4.60000000E+02  4.80000000E+01  0.00000000E+00
  4.70000000E+02  4.80000000E+01  0.00000000E+00
  4.80000000E+02  4.80000000E+01  0.00000000E+00
  4.90000000E+02  4.80000000E+01  0.00000000E+00
  5.00000000E+02  4.80000000E+01  0.00000000E+00
  5.10000000E+02  4.80000000E+01  0.00000000E+00
  5.20000000E+02  4.80000000E+01  0.00000000E+00
  5.30000000E+02  4.80000000E+01  0.00000000E+00
  5.40000000E+02  4.80000000E+01  0.00000000E+00
  5.50000000E+02  4.80000000E+01  0.00000000E+00
  5.60000000E+02  4.80000000E+01  0.00000000E+00
  5.70000000E+02  4.80000000E+01  0.00000000E+00
  5.80000000E+02  4.80000000E+01  0.00000000E+00
  5.90000000E+02  4.80000000E+01  0.00000000E+00
  6.00000000E+02  4.80000000E+01  0.00000000E+00
  6.10000000E+02  4.80000000E+01  0.00000000E+00
  6.20000000E+02  4.80000000E+01  0.00000000E+00
  6.30000000E+02  4.80000000E+01  0.00000000E+00
  6.40000000E+02  4.80000000E+01  0.00000000E+00
  6.50000000E+02  4.80000000E+01  0.00000000E+00
  6.60000000E+02  4.80000000E+01  0.00000000E+00
  6.70000000E+02  4.80000000E+01  0.00000000E+00
  6.80000000E+02  4.80000000E+01  0.00000000E+00
  6.90000000E+02  4.80000000E+01  0.00000000E+00
  7.00000000E+02  4.80000000E+01  0.00000000E+00
  7.10000000E+02  4.80000000E+01  0.00000000E+00
  7.20000000E+02  4.80000000E+01  0.00000000E+00
  7.30000000E+02  4.80000000E+01  0.00000000E+00
  7.40000000E+02  4.80000000E+01  0.00000000E+00
  7.50000000E+02  4.80000000E+01  0.00000000E+00
  7.60000000E+02  4.80000000E+01  0.00000000E+00
  7.70000000E+02  4.80000000E+01  0.00000000E+00
  7.80000000E+02  4.80000000E+01  0.00000000E+00
  7.90000000E+02  4.80000000E+01  0.00000000E+00
  8.00000000E+02  4.80000000E+01  0.00000000E+00
  8.10000000E+02  4.80000000E+01  0.00000000E+00
  8.20000000E+02  4.80000000E+01  0.00000000E+00
  8.30000000E+02  4.80000000E+01  0.00000000E+00
  8.40000000E+02  4.80000000E+01  0.00000000E+00
  8.50000000E+02  4.80000000E+01  0.00000000E+00
  8.60000000E+02  4.80000000E+01  0.00000000E+00
  8.70000000E+02  4.80000000E+01  0.00000000E+00
  8.80000000E+02  4.80000000E+01  0.00000000E+00
  8.90000000E+02  4.80000000E+01  0.00000000E+00
  9.00000000E+02  4.80000000E+01  0.00000000E+00
  9.10000000E+02  4.80000000E+01  0.00000000E+00
  9.20000000E+02  4.80000000E+01  0.00000000E+00
  9.30000000E+02  4.80000000E+01  0.00000000E+00
  9.40000000E+02  4.80000000E+01  0.00000000E+00
  9.50000000E+02  4.80000000E+01  0.00000000E+00
  9.60000000E+02  4.80000000E+01  0.00000000E+00
  9.70000000E+02  4.80000000E+01  0.00000000E+00
  9.80000000E+02  4.80000000E+01  0.00000000E+00
  9.90000000E+02  4.80000000E+01  0.00000000E+00
  1.00000000E+03  4.80000000E+01  0.00000000E+00
  0.00000000E+00  5.00000000E+01  0.00000000E+00
  1.00000000E+01  5.00000000E+01  0.00000000E+00
  2.00000000E+01  5.00000000E+01  0.00000000E+00
  3.00000000E+01  5.00000000E+01  0.00000000E+00
  4.00000000E+01  5.00000000E+01  0.00000000E+00
  5.00000000E+01  5.00000000E+01  0.00000000E+00
  6.00000000E+01  5.00000000E+01  0.00000000E+00
  7.00000000E+01  5.00000000E+01  0.00000000E+00
  8.00000000E+01  5.00000000E+01  0.00000000E+00
  9.00000000E+01  5.00000000E+01  0.00000000E+00
  1.00000000E+02  5.00000000E+01  0.00000000E+00
  1.10000000E+02  5.00000000E+01  0.00000000E+00
  1.20000000E+02  5.00000000E+01  0.00000000E+00
  1.30000000E+02  5.00000000E+01  0.00000000E+00
  1.40000000E+02  5.00000000E+01  0.00000000E+00
  1.50000000E+02  5.00000000E+01  0.00000000E+00
  1.60000000E+02  5.00000000E+01  0.00000000E+00
  1.70000000E+02  5.00000000E+01  0.00000000E+00
  1.80000000E+02  5.00000000E+01  0.00000000E+00
  1.90000000E+02  5.00000000E+01  0.00000000E+00
  2.00000000E+02  5.00000000E+01  0.00000000E+00
  2.10000000E+02  5.00000000E+01  0.00000000E+00
  2.20000000E+02  5.00000000E+01  0.00000000E+00
  2.30000000E+02  5.00000000E+01  0.00000000E+00
  2.40000000E+02  5.00000000E+01  0.00000000E+00
  2.50000000E+02  5.00000000E+01  0.00000000E+00
  2.60000000E+02  5.00000000E+01  0.00000000E+00
  2.70000000E+02  5.00000000E+01  0.00000000E+00
  2.80000000E+02  5.00000000E+01  0.00000000E+00
  2.90000000E+02  5.00000000E+01  0.00000000E+00
  3.00000000E+02  5.00000000E+01  0.00000000E+00
  3.10000000E+02  5.00000000E+01  0.00000000E+00
  3.20000000E+02  5.00000000E+01  0.00000000E+00
  3.30000000E+02  5.00000000E+01  0.00000000E+00
  3.40000000E+02  5.00000000E+01  0.00000000E+00
  3.50000000E+02  5.00000000E+01  0.00000000E+00
  3.60000000E+02  5.00000000E+01  0.00000000E+00
  3.70000000E+02  5.00000000E+01  0.00000000E+00
  3.80000000E+02  5.00000000E+01  0.00000000E+00
  3.90000000E+02  5.00000000E+01  0.00000000E+00
  4.00000000E+02  5.00000000E+01  0.00000000E+00
  4.10000000E+02  5.00000000E+01  0.00000000E+00
  4.20000000E+02  5.00000000E+01  0.00000000E+00
  4.30000000E+02  5.00000000E+01  0.00000000E+00
  4.40000000E+02  5.00000000E+01  0.00000000E+00
  4.50000000E+02  5.00000000E+01  0.00000000E+00
  4.60000000E+02  5.00000000E+01  0.00000000E+00
  4.70000000E+02  5.00000000E+01  0.00000000E+00
  4.80000000E+02  5.00000000E+01  0.00000000E+00
  4.90000000E+02  5.00000000E+01  0.00000000E+00
  5.00000000E+02  5.00000000E+01  0.00000000E+00
  5.10000000E+02  5.00000000E+01  0.00000000E+00
  5.20000000E+02  5.00000000E+01  0.00000000E+00
  5.30000000E+02  5.00000000E+01  0.00000000E+00
  5.40000000E+02  5.00000000E+01  0.00000000E+00
  5.50000000E+02  5.00000000E+01  0.00000000E+00
  5.60000000E+02  5.00000000E+01  0.00000000E+00
  5.70000000E+02  5.00000000E+01  0.00000000E+00
  5.80000000E+02  5.00000000E+01  0.00000000E+00
  5.90000000E+02  5.00000000E+01  0.00000000E+00
  6.00000000E+02  5.00000000E+01  0.00000000E+00
  6.10000000E+02  5.00000000E+01  0.00000000E+00
  6.20000000E+02  5.00000000E+01  0.00000000E+00
  6.30000000E+02  5.00000000E+01  0.00000000E+00
  6.40000000E+02  5.00000000E+01  0.00000000E+00
  6.50000000E+02  5.00000000E+01  0.00000000E+00
  6.60000000E+02  5.00000000E+01  0.00000000E+00
  6.70000000E+02  5.00000000E+01  0.00000000E+00
  6.80000000E+02  5.00000000E+01  0.00000000E+00
  6.90000000E+02  5.00000000E+01  0.00000000E+00
  7.00000000E+02  5.00000000E+01  0.00000000E+00
  7.10000000E+02  5.00000000E+01  0.00000000E+00
  7.20000000E+02  5.00000000E+01  0.00000000E+00
  7.30000000E+02  5.00000000E+01  0.00000000E+00
  7.40000000E+02  5.00000000E+01  0.00000000E+00
  7.50000000E+02  5.00000000E+01  0.00000000E+00
  7.60000000E+02  5.00000000E+01  0.00000000E+00
  7.70000000E+02  5.00000000E+01  0.00000000E+00
  7.80000000E+02  5.00000000E+01  0.00000000E+00
  7.90000000E+02  5.00000000E+01  0.00000000E+00
  8.00000000E+02  5.00000000E+01  0.00000000E+00
  8.10000000E+02  5.00000000E+01  0.00000000E+00
  8.20000000E+02  5.00000000E+01  0.00000000E+00
  8.30000000E+02  5.00000000E+01  0.00000000E+00
  8.40000000E+02  5.00000000E+01  0.00000000E+00
  8.50000000E+02  5.00000000E+01  0.00000000E+00
  8.60000000E+02  5.00000000E+01  0.00000000E+00
  8.70000000E+02  5.00000000E+01  0.00000000E+00
  8.80000000E+02  5.00000000E+01  0.00000000E+00
  8.90000000E+02  5.00000000E+01  0.00000000E+00
  9.00000000E+02  5.00000000E+01  0.00000000E+00
  9.10000000E+02  5.00000000E+01  0.00000000E+00
  9.20000000E+02  5.00000000E+01  0.00000000E+00
  9.30000000E+02  5.00000000E+01  0.00000000E+00
  9.40000000E+02  5.00000000E+01  0.00000000E+00
  9.50000000E+02  5.00000000E+01  0.00000000E+00
  9.60000000E+02  5.00000000E+01  0.00000000E+00
  9.70000000E+02  5.00000000E+01  0.00000000E+00
  9.80000000E+02  5.00000000E+01  0.00000000E+00
  9.90000000E+02  5.00000000E+01  0.00000000E+00
  1.00000000E+03  5.00000000E+01  0.00000000E+00
  0.00000000E+00  5.20000000E+01  0.00000000E+00
  1.00000000E+01  5.20000000E+01  0.00000000E+00
  2.00000000E+01  5.20000000E+01  0.00000000E+00
  3.00000000E+01  5.20000000E+01  0.00000000E+00
  4.00000000E+01  5.20000000E+01  0.00000000E+00
  5.00000000E+01  5.20000000E+01  0.00000000E+00
  6.00000000E+01  5.20000000E+01  0.00000000E+00
  7.00000000E+01  5.20000000E+01  0.00000000E+00
  8.00000000E+01  5.20000000E+01  0.00000000E+00
  9.00000000E+01  5.20000000E+01  0.00000000E+00
  1.00000000E+02  5.20000000E+01  0.00000000E+00
  1.10000000E+02  5.20000000E+01  0.00000000E+00
  1.20000000E+02  5.20000000E+01  0.00000000E+00
  1.30000000E+02  5.20000000E+01  0.00000000E+00
  1.40000000E+02  5.20000000E+01  0.00000000E+00
  1.50000000E+02  5.20000000E+01  0.00000000E+00
  1.60000000E+02  5.20000000E+01  0.00000000E+00
  1.70000000E+02  5.20000000E+01  0.00000000E+00
  1.80000000E+02  5.20000000E+01  0.00000000E+00
  1.90000000E+02  5.20000000E+01  0.00000000E+00
  2.00000000E+02  5.20000000E+01  0.00000000E+00
  2.10000000E+02  5.20000000E+01  0.00000000E+00
  2.20000000E+02  5.20000000E+01  0.00000000E+00
  2.30000000E+02  5.20000000E+01  0.00000000E+00
  2.40000000E+02  5.20000000E+01  0.00000000E+00
  2.50000000E+02  5.20000000E+01  0.00000000E+00
  2.60000000E+02  5.20000000E+01  0.00000000E+00
  2.70000000E+02  5.20000000E+01  0.00000000E+00
  2.80000000E+02  5.20000000E+01  0.00000000E+00
  2.90000000E+02  5.20000000E+01  0.00000000E+00
  3.00000000E+02  5.20000000E+01  0.00000000E+00
  3.10000000E+02  5.20000000E+01  0.00000000E+00
  3.20000000E+02  5.20000000E+01  0.00000000E+00
  3.30000000E+02  5.20000000E+01  0.00000000E+00
  3.40000000E+02  5.20000000E+01  0.00000000E+00
  3.50000000E+02  5.20000000E+01  0.00000000E+00
  3.60000000E+02  5.20000000E+01  0.00000000E+00
  3.70000000E+02  5.20000000E+01  0.00000000E+00
  3.80000000E+02  5.20000000E+01  0.00000000E+00
  3.90000000E+02  5.20000000E+01  0.00000000E+00
  4.00000000E+02  5.20000000E+01  0.00000000E+00
  4.10000000E+02  5.20000000E+01  0.00000000E+00
  4.20000000E+02  5.20000000E+01  0.00000000E+00
  4.30000000E+02  5.20000000E+01  0.00000000E+00
  4.40000000E+02  5.20000000E+01  0.00000000E+00
  4.50000000E+02  5.20000000E+01  0.00000000E+00
  4.60000000E+02  5.20000000E+01  0.00000000E+00
  4.70000000E+02  5.20000000E+01  0.00000000E+00
  4.80000000E+02  5.20000000E+01  0.00000000E+00
  4.90000000E+02  5.20000000E+01  0.00000000E+00
  5.00000000E+02  5.20000000E+01  0.00000000E+00
  5.10000000E+02  5.20000000E+01  0.00000000E+00
  5.20000000E+02  5.20000000E+01  0.00000000E+00
  5.30000000E+02  5.20000000E+01  0.00000000E+00
  5.40000000E+02  5.20000000E+01  0.00000000E+00
  5.50000000E+02  5.20000000E+01  0.00000000E+00
  5.60000000E+02  5.20000000E+01  0.00000000E+00
  5.70000000E+02  5.20000000E+01  0.00000000E+00
  5.80000000E+02  5.20000000E+01  0.00000000E+00
  5.90000000E+02  5.20000000E+01  0.00000000E+00
  6.00000000E+02  5.20000000E+01  0.00000000E+00
  6.10000000E+02  5.20000000E+01  0.00000000E+00
  6.20000000E+02  5.20000000E+01  0.00000000E+00
  6.30000000E+02  5.20000000E+01  0.00000000E+00
  6.40000000E+02  5.20000000E+01  0.00000000E+00
  6.50000000E+02  5.20000000E+01  0.00000000E+00
  6.60000000E+02  5.20000000E+01  0.00000000E+00
  6.70000000E+02  5.20000000E+01  0.00000000E+00
  6.80000000E+02  5.20000000E+01  0.00000000E+00
  6.90000000E+02  5.20000000E+01  0.00000000E+00
  7.00000000E+02  5.20000000E+01  0.00000000E+00
  7.10000000E+02  5.20000000E+01  0.00000000E+00
  7.20000000E+02  5.20000000E+01  0.00000000E+00
  7.30000000E+02  5.20000000E+01  0.00000000E+00
  7.40000000E+02  5.20000000E+01  0.00000000E+00
  7.50000000E+02  5.20000000E+01  0.00000000E+00
  7.60000000E+02  5.20000000E+01  0.00000000E+00
  7.70000000E+02  5.20000000E+01  0.00000000E+00
  7.80000000E+02  5.20000000E+01  0.00000000E+00
  7.90000000E+02  5.20000000E+01  0.00000000E+00
  8.00000000E+02  5.20000000E+01  0.00000000E+00
  8.10000000E+02  5.20000000E+01  0.00000000E+00
  8.20000000E+02  5.20000000E+01  0.00000000E+00
  8.30000000E+02  5.20000000E+01  0.00000000E+00
  8.40000000E+02  5.20000000E+01  0.00000000E+00
  8.50000000E+02  5.20000000E+01  0.00000000E+00
  8.60000000E+02  5.20000000E+01  0.00000000E+00
  8.70000000E+02  5.20000000E+01  0.00000000E+00
  8.80000000E+02  5.20000000E+01  0.00000000E+00
  8.90000000E+02  5.20000000E+01  0.00000000E+00
  9.00000000E+02  5.20000000E+01  0.00000000E+00
  9.10000000E+02  5.20000000E+01  0.00000000E+00
  9.20000000E+02  5.20000000E+01  0.00000000E+00
  9.30000000E+02  5.20000000E+01  0.00000000E+00
  9.40000000E+02  5.20000000E+01  0.00000000E+00
  9.50000000E+02  5.20000000E+01  0.00000000E+00
  9.60000000E+02  5.20000000E+01  0.00000000E+00
  9.70000000E+02  5.20000000E+01  0.00000000E+00
  9.80000000E+02  5.20000000E+01  0.00000000E+00
  9.90000000E+02  5.20000000E+01  0.00000000E+00
  1.00000000E+03  5.20000000E+01  0.00000000E+00
  0.00000000E+00  5.40000000E+01  0.00000000E+00
  1.00000000E+01  5.40000000E+01  0.00000000E+00
  2.00000000E+01  5.40000000E+01  0.00000000E+00
  3.00000000E+01  5.40000000E+01  0.00000000E+00
  4.00000000E+01  5.40000000E+01  0.00000000E+00
  5.00000000E+01  5.40000000E+01  0.00000000E+00
  6.00000000E+01  5.40000000E+01  0.00000000E+00
  7.00000000E+01  5.40000000E+01  0.00000000E+00
  8.00000000E+01  5.40000000E+01  0.00000000E+00
  9.00000000E+01  5.40000000E+01  0.00000000E+00
  1.00000000E+02  5.40000000E+01  0.00000000E+00
  1.10000000E+02  5.40000000E+01  0.00000000E+00
  1.20000000E+02  5.40000000E+01  0.00000000E+00
  1.30000000E+02  5.40000000E+01  0.00000000E+00
  1.40000000E+02  5.40000000E+01  0.00000000E+00
  1.50000000E+02  5.40000000E+01  0.00000000E+00
  1.60000000E+02  5.40000000E+01  0.00000000E+00
  1.70000000E+02  5.40000000E+01  0.00000000E+00
  1.80000000E+02  5.40000000E+01  0.00000000E+00
  1.90000000E+02  5.40000000E+01  0.00000000E+00
  2.00000000E+02  5.40000000E+01  0.00000000E+00
  2.10000000E+02  5.40000000E+01  0.00000000E+00
  2.20000000E+02  5.40000000E+01  0.00000000E+00
  2.30000000E+02  5.40000000E+01  0.00000000E+00
  2.40000000E+02  5.40000000E+01  0.00000000E+00
  2.50000000E+02  5.40000000E+01  0.00000000E+00
  2.60000000E+02  5.40000000E+01  0.00000000E+00
  2.70000000E+02  5.40000000E+01  0.00000000E+00
  2.80000000E+02  5.40000000E+01  0.00000000E+00
  2.90000000E+02  5.40000000E+01  0.00000000E+00
  3.00000000E+02  5.40000000E+01  0.00000000E+00
  3.10000000E+02  5.40000000E+01  0.00000000E+00
  3.20000000E+02  5.40000000E+01  0.00000000E+00
  3.30000000E+02  5.40000000E+01  0.00000000E+00
  3.40000000E+02  5.40000000E+01  0.00000000E+00
  3.50000000E+02  5.40000000E+01  0.00000000E+00
  3.60000000E+02  5.40000000E+01  0.00000000E+00
  3.70000000E+02  5.40000000E+01  0.00000000E+00
  3.80000000E+02  5.40000000E+01  0.00000000E+00
  3.90000000E+02  5.40000000E+01  0.00000000E+00
  4.00000000E+02  5.40000000E+01  0.00000000E+00
  4.10000000E+02  5.40000000E+01  0.00000000E+00
  4.20000000E+02  5.40000000E+01  0.00000000E+00
  4.30000000E+02  5.40000000E+01  0.00000000E+00
  4.40000000E+02  5.40000000E+01  0.00000000E+00
  4.50000000E+02  5.40000000E+01  0.00000000E+00
  4.60000000E+02  5.40000000E+01  0.00000000E+00
  4.70000000E+02  5.40000000E+01  0.00000000E+00
  4.80000000E+02  5.40000000E+01  0.00000000E+00
  4.90000000E+02  5.40000000E+01  0.00000000E+00
  5.00000000E+02  5.40000000E+01  0.00000000E+00
  5.10000000E+02  5.40000000E+01  0.00000000E+00
  5.20000000E+02  5.40000000E+01  0.00000000E+00
  5.30000000E+02  5.40000000E+01  0.00000000E+00
  5.40000000E+02  5.40000000E+01  0.00000000E+00
  5.50000000E+02  5.40000000E+01  0.00000000E+00
  5.60000000E+02  5.40000000E+01  0.00000000E+00
  5.70000000E+02  5.40000000E+01  0.00000000E+00
  5.80000000E+02  5.40000000E+01  0.00000000E+00
  5.90000000E+02  5.40000000E+01  0.00000000E+00
  6.00000000E+02  5.40000000E+01  0.00000000E+00
  6.10000000E+02  5.40000000E+01  0.00000000E+00
  6.20000000E+02  5.40000000E+01  0.00000000E+00
  6.30000000E+02  5.40000000E+01  0.00000000E+00
  6.40000000E+02  5.40000000E+01  0.00000000E+00
  6.50000000E+02  5.40000000E+01  0.00000000E+00
  6.60000000E+02  5.40000000E+01  0.00000000E+00
  6.70000000E+02  5.40000000E+01  0.00000000E+00
  6.80000000E+02  5.40000000E+01  0.00000000E+00
  6.90000000E+02  5.40000000E+01  0.00000000E+00
  7.00000000E+02  5.40000000E+01  0.00000000E+00
  7.10000000E+02  5.40000000E+01  0.00000000E+00
  7.20000000E+02  5.40000000E+01  0.00000000E+00
  7.30000000E+02  5.40000000E+01  0.00000000E+00
  7.40000000E+02  5.40000000E+01  0.00000000E+00
  7.50000000E+02  5.40000000E+01  0.00000000E+00
  7.60000000E+02  5.40000000E+01  0.00000000E+00
  7.70000000E+02  5.40000000E+01  0.00000000E+00
  7.80000000E+02  5.40000000E+01  0.00000000E+00
  7.90000000E+02  5.40000000E+01  0.00000000E+00
  8.00000000E+02  5.40000000E+01  0.00000000E+00
  8.10000000E+02  5.40000000E+01  0.00000000E+00
  8.20000000E+02  5.40000000E+01  0.00000000E+00
  8.30000000E+02  5.40000000E+01  0.00000000E+00
  8.40000000E+02  5.40000000E+01  0.00000000E+00
  8.50000000E+02  5.40000000E+01  0.00000000E+00
  8.60000000E+02  5.40000000E+01  0.00000000E+00
  8.70000000E+02  5.40000000E+01  0.00000000E+00
  8.80000000E+02  5.40000000E+01  0.00000000E+00
  8.90000000E+02  5.40000000E+01  0.00000000E+00
  9.00000000E+02  5.40000000E+01  0.00000000E+00
  9.10000000E+02  5.40000000E+01  0.00000000E+00
  9.20000000E+02  5.40000000E+01  0.00000000E+00
  9.30000000E+02  5.40000000E+01  0.00000000E+00
  9.40000000E+02  5.40000000E+01  0.00000000E+00
  9.50000000E+02  5.40000000E+01  0.00000000E+00
  9.60000000E+02  5.40000000E+01  0.00000000E+00
  9.70000000E+02  5.40000000E+01  0.00000000E+00
  9.80000000E+02  5.40000000E+01  0.00000000E+00
  9.90000000E+02  5.40000000E+01  0.00000000E+00
  1.00000000E+03  5.40000000E+01  0.00000000E+00
  0.00000000E+00  5.60000000E+01  0.00000000E+00
  1.00000000E+01  5.60000000E+01  0.00000000E+00
  2.00000000E+01  5.60000000E+01  0.00000000E+00
  3.00000000E+01  5.60000000E+01  0.00000000E+00
  4.00000000E+01  5.60000000E+01  0.00000000E+00
  5.00000000E+01  5.60000000E+01  0.00000000E+00
  6.00000000E+01  5.60000000E+01  0.00000000E+00
  7.00000000E+01  5.60000000E+01  0.00000000E+00
  8.00000000E+01  5.60000000E+01  0.00000000E+00
  9.00000000E+01  5.60000000E+01  0.00000000E+00
  1.00000000E+02  5.60000000E+01  0.00000000E+00
  1.10000000E+02  5.60000000E+01  0.00000000E+00
  1.20000000E+02  5.60000000E+01  0.00000000E+00
  1.30000000E+02  5.60000000E+01  0.00000000E+00
  1.40000000E+02  5.60000000E+01  0.00000000E+00
  1.50000000E+02  5.60000000E+01  0.00000000E+00
  1.60000000E+02  5.60000000E+01  0.00000000E+00
  1.70000000E+02  5.60000000E+01  0.00000000E+00
  1.80000000E+02  5.60000000E+01  0.00000000E+00
  1.90000000E+02  5.60000000E+01  0.00000000E+00
  2.00000000E+02  5.60000000E+01  0.00000000E+00
  2.10000000E+02  5.60000000E+01  0.00000000E+00
  2.20000000E+02  5.60000000E+01  0.00000000E+00
  2.30000000E+02  5.60000000E+01  0.00000000E+00
  2.40000000E+02  5.60000000E+01  0.00000000E+00
  2.50000000E+02  5.60000000E+01  0.00000000E+00
  2.60000000E+02  5.60000000E+01  0.00000000E+00
  2.70000000E+02  5.60000000E+01  0.00000000E+00
  2.80000000E+02  5.60000000E+01  0.00000000E+00
  2.90000000E+02  5.60000000E+01  0.00000000E+00
  3.00000000E+02  5.60000000E+01  0.00000000E+00
  3.10000000E+02  5.60000000E+01  0.00000000E+00
  3.20000000E+02  5.60000000E+01  0.00000000E+00
  3.30000000E+02  5.60000000E+01  0.00000000E+00
  3.40000000E+02  5.60000000E+01  0.00000000E+00
  3.50000000E+02  5.60000000E+01  0.00000000E+00
  3.60000000E+02  5.60000000E+01  0.00000000E+00
  3.70000000E+02  5.60000000E+01  0.00000000E+00
  3.80000000E+02  5.60000000E+01  0.00000000E+00
  3.90000000E+02  5.60000000E+01  0.00000000E+00
  4.00000000E+02  5.60000000E+01  0.00000000E+00
  4.10000000E+02  5.60000000E+01  0.00000000E+00
  4.20000000E+02  5.60000000E+01  0.00000000E+00
  4.30000000E+02  5.60000000E+01  0.00000000E+00
  4.40000000E+02  5.60000000E+01  0.00000000E+00
  4.50000000E+02  5.60000000E+01  0.00000000E+00
  4.60000000E+02  5.60000000E+01  0.00000000E+00
  4.70000000E+02  5.60000000E+01  0.00000000E+00
  4.80000000E+02  5.60000000E+01  0.00000000E+00
  4.90000000E+02  5.60000000E+01  0.00000000E+00
  5.00000000E+02  5.60000000E+01  0.00000000E+00
  5.10000000E+02  5.60000000E+01  0.00000000E+00
  5.20000000E+02  5.60000000E+01  0.00000000E+00
  5.30000000E+02  5.60000000E+01  0.00000000E+00
  5.40000000E+02  5.60000000E+01  0.00000000E+00
  5.50000000E+02  5.60000000E+01  0.00000000E+00
  5.60000000E+02  5.60000000E+01  0.00000000E+00
  5.70000000E+02  5.60000000E+01  0.00000000E+00
  5.80000000E+02  5.60000000E+01  0.00000000E+00
  5.90000000E+02  5.60000000E+01  0.00000000E+00
  6.00000000E+02  5.60000000E+01  0.00000000E+00
  6.10000000E+02  5.60000000E+01  0.00000000E+00
  6.20000000E+02  5.60000000E+01  0.00000000E+00
  6.30000000E+02  5.60000000E+01  0.00000000E+00
  6.40000000E+02  5.60000000E+01  0.00000000E+00
  6.50000000E+02  5.60000000E+01  0.00000000E+00
  6.60000000E+02  5.60000000E+01  0.00000000E+00
  6.70000000E+02  5.60000000E+01  0.00000000E+00
  6.80000000E+02  5.60000000E+01  0.00000000E+00
  6.90000000E+02  5.60000000E+01  0.00000000E+00
  7.00000000E+02  5.60000000E+01  0.00000000E+00
  7.10000000E+02  5.60000000E+01  0.00000000E+00
  7.20000000E+02  5.60000000E+01  0.00000000E+00
  7.30000000E+02  5.60000000E+01  0.00000000E+00
  7.40000000E+02  5.60000000E+01  0.00000000E+00
  7.50000000E+02  5.60000000E+01  0.00000000E+00
  7.60000000E+02  5.60000000E+01  0.00000000E+00
  7.70000000E+02  5.60000000E+01  0.00000000E+00
  7.80000000E+02  5.60000000E+01  0.00000000E+00
  7.90000000E+02  5.60000000E+01  0.00000000E+00
  8.00000000E+02  5.60000000E+01  0.00000000E+00
  8.10000000E+02  5.60000000E+01  0.00000000E+00
  8.20000000E+02  5.60000000E+01  0.00000000E+00
  8.30000000E+02  5.60000000E+01  0.00000000E+00
  8.40000000E+02  5.60000000E+01  0.00000000E+00
  8.50000000E+02  5.60000000E+01  0.00000000E+00
  8.60000000E+02  5.60000000E+01  0.00000000E+00
  8.70000000E+02  5.60000000E+01  0.00000000E+00
  8.80000000E+02  5.60000000E+01  0.00000000E+00
  8.90000000E+02  5.60000000E+01  0.00000000E+00
  9.00000000E+02  5.60000000E+01  0.00000000E+00
  9.10000000E+02  5.60000000E+01  0.00000000E+00
  9.20000000E+02  5.60000000E+01  0.00000000E+00
  9.30000000E+02  5.60000000E+01  0.00000000E+00
  9.40000000E+02  5.60000000E+01  0.00000000E+00
  9.50000000E+02  5.60000000E+01  0.00000000E+00
  9.60000000E+02  5.60000000E+01  0.00000000E+00
  9.70000000E+02  5.60000000E+01  0.00000000E+00
  9.80000000E+02  5.60000000E+01  0.00000000E+00
  9.90000000E+02  5.60000000E+01  0.00000000E+00
  1.00000000E+03  5.60000000E+01  0.00000000E+00
  0.00000000E+00  5.80000000E+01  0.00000000E+00
  1.00000000E+01  5.80000000E+01  0.00000000E+00
  2.00000000E+01  5.80000000E+01  0.00000000E+00
  3.00000000E+01  5.80000000E+01  0.00000000E+00
  4.00000000E+01  5.80000000E+01  0.00000000E+00
  5.00000000E+01  5.80000000E+01  0.00000000E+00
  6.00000000E+01  5.80000000E+01  0.00000000E+00
  7.00000000E+01  5.80000000E+01  0.00000000E+00
  8.00000000E+01  5.80000000E+01  0.00000000E+00
  9.00000000E+01  5.80000000E+01  0.00000000E+00
  1.00000000E+02  5.80000000E+01  0.00000000E+00
  1.10000000E+02  5.80000000E+01  0.00000000E+00
  1.20000000E+02  5.80000000E+01  0.00000000E+00
  1.30000000E+02  5.80000000E+01  0.00000000E+00
  1.40000000E+02  5.80000000E+01  0.00000000E+00
  1.50000000E+02  5.80000000E+01  0.00000000E+00
  1.60000000E+02  5.80000000E+01  0.00000000E+00
  1.70000000E+02  5.80000000E+01  0.00000000E+00
  1.80000000E+02  5.80000000E+01  0.00000000E+00
  1.90000000E+02  5.80000000E+01  0.00000000E+00
  2.00000000E+02  5.80000000E+01  0.00000000E+00
  2.10000000E+02  5.80000000E+01  0.00000000E+00
  2.20000000E+02  5.80000000E+01  0.00000000E+00
  2.30000000E+02  5.80000000E+01  0.00000000E+00
  2.40000000E+02  5.80000000E+01  0.00000000E+00
  2.50000000E+02  5.80000000E+01  0.00000000E+00
  2.60000000E+02  5.80000000E+01  0.00000000E+00
  2.70000000E+02  5.80000000E+01  0.00000000E+00
  2.80000000E+02  5.80000000E+01  0.00000000E+00
  2.90000000E+02  5.80000000E+01  0.00000000E+00
  3.00000000E+02  5.80000000E+01  0.00000000E+00
  3.10000000E+02  5.80000000E+01  0.00000000E+00
  3.20000000E+02  5.80000000E+01  0.00000000E+00
  3.30000000E+02  5.80000000E+01  0.00000000E+00
  3.40000000E+02  5.80000000E+01  0.00000000E+00
  3.50000000E+02  5.80000000E+01  0.00000000E+00
  3.60000000E+02  5.80000000E+01  0.00000000E+00
  3.70000000E+02  5.80000000E+01  0.00000000E+00
  3.80000000E+02  5.80000000E+01  0.00000000E+00
  3.90000000E+02  5.80000000E+01  0.00000000E+00
  4.00000000E+02  5.80000000E+01  0.00000000E+00
  4.10000000E+02  5.80000000E+01  0.00000000E+00
  4.20000000E+02  5.80000000E+01  0.00000000E+00
  4.30000000E+02  5.80000000E+01  0.00000000E+00
  4.40000000E+02  5.80000000E+01  0.00000000E+00
  4.50000000E+02  5.80000000E+01  0.00000000E+00
  4.60000000E+02  5.80000000E+01  0.00000000E+00
  4.70000000E+02  5.80000000E+01  0.00000000E+00
  4.80000000E+02  5.80000000E+01  0.00000000E+00
  4.90000000E+02  5.80000000E+01  0.00000000E+00
  5.00000000E+02  5.80000000E+01  0.00000000E+00
  5.10000000E+02  5.80000000E+01  0.00000000E+00
  5.20000000E+02  5.80000000E+01  0.00000000E+00
  5.30000000E+02  5.80000000E+01  0.00000000E+00
  5.40000000E+02  5.80000000E+01  0.00000000E+00
  5.50000000E+02  5.80000000E+01  0.00000000E+00
  5.60000000E+02  5.80000000E+01  0.00000000E+00
  5.70000000E+02  5.80000000E+01  0.00000000E+00
  5.80000000E+02  5.80000000E+01  0.00000000E+00
  5.90000000E+02  5.80000000E+01  0.00000000E+00
  6.00000000E+02  5.80000000E+01  0.00000000E+00
  6.10000000E+02  5.80000000E+01  0.00000000E+00
  6.20000000E+02  5.80000000E+01  0.00000000E+00
  6.30000000E+02  5.80000000E+01  0.00000000E+00
  6.40000000E+02  5.80000000E+01  0.00000000E+00
  6.50000000E+02  5.80000000E+01  0.00000000E+00
  6.60000000E+02  5.80000000E+01  0.00000000E+00
  6.70000000E+02  5.80000000E+01  0.00000000E+00
  6.80000000E+02  5.80000000E+01  0.00000000E+00
  6.90000000E+02  5.80000000E+01  0.00000000E+00
  7.00000000E+02  5.80000000E+01  0.00000000E+00
  7.10000000E+02  5.80000000E+01  0.00000000E+00
  7.20000000E+02  5.80000000E+01  0.00000000E+00
  7.30000000E+02  5.80000000E+01  0.00000000E+00
  7.40000000E+02  5.80000000E+01  0.00000000E+00
  7.50000000E+02  5.80000000E+01  0.00000000E+00
  7.60000000E+02  5.80000000E+01  0.00000000E+00
  7.70000000E+02  5.80000000E+01  0.00000000E+00
  7.80000000E+02  5.80000000E+01  0.00000000E+00
  7.90000000E+02  5.80000000E+01  0.00000000E+00
  8.00000000E+02  5.80000000E+01  0.00000000E+00
  8.10000000E+02  5.80000000E+01  0.00000000E+00
  8.20000000E+02  5.80000000E+01  0.00000000E+00
  8.30000000E+02  5.80000000E+01  0.00000000E+00
  8.40000000E+02  5.80000000E+01  0.00000000E+00
  8.50000000E+02  5.80000000E+01  0.00000000E+00
  8.60000000E+02  5.80000000E+01  0.00000000E+00
  8.70000000E+02  5.80000000E+01  0.00000000E+00
  8.80000000E+02  5.80000000E+01  0.00000000E+00
  8.90000000E+02  5.80000000E+01  0.00000000E+00
  9.00000000E+02  5.80000000E+01  0.00000000E+00
  9.10000000E+02  5.80000000E+01  0.00000000E+00
  9.20000000E+02  5.80000000E+01  0.00000000E+00
  9.30000000E+02  5.80000000E+01  0.00000000E+00
  9.40000000E+02  5.80000000E+01  0.00000000E+00
  9.50000000E+02  5.80000000E+01  0.00000000E+00
  9.60000000E+02  5.80000000E+01  0.00000000E+00
  9.70000000E+02  5.80000000E+01  0.00000000E+00
  9.80000000E+02  5.80000000E+01  0.00000000E+00
  9.90000000E+02  5.80000000E+01  0.00000000E+00
  1.00000000E+03  5.80000000E+01  0.00000000E+00
  0.00000000E+00  6.00000000E+01  0.00000000E+00
  1.00000000E+01  6.00000000E+01  0.00000000E+00
  2.00000000E+01  6.00000000E+01  0.00000000E+00
  3.00000000E+01  6.00000000E+01  0.00000000E+00
  4.00000000E+01  6.00000000E+01  0.00000000E+00
  5.00000000E+01  6.00000000E+01  0.00000000E+00
  6.00000000E+01  6.00000000E+01  0.00000000E+00
  7.00000000E+01  6.00000000E+01  0.00000000E+00
  8.00000000E+01  6.00000000E+01  0.00000000E+00
  9.00000000E+01  6.00000000E+01  0.00000000E+00
  1.00000000E+02  6.00000000E+01  0.00000000E+00
  1.10000000E+02  6.00000000E+01  0.00000000E+00
  1.20000000E+02  6.00000000E+01  0.00000000E+00
  1.30000000E+02  6.00000000E+01  0.00000000E+00
  1.40000000E+02  6.00000000E+01  0.00000000E+00
  1.50000000E+02  6.00000000E+01  0.00000000E+00
  1.60000000E+02  6.00000000E+01  0.00000000E+00
  1.70000000E+02  6.00000000E+01  0.00000000E+00
  1.80000000E+02  6.00000000E+01  0.00000000E+00
  1.90000000E+02  6.00000000E+01  0.00000000E+00
  2.00000000E+02  6.00000000E+01  0.00000000E+00
  2.10000000E+02  6.00000000E+01  0.00000000E+00
  2.20000000E+02  6.00000000E+01  0.00000000E+00
  2.30000000E+02  6.00000000E+01  0.00000000E+00
  2.40000000E+02  6.00000000E+01  0.00000000E+00
  2.50000000E+02  6.00000000E+01  0.00000000E+00
  2.60000000E+02  6.00000000E+01  0.00000000E+00
  2.70000000E+02  6.00000000E+01  0.00000000E+00
  2.80000000E+02  6.00000000E+01  0.00000000E+00
  2.90000000E+02  6.00000000E+01  0.00000000E+00
  3.00000000E+02  6.00000000E+01  0.00000000E+00
  3.10000000E+02  6.00000000E+01  0.00000000E+00
  3.20000000E+02  6.00000000E+01  0.00000000E+00
  3.30000000E+02  6.00000000E+01  0.00000000E+00
  3.40000000E+02  6.00000000E+01  0.00000000E+00
  3.50000000E+02  6.00000000E+01  0.00000000E+00
  3.60000000E+02  6.00000000E+01  0.00000000E+00
  3.70000000E+02  6.00000000E+01  0.00000000E+00
  3.80000000E+02  6.00000000E+01  0.00000000E+00
  3.90000000E+02  6.00000000E+01  0.00000000E+00
  4.00000000E+02  6.00000000E+01  0.00000000E+00
  4.10000000E+02  6.00000000E+01  0.00000000E+00
  4.20000000E+02  6.00000000E+01  0.00000000E+00
  4.30000000E+02  6.00000000E+01  0.00000000E+00
  4.40000000E+02  6.00000000E+01  0.00000000E+00
  4.50000000E+02  6.00000000E+01  0.00000000E+00
  4.60000000E+02  6.00000000E+01  0.00000000E+00
  4.70000000E+02  6.00000000E+01  0.00000000E+00
  4.80000000E+02  6.00000000E+01  0.00000000E+00
  4.90000000E+02  6.00000000E+01  0.00000000E+00
  5.00000000E+02  6.00000000E+01  0.00000000E+00
  5.10000000E+02  6.00000000E+01  0.00000000E+00
  5.20000000E+02  6.00000000E+01  0.00000000E+00
  5.30000000E+02  6.00000000E+01  0.00000000E+00
  5.40000000E+02  6.00000000E+01  0.00000000E+00
  5.50000000E+02  6.00000000E+01  0.00000000E+00
  5.60000000E+02  6.00000000E+01  0.00000000E+00
  5.70000000E+02  6.00000000E+01  0.00000000E+00
  5.80000000E+02  6.00000000E+01  0.00000000E+00
  5.90000000E+02  6.00000000E+01  0.00000000E+00
  6.00000000E+02  6.00000000E+01  0.00000000E+00
  6.10000000E+02  6.00000000E+01  0.00000000E+00
  6.20000000E+02  6.00000000E+01  0.00000000E+00
  6.30000000E+02  6.00000000E+01  0.00000000E+00
  6.40000000E+02  6.00000000E+01  0.00000000E+00
  6.50000000E+02  6.00000000E+01  0.00000000E+00
  6.60000000E+02  6.00000000E+01  0.00000000E+00
  6.70000000E+02  6.00000000E+01  0.00000000E+00
  6.80000000E+02  6.00000000E+01  0.00000000E+00
  6.90000000E+02  6.00000000E+01  0.00000000E+00
  7.00000000E+02  6.00000000E+01  0.00000000E+00
  7.10000000E+02  6.00000000E+01  0.00000000E+00
  7.20000000E+02  6.00000000E+01  0.00000000E+00
  7.30000000E+02  6.00000000E+01  0.00000000E+00
  7.40000000E+02  6.00000000E+01  0.00000000E+00
  7.50000000E+02  6.00000000E+01  0.00000000E+00
  7.60000000E+02  6.00000000E+01  0.00000000E+00
  7.70000000E+02  6.00000000E+01  0.00000000E+00
  7.80000000E+02  6.00000000E+01  0.00000000E+00
  7.90000000E+02  6.00000000E+01  0.00000000E+00
  8.00000000E+02  6.00000000E+01  0.00000000E+00
  8.10000000E+02  6.00000000E+01  0.00000000E+00
  8.20000000E+02  6.00000000E+01  0.00000000E+00
  8.30000000E+02  6.00000000E+01  0.00000000E+00
  8.40000000E+02  6.00000000E+01  0.00000000E+00
  8.50000000E+02  6.00000000E+01  0.00000000E+00
  8.60000000E+02  6.00000000E+01  0.00000000E+00
  8.70000000E+02  6.00000000E+01  0.00000000E+00
  8.80000000E+02  6.00000000E+01  0.00000000E+00
  8.90000000E+02  6.00000000E+01  0.00000000E+00
  9.00000000E+02  6.00000000E+01  0.00000000E+00
  9.10000000E+02  6.00000000E+01  0.00000000E+00
  9.20000000E+02  6.00000000E+01  0.00000000E+00
  9.30000000E+02  6.00000000E+01  0.00000000E+00
  9.40000000E+02  6.00000000E+01  0.00000000E+00
  9.50000000E+02  6.00000000E+01  0.00000000E+00
  9.60000000E+02  6.00000000E+01  0.00000000E+00
  9.70000000E+02  6.00000000E+01  0.00000000E+00
  9.80000000E+02  6.00000000E+01  0.00000000E+00
  9.90000000E+02  6.00000000E+01  0.00000000E+00
  1.00000000E+03  6.00000000E+01  0.00000000E+00
  0.00000000E+00  6.20000000E+01  0.00000000E+00
  1.00000000E+01  6.20000000E+01  0.00000000E+00
  2.00000000E+01  6.20000000E+01  0.00000000E+00
  3.00000000E+01  6.20000000E+01  0.00000000E+00
  4.00000000E+01  6.20000000E+01  0.00000000E+00
  5.00000000E+01  6.20000000E+01  0.00000000E+00
  6.00000000E+01  6.20000000E+01  0.00000000E+00
  7.00000000E+01  6.20000000E+01  0.00000000E+00
  8.00000000E+01  6.20000000E+01  0.00000000E+00
  9.00000000E+01  6.20000000E+01  0.00000000E+00
  1.00000000E+02  6.20000000E+01  0.00000000E+00
  1.10000000E+02  6.20000000E+01  0.00000000E+00
  1.20000000E+02  6.20000000E+01  0.00000000E+00
  1.30000000E+02  6.20000000E+01  0.00000000E+00
  1.40000000E+02  6.20000000E+01  0.00000000E+00
  1.50000000E+02  6.20000000E+01  0.00000000E+00
  1.60000000E+02  6.20000000E+01  0.00000000E+00
  1.70000000E+02  6.20000000E+01  0.00000000E+00
  1.80000000E+02  6.20000000E+01  0.00000000E+00
  1.90000000E+02  6.20000000E+01  0.00000000E+00
  2.00000000E+02  6.20000000E+01  0.00000000E+00
  2.10000000E+02  6.20000000E+01  0.00000000E+00
  2.20000000E+02  6.20000000E+01  0.00000000E+00
  2.30000000E+02  6.20000000E+01  0.00000000E+00
  2.40000000E+02  6.20000000E+01  0.00000000E+00
  2.50000000E+02  6.20000000E+01  0.00000000E+00
  2.60000000E+02  6.20000000E+01  0.00000000E+00
  2.70000000E+02  6.20000000E+01  0.00000000E+00
  2.80000000E+02  6.20000000E+01  0.00000000E+00
  2.90000000E+02  6.20000000E+01  0.00000000E+00
  3.00000000E+02  6.20000000E+01  0.00000000E+00
  3.10000000E+02  6.20000000E+01  0.00000000E+00
  3.20000000E+02  6.20000000E+01  0.00000000E+00
  3.30000000E+02  6.20000000E+01  0.00000000E+00
  3.40000000E+02  6.20000000E+01  0.00000000E+00
  3.50000000E+02  6.20000000E+01  0.00000000E+00
  3.60000000E+02  6.20000000E+01  0.00000000E+00
  3.70000000E+02  6.20000000E+01  0.00000000E+00
  3.80000000E+02  6.20000000E+01  0.00000000E+00
  3.90000000E+02  6.20000000E+01  0.00000000E+00
  4.00000000E+02  6.20000000E+01  0.00000000E+00
  4.10000000E+02  6.20000000E+01  0.00000000E+00
  4.20000000E+02  6.20000000E+01  0.00000000E+00
  4.30000000E+02  6.20000000E+01  0.00000000E+00
  4.40000000E+02  6.20000000E+01  0.00000000E+00
  4.50000000E+02  6.20000000E+01  0.00000000E+00
  4.60000000E+02  6.20000000E+01  0.00000000E+00
  4.70000000E+02  6.20000000E+01  0.00000000E+00
  4.80000000E+02  6.20000000E+01  0.00000000E+00
  4.90000000E+02  6.20000000E+01  0.00000000E+00
  5.00000000E+02  6.20000000E+01  0.00000000E+00
  5.10000000E+02  6.20000000E+01  0.00000000E+00
  5.20000000E+02  6.20000000E+01  0.00000000E+00
  5.30000000E+02  6.20000000E+01  0.00000000E+00
  5.40000000E+02  6.20000000E+01  0.00000000E+00
  5.50000000E+02  6.20000000E+01  0.00000000E+00
  5.60000000E+02  6.20000000E+01  0.00000000E+00
  5.70000000E+02  6.20000000E+01  0.00000000E+00
  5.80000000E+02  6.20000000E+01  0.00000000E+00
  5.90000000E+02  6.20000000E+01  0.00000000E+00
  6.00000000E+02  6.20000000E+01  0.00000000E+00
  6.10000000E+02  6.20000000E+01  0.00000000E+00
  6.20000000E+02  6.20000000E+01  0.00000000E+00
  6.30000000E+02  6.20000000E+01  0.00000000E+00
  6.40000000E+02  6.20000000E+01  0.00000000E+00
  6.50000000E+02  6.20000000E+01  0.00000000E+00
  6.60000000E+02  6.20000000E+01  0.00000000E+00
  6.70000000E+02  6.20000000E+01  0.00000000E+00
  6.80000000E+02  6.20000000E+01  0.00000000E+00
  6.90000000E+02  6.20000000E+01  0.00000000E+00
  7.00000000E+02  6.20000000E+01  0.00000000E+00
  7.10000000E+02  6.20000000E+01  0.00000000E+00
  7.20000000E+02  6.20000000E+01  0.00000000E+00
  7.30000000E+02  6.20000000E+01  0.00000000E+00
  7.40000000E+02  6.20000000E+01  0.00000000E+00
  7.50000000E+02  6.20000000E+01  0.00000000E+00
  7.60000000E+02  6.20000000E+01  0.00000000E+00
  7.70000000E+02  6.20000000E+01  0.00000000E+00
  7.80000000E+02  6.20000000E+01  0.00000000E+00
  7.90000000E+02  6.20000000E+01  0.00000000E+00
  8.00000000E+02  6.20000000E+01  0.00000000E+00
  8.10000000E+02  6.20000000E+01  0.00000000E+00
  8.20000000E+02  6.20000000E+01  0.00000000E+00
  8.30000000E+02  6.20000000E+01  0.00000000E+00
  8.40000000E+02  6.20000000E+01  0.00000000E+00
  8.50000000E+02  6.20000000E+01  0.00000000E+00
  8.60000000E+02  6.20000000E+01  0.00000000E+00
  8.70000000E+02  6.20000000E+01  0.00000000E+00
  8.80000000E+02  6.20000000E+01  0.00000000E+00
  8.90000000E+02  6.20000000E+01  0.00000000E+00
  9.00000000E+02  6.20000000E+01  0.00000000E+00
  9.10000000E+02  6.20000000E+01  0.00000000E+00
  9.20000000E+02  6.20000000E+01  0.00000000E+00
  9.30000000E+02  6.20000000E+01  0.00000000E+00
  9.40000000E+02  6.20000000E+01  0.00000000E+00
  9.50000000E+02  6.20000000E+01  0.00000000E+00
  9.60000000E+02  6.20000000E+01  0.00000000E+00
  9.70000000E+02  6.20000000E+01  0.00000000E+00
  9.80000000E+02  6.20000000E+01  0.00000000E+00
  9.90000000E+02  6.20000000E+01  0.00000000E+00
  1.00000000E+03  6.20000000E+01  0.00000000E+00
  0.00000000E+00  6.40000000E+01  0.00000000E+00
  1.00000000E+01  6.40000000E+01  0.00000000E+00
  2.00000000E+01  6.40000000E+01  0.00000000E+00
  3.00000000E+01  6.40000000E+01  0.00000000E+00
  4.00000000E+01  6.40000000E+01  0.00000000E+00
  5.00000000E+01  6.40000000E+01  0.00000000E+00
  6.00000000E+01  6.40000000E+01  0.00000000E+00
  7.00000000E+01  6.40000000E+01  0.00000000E+00
  8.00000000E+01  6.40000000E+01  0.00000000E+00
  9.00000000E+01  6.40000000E+01  0.00000000E+00
  1.00000000E+02  6.40000000E+01  0.00000000E+00
  1.10000000E+02  6.40000000E+01  0.00000000E+00
  1.20000000E+02  6.40000000E+01  0.00000000E+00
  1.30000000E+02  6.40000000E+01  0.00000000E+00
  1.40000000E+02  6.40000000E+01  0.00000000E+00
  1.50000000E+02  6.40000000E+01  0.00000000E+00
  1.60000000E+02  6.40000000E+01  0.00000000E+00
  1.70000000E+02  6.40000000E+01  0.00000000E+00
  1.80000000E+02  6.40000000E+01  0.00000000E+00
  1.90000000E+02  6.40000000E+01  0.00000000E+00
  2.00000000E+02  6.40000000E+01  0.00000000E+00
  2.10000000E+02  6.40000000E+01  0.00000000E+00
  2.20000000E+02  6.40000000E+01  0.00000000E+00
  2.30000000E+02  6.40000000E+01  0.00000000E+00
  2.40000000E+02  6.40000000E+01  0.00000000E+00
  2.50000000E+02  6.40000000E+01  0.00000000E+00
  2.60000000E+02  6.40000000E+01  0.00000000E+00
  2.70000000E+02  6.40000000E+01  0.00000000E+00
  2.80000000E+02  6.40000000E+01  0.00000000E+00
  2.90000000E+02  6.40000000E+01  0.00000000E+00
  3.00000000E+02  6.40000000E+01  0.00000000E+00
  3.10000000E+02  6.40000000E+01  0.00000000E+00
  3.20000000E+02  6.40000000E+01  0.00000000E+00
  3.30000000E+02  6.40000000E+01  0.00000000E+00
  3.40000000E+02  6.40000000E+01  0.00000000E+00
  3.50000000E+02  6.40000000E+01  0.00000000E+00
  3.60000000E+02  6.40000000E+01  0.00000000E+00
  3.70000000E+02  6.40000000E+01  0.00000000E+00
  3.80000000E+02  6.40000000E+01  0.00000000E+00
  3.90000000E+02  6.40000000E+01  0.00000000E+00
  4.00000000E+02  6.40000000E+01  0.00000000E+00
  4.10000000E+02  6.40000000E+01  0.00000000E+00
  4.20000000E+02  6.40000000E+01  0.00000000E+00
  4.30000000E+02  6.40000000E+01  0.00000000E+00
  4.40000000E+02  6.40000000E+01  0.00000000E+00
  4.50000000E+02  6.40000000E+01  0.00000000E+00
  4.60000000E+02  6.40000000E+01  0.00000000E+00
  4.70000000E+02  6.40000000E+01  0.00000000E+00
  4.80000000E+02  6.40000000E+01  0.00000000E+00
  4.90000000E+02  6.40000000E+01  0.00000000E+00
  5.00000000E+02  6.40000000E+01  0.00000000E+00
  5.10000000E+02  6.40000000E+01  0.00000000E+00
  5.20000000E+02  6.40000000E+01  0.00000000E+00
  5.30000000E+02  6.40000000E+01  0.00000000E+00
  5.40000000E+02  6.40000000E+01  0.00000000E+00
  5.50000000E+02  6.40000000E+01  0.00000000E+00
  5.60000000E+02  6.40000000E+01  0.00000000E+00
  5.70000000E+02  6.40000000E+01  0.00000000E+00
  5.80000000E+02  6.40000000E+01  0.00000000E+00
  5.90000000E+02  6.40000000E+01  0.00000000E+00
  6.00000000E+02  6.40000000E+01  0.00000000E+00
  6.10000000E+02  6.40000000E+01  0.00000000E+00
  6.20000000E+02  6.40000000E+01  0.00000000E+00
  6.30000000E+02  6.40000000E+01  0.00000000E+00
  6.40000000E+02  6.40000000E+01  0.00000000E+00
  6.50000000E+02  6.40000000E+01  0.00000000E+00
  6.60000000E+02  6.40000000E+01  0.00000000E+00
  6.70000000E+02  6.40000000E+01  0.00000000E+00
  6.80000000E+02  6.40000000E+01  0.00000000E+00
  6.90000000E+02  6.40000000E+01  0.00000000E+00
  7.00000000E+02  6.40000000E+01  0.00000000E+00
  7.10000000E+02  6.40000000E+01  0.00000000E+00
  7.20000000E+02  6.40000000E+01  0.00000000E+00
  7.30000000E+02  6.40000000E+01  0.00000000E+00
  7.40000000E+02  6.40000000E+01  0.00000000E+00
  7.50000000E+02  6.40000000E+01  0.00000000E+00
  7.60000000E+02  6.40000000E+01  0.00000000E+00
  7.70000000E+02  6.40000000E+01  0.00000000E+00
  7.80000000E+02  6.40000000E+01  0.00000000E+00
  7.90000000E+02  6.40000000E+01  0.00000000E+00
  8.00000000E+02  6.40000000E+01  0.00000000E+00
  8.10000000E+02  6.40000000E+01  0.00000000E+00
  8.20000000E+02  6.40000000E+01  0.00000000E+00
  8.30000000E+02  6.40000000E+01  0.00000000E+00
  8.40000000E+02  6.40000000E+01  0.00000000E+00
  8.50000000E+02  6.40000000E+01  0.00000000E+00
  8.60000000E+02  6.40000000E+01  0.00000000E+00
  8.70000000E+02  6.40000000E+01  0.00000000E+00
  8.80000000E+02  6.40000000E+01  0.00000000E+00
  8.90000000E+02  6.40000000E+01  0.00000000E+00
  9.00000000E+02  6.40000000E+01  0.00000000E+00
  9.10000000E+02  6.40000000E+01  0.00000000E+00
  9.20000000E+02  6.40000000E+01  0.00000000E+00
  9.30000000E+02  6.40000000E+01  0.00000000E+00
  9.40000000E+02  6.40000000E+01  0.00000000E+00
  9.50000000E+02  6.40000000E+01  0.00000000E+00
  9.60000000E+02  6.40000000E+01  0.00000000E+00
  9.70000000E+02  6.40000000E+01  0.00000000E+00
  9.80000000E+02  6.40000000E+01  0.00000000E+00
  9.90000000E+02  6.40000000E+01  0.00000000E+00
  1.00000000E+03  6.40000000E+01  0.00000000E+00
  0.00000000E+00  6.60000000E+01  0.00000000E+00
  1.00000000E+01  6.60000000E+01  0.00000000E+00
  2.00000000E+01  6.60000000E+01  0.00000000E+00
  3.00000000E+01  6.60000000E+01  0.00000000E+00
  4.00000000E+01  6.60000000E+01  0.00000000E+00
  5.00000000E+01  6.60000000E+01  0.00000000E+00
  6.00000000E+01  6.60000000E+01  0.00000000E+00
  7.00000000E+01  6.60000000E+01  0.00000000E+00
  8.00000000E+01  6.60000000E+01  0.00000000E+00
  9.00000000E+01  6.60000000E+01  0.00000000E+00
  1.00000000E+02  6.60000000E+01  0.00000000E+00
  1.10000000E+02  6.60000000E+01  0.00000000E+00
  1.20000000E+02  6.60000000E+01  0.00000000E+00
  1.30000000E+02  6.60000000E+01  0.00000000E+00
  1.40000000E+02  6.60000000E+01  0.00000000E+00
  1.50000000E+02  6.60000000E+01  0.00000000E+00
  1.60000000E+02  6.60000000E+01  0.00000000E+00
  1.70000000E+02  6.60000000E+01  0.00000000E+00
  1.80000000E+02  6.60000000E+01  0.00000000E+00
  1.90000000E+02  6.60000000E+01  0.00000000E+00
  2.00000000E+02  6.60000000E+01  0.00000000E+00
  2.10000000E+02  6.60000000E+01  0.00000000E+00
  2.20000000E+02  6.60000000E+01  0.00000000E+00
  2.30000000E+02  6.60000000E+01  0.00000000E+00
  2.40000000E+02  6.60000000E+01  0.00000000E+00
  2.50000000E+02  6.60000000E+01  0.00000000E+00
  2.60000000E+02  6.60000000E+01  0.00000000E+00
  2.70000000E+02  6.60000000E+01  0.00000000E+00
  2.80000000E+02  6.60000000E+01  0.00000000E+00
  2.90000000E+02  6.60000000E+01  0.00000000E+00
  3.00000000E+02  6.60000000E+01  0.00000000E+00
  3.10000000E+02  6.60000000E+01  0.00000000E+00
  3.20000000E+02  6.60000000E+01  0.00000000E+00
  3.30000000E+02  6.60000000E+01  0.00000000E+00
  3.40000000E+02  6.60000000E+01  0.00000000E+00
  3.50000000E+02  6.60000000E+01  0.00000000E+00
  3.60000000E+02  6.60000000E+01  0.00000000E+00
  3.70000000E+02  6.60000000E+01  0.00000000E+00
  3.80000000E+02  6.60000000E+01  0.00000000E+00
  3.90000000E+02  6.60000000E+01  0.00000000E+00
  4.00000000E+02  6.60000000E+01  0.00000000E+00
  4.10000000E+02  6.60000000E+01  0.00000000E+00
  4.20000000E+02  6.60000000E+01  0.00000000E+00
  4.30000000E+02  6.60000000E+01  0.00000000E+00
  4.40000000E+02  6.60000000E+01  0.00000000E+00
  4.50000000E+02  6.60000000E+01  0.00000000E+00
  4.60000000E+02  6.60000000E+01  0.00000000E+00
  4.70000000E+02  6.60000000E+01  0.00000000E+00
  4.80000000E+02  6.60000000E+01  0.00000000E+00
  4.90000000E+02  6.60000000E+01  0.00000000E+00
  5.00000000E+02  6.60000000E+01  0.00000000E+00
  5.10000000E+02  6.60000000E+01  0.00000000E+00
  5.20000000E+02  6.60000000E+01  0.00000000E+00
  5.30000000E+02  6.60000000E+01  0.00000000E+00
  5.40000000E+02  6.60000000E+01  0.00000000E+00
  5.50000000E+02  6.60000000E+01  0.00000000E+00
  5.60000000E+02  6.60000000E+01  0.00000000E+00
  5.70000000E+02  6.60000000E+01  0.00000000E+00
  5.80000000E+02  6.60000000E+01  0.00000000E+00
  5.90000000E+02  6.60000000E+01  0.00000000E+00
  6.00000000E+02  6.60000000E+01  0.00000000E+00
  6.10000000E+02  6.60000000E+01  0.00000000E+00
  6.20000000E+02  6.60000000E+01  0.00000000E+00
  6.30000000E+02  6.60000000E+01  0.00000000E+00
  6.40000000E+02  6.60000000E+01  0.00000000E+00
  6.50000000E+02  6.60000000E+01  0.00000000E+00
  6.60000000E+02  6.60000000E+01  0.00000000E+00
  6.70000000E+02  6.60000000E+01  0.00000000E+00
  6.80000000E+02  6.60000000E+01  0.00000000E+00
  6.90000000E+02  6.60000000E+01  0.00000000E+00
  7.00000000E+02  6.60000000E+01  0.00000000E+00
  7.10000000E+02  6.60000000E+01  0.00000000E+00
  7.20000000E+02  6.60000000E+01  0.00000000E+00
  7.30000000E+02  6.60000000E+01  0.00000000E+00
  7.40000000E+02  6.60000000E+01  0.00000000E+00
  7.50000000E+02  6.60000000E+01  0.00000000E+00
  7.60000000E+02  6.60000000E+01  0.00000000E+00
  7.70000000E+02  6.60000000E+01  0.00000000E+00
  7.80000000E+02  6.60000000E+01  0.00000000E+00
  7.90000000E+02  6.60000000E+01  0.00000000E+00
  8.00000000E+02  6.60000000E+01  0.00000000E+00
  8.10000000E+02  6.60000000E+01  0.00000000E+00
  8.20000000E+02  6.60000000E+01  0.00000000E+00
  8.30000000E+02  6.60000000E+01  0.00000000E+00
  8.40000000E+02  6.60000000E+01  0.00000000E+00
  8.50000000E+02  6.60000000E+01  0.00000000E+00
  8.60000000E+02  6.60000000E+01  0.00000000E+00
  8.70000000E+02  6.60000000E+01  0.00000000E+00
  8.80000000E+02  6.60000000E+01  0.00000000E+00
  8.90000000E+02  6.60000000E+01  0.00000000E+00
  9.00000000E+02  6.60000000E+01  0.00000000E+00
  9.10000000E+02  6.60000000E+01  0.00000000E+00
  9.20000000E+02  6.60000000E+01  0.00000000E+00
  9.30000000E+02  6.60000000E+01  0.00000000E+00
  9.40000000E+02  6.60000000E+01  0.00000000E+00
  9.50000000E+02  6.60000000E+01  0.00000000E+00
  9.60000000E+02  6.60000000E+01  0.00000000E+00
  9.70000000E+02  6.60000000E+01  0.00000000E+00
  9.80000000E+02  6.60000000E+01  0.00000000E+00
  9.90000000E+02  6.60000000E+01  0.00000000E+00
  1.00000000E+03  6.60000000E+01  0.00000000E+00
  0.00000000E+00  6.80000000E+01  0.00000000E+00
  1.00000000E+01  6.80000000E+01  0.00000000E+00
  2.00000000E+01  6.80000000E+01  0.00000000E+00
  3.00000000E+01  6.80000000E+01  0.00000000E+00
  4.00000000E+01  6.80000000E+01  0.00000000E+00
  5.00000000E+01  6.80000000E+01  0.00000000E+00
  6.00000000E+01  6.80000000E+01  0.00000000E+00
  7.00000000E+01  6.80000000E+01  0.00000000E+00
  8.00000000E+01  6.80000000E+01  0.00000000E+00
  9.00000000E+01  6.80000000E+01  0.00000000E+00
  1.00000000E+02  6.80000000E+01  0.00000000E+00
  1.10000000E+02  6.80000000E+01  0.00000000E+00
  1.20000000E+02  6.80000000E+01  0.00000000E+00
  1.30000000E+02  6.80000000E+01  0.00000000E+00
  1.40000000E+02  6.80000000E+01  0.00000000E+00
  1.50000000E+02  6.80000000E+01  0.00000000E+00
  1.60000000E+02  6.80000000E+01  0.00000000E+00
  1.70000000E+02  6.80000000E+01  0.00000000E+00
  1.80000000E+02  6.80000000E+01  0.00000000E+00
  1.90000000E+02  6.80000000E+01  0.00000000E+00
  2.00000000E+02  6.80000000E+01  0.00000000E+00
  2.10000000E+02  6.80000000E+01  0.00000000E+00
  2.20000000E+02  6.80000000E+01  0.00000000E+00
  2.30000000E+02  6.80000000E+01  0.00000000E+00
  2.40000000E+02  6.80000000E+01  0.00000000E+00
  2.50000000E+02  6.80000000E+01  0.00000000E+00
  2.60000000E+02  6.80000000E+01  0.00000000E+00
  2.70000000E+02  6.80000000E+01  0.00000000E+00
  2.80000000E+02  6.80000000E+01  0.00000000E+00
  2.90000000E+02  6.80000000E+01  0.00000000E+00
  3.00000000E+02  6.80000000E+01  0.00000000E+00
  3.10000000E+02  6.80000000E+01  0.00000000E+00
  3.20000000E+02  6.80000000E+01  0.00000000E+00
  3.30000000E+02  6.80000000E+01  0.00000000E+00
  3.40000000E+02  6.80000000E+01  0.00000000E+00
  3.50000000E+02  6.80000000E+01  0.00000000E+00
  3.60000000E+02  6.80000000E+01  0.00000000E+00
  3.70000000E+02  6.80000000E+01  0.00000000E+00
  3.80000000E+02  6.80000000E+01  0.00000000E+00
  3.90000000E+02  6.80000000E+01  0.00000000E+00
  4.00000000E+02  6.80000000E+01  0.00000000E+00
  4.10000000E+02  6.80000000E+01  0.00000000E+00
  4.20000000E+02  6.80000000E+01  0.00000000E+00
  4.30000000E+02  6.80000000E+01  0.00000000E+00
  4.40000000E+02  6.80000000E+01  0.00000000E+00
  4.50000000E+02  6.80000000E+01  0.00000000E+00
  4.60000000E+02  6.80000000E+01  0.00000000E+00
  4.70000000E+02  6.80000000E+01  0.00000000E+00
  4.80000000E+02  6.80000000E+01  0.00000000E+00
  4.90000000E+02  6.80000000E+01  0.00000000E+00
  5.00000000E+02  6.80000000E+01  0.00000000E+00
  5.10000000E+02  6.80000000E+01  0.00000000E+00
  5.20000000E+02  6.80000000E+01  0.00000000E+00
  5.30000000E+02  6.80000000E+01  0.00000000E+00
  5.40000000E+02  6.80000000E+01  0.00000000E+00
  5.50000000E+02  6.80000000E+01  0.00000000E+00
  5.60000000E+02  6.80000000E+01  0.00000000E+00
  5.70000000E+02  6.80000000E+01  0.00000000E+00
  5.80000000E+02  6.80000000E+01  0.00000000E+00
  5.90000000E+02  6.80000000E+01  0.00000000E+00
  6.00000000E+02  6.80000000E+01  0.00000000E+00
  6.10000000E+02  6.80000000E+01  0.00000000E+00
  6.20000000E+02  6.80000000E+01  0.00000000E+00
  6.30000000E+02  6.80000000E+01  0.00000000E+00
  6.40000000E+02  6.80000000E+01  0.00000000E+00
  6.50000000E+02  6.80000000E+01  0.00000000E+00
  6.60000000E+02  6.80000000E+01  0.00000000E+00
  6.70000000E+02  6.80000000E+01  0.00000000E+00
  6.80000000E+02  6.80000000E+01  0.00000000E+00
  6.90000000E+02  6.80000000E+01  0.00000000E+00
  7.00000000E+02  6.80000000E+01  0.00000000E+00
  7.10000000E+02  6.80000000E+01  0.00000000E+00
  7.20000000E+02  6.80000000E+01  0.00000000E+00
  7.30000000E+02  6.80000000E+01  0.00000000E+00
  7.40000000E+02  6.80000000E+01  0.00000000E+00
  7.50000000E+02  6.80000000E+01  0.00000000E+00
  7.60000000E+02  6.80000000E+01  0.00000000E+00
  7.70000000E+02  6.80000000E+01  0.00000000E+00
  7.80000000E+02  6.80000000E+01  0.00000000E+00
  7.90000000E+02  6.80000000E+01  0.00000000E+00
  8.00000000E+02  6.80000000E+01  0.00000000E+00
  8.10000000E+02  6.80000000E+01  0.00000000E+00
  8.20000000E+02  6.80000000E+01  0.00000000E+00
  8.30000000E+02  6.80000000E+01  0.00000000E+00
  8.40000000E+02  6.80000000E+01  0.00000000E+00
  8.50000000E+02  6.80000000E+01  0.00000000E+00
  8.60000000E+02  6.80000000E+01  0.00000000E+00
  8.70000000E+02  6.80000000E+01  0.00000000E+00
  8.80000000E+02  6.80000000E+01  0.00000000E+00
  8.90000000E+02  6.80000000E+01  0.00000000E+00
  9.00000000E+02  6.80000000E+01  0.00000000E+00
  9.10000000E+02  6.80000000E+01  0.00000000E+00
  9.20000000E+02  6.80000000E+01  0.00000000E+00
  9.30000000E+02  6.80000000E+01  0.00000000E+00
  9.40000000E+02  6.80000000E+01  0.00000000E+00
  9.50000000E+02  6.80000000E+01  0.00000000E+00
  9.60000000E+02  6.80000000E+01  0.00000000E+00
  9.70000000E+02  6.80000000E+01  0.00000000E+00
  9.80000000E+02  6.80000000E+01  0.00000000E+00
  9.90000000E+02  6.80000000E+01  0.00000000E+00
  1.00000000E+03  6.80000000E+01  0.00000000E+00
  0.00000000E+00  7.00000000E+01  0.00000000E+00
  1.00000000E+01  7.00000000E+01  0.00000000E+00
  2.00000000E+01  7.00000000E+01  0.00000000E+00
  3.00000000E+01  7.00000000E+01  0.00000000E+00
  4.00000000E+01  7.00000000E+01  0.00000000E+00
  5.00000000E+01  7.00000000E+01  0.00000000E+00
  6.00000000E+01  7.00000000E+01  0.00000000E+00
  7.00000000E+01  7.00000000E+01  0.00000000E+00
  8.00000000E+01  7.00000000E+01  0.00000000E+00
  9.00000000E+01  7.00000000E+01  0.00000000E+00
  1.00000000E+02  7.00000000E+01  0.00000000E+00
  1.10000000E+02  7.00000000E+01  0.00000000E+00
  1.20000000E+02  7.00000000E+01  0.00000000E+00
  1.30000000E+02  7.00000000E+01  0.00000000E+00
  1.40000000E+02  7.00000000E+01  0.00000000E+00
  1.50000000E+02  7.00000000E+01  0.00000000E+00
  1.60000000E+02  7.00000000E+01  0.00000000E+00
  1.70000000E+02  7.00000000E+01  0.00000000E+00
  1.80000000E+02  7.00000000E+01  0.00000000E+00
  1.90000000E+02  7.00000000E+01  0.00000000E+00
  2.00000000E+02  7.00000000E+01  0.00000000E+00
  2.10000000E+02  7.00000000E+01  0.00000000E+00
  2.20000000E+02  7.00000000E+01  0.00000000E+00
  2.30000000E+02  7.00000000E+01  0.00000000E+00
  2.40000000E+02  7.00000000E+01  0.00000000E+00
  2.50000000E+02  7.00000000E+01  0.00000000E+00
  2.60000000E+02  7.00000000E+01  0.00000000E+00
  2.70000000E+02  7.00000000E+01  0.00000000E+00
  2.80000000E+02  7.00000000E+01  0.00000000E+00
  2.90000000E+02  7.00000000E+01  0.00000000E+00
  3.00000000E+02  7.00000000E+01  0.00000000E+00
  3.10000000E+02  7.00000000E+01  0.00000000E+00
  3.20000000E+02  7.00000000E+01  0.00000000E+00
  3.30000000E+02  7.00000000E+01  0.00000000E+00
  3.40000000E+02  7.00000000E+01  0.00000000E+00
  3.50000000E+02  7.00000000E+01  0.00000000E+00
  3.60000000E+02  7.00000000E+01  0.00000000E+00
  3.70000000E+02  7.00000000E+01  0.00000000E+00
  3.80000000E+02  7.00000000E+01  0.00000000E+00
  3.90000000E+02  7.00000000E+01  0.00000000E+00
  4.00000000E+02  7.00000000E+01  0.00000000E+00
  4.10000000E+02  7.00000000E+01  0.00000000E+00
  4.20000000E+02  7.00000000E+01  0.00000000E+00
  4.30000000E+02  7.00000000E+01  0.00000000E+00
  4.40000000E+02  7.00000000E+01  0.00000000E+00
  4.50000000E+02  7.00000000E+01  0.00000000E+00
  4.60000000E+02  7.00000000E+01  0.00000000E+00
  4.70000000E+02  7.00000000E+01  0.00000000E+00
  4.80000000E+02  7.00000000E+01  0.00000000E+00
  4.90000000E+02  7.00000000E+01  0.00000000E+00
  5.00000000E+02  7.00000000E+01  0.00000000E+00
  5.10000000E+02  7.00000000E+01  0.00000000E+00
  5.20000000E+02  7.00000000E+01  0.00000000E+00
  5.30000000E+02  7.00000000E+01  0.00000000E+00
  5.40000000E+02  7.00000000E+01  0.00000000E+00
  5.50000000E+02  7.00000000E+01  0.00000000E+00
  5.60000000E+02  7.00000000E+01  0.00000000E+00
  5.70000000E+02  7.00000000E+01  0.00000000E+00
  5.80000000E+02  7.00000000E+01  0.00000000E+00
  5.90000000E+02  7.00000000E+01  0.00000000E+00
  6.00000000E+02  7.00000000E+01  0.00000000E+00
  6.10000000E+02  7.00000000E+01  0.00000000E+00
  6.20000000E+02  7.00000000E+01  0.00000000E+00
  6.30000000E+02  7.00000000E+01  0.00000000E+00
  6.40000000E+02  7.00000000E+01  0.00000000E+00
  6.50000000E+02  7.00000000E+01  0.00000000E+00
  6.60000000E+02  7.00000000E+01  0.00000000E+00
  6.70000000E+02  7.00000000E+01  0.00000000E+00
  6.80000000E+02  7.00000000E+01  0.00000000E+00
  6.90000000E+02  7.00000000E+01  0.00000000E+00
  7.00000000E+02  7.00000000E+01  0.00000000E+00
  7.10000000E+02  7.00000000E+01  0.00000000E+00
  7.20000000E+02  7.00000000E+01  0.00000000E+00
  7.30000000E+02  7.00000000E+01  0.00000000E+00
  7.40000000E+02  7.00000000E+01  0.00000000E+00
  7.50000000E+02  7.00000000E+01  0.00000000E+00
  7.60000000E+02  7.00000000E+01  0.00000000E+00
  7.70000000E+02  7.00000000E+01  0.00000000E+00
  7.80000000E+02  7.00000000E+01  0.00000000E+00
  7.90000000E+02  7.00000000E+01  0.00000000E+00
  8.00000000E+02  7.00000000E+01  0.00000000E+00
  8.10000000E+02  7.00000000E+01  0.00000000E+00
  8.20000000E+02  7.00000000E+01  0.00000000E+00
  8.30000000E+02  7.00000000E+01  0.00000000E+00
  8.40000000E+02  7.00000000E+01  0.00000000E+00
  8.50000000E+02  7.00000000E+01  0.00000000E+00
  8.60000000E+02  7.00000000E+01  0.00000000E+00
  8.70000000E+02  7.00000000E+01  0.00000000E+00
  8.80000000E+02  7.00000000E+01  0.00000000E+00
  8.90000000E+02  7.00000000E+01  0.00000000E+00
  9.00000000E+02  7.00000000E+01  0.00000000E+00
  9.10000000E+02  7.00000000E+01  0.00000000E+00
  9.20000000E+02  7.00000000E+01  0.00000000E+00
  9.30000000E+02  7.00000000E+01  0.00000000E+00
  9.40000000E+02  7.00000000E+01  0.00000000E+00
  9.50000000E+02  7.00000000E+01  0.00000000E+00
  9.60000000E+02  7.00000000E+01  0.00000000E+00
  9.70000000E+02  7.00000000E+01  0.00000000E+00
  9.80000000E+02  7.00000000E+01  0.00000000E+00
  9.90000000E+02  7.00000000E+01  0.00000000E+00
  1.00000000E+03  7.00000000E+01  0.00000000E+00
  0.00000000E+00  7.20000000E+01  0.00000000E+00
  1.00000000E+01  7.20000000E+01  0.00000000E+00
  2.00000000E+01  7.20000000E+01  0.00000000E+00
  3.00000000E+01  7.20000000E+01  0.00000000E+00
  4.00000000E+01  7.20000000E+01  0.00000000E+00
  5.00000000E+01  7.20000000E+01  0.00000000E+00
  6.00000000E+01  7.20000000E+01  0.00000000E+00
  7.00000000E+01  7.20000000E+01  0.00000000E+00
  8.00000000E+01  7.20000000E+01  0.00000000E+00
  9.00000000E+01  7.20000000E+01  0.00000000E+00
  1.00000000E+02  7.20000000E+01  0.00000000E+00
  1.10000000E+02  7.20000000E+01  0.00000000E+00
  1.20000000E+02  7.20000000E+01  0.00000000E+00
  1.30000000E+02  7.20000000E+01  0.00000000E+00
  1.40000000E+02  7.20000000E+01  0.00000000E+00
  1.50000000E+02  7.20000000E+01  0.00000000E+00
  1.60000000E+02  7.20000000E+01  0.00000000E+00
  1.70000000E+02  7.20000000E+01  0.00000000E+00
  1.80000000E+02  7.20000000E+01  0.00000000E+00
  1.90000000E+02  7.20000000E+01  0.00000000E+00
  2.00000000E+02  7.20000000E+01  0.00000000E+00
  2.10000000E+02  7.20000000E+01  0.00000000E+00
  2.20000000E+02  7.20000000E+01  0.00000000E+00
  2.30000000E+02  7.20000000E+01  0.00000000E+00
  2.40000000E+02  7.20000000E+01  0.00000000E+00
  2.50000000E+02  7.20000000E+01  0.00000000E+00
  2.60000000E+02  7.20000000E+01  0.00000000E+00
  2.70000000E+02  7.20000000E+01  0.00000000E+00
  2.80000000E+02  7.20000000E+01  0.00000000E+00
  2.90000000E+02  7.20000000E+01  0.00000000E+00
  3.00000000E+02  7.20000000E+01  0.00000000E+00
  3.10000000E+02  7.20000000E+01  0.00000000E+00
  3.20000000E+02  7.20000000E+01  0.00000000E+00
  3.30000000E+02  7.20000000E+01  0.00000000E+00
  3.40000000E+02  7.20000000E+01  0.00000000E+00
  3.50000000E+02  7.20000000E+01  0.00000000E+00
  3.60000000E+02  7.20000000E+01  0.00000000E+00
  3.70000000E+02  7.20000000E+01  0.00000000E+00
  3.80000000E+02  7.20000000E+01  0.00000000E+00
  3.90000000E+02  7.20000000E+01  0.00000000E+00
  4.00000000E+02  7.20000000E+01  0.00000000E+00
  4.10000000E+02  7.20000000E+01  0.00000000E+00
  4.20000000E+02  7.20000000E+01  0.00000000E+00
  4.30000000E+02  7.20000000E+01  0.00000000E+00
  4.40000000E+02  7.20000000E+01  0.00000000E+00
  4.50000000E+02  7.20000000E+01  0.00000000E+00
  4.60000000E+02  7.20000000E+01  0.00000000E+00
  4.70000000E+02  7.20000000E+01  0.00000000E+00
  4.80000000E+02  7.20000000E+01  0.00000000E+00
  4.90000000E+02  7.20000000E+01  0.00000000E+00
  5.00000000E+02  7.20000000E+01  0.00000000E+00
  5.10000000E+02  7.20000000E+01  0.00000000E+00
  5.20000000E+02  7.20000000E+01  0.00000000E+00
  5.30000000E+02  7.20000000E+01  0.00000000E+00
  5.40000000E+02  7.20000000E+01  0.00000000E+00
  5.50000000E+02  7.20000000E+01  0.00000000E+00
  5.60000000E+02  7.20000000E+01  0.00000000E+00
  5.70000000E+02  7.20000000E+01  0.00000000E+00
  5.80000000E+02  7.20000000E+01  0.00000000E+00
  5.90000000E+02  7.20000000E+01  0.00000000E+00
  6.00000000E+02  7.20000000E+01  0.00000000E+00
  6.10000000E+02  7.20000000E+01  0.00000000E+00
  6.20000000E+02  7.20000000E+01  0.00000000E+00
  6.30000000E+02  7.20000000E+01  0.00000000E+00
  6.40000000E+02  7.20000000E+01  0.00000000E+00
  6.50000000E+02  7.20000000E+01  0.00000000E+00
  6.60000000E+02  7.20000000E+01  0.00000000E+00
  6.70000000E+02  7.20000000E+01  0.00000000E+00
  6.80000000E+02  7.20000000E+01  0.00000000E+00
  6.90000000E+02  7.20000000E+01  0.00000000E+00
  7.00000000E+02  7.20000000E+01  0.00000000E+00
  7.10000000E+02  7.20000000E+01  0.00000000E+00
  7.20000000E+02  7.20000000E+01  0.00000000E+00
  7.30000000E+02  7.20000000E+01  0.00000000E+00
  7.40000000E+02  7.20000000E+01  0.00000000E+00
  7.50000000E+02  7.20000000E+01  0.00000000E+00
  7.60000000E+02  7.20000000E+01  0.00000000E+00
  7.70000000E+02  7.20000000E+01  0.00000000E+00
  7.80000000E+02  7.20000000E+01  0.00000000E+00
  7.90000000E+02  7.20000000E+01  0.00000000E+00
  8.00000000E+02  7.20000000E+01  0.00000000E+00
  8.10000000E+02  7.20000000E+01  0.00000000E+00
  8.20000000E+02  7.20000000E+01  0.00000000E+00
  8.30000000E+02  7.20000000E+01  0.00000000E+00
  8.40000000E+02  7.20000000E+01  0.00000000E+00
  8.50000000E+02  7.20000000E+01  0.00000000E+00
  8.60000000E+02  7.20000000E+01  0.00000000E+00
  8.70000000E+02  7.20000000E+01  0.00000000E+00
  8.80000000E+02  7.20000000E+01  0.00000000E+00
  8.90000000E+02  7.20000000E+01  0.00000000E+00
  9.00000000E+02  7.20000000E+01  0.00000000E+00
  9.10000000E+02  7.20000000E+01  0.00000000E+00
  9.20000000E+02  7.20000000E+01  0.00000000E+00
  9.30000000E+02  7.20000000E+01  0.00000000E+00
  9.40000000E+02  7.20000000E+01  0.00000000E+00
  9.50000000E+02  7.20000000E+01  0.00000000E+00
  9.60000000E+02  7.20000000E+01  0.00000000E+00
  9.70000000E+02  7.20000000E+01  0.00000000E+00
  9.80000000E+02  7.20000000E+01  0.00000000E+00
  9.90000000E+02  7.20000000E+01  0.00000000E+00
  1.00000000E+03  7.20000000E+01  0.00000000E+00
  0.00000000E+00  7.40000000E+01  0.00000000E+00
  1.00000000E+01  7.40000000E+01  0.00000000E+00
  2.00000000E+01  7.40000000E+01  0.00000000E+00
  3.00000000E+01  7.40000000E+01  0.00000000E+00
  4.00000000E+01  7.40000000E+01  0.00000000E+00
  5.00000000E+01  7.40000000E+01  0.00000000E+00
  6.00000000E+01  7.40000000E+01  0.00000000E+00
  7.00000000E+01  7.40000000E+01  0.00000000E+00
  8.00000000E+01  7.40000000E+01  0.00000000E+00
  9.00000000E+01  7.40000000E+01  0.00000000E+00
  1.00000000E+02  7.40000000E+01  0.00000000E+00
  1.10000000E+02  7.40000000E+01  0.00000000E+00
  1.20000000E+02  7.40000000E+01  0.00000000E+00
  1.30000000E+02  7.40000000E+01  0.00000000E+00
  1.40000000E+02  7.40000000E+01  0.00000000E+00
  1.50000000E+02  7.40000000E+01  0.00000000E+00
  1.60000000E+02  7.40000000E+01  0.00000000E+00
  1.70000000E+02  7.40000000E+01  0.00000000E+00
  1.80000000E+02  7.40000000E+01  0.00000000E+00
  1.90000000E+02  7.40000000E+01  0.00000000E+00
  2.00000000E+02  7.40000000E+01  0.00000000E+00
  2.10000000E+02  7.40000000E+01  0.00000000E+00
  2.20000000E+02  7.40000000E+01  0.00000000E+00
  2.30000000E+02  7.40000000E+01  0.00000000E+00
  2.40000000E+02  7.40000000E+01  0.00000000E+00
  2.50000000E+02  7.40000000E+01  0.00000000E+00
  2.60000000E+02  7.40000000E+01  0.00000000E+00
  2.70000000E+02  7.40000000E+01  0.00000000E+00
  2.80000000E+02  7.40000000E+01  0.00000000E+00
  2.90000000E+02  7.40000000E+01  0.00000000E+00
  3.00000000E+02  7.40000000E+01  0.00000000E+00
  3.10000000E+02  7.40000000E+01  0.00000000E+00
  3.20000000E+02  7.40000000E+01  0.00000000E+00
  3.30000000E+02  7.40000000E+01  0.00000000E+00
  3.40000000E+02  7.40000000E+01  0.00000000E+00
  3.50000000E+02  7.40000000E+01  0.00000000E+00
  3.60000000E+02  7.40000000E+01  0.00000000E+00
  3.70000000E+02  7.40000000E+01  0.00000000E+00
  3.80000000E+02  7.40000000E+01  0.00000000E+00
  3.90000000E+02  7.40000000E+01  0.00000000E+00
  4.00000000E+02  7.40000000E+01  0.00000000E+00
  4.10000000E+02  7.40000000E+01  0.00000000E+00
  4.20000000E+02  7.40000000E+01  0.00000000E+00
  4.30000000E+02  7.40000000E+01  0.00000000E+00
  4.40000000E+02  7.40000000E+01  0.00000000E+00
  4.50000000E+02  7.40000000E+01  0.00000000E+00
  4.60000000E+02  7.40000000E+01  0.00000000E+00
  4.70000000E+02  7.40000000E+01  0.00000000E+00
  4.80000000E+02  7.40000000E+01  0.00000000E+00
  4.90000000E+02  7.40000000E+01  0.00000000E+00
  5.00000000E+02  7.40000000E+01  0.00000000E+00
  5.10000000E+02  7.40000000E+01  0.00000000E+00
  5.20000000E+02  7.40000000E+01  0.00000000E+00
  5.30000000E+02  7.40000000E+01  0.00000000E+00
  5.40000000E+02  7.40000000E+01  0.00000000E+00
  5.50000000E+02  7.40000000E+01  0.00000000E+00
  5.60000000E+02  7.40000000E+01  0.00000000E+00
  5.70000000E+02  7.40000000E+01  0.00000000E+00
  5.80000000E+02  7.40000000E+01  0.00000000E+00
  5.90000000E+02  7.40000000E+01  0.00000000E+00
  6.00000000E+02  7.40000000E+01  0.00000000E+00
  6.10000000E+02  7.40000000E+01  0.00000000E+00
  6.20000000E+02  7.40000000E+01  0.00000000E+00
  6.30000000E+02  7.40000000E+01  0.00000000E+00
  6.40000000E+02  7.40000000E+01  0.00000000E+00
  6.50000000E+02  7.40000000E+01  0.00000000E+00
  6.60000000E+02  7.40000000E+01  0.00000000E+00
  6.70000000E+02  7.40000000E+01  0.00000000E+00
  6.80000000E+02  7.40000000E+01  0.00000000E+00
  6.90000000E+02  7.40000000E+01  0.00000000E+00
  7.00000000E+02  7.40000000E+01  0.00000000E+00
  7.10000000E+02  7.40000000E+01  0.00000000E+00
  7.20000000E+02  7.40000000E+01  0.00000000E+00
  7.30000000E+02  7.40000000E+01  0.00000000E+00
  7.40000000E+02  7.40000000E+01  0.00000000E+00
  7.50000000E+02  7.40000000E+01  0.00000000E+00
  7.60000000E+02  7.40000000E+01  0.00000000E+00
  7.70000000E+02  7.40000000E+01  0.00000000E+00
  7.80000000E+02  7.40000000E+01  0.00000000E+00
  7.90000000E+02  7.40000000E+01  0.00000000E+00
  8.00000000E+02  7.40000000E+01  0.00000000E+00
  8.10000000E+02  7.40000000E+01  0.00000000E+00
  8.20000000E+02  7.40000000E+01  0.00000000E+00
  8.30000000E+02  7.40000000E+01  0.00000000E+00
  8.40000000E+02  7.40000000E+01  0.00000000E+00
  8.50000000E+02  7.40000000E+01  0.00000000E+00
  8.60000000E+02  7.40000000E+01  0.00000000E+00
  8.70000000E+02  7.40000000E+01  0.00000000E+00
  8.80000000E+02  7.40000000E+01  0.00000000E+00
  8.90000000E+02  7.40000000E+01  0.00000000E+00
  9.00000000E+02  7.40000000E+01  0.00000000E+00
  9.10000000E+02  7.40000000E+01  0.00000000E+00
  9.20000000E+02  7.40000000E+01  0.00000000E+00
  9.30000000E+02  7.40000000E+01  0.00000000E+00
  9.40000000E+02  7.40000000E+01  0.00000000E+00
  9.50000000E+02  7.40000000E+01  0.00000000E+00
  9.60000000E+02  7.40000000E+01  0.00000000E+00
  9.70000000E+02  7.40000000E+01  0.00000000E+00
  9.80000000E+02  7.40000000E+01  0.00000000E+00
  9.90000000E+02  7.40000000E+01  0.00000000E+00
  1.00000000E+03  7.40000000E+01  0.00000000E+00
  0.00000000E+00  7.60000000E+01  0.00000000E+00
  1.00000000E+01  7.60000000E+01  0.00000000E+00
  2.00000000E+01  7.60000000E+01  0.00000000E+00
  3.00000000E+01  7.60000000E+01  0.00000000E+00
  4.00000000E+01  7.60000000E+01  0.00000000E+00
  5.00000000E+01  7.60000000E+01  0.00000000E+00
  6.00000000E+01  7.60000000E+01  0.00000000E+00
  7.00000000E+01  7.60000000E+01  0.00000000E+00
  8.00000000E+01  7.60000000E+01  0.00000000E+00
  9.00000000E+01  7.60000000E+01  0.00000000E+00
  1.00000000E+02  7.60000000E+01  0.00000000E+00
  1.10000000E+02  7.60000000E+01  0.00000000E+00
  1.20000000E+02  7.60000000E+01  0.00000000E+00
  1.30000000E+02  7.60000000E+01  0.00000000E+00
  1.40000000E+02  7.60000000E+01  0.00000000E+00
  1.50000000E+02  7.60000000E+01  0.00000000E+00
  1.60000000E+02  7.60000000E+01  0.00000000E+00
  1.70000000E+02  7.60000000E+01  0.00000000E+00
  1.80000000E+02  7.60000000E+01  0.00000000E+00
  1.90000000E+02  7.60000000E+01  0.00000000E+00
  2.00000000E+02  7.60000000E+01  0.00000000E+00
  2.10000000E+02  7.60000000E+01  0.00000000E+00
  2.20000000E+02  7.60000000E+01  0.00000000E+00
  2.30000000E+02  7.60000000E+01  0.00000000E+00
  2.40000000E+02  7.60000000E+01  0.00000000E+00
  2.50000000E+02  7.60000000E+01  0.00000000E+00
  2.60000000E+02  7.60000000E+01  0.00000000E+00
  2.70000000E+02  7.60000000E+01  0.00000000E+00
  2.80000000E+02  7.60000000E+01  0.00000000E+00
  2.90000000E+02  7.60000000E+01  0.00000000E+00
  3.00000000E+02  7.60000000E+01  0.00000000E+00
  3.10000000E+02  7.60000000E+01  0.00000000E+00
  3.20000000E+02  7.60000000E+01  0.00000000E+00
  3.30000000E+02  7.60000000E+01  0.00000000E+00
  3.40000000E+02  7.60000000E+01  0.00000000E+00
  3.50000000E+02  7.60000000E+01  0.00000000E+00
  3.60000000E+02  7.60000000E+01  0.00000000E+00
  3.70000000E+02  7.60000000E+01  0.00000000E+00
  3.80000000E+02  7.60000000E+01  0.00000000E+00
  3.90000000E+02  7.60000000E+01  0.00000000E+00
  4.00000000E+02  7.60000000E+01  0.00000000E+00
  4.10000000E+02  7.60000000E+01  0.00000000E+00
  4.20000000E+02  7.60000000E+01  0.00000000E+00
  4.30000000E+02  7.60000000E+01  0.00000000E+00
  4.40000000E+02  7.60000000E+01  0.00000000E+00
  4.50000000E+02  7.60000000E+01  0.00000000E+00
  4.60000000E+02  7.60000000E+01  0.00000000E+00
  4.70000000E+02  7.60000000E+01  0.00000000E+00
  4.80000000E+02  7.60000000E+01  0.00000000E+00
  4.90000000E+02  7.60000000E+01  0.00000000E+00
  5.00000000E+02  7.60000000E+01  0.00000000E+00
  5.10000000E+02  7.60000000E+01  0.00000000E+00
  5.20000000E+02  7.60000000E+01  0.00000000E+00
  5.30000000E+02  7.60000000E+01  0.00000000E+00
  5.40000000E+02  7.60000000E+01  0.00000000E+00
  5.50000000E+02  7.60000000E+01  0.00000000E+00
  5.60000000E+02  7.60000000E+01  0.00000000E+00
  5.70000000E+02  7.60000000E+01  0.00000000E+00
  5.80000000E+02  7.60000000E+01  0.00000000E+00
  5.90000000E+02  7.60000000E+01  0.00000000E+00
  6.00000000E+02  7.60000000E+01  0.00000000E+00
  6.10000000E+02  7.60000000E+01  0.00000000E+00
  6.20000000E+02  7.60000000E+01  0.00000000E+00
  6.30000000E+02  7.60000000E+01  0.00000000E+00
  6.40000000E+02  7.60000000E+01  0.00000000E+00
  6.50000000E+02  7.60000000E+01  0.00000000E+00
  6.60000000E+02  7.60000000E+01  0.00000000E+00
  6.70000000E+02  7.60000000E+01  0.00000000E+00
  6.80000000E+02  7.60000000E+01  0.00000000E+00
  6.90000000E+02  7.60000000E+01  0.00000000E+00
  7.00000000E+02  7.60000000E+01  0.00000000E+00
  7.10000000E+02  7.60000000E+01  0.00000000E+00
  7.20000000E+02  7.60000000E+01  0.00000000E+00
  7.30000000E+02  7.60000000E+01  0.00000000E+00
  7.40000000E+02  7.60000000E+01  0.00000000E+00
  7.50000000E+02  7.60000000E+01  0.00000000E+00
  7.60000000E+02  7.60000000E+01  0.00000000E+00
  7.70000000E+02  7.60000000E+01  0.00000000E+00
  7.80000000E+02  7.60000000E+01  0.00000000E+00
  7.90000000E+02  7.60000000E+01  0.00000000E+00
  8.00000000E+02  7.60000000E+01  0.00000000E+00
  8.10000000E+02  7.60000000E+01  0.00000000E+00
  8.20000000E+02  7.60000000E+01  0.00000000E+00
  8.30000000E+02  7.60000000E+01  0.00000000E+00
  8.40000000E+02  7.60000000E+01  0.00000000E+00
  8.50000000E+02  7.60000000E+01  0.00000000E+00
  8.60000000E+02  7.60000000E+01  0.00000000E+00
  8.70000000E+02  7.60000000E+01  0.00000000E+00
  8.80000000E+02  7.60000000E+01  0.00000000E+00
  8.90000000E+02  7.60000000E+01  0.00000000E+00
  9.00000000E+02  7.60000000E+01  0.00000000E+00
  9.10000000E+02  7.60000000E+01  0.00000000E+00
  9.20000000E+02  7.60000000E+01  0.00000000E+00
  9.30000000E+02  7.60000000E+01  0.00000000E+00
  9.40000000E+02  7.60000000E+01  0.00000000E+00
  9.50000000E+02  7.60000000E+01  0.00000000E+00
  9.60000000E+02  7.60000000E+01  0.00000000E+00
  9.70000000E+02  7.60000000E+01  0.00000000E+00
  9.80000000E+02  7.60000000E+01  0.00000000E+00
  9.90000000E+02  7.60000000E+01  0.00000000E+00
  1.00000000E+03  7.60000000E+01  0.00000000E+00
  0.00000000E+00  7.80000000E+01  0.00000000E+00
  1.00000000E+01  7.80000000E+01  0.00000000E+00
  2.00000000E+01  7.80000000E+01  0.00000000E+00
  3.00000000E+01  7.80000000E+01  0.00000000E+00
  4.00000000E+01  7.80000000E+01  0.00000000E+00
  5.00000000E+01  7.80000000E+01  0.00000000E+00
  6.00000000E+01  7.80000000E+01  0.00000000E+00
  7.00000000E+01  7.80000000E+01  0.00000000E+00
  8.00000000E+01  7.80000000E+01  0.00000000E+00
  9.00000000E+01  7.80000000E+01  0.00000000E+00
  1.00000000E+02  7.80000000E+01  0.00000000E+00
  1.10000000E+02  7.80000000E+01  0.00000000E+00
  1.20000000E+02  7.80000000E+01  0.00000000E+00
  1.30000000E+02  7.80000000E+01  0.00000000E+00
  1.40000000E+02  7.80000000E+01  0.00000000E+00
  1.50000000E+02  7.80000000E+01  0.00000000E+00
  1.60000000E+02  7.80000000E+01  0.00000000E+00
  1.70000000E+02  7.80000000E+01  0.00000000E+00
  1.80000000E+02  7.80000000E+01  0.00000000E+00
  1.90000000E+02  7.80000000E+01  0.00000000E+00
  2.00000000E+02  7.80000000E+01  0.00000000E+00
  2.10000000E+02  7.80000000E+01  0.00000000E+00
  2.20000000E+02  7.80000000E+01  0.00000000E+00
  2.30000000E+02  7.80000000E+01  0.00000000E+00
  2.40000000E+02  7.80000000E+01  0.00000000E+00
  2.50000000E+02  7.80000000E+01  0.00000000E+00
  2.60000000E+02  7.80000000E+01  0.00000000E+00
  2.70000000E+02  7.80000000E+01  0.00000000E+00
  2.80000000E+02  7.80000000E+01  0.00000000E+00
  2.90000000E+02  7.80000000E+01  0.00000000E+00
  3.00000000E+02  7.80000000E+01  0.00000000E+00
  3.10000000E+02  7.80000000E+01  0.00000000E+00
  3.20000000E+02  7.80000000E+01  0.00000000E+00
  3.30000000E+02  7.80000000E+01  0.00000000E+00
  3.40000000E+02  7.80000000E+01  0.00000000E+00
  3.50000000E+02  7.80000000E+01  0.00000000E+00
  3.60000000E+02  7.80000000E+01  0.00000000E+00
  3.70000000E+02  7.80000000E+01  0.00000000E+00
  3.80000000E+02  7.80000000E+01  0.00000000E+00
  3.90000000E+02  7.80000000E+01  0.00000000E+00
  4.00000000E+02  7.80000000E+01  0.00000000E+00
  4.10000000E+02  7.80000000E+01  0.00000000E+00
  4.20000000E+02  7.80000000E+01  0.00000000E+00
  4.30000000E+02  7.80000000E+01  0.00000000E+00
  4.40000000E+02  7.80000000E+01  0.00000000E+00
  4.50000000E+02  7.80000000E+01  0.00000000E+00
  4.60000000E+02  7.80000000E+01  0.00000000E+00
  4.70000000E+02  7.80000000E+01  0.00000000E+00
  4.80000000E+02  7.80000000E+01  0.00000000E+00
  4.90000000E+02  7.80000000E+01  0.00000000E+00
  5.00000000E+02  7.80000000E+01  0.00000000E+00
  5.10000000E+02  7.80000000E+01  0.00000000E+00
  5.20000000E+02  7.80000000E+01  0.00000000E+00
  5.30000000E+02  7.80000000E+01  0.00000000E+00
  5.40000000E+02  7.80000000E+01  0.00000000E+00
  5.50000000E+02  7.80000000E+01  0.00000000E+00
  5.60000000E+02  7.80000000E+01  0.00000000E+00
  5.70000000E+02  7.80000000E+01  0.00000000E+00
  5.80000000E+02  7.80000000E+01  0.00000000E+00
  5.90000000E+02  7.80000000E+01  0.00000000E+00
  6.00000000E+02  7.80000000E+01  0.00000000E+00
  6.10000000E+02  7.80000000E+01  0.00000000E+00
  6.20000000E+02  7.80000000E+01  0.00000000E+00
  6.30000000E+02  7.80000000E+01  0.00000000E+00
  6.40000000E+02  7.80000000E+01  0.00000000E+00
  6.50000000E+02  7.80000000E+01  0.00000000E+00
  6.60000000E+02  7.80000000E+01  0.00000000E+00
  6.70000000E+02  7.80000000E+01  0.00000000E+00
  6.80000000E+02  7.80000000E+01  0.00000000E+00
  6.90000000E+02  7.80000000E+01  0.00000000E+00
  7.00000000E+02  7.80000000E+01  0.00000000E+00
  7.10000000E+02  7.80000000E+01  0.00000000E+00
  7.20000000E+02  7.80000000E+01  0.00000000E+00
  7.30000000E+02  7.80000000E+01  0.00000000E+00
  7.40000000E+02  7.80000000E+01  0.00000000E+00
  7.50000000E+02  7.80000000E+01  0.00000000E+00
  7.60000000E+02  7.80000000E+01  0.00000000E+00
  7.70000000E+02  7.80000000E+01  0.00000000E+00
  7.80000000E+02  7.80000000E+01  0.00000000E+00
  7.90000000E+02  7.80000000E+01  0.00000000E+00
  8.00000000E+02  7.80000000E+01  0.00000000E+00
  8.10000000E+02  7.80000000E+01  0.00000000E+00
  8.20000000E+02  7.80000000E+01  0.00000000E+00
  8.30000000E+02  7.80000000E+01  0.00000000E+00
  8.40000000E+02  7.80000000E+01  0.00000000E+00
  8.50000000E+02  7.80000000E+01  0.00000000E+00
  8.60000000E+02  7.80000000E+01  0.00000000E+00
  8.70000000E+02  7.80000000E+01  0.00000000E+00
  8.80000000E+02  7.80000000E+01  0.00000000E+00
  8.90000000E+02  7.80000000E+01  0.00000000E+00
  9.00000000E+02  7.80000000E+01  0.00000000E+00
  9.10000000E+02  7.80000000E+01  0.00000000E+00
  9.20000000E+02  7.80000000E+01  0.00000000E+00
  9.30000000E+02  7.80000000E+01  0.00000000E+00
  9.40000000E+02  7.80000000E+01  0.00000000E+00
  9.50000000E+02  7.80000000E+01  0.00000000E+00
  9.60000000E+02  7.80000000E+01  0.00000000E+00
  9.70000000E+02  7.80000000E+01  0.00000000E+00
  9.80000000E+02  7.80000000E+01  0.00000000E+00
  9.90000000E+02  7.80000000E+01  0.00000000E+00
  1.00000000E+03  7.80000000E+01  0.00000000E+00
  0.00000000E+00  8.00000000E+01  0.00000000E+00
  1.00000000E+01  8.00000000E+01  0.00000000E+00
  2.00000000E+01  8.00000000E+01  0.00000000E+00
  3.00000000E+01  8.00000000E+01  0.00000000E+00
  4.00000000E+01  8.00000000E+01  0.00000000E+00
  5.00000000E+01  8.00000000E+01  0.00000000E+00
  6.00000000E+01  8.00000000E+01  0.00000000E+00
  7.00000000E+01  8.00000000E+01  0.00000000E+00
  8.00000000E+01  8.00000000E+01  0.00000000E+00
  9.00000000E+01  8.00000000E+01  0.00000000E+00
  1.00000000E+02  8.00000000E+01  0.00000000E+00
  1.10000000E+02  8.00000000E+01  0.00000000E+00
  1.20000000E+02  8.00000000E+01  0.00000000E+00
  1.30000000E+02  8.00000000E+01  0.00000000E+00
  1.40000000E+02  8.00000000E+01  0.00000000E+00
  1.50000000E+02  8.00000000E+01  0.00000000E+00
  1.60000000E+02  8.00000000E+01  0.00000000E+00
  1.70000000E+02  8.00000000E+01  0.00000000E+00
  1.80000000E+02  8.00000000E+01  0.00000000E+00
  1.90000000E+02  8.00000000E+01  0.00000000E+00
  2.00000000E+02  8.00000000E+01  0.00000000E+00
  2.10000000E+02  8.00000000E+01  0.00000000E+00
  2.20000000E+02  8.00000000E+01  0.00000000E+00
  2.30000000E+02  8.00000000E+01  0.00000000E+00
  2.40000000E+02  8.00000000E+01  0.00000000E+00
  2.50000000E+02  8.00000000E+01  0.00000000E+00
  2.60000000E+02  8.00000000E+01  0.00000000E+00
  2.70000000E+02  8.00000000E+01  0.00000000E+00
  2.80000000E+02  8.00000000E+01  0.00000000E+00
  2.90000000E+02  8.00000000E+01  0.00000000E+00
  3.00000000E+02  8.00000000E+01  0.00000000E+00
  3.10000000E+02  8.00000000E+01  0.00000000E+00
  3.20000000E+02  8.00000000E+01  0.00000000E+00
  3.30000000E+02  8.00000000E+01  0.00000000E+00
  3.40000000E+02  8.00000000E+01  0.00000000E+00
  3.50000000E+02  8.00000000E+01  0.00000000E+00
  3.60000000E+02  8.00000000E+01  0.00000000E+00
  3.70000000E+02  8.00000000E+01  0.00000000E+00
  3.80000000E+02  8.00000000E+01  0.00000000E+00
  3.90000000E+02  8.00000000E+01  0.00000000E+00
  4.00000000E+02  8.00000000E+01  0.00000000E+00
  4.10000000E+02  8.00000000E+01  0.00000000E+00
  4.20000000E+02  8.00000000E+01  0.00000000E+00
  4.30000000E+02  8.00000000E+01  0.00000000E+00
  4.40000000E+02  8.00000000E+01  0.00000000E+00
  4.50000000E+02  8.00000000E+01  0.00000000E+00
  4.60000000E+02  8.00000000E+01  0.00000000E+00
  4.70000000E+02  8.00000000E+01  0.00000000E+00
  4.80000000E+02  8.00000000E+01  0.00000000E+00
  4.90000000E+02  8.00000000E+01  0.00000000E+00
  5.00000000E+02  8.00000000E+01  0.00000000E+00
  5.10000000E+02  8.00000000E+01  0.00000000E+00
  5.20000000E+02  8.00000000E+01  0.00000000E+00
  5.30000000E+02  8.00000000E+01  0.00000000E+00
  5.40000000E+02  8.00000000E+01  0.00000000E+00
  5.50000000E+02  8.00000000E+01  0.00000000E+00
  5.60000000E+02  8.00000000E+01  0.00000000E+00
  5.70000000E+02  8.00000000E+01  0.00000000E+00
  5.80000000E+02  8.00000000E+01  0.00000000E+00
  5.90000000E+02  8.00000000E+01  0.00000000E+00
  6.00000000E+02  8.00000000E+01  0.00000000E+00
  6.10000000E+02  8.00000000E+01  0.00000000E+00
  6.20000000E+02  8.00000000E+01  0.00000000E+00
  6.30000000E+02  8.00000000E+01  0.00000000E+00
  6.40000000E+02  8.00000000E+01  0.00000000E+00
  6.50000000E+02  8.00000000E+01  0.00000000E+00
  6.60000000E+02  8.00000000E+01  0.00000000E+00
  6.70000000E+02  8.00000000E+01  0.00000000E+00
  6.80000000E+02  8.00000000E+01  0.00000000E+00
  6.90000000E+02  8.00000000E+01  0.00000000E+00
  7.00000000E+02  8.00000000E+01  0.00000000E+00
  7.10000000E+02  8.00000000E+01  0.00000000E+00
  7.20000000E+02  8.00000000E+01  0.00000000E+00
  7.30000000E+02  8.00000000E+01  0.00000000E+00
  7.40000000E+02  8.00000000E+01  0.00000000E+00
  7.50000000E+02  8.00000000E+01  0.00000000E+00
  7.60000000E+02  8.00000000E+01  0.00000000E+00
  7.70000000E+02  8.00000000E+01  0.00000000E+00
  7.80000000E+02  8.00000000E+01  0.00000000E+00
  7.90000000E+02  8.00000000E+01  0.00000000E+00
  8.00000000E+02  8.00000000E+01  0.00000000E+00
  8.10000000E+02  8.00000000E+01  0.00000000E+00
  8.20000000E+02  8.00000000E+01  0.00000000E+00
  8.30000000E+02  8.00000000E+01  0.00000000E+00
  8.40000000E+02  8.00000000E+01  0.00000000E+00
  8.50000000E+02  8.00000000E+01  0.00000000E+00
  8.60000000E+02  8.00000000E+01  0.00000000E+00
  8.70000000E+02  8.00000000E+01  0.00000000E+00
  8.80000000E+02  8.00000000E+01  0.00000000E+00
  8.90000000E+02  8.00000000E+01  0.00000000E+00
  9.00000000E+02  8.00000000E+01  0.00000000E+00
  9.10000000E+02  8.00000000E+01  0.00000000E+00
  9.20000000E+02  8.00000000E+01  0.00000000E+00
  9.30000000E+02  8.00000000E+01  0.00000000E+00
  9.40000000E+02  8.00000000E+01  0.00000000E+00
  9.50000000E+02  8.00000000E+01  0.00000000E+00
  9.60000000E+02  8.00000000E+01  0.00000000E+00
  9.70000000E+02  8.00000000E+01  0.00000000E+00
  9.80000000E+02  8.00000000E+01  0.00000000E+00
  9.90000000E+02  8.00000000E+01  0.00000000E+00
  1.00000000E+03  8.00000000E+01  0.00000000E+00
  0.00000000E+00  8.20000000E+01  0.00000000E+00
  1.00000000E+01  8.20000000E+01  0.00000000E+00
  2.00000000E+01  8.20000000E+01  0.00000000E+00
  3.00000000E+01  8.20000000E+01  0.00000000E+00
  4.00000000E+01  8.20000000E+01  0.00000000E+00
  5.00000000E+01  8.20000000E+01  0.00000000E+00
  6.00000000E+01  8.20000000E+01  0.00000000E+00
  7.00000000E+01  8.20000000E+01  0.00000000E+00
  8.00000000E+01  8.20000000E+01  0.00000000E+00
  9.00000000E+01  8.20000000E+01  0.00000000E+00
  1.00000000E+02  8.20000000E+01  0.00000000E+00
  1.10000000E+02  8.20000000E+01  0.00000000E+00
  1.20000000E+02  8.20000000E+01  0.00000000E+00
  1.30000000E+02  8.20000000E+01  0.00000000E+00
  1.40000000E+02  8.20000000E+01  0.00000000E+00
  1.50000000E+02  8.20000000E+01  0.00000000E+00
  1.60000000E+02  8.20000000E+01  0.00000000E+00
  1.70000000E+02  8.20000000E+01  0.00000000E+00
  1.80000000E+02  8.20000000E+01  0.00000000E+00
  1.90000000E+02  8.20000000E+01  0.00000000E+00
  2.00000000E+02  8.20000000E+01  0.00000000E+00
  2.10000000E+02  8.20000000E+01  0.00000000E+00
  2.20000000E+02  8.20000000E+01  0.00000000E+00
  2.30000000E+02  8.20000000E+01  0.00000000E+00
  2.40000000E+02  8.20000000E+01  0.00000000E+00
  2.50000000E+02  8.20000000E+01  0.00000000E+00
  2.60000000E+02  8.20000000E+01  0.00000000E+00
  2.70000000E+02  8.20000000E+01  0.00000000E+00
  2.80000000E+02  8.20000000E+01  0.00000000E+00
  2.90000000E+02  8.20000000E+01  0.00000000E+00
  3.00000000E+02  8.20000000E+01  0.00000000E+00
  3.10000000E+02  8.20000000E+01  0.00000000E+00
  3.20000000E+02  8.20000000E+01  0.00000000E+00
  3.30000000E+02  8.20000000E+01  0.00000000E+00
  3.40000000E+02  8.20000000E+01  0.00000000E+00
  3.50000000E+02  8.20000000E+01  0.00000000E+00
  3.60000000E+02  8.20000000E+01  0.00000000E+00
  3.70000000E+02  8.20000000E+01  0.00000000E+00
  3.80000000E+02  8.20000000E+01  0.00000000E+00
  3.90000000E+02  8.20000000E+01  0.00000000E+00
  4.00000000E+02  8.20000000E+01  0.00000000E+00
  4.10000000E+02  8.20000000E+01  0.00000000E+00
  4.20000000E+02  8.20000000E+01  0.00000000E+00
  4.30000000E+02  8.20000000E+01  0.00000000E+00
  4.40000000E+02  8.20000000E+01  0.00000000E+00
  4.50000000E+02  8.20000000E+01  0.00000000E+00
  4.60000000E+02  8.20000000E+01  0.00000000E+00
  4.70000000E+02  8.20000000E+01  0.00000000E+00
  4.80000000E+02  8.20000000E+01  0.00000000E+00
  4.90000000E+02  8.20000000E+01  0.00000000E+00
  5.00000000E+02  8.20000000E+01  0.00000000E+00
  5.10000000E+02  8.20000000E+01  0.00000000E+00
  5.20000000E+02  8.20000000E+01  0.00000000E+00
  5.30000000E+02  8.20000000E+01  0.00000000E+00
  5.40000000E+02  8.20000000E+01  0.00000000E+00
  5.50000000E+02  8.20000000E+01  0.00000000E+00
  5.60000000E+02  8.20000000E+01  0.00000000E+00
  5.70000000E+02  8.20000000E+01  0.00000000E+00
  5.80000000E+02  8.20000000E+01  0.00000000E+00
  5.90000000E+02  8.20000000E+01  0.00000000E+00
  6.00000000E+02  8.20000000E+01  0.00000000E+00
  6.10000000E+02  8.20000000E+01  0.00000000E+00
  6.20000000E+02  8.20000000E+01  0.00000000E+00
  6.30000000E+02  8.20000000E+01  0.00000000E+00
  6.40000000E+02  8.20000000E+01  0.00000000E+00
  6.50000000E+02  8.20000000E+01  0.00000000E+00
  6.60000000E+02  8.20000000E+01  0.00000000E+00
  6.70000000E+02  8.20000000E+01  0.00000000E+00
  6.80000000E+02  8.20000000E+01  0.00000000E+00
  6.90000000E+02  8.20000000E+01  0.00000000E+00
  7.00000000E+02  8.20000000E+01  0.00000000E+00
  7.10000000E+02  8.20000000E+01  0.00000000E+00
  7.20000000E+02  8.20000000E+01  0.00000000E+00
  7.30000000E+02  8.20000000E+01  0.00000000E+00
  7.40000000E+02  8.20000000E+01  0.00000000E+00
  7.50000000E+02  8.20000000E+01  0.00000000E+00
  7.60000000E+02  8.20000000E+01  0.00000000E+00
  7.70000000E+02  8.20000000E+01  0.00000000E+00
  7.80000000E+02  8.20000000E+01  0.00000000E+00
  7.90000000E+02  8.20000000E+01  0.00000000E+00
  8.00000000E+02  8.20000000E+01  0.00000000E+00
  8.10000000E+02  8.20000000E+01  0.00000000E+00
  8.20000000E+02  8.20000000E+01  0.00000000E+00
  8.30000000E+02  8.20000000E+01  0.00000000E+00
  8.40000000E+02  8.20000000E+01  0.00000000E+00
  8.50000000E+02  8.20000000E+01  0.00000000E+00
  8.60000000E+02  8.20000000E+01  0.00000000E+00
  8.70000000E+02  8.20000000E+01  0.00000000E+00
  8.80000000E+02  8.20000000E+01  0.00000000E+00
  8.90000000E+02  8.20000000E+01  0.00000000E+00
  9.00000000E+02  8.20000000E+01  0.00000000E+00
  9.10000000E+02  8.20000000E+01  0.00000000E+00
  9.20000000E+02  8.20000000E+01  0.00000000E+00
  9.30000000E+02  8.20000000E+01  0.00000000E+00
  9.40000000E+02  8.20000000E+01  0.00000000E+00
  9.50000000E+02  8.20000000E+01  0.00000000E+00
  9.60000000E+02  8.20000000E+01  0.00000000E+00
  9.70000000E+02  8.20000000E+01  0.00000000E+00
  9.80000000E+02  8.20000000E+01  0.00000000E+00
  9.90000000E+02  8.20000000E+01  0.00000000E+00
  1.00000000E+03  8.20000000E+01  0.00000000E+00
  0.00000000E+00  8.40000000E+01  0.00000000E+00
  1.00000000E+01  8.40000000E+01  0.00000000E+00
  2.00000000E+01  8.40000000E+01  0.00000000E+00
  3.00000000E+01  8.40000000E+01  0.00000000E+00
  4.00000000E+01  8.40000000E+01  0.00000000E+00
  5.00000000E+01  8.40000000E+01  0.00000000E+00
  6.00000000E+01  8.40000000E+01  0.00000000E+00
  7.00000000E+01  8.40000000E+01  0.00000000E+00
  8.00000000E+01  8.40000000E+01  0.00000000E+00
  9.00000000E+01  8.40000000E+01  0.00000000E+00
  1.00000000E+02  8.40000000E+01  0.00000000E+00
  1.10000000E+02  8.40000000E+01  0.00000000E+00
  1.20000000E+02  8.40000000E+01  0.00000000E+00
  1.30000000E+02  8.40000000E+01  0.00000000E+00
  1.40000000E+02  8.40000000E+01  0.00000000E+00
  1.50000000E+02  8.40000000E+01  0.00000000E+00
  1.60000000E+02  8.40000000E+01  0.00000000E+00
  1.70000000E+02  8.40000000E+01  0.00000000E+00
  1.80000000E+02  8.40000000E+01  0.00000000E+00
  1.90000000E+02  8.40000000E+01  0.00000000E+00
  2.00000000E+02  8.40000000E+01  0.00000000E+00
  2.10000000E+02  8.40000000E+01  0.00000000E+00
  2.20000000E+02  8.40000000E+01  0.00000000E+00
  2.30000000E+02  8.40000000E+01  0.00000000E+00
  2.40000000E+02  8.40000000E+01  0.00000000E+00
  2.50000000E+02  8.40000000E+01  0.00000000E+00
  2.60000000E+02  8.40000000E+01  0.00000000E+00
  2.70000000E+02  8.40000000E+01  0.00000000E+00
  2.80000000E+02  8.40000000E+01  0.00000000E+00
  2.90000000E+02  8.40000000E+01  0.00000000E+00
  3.00000000E+02  8.40000000E+01  0.00000000E+00
  3.10000000E+02  8.40000000E+01  0.00000000E+00
  3.20000000E+02  8.40000000E+01  0.00000000E+00
  3.30000000E+02  8.40000000E+01  0.00000000E+00
  3.40000000E+02  8.40000000E+01  0.00000000E+00
  3.50000000E+02  8.40000000E+01  0.00000000E+00
  3.60000000E+02  8.40000000E+01  0.00000000E+00
  3.70000000E+02  8.40000000E+01  0.00000000E+00
  3.80000000E+02  8.40000000E+01  0.00000000E+00
  3.90000000E+02  8.40000000E+01  0.00000000E+00
  4.00000000E+02  8.40000000E+01  0.00000000E+00
  4.10000000E+02  8.40000000E+01  0.00000000E+00
  4.20000000E+02  8.40000000E+01  0.00000000E+00
  4.30000000E+02  8.40000000E+01  0.00000000E+00
  4.40000000E+02  8.40000000E+01  0.00000000E+00
  4.50000000E+02  8.40000000E+01  0.00000000E+00
  4.60000000E+02  8.40000000E+01  0.00000000E+00
  4.70000000E+02  8.40000000E+01  0.00000000E+00
  4.80000000E+02  8.40000000E+01  0.00000000E+00
  4.90000000E+02  8.40000000E+01  0.00000000E+00
  5.00000000E+02  8.40000000E+01  0.00000000E+00
  5.10000000E+02  8.40000000E+01  0.00000000E+00
  5.20000000E+02  8.40000000E+01  0.00000000E+00
  5.30000000E+02  8.40000000E+01  0.00000000E+00
  5.40000000E+02  8.40000000E+01  0.00000000E+00
  5.50000000E+02  8.40000000E+01  0.00000000E+00
  5.60000000E+02  8.40000000E+01  0.00000000E+00
  5.70000000E+02  8.40000000E+01  0.00000000E+00
  5.80000000E+02  8.40000000E+01  0.00000000E+00
  5.90000000E+02  8.40000000E+01  0.00000000E+00
  6.00000000E+02  8.40000000E+01  0.00000000E+00
  6.10000000E+02  8.40000000E+01  0.00000000E+00
  6.20000000E+02  8.40000000E+01  0.00000000E+00
  6.30000000E+02  8.40000000E+01  0.00000000E+00
  6.40000000E+02  8.40000000E+01  0.00000000E+00
  6.50000000E+02  8.40000000E+01  0.00000000E+00
  6.60000000E+02  8.40000000E+01  0.00000000E+00
  6.70000000E+02  8.40000000E+01  0.00000000E+00
  6.80000000E+02  8.40000000E+01  0.00000000E+00
  6.90000000E+02  8.40000000E+01  0.00000000E+00
  7.00000000E+02  8.40000000E+01  0.00000000E+00
  7.10000000E+02  8.40000000E+01  0.00000000E+00
  7.20000000E+02  8.40000000E+01  0.00000000E+00
  7.30000000E+02  8.40000000E+01  0.00000000E+00
  7.40000000E+02  8.40000000E+01  0.00000000E+00
  7.50000000E+02  8.40000000E+01  0.00000000E+00
  7.60000000E+02  8.40000000E+01  0.00000000E+00
  7.70000000E+02  8.40000000E+01  0.00000000E+00
  7.80000000E+02  8.40000000E+01  0.00000000E+00
  7.90000000E+02  8.40000000E+01  0.00000000E+00
  8.00000000E+02  8.40000000E+01  0.00000000E+00
  8.10000000E+02  8.40000000E+01  0.00000000E+00
  8.20000000E+02  8.40000000E+01  0.00000000E+00
  8.30000000E+02  8.40000000E+01  0.00000000E+00
  8.40000000E+02  8.40000000E+01  0.00000000E+00
  8.50000000E+02  8.40000000E+01  0.00000000E+00
  8.60000000E+02  8.40000000E+01  0.00000000E+00
  8.70000000E+02  8.40000000E+01  0.00000000E+00
  8.80000000E+02  8.40000000E+01  0.00000000E+00
  8.90000000E+02  8.40000000E+01  0.00000000E+00
  9.00000000E+02  8.40000000E+01  0.00000000E+00
  9.10000000E+02  8.40000000E+01  0.00000000E+00
  9.20000000E+02  8.40000000E+01  0.00000000E+00
  9.30000000E+02  8.40000000E+01  0.00000000E+00
  9.40000000E+02  8.40000000E+01  0.00000000E+00
  9.50000000E+02  8.40000000E+01  0.00000000E+00
  9.60000000E+02  8.40000000E+01  0.00000000E+00
  9.70000000E+02  8.40000000E+01  0.00000000E+00
  9.80000000E+02  8.40000000E+01  0.00000000E+00
  9.90000000E+02  8.40000000E+01  0.00000000E+00
  1.00000000E+03  8.40000000E+01  0.00000000E+00
  0.00000000E+00  8.60000000E+01  0.00000000E+00
  1.00000000E+01  8.60000000E+01  0.00000000E+00
  2.00000000E+01  8.60000000E+01  0.00000000E+00
  3.00000000E+01  8.60000000E+01  0.00000000E+00
  4.00000000E+01  8.60000000E+01  0.00000000E+00
  5.00000000E+01  8.60000000E+01  0.00000000E+00
  6.00000000E+01  8.60000000E+01  0.00000000E+00
  7.00000000E+01  8.60000000E+01  0.00000000E+00
  8.00000000E+01  8.60000000E+01  0.00000000E+00
  9.00000000E+01  8.60000000E+01  0.00000000E+00
  1.00000000E+02  8.60000000E+01  0.00000000E+00
  1.10000000E+02  8.60000000E+01  0.00000000E+00
  1.20000000E+02  8.60000000E+01  0.00000000E+00
  1.30000000E+02  8.60000000E+01  0.00000000E+00
  1.40000000E+02  8.60000000E+01  0.00000000E+00
  1.50000000E+02  8.60000000E+01  0.00000000E+00
  1.60000000E+02  8.60000000E+01  0.00000000E+00
  1.70000000E+02  8.60000000E+01  0.00000000E+00
  1.80000000E+02  8.60000000E+01  0.00000000E+00
  1.90000000E+02  8.60000000E+01  0.00000000E+00
  2.00000000E+02  8.60000000E+01  0.00000000E+00
  2.10000000E+02  8.60000000E+01  0.00000000E+00
  2.20000000E+02  8.60000000E+01  0.00000000E+00
  2.30000000E+02  8.60000000E+01  0.00000000E+00
  2.40000000E+02  8.60000000E+01  0.00000000E+00
  2.50000000E+02  8.60000000E+01  0.00000000E+00
  2.60000000E+02  8.60000000E+01  0.00000000E+00
  2.70000000E+02  8.60000000E+01  0.00000000E+00
  2.80000000E+02  8.60000000E+01  0.00000000E+00
  2.90000000E+02  8.60000000E+01  0.00000000E+00
  3.00000000E+02  8.60000000E+01  0.00000000E+00
  3.10000000E+02  8.60000000E+01  0.00000000E+00
  3.20000000E+02  8.60000000E+01  0.00000000E+00
  3.30000000E+02  8.60000000E+01  0.00000000E+00
  3.40000000E+02  8.60000000E+01  0.00000000E+00
  3.50000000E+02  8.60000000E+01  0.00000000E+00
  3.60000000E+02  8.60000000E+01  0.00000000E+00
  3.70000000E+02  8.60000000E+01  0.00000000E+00
  3.80000000E+02  8.60000000E+01  0.00000000E+00
  3.90000000E+02  8.60000000E+01  0.00000000E+00
  4.00000000E+02  8.60000000E+01  0.00000000E+00
  4.10000000E+02  8.60000000E+01  0.00000000E+00
  4.20000000E+02  8.60000000E+01  0.00000000E+00
  4.30000000E+02  8.60000000E+01  0.00000000E+00
  4.40000000E+02  8.60000000E+01  0.00000000E+00
  4.50000000E+02  8.60000000E+01  0.00000000E+00
  4.60000000E+02  8.60000000E+01  0.00000000E+00
  4.70000000E+02  8.60000000E+01  0.00000000E+00
  4.80000000E+02  8.60000000E+01  0.00000000E+00
  4.90000000E+02  8.60000000E+01  0.00000000E+00
  5.00000000E+02  8.60000000E+01  0.00000000E+00
  5.10000000E+02  8.60000000E+01  0.00000000E+00
  5.20000000E+02  8.60000000E+01  0.00000000E+00
  5.30000000E+02  8.60000000E+01  0.00000000E+00
  5.40000000E+02  8.60000000E+01  0.00000000E+00
  5.50000000E+02  8.60000000E+01  0.00000000E+00
  5.60000000E+02  8.60000000E+01  0.00000000E+00
  5.70000000E+02  8.60000000E+01  0.00000000E+00
  5.80000000E+02  8.60000000E+01  0.00000000E+00
  5.90000000E+02  8.60000000E+01  0.00000000E+00
  6.00000000E+02  8.60000000E+01  0.00000000E+00
  6.10000000E+02  8.60000000E+01  0.00000000E+00
  6.20000000E+02  8.60000000E+01  0.00000000E+00
  6.30000000E+02  8.60000000E+01  0.00000000E+00
  6.40000000E+02  8.60000000E+01  0.00000000E+00
  6.50000000E+02  8.60000000E+01  0.00000000E+00
  6.60000000E+02  8.60000000E+01  0.00000000E+00
  6.70000000E+02  8.60000000E+01  0.00000000E+00
  6.80000000E+02  8.60000000E+01  0.00000000E+00
  6.90000000E+02  8.60000000E+01  0.00000000E+00
  7.00000000E+02  8.60000000E+01  0.00000000E+00
  7.10000000E+02  8.60000000E+01  0.00000000E+00
  7.20000000E+02  8.60000000E+01  0.00000000E+00
  7.30000000E+02  8.60000000E+01  0.00000000E+00
  7.40000000E+02  8.60000000E+01  0.00000000E+00
  7.50000000E+02  8.60000000E+01  0.00000000E+00
  7.60000000E+02  8.60000000E+01  0.00000000E+00
  7.70000000E+02  8.60000000E+01  0.00000000E+00
  7.80000000E+02  8.60000000E+01  0.00000000E+00
  7.90000000E+02  8.60000000E+01  0.00000000E+00
  8.00000000E+02  8.60000000E+01  0.00000000E+00
  8.10000000E+02  8.60000000E+01  0.00000000E+00
  8.20000000E+02  8.60000000E+01  0.00000000E+00
  8.30000000E+02  8.60000000E+01  0.00000000E+00
  8.40000000E+02  8.60000000E+01  0.00000000E+00
  8.50000000E+02  8.60000000E+01  0.00000000E+00
  8.60000000E+02  8.60000000E+01  0.00000000E+00
  8.70000000E+02  8.60000000E+01  0.00000000E+00
  8.80000000E+02  8.60000000E+01  0.00000000E+00
  8.90000000E+02  8.60000000E+01  0.00000000E+00
  9.00000000E+02  8.60000000E+01  0.00000000E+00
  9.10000000E+02  8.60000000E+01  0.00000000E+00
  9.20000000E+02  8.60000000E+01  0.00000000E+00
  9.30000000E+02  8.60000000E+01  0.00000000E+00
  9.40000000E+02  8.60000000E+01  0.00000000E+00
  9.50000000E+02  8.60000000E+01  0.00000000E+00
  9.60000000E+02  8.60000000E+01  0.00000000E+00
  9.70000000E+02  8.60000000E+01  0.00000000E+00
  9.80000000E+02  8.60000000E+01  0.00000000E+00
  9.90000000E+02  8.60000000E+01  0.00000000E+00
  1.00000000E+03  8.60000000E+01  0.00000000E+00
  0.00000000E+00  8.80000000E+01  0.00000000E+00
  1.00000000E+01  8.80000000E+01  0.00000000E+00
  2.00000000E+01  8.80000000E+01  0.00000000E+00
  3.00000000E+01  8.80000000E+01  0.00000000E+00
  4.00000000E+01  8.80000000E+01  0.00000000E+00
  5.00000000E+01  8.80000000E+01  0.00000000E+00
  6.00000000E+01  8.80000000E+01  0.00000000E+00
  7.00000000E+01  8.80000000E+01  0.00000000E+00
  8.00000000E+01  8.80000000E+01  0.00000000E+00
  9.00000000E+01  8.80000000E+01  0.00000000E+00
  1.00000000E+02  8.80000000E+01  0.00000000E+00
  1.10000000E+02  8.80000000E+01  0.00000000E+00
  1.20000000E+02  8.80000000E+01  0.00000000E+00
  1.30000000E+02  8.80000000E+01  0.00000000E+00
  1.40000000E+02  8.80000000E+01  0.00000000E+00
  1.50000000E+02  8.80000000E+01  0.00000000E+00
  1.60000000E+02  8.80000000E+01  0.00000000E+00
  1.70000000E+02  8.80000000E+01  0.00000000E+00
  1.80000000E+02  8.80000000E+01  0.00000000E+00
  1.90000000E+02  8.80000000E+01  0.00000000E+00
  2.00000000E+02  8.80000000E+01  0.00000000E+00
  2.10000000E+02  8.80000000E+01  0.00000000E+00
  2.20000000E+02  8.80000000E+01  0.00000000E+00
  2.30000000E+02  8.80000000E+01  0.00000000E+00
  2.40000000E+02  8.80000000E+01  0.00000000E+00
  2.50000000E+02  8.80000000E+01  0.00000000E+00
  2.60000000E+02  8.80000000E+01  0.00000000E+00
  2.70000000E+02  8.80000000E+01  0.00000000E+00
  2.80000000E+02  8.80000000E+01  0.00000000E+00
  2.90000000E+02  8.80000000E+01  0.00000000E+00
  3.00000000E+02  8.80000000E+01  0.00000000E+00
  3.10000000E+02  8.80000000E+01  0.00000000E+00
  3.20000000E+02  8.80000000E+01  0.00000000E+00
  3.30000000E+02  8.80000000E+01  0.00000000E+00
  3.40000000E+02  8.80000000E+01  0.00000000E+00
  3.50000000E+02  8.80000000E+01  0.00000000E+00
  3.60000000E+02  8.80000000E+01  0.00000000E+00
  3.70000000E+02  8.80000000E+01  0.00000000E+00
  3.80000000E+02  8.80000000E+01  0.00000000E+00
  3.90000000E+02  8.80000000E+01  0.00000000E+00
  4.00000000E+02  8.80000000E+01  0.00000000E+00
  4.10000000E+02  8.80000000E+01  0.00000000E+00
  4.20000000E+02  8.80000000E+01  0.00000000E+00
  4.30000000E+02  8.80000000E+01  0.00000000E+00
  4.40000000E+02  8.80000000E+01  0.00000000E+00
  4.50000000E+02  8.80000000E+01  0.00000000E+00
  4.60000000E+02  8.80000000E+01  0.00000000E+00
  4.70000000E+02  8.80000000E+01  0.00000000E+00
  4.80000000E+02  8.80000000E+01  0.00000000E+00
  4.90000000E+02  8.80000000E+01  0.00000000E+00
  5.00000000E+02  8.80000000E+01  0.00000000E+00
  5.10000000E+02  8.80000000E+01  0.00000000E+00
  5.20000000E+02  8.80000000E+01  0.00000000E+00
  5.30000000E+02  8.80000000E+01  0.00000000E+00
  5.40000000E+02  8.80000000E+01  0.00000000E+00
  5.50000000E+02  8.80000000E+01  0.00000000E+00
  5.60000000E+02  8.80000000E+01  0.00000000E+00
  5.70000000E+02  8.80000000E+01  0.00000000E+00
  5.80000000E+02  8.80000000E+01  0.00000000E+00
  5.90000000E+02  8.80000000E+01  0.00000000E+00
  6.00000000E+02  8.80000000E+01  0.00000000E+00
  6.10000000E+02  8.80000000E+01  0.00000000E+00
  6.20000000E+02  8.80000000E+01  0.00000000E+00
  6.30000000E+02  8.80000000E+01  0.00000000E+00
  6.40000000E+02  8.80000000E+01  0.00000000E+00
  6.50000000E+02  8.80000000E+01  0.00000000E+00
  6.60000000E+02  8.80000000E+01  0.00000000E+00
  6.70000000E+02  8.80000000E+01  0.00000000E+00
  6.80000000E+02  8.80000000E+01  0.00000000E+00
  6.90000000E+02  8.80000000E+01  0.00000000E+00
  7.00000000E+02  8.80000000E+01  0.00000000E+00
  7.10000000E+02  8.80000000E+01  0.00000000E+00
  7.20000000E+02  8.80000000E+01  0.00000000E+00
  7.30000000E+02  8.80000000E+01  0.00000000E+00
  7.40000000E+02  8.80000000E+01  0.00000000E+00
  7.50000000E+02  8.80000000E+01  0.00000000E+00
  7.60000000E+02  8.80000000E+01  0.00000000E+00
  7.70000000E+02  8.80000000E+01  0.00000000E+00
  7.80000000E+02  8.80000000E+01  0.00000000E+00
  7.90000000E+02  8.80000000E+01  0.00000000E+00
  8.00000000E+02  8.80000000E+01  0.00000000E+00
  8.10000000E+02  8.80000000E+01  0.00000000E+00
  8.20000000E+02  8.80000000E+01  0.00000000E+00
  8.30000000E+02  8.80000000E+01  0.00000000E+00
  8.40000000E+02  8.80000000E+01  0.00000000E+00
  8.50000000E+02  8.80000000E+01  0.00000000E+00
  8.60000000E+02  8.80000000E+01  0.00000000E+00
  8.70000000E+02  8.80000000E+01  0.00000000E+00
  8.80000000E+02  8.80000000E+01  0.00000000E+00
  8.90000000E+02  8.80000000E+01  0.00000000E+00
  9.00000000E+02  8.80000000E+01  0.00000000E+00
  9.10000000E+02  8.80000000E+01  0.00000000E+00
  9.20000000E+02  8.80000000E+01  0.00000000E+00
  9.30000000E+02  8.80000000E+01  0.00000000E+00
  9.40000000E+02  8.80000000E+01  0.00000000E+00
  9.50000000E+02  8.80000000E+01  0.00000000E+00
  9.60000000E+02  8.80000000E+01  0.00000000E+00
  9.70000000E+02  8.80000000E+01  0.00000000E+00
  9.80000000E+02  8.80000000E+01  0.00000000E+00
  9.90000000E+02  8.80000000E+01  0.00000000E+00
  1.00000000E+03  8.80000000E+01  0.00000000E+00
  0.00000000E+00  9.00000000E+01  0.00000000E+00
  1.00000000E+01  9.00000000E+01  0.00000000E+00
  2.00000000E+01  9.00000000E+01  0.00000000E+00
  3.00000000E+01  9.00000000E+01  0.00000000E+00
  4.00000000E+01  9.00000000E+01  0.00000000E+00
  5.00000000E+01  9.00000000E+01  0.00000000E+00
  6.00000000E+01  9.00000000E+01  0.00000000E+00
  7.00000000E+01  9.00000000E+01  0.00000000E+00
  8.00000000E+01  9.00000000E+01  0.00000000E+00
  9.00000000E+01  9.00000000E+01  0.00000000E+00
  1.00000000E+02  9.00000000E+01  0.00000000E+00
  1.10000000E+02  9.00000000E+01  0.00000000E+00
  1.20000000E+02  9.00000000E+01  0.00000000E+00
  1.30000000E+02  9.00000000E+01  0.00000000E+00
  1.40000000E+02  9.00000000E+01  0.00000000E+00
  1.50000000E+02  9.00000000E+01  0.00000000E+00
  1.60000000E+02  9.00000000E+01  0.00000000E+00
  1.70000000E+02  9.00000000E+01  0.00000000E+00
  1.80000000E+02  9.00000000E+01  0.00000000E+00
  1.90000000E+02  9.00000000E+01  0.00000000E+00
  2.00000000E+02  9.00000000E+01  0.00000000E+00
  2.10000000E+02  9.00000000E+01  0.00000000E+00
  2.20000000E+02  9.00000000E+01  0.00000000E+00
  2.30000000E+02  9.00000000E+01  0.00000000E+00
  2.40000000E+02  9.00000000E+01  0.00000000E+00
  2.50000000E+02  9.00000000E+01  0.00000000E+00
  2.60000000E+02  9.00000000E+01  0.00000000E+00
  2.70000000E+02  9.00000000E+01  0.00000000E+00
  2.80000000E+02  9.00000000E+01  0.00000000E+00
  2.90000000E+02  9.00000000E+01  0.00000000E+00
  3.00000000E+02  9.00000000E+01  0.00000000E+00
  3.10000000E+02  9.00000000E+01  0.00000000E+00
  3.20000000E+02  9.00000000E+01  0.00000000E+00
  3.30000000E+02  9.00000000E+01  0.00000000E+00
  3.40000000E+02  9.00000000E+01  0.00000000E+00
  3.50000000E+02  9.00000000E+01  0.00000000E+00
  3.60000000E+02  9.00000000E+01  0.00000000E+00
  3.70000000E+02  9.00000000E+01  0.00000000E+00
  3.80000000E+02  9.00000000E+01  0.00000000E+00
  3.90000000E+02  9.00000000E+01  0.00000000E+00
  4.00000000E+02  9.00000000E+01  0.00000000E+00
  4.10000000E+02  9.00000000E+01  0.00000000E+00
  4.20000000E+02  9.00000000E+01  0.00000000E+00
  4.30000000E+02  9.00000000E+01  0.00000000E+00
  4.40000000E+02  9.00000000E+01  0.00000000E+00
  4.50000000E+02  9.00000000E+01  0.00000000E+00
  4.60000000E+02  9.00000000E+01  0.00000000E+00
  4.70000000E+02  9.00000000E+01  0.00000000E+00
  4.80000000E+02  9.00000000E+01  0.00000000E+00
  4.90000000E+02  9.00000000E+01  0.00000000E+00
  5.00000000E+02  9.00000000E+01  0.00000000E+00
  5.10000000E+02  9.00000000E+01  0.00000000E+00
  5.20000000E+02  9.00000000E+01  0.00000000E+00
  5.30000000E+02  9.00000000E+01  0.00000000E+00
  5.40000000E+02  9.00000000E+01  0.00000000E+00
  5.50000000E+02  9.00000000E+01  0.00000000E+00
  5.60000000E+02  9.00000000E+01  0.00000000E+00
  5.70000000E+02  9.00000000E+01  0.00000000E+00
  5.80000000E+02  9.00000000E+01  0.00000000E+00
  5.90000000E+02  9.00000000E+01  0.00000000E+00
  6.00000000E+02  9.00000000E+01  0.00000000E+00
  6.10000000E+02  9.00000000E+01  0.00000000E+00
  6.20000000E+02  9.00000000E+01  0.00000000E+00
  6.30000000E+02  9.00000000E+01  0.00000000E+00
  6.40000000E+02  9.00000000E+01  0.00000000E+00
  6.50000000E+02  9.00000000E+01  0.00000000E+00
  6.60000000E+02  9.00000000E+01  0.00000000E+00
  6.70000000E+02  9.00000000E+01  0.00000000E+00
  6.80000000E+02  9.00000000E+01  0.00000000E+00
  6.90000000E+02  9.00000000E+01  0.00000000E+00
  7.00000000E+02  9.00000000E+01  0.00000000E+00
  7.10000000E+02  9.00000000E+01  0.00000000E+00
  7.20000000E+02  9.00000000E+01  0.00000000E+00
  7.30000000E+02  9.00000000E+01  0.00000000E+00
  7.40000000E+02  9.00000000E+01  0.00000000E+00
  7.50000000E+02  9.00000000E+01  0.00000000E+00
  7.60000000E+02  9.00000000E+01  0.00000000E+00
  7.70000000E+02  9.00000000E+01  0.00000000E+00
  7.80000000E+02  9.00000000E+01  0.00000000E+00
  7.90000000E+02  9.00000000E+01  0.00000000E+00
  8.00000000E+02  9.00000000E+01  0.00000000E+00
  8.10000000E+02  9.00000000E+01  0.00000000E+00
  8.20000000E+02  9.00000000E+01  0.00000000E+00
  8.30000000E+02  9.00000000E+01  0.00000000E+00
  8.40000000E+02  9.00000000E+01  0.00000000E+00
  8.50000000E+02  9.00000000E+01  0.00000000E+00
  8.60000000E+02  9.00000000E+01  0.00000000E+00
  8.70000000E+02  9.00000000E+01  0.00000000E+00
  8.80000000E+02  9.00000000E+01  0.00000000E+00
  8.90000000E+02  9.00000000E+01  0.00000000E+00
  9.00000000E+02  9.00000000E+01  0.00000000E+00
  9.10000000E+02  9.00000000E+01  0.00000000E+00
  9.20000000E+02  9.00000000E+01  0.00000000E+00
  9.30000000E+02  9.00000000E+01  0.00000000E+00
  9.40000000E+02  9.00000000E+01  0.00000000E+00
  9.50000000E+02  9.00000000E+01  0.00000000E+00
  9.60000000E+02  9.00000000E+01  0.00000000E+00
  9.70000000E+02  9.00000000E+01  0.00000000E+00
  9.80000000E+02  9.00000000E+01  0.00000000E+00
  9.90000000E+02  9.00000000E+01  0.00000000E+00
  1.00000000E+03  9.00000000E+01  0.00000000E+00
  0.00000000E+00  9.20000000E+01  0.00000000E+00
  1.00000000E+01  9.20000000E+01  0.00000000E+00
  2.00000000E+01  9.20000000E+01  0.00000000E+00
  3.00000000E+01  9.20000000E+01  0.00000000E+00
  4.00000000E+01  9.20000000E+01  0.00000000E+00
  5.00000000E+01  9.20000000E+01  0.00000000E+00
  6.00000000E+01  9.20000000E+01  0.00000000E+00
  7.00000000E+01  9.20000000E+01  0.00000000E+00
  8.00000000E+01  9.20000000E+01  0.00000000E+00
  9.00000000E+01  9.20000000E+01  0.00000000E+00
  1.00000000E+02  9.20000000E+01  0.00000000E+00
  1.10000000E+02  9.20000000E+01  0.00000000E+00
  1.20000000E+02  9.20000000E+01  0.00000000E+00
  1.30000000E+02  9.20000000E+01  0.00000000E+00
  1.40000000E+02  9.20000000E+01  0.00000000E+00
  1.50000000E+02  9.20000000E+01  0.00000000E+00
  1.60000000E+02  9.20000000E+01  0.00000000E+00
  1.70000000E+02  9.20000000E+01  0.00000000E+00
  1.80000000E+02  9.20000000E+01  0.00000000E+00
  1.90000000E+02  9.20000000E+01  0.00000000E+00
  2.00000000E+02  9.20000000E+01  0.00000000E+00
  2.10000000E+02  9.20000000E+01  0.00000000E+00
  2.20000000E+02  9.20000000E+01  0.00000000E+00
  2.30000000E+02  9.20000000E+01  0.00000000E+00
  2.40000000E+02  9.20000000E+01  0.00000000E+00
  2.50000000E+02  9.20000000E+01  0.00000000E+00
  2.60000000E+02  9.20000000E+01  0.00000000E+00
  2.70000000E+02  9.20000000E+01  0.00000000E+00
  2.80000000E+02  9.20000000E+01  0.00000000E+00
  2.90000000E+02  9.20000000E+01  0.00000000E+00
  3.00000000E+02  9.20000000E+01  0.00000000E+00
  3.10000000E+02  9.20000000E+01  0.00000000E+00
  3.20000000E+02  9.20000000E+01  0.00000000E+00
  3.30000000E+02  9.20000000E+01  0.00000000E+00
  3.40000000E+02  9.20000000E+01  0.00000000E+00
  3.50000000E+02  9.20000000E+01  0.00000000E+00
  3.60000000E+02  9.20000000E+01  0.00000000E+00
  3.70000000E+02  9.20000000E+01  0.00000000E+00
  3.80000000E+02  9.20000000E+01  0.00000000E+00
  3.90000000E+02  9.20000000E+01  0.00000000E+00
  4.00000000E+02  9.20000000E+01  0.00000000E+00
  4.10000000E+02  9.20000000E+01  0.00000000E+00
  4.20000000E+02  9.20000000E+01  0.00000000E+00
  4.30000000E+02  9.20000000E+01  0.00000000E+00
  4.40000000E+02  9.20000000E+01  0.00000000E+00
  4.50000000E+02  9.20000000E+01  0.00000000E+00
  4.60000000E+02  9.20000000E+01  0.00000000E+00
  4.70000000E+02  9.20000000E+01  0.00000000E+00
  4.80000000E+02  9.20000000E+01  0.00000000E+00
  4.90000000E+02  9.20000000E+01  0.00000000E+00
  5.00000000E+02  9.20000000E+01  0.00000000E+00
  5.10000000E+02  9.20000000E+01  0.00000000E+00
  5.20000000E+02  9.20000000E+01  0.00000000E+00
  5.30000000E+02  9.20000000E+01  0.00000000E+00
  5.40000000E+02  9.20000000E+01  0.00000000E+00
  5.50000000E+02  9.20000000E+01  0.00000000E+00
  5.60000000E+02  9.20000000E+01  0.00000000E+00
  5.70000000E+02  9.20000000E+01  0.00000000E+00
  5.80000000E+02  9.20000000E+01  0.00000000E+00
  5.90000000E+02  9.20000000E+01  0.00000000E+00
  6.00000000E+02  9.20000000E+01  0.00000000E+00
  6.10000000E+02  9.20000000E+01  0.00000000E+00
  6.20000000E+02  9.20000000E+01  0.00000000E+00
  6.30000000E+02  9.20000000E+01  0.00000000E+00
  6.40000000E+02  9.20000000E+01  0.00000000E+00
  6.50000000E+02  9.20000000E+01  0.00000000E+00
  6.60000000E+02  9.20000000E+01  0.00000000E+00
  6.70000000E+02  9.20000000E+01  0.00000000E+00
  6.80000000E+02  9.20000000E+01  0.00000000E+00
  6.90000000E+02  9.20000000E+01  0.00000000E+00
  7.00000000E+02  9.20000000E+01  0.00000000E+00
  7.10000000E+02  9.20000000E+01  0.00000000E+00
  7.20000000E+02  9.20000000E+01  0.00000000E+00
  7.30000000E+02  9.20000000E+01  0.00000000E+00
  7.40000000E+02  9.20000000E+01  0.00000000E+00
  7.50000000E+02  9.20000000E+01  0.00000000E+00
  7.60000000E+02  9.20000000E+01  0.00000000E+00
  7.70000000E+02  9.20000000E+01  0.00000000E+00
  7.80000000E+02  9.20000000E+01  0.00000000E+00
  7.90000000E+02  9.20000000E+01  0.00000000E+00
  8.00000000E+02  9.20000000E+01  0.00000000E+00
  8.10000000E+02  9.20000000E+01  0.00000000E+00
  8.20000000E+02  9.20000000E+01  0.00000000E+00
  8.30000000E+02  9.20000000E+01  0.00000000E+00
  8.40000000E+02  9.20000000E+01  0.00000000E+00
  8.50000000E+02  9.20000000E+01  0.00000000E+00
  8.60000000E+02  9.20000000E+01  0.00000000E+00
  8.70000000E+02  9.20000000E+01  0.00000000E+00
  8.80000000E+02  9.20000000E+01  0.00000000E+00
  8.90000000E+02  9.20000000E+01  0.00000000E+00
  9.00000000E+02  9.20000000E+01  0.00000000E+00
  9.10000000E+02  9.20000000E+01  0.00000000E+00
  9.20000000E+02  9.20000000E+01  0.00000000E+00
  9.30000000E+02  9.20000000E+01  0.00000000E+00
  9.40000000E+02  9.20000000E+01  0.00000000E+00
  9.50000000E+02  9.20000000E+01  0.00000000E+00
  9.60000000E+02  9.20000000E+01  0.00000000E+00
  9.70000000E+02  9.20000000E+01  0.00000000E+00
  9.80000000E+02  9.20000000E+01  0.00000000E+00
  9.90000000E+02  9.20000000E+01  0.00000000E+00
  1.00000000E+03  9.20000000E+01  0.00000000E+00
  0.00000000E+00  9.40000000E+01  0.00000000E+00
  1.00000000E+01  9.40000000E+01  0.00000000E+00
  2.00000000E+01  9.40000000E+01  0.00000000E+00
  3.00000000E+01  9.40000000E+01  0.00000000E+00
  4.00000000E+01  9.40000000E+01  0.00000000E+00
  5.00000000E+01  9.40000000E+01  0.00000000E+00
  6.00000000E+01  9.40000000E+01  0.00000000E+00
  7.00000000E+01  9.40000000E+01  0.00000000E+00
  8.00000000E+01  9.40000000E+01  0.00000000E+00
  9.00000000E+01  9.40000000E+01  0.00000000E+00
  1.00000000E+02  9.40000000E+01  0.00000000E+00
  1.10000000E+02  9.40000000E+01  0.00000000E+00
  1.20000000E+02  9.40000000E+01  0.00000000E+00
  1.30000000E+02  9.40000000E+01  0.00000000E+00
  1.40000000E+02  9.40000000E+01  0.00000000E+00
  1.50000000E+02  9.40000000E+01  0.00000000E+00
  1.60000000E+02  9.40000000E+01  0.00000000E+00
  1.70000000E+02  9.40000000E+01  0.00000000E+00
  1.80000000E+02  9.40000000E+01  0.00000000E+00
  1.90000000E+02  9.40000000E+01  0.00000000E+00
  2.00000000E+02  9.40000000E+01  0.00000000E+00
  2.10000000E+02  9.40000000E+01  0.00000000E+00
  2.20000000E+02  9.40000000E+01  0.00000000E+00
  2.30000000E+02  9.40000000E+01  0.00000000E+00
  2.40000000E+02  9.40000000E+01  0.00000000E+00
  2.50000000E+02  9.40000000E+01  0.00000000E+00
  2.60000000E+02  9.40000000E+01  0.00000000E+00
  2.70000000E+02  9.40000000E+01  0.00000000E+00
  2.80000000E+02  9.40000000E+01  0.00000000E+00
  2.90000000E+02  9.40000000E+01  0.00000000E+00
  3.00000000E+02  9.40000000E+01  0.00000000E+00
  3.10000000E+02  9.40000000E+01  0.00000000E+00
  3.20000000E+02  9.40000000E+01  0.00000000E+00
  3.30000000E+02  9.40000000E+01  0.00000000E+00
  3.40000000E+02  9.40000000E+01  0.00000000E+00
  3.50000000E+02  9.40000000E+01  0.00000000E+00
  3.60000000E+02  9.40000000E+01  0.00000000E+00
  3.70000000E+02  9.40000000E+01  0.00000000E+00
  3.80000000E+02  9.40000000E+01  0.00000000E+00
  3.90000000E+02  9.40000000E+01  0.00000000E+00
  4.00000000E+02  9.40000000E+01  0.00000000E+00
  4.10000000E+02  9.40000000E+01  0.00000000E+00
  4.20000000E+02  9.40000000E+01  0.00000000E+00
  4.30000000E+02  9.40000000E+01  0.00000000E+00
  4.40000000E+02  9.40000000E+01  0.00000000E+00
  4.50000000E+02  9.40000000E+01  0.00000000E+00
  4.60000000E+02  9.40000000E+01  0.00000000E+00
  4.70000000E+02  9.40000000E+01  0.00000000E+00
  4.80000000E+02  9.40000000E+01  0.00000000E+00
  4.90000000E+02  9.40000000E+01  0.00000000E+00
  5.00000000E+02  9.40000000E+01  0.00000000E+00
  5.10000000E+02  9.40000000E+01  0.00000000E+00
  5.20000000E+02  9.40000000E+01  0.00000000E+00
  5.30000000E+02  9.40000000E+01  0.00000000E+00
  5.40000000E+02  9.40000000E+01  0.00000000E+00
  5.50000000E+02  9.40000000E+01  0.00000000E+00
  5.60000000E+02  9.40000000E+01  0.00000000E+00
  5.70000000E+02  9.40000000E+01  0.00000000E+00
  5.80000000E+02  9.40000000E+01  0.00000000E+00
  5.90000000E+02  9.40000000E+01  0.00000000E+00
  6.00000000E+02  9.40000000E+01  0.00000000E+00
  6.10000000E+02  9.40000000E+01  0.00000000E+00
  6.20000000E+02  9.40000000E+01  0.00000000E+00
  6.30000000E+02  9.40000000E+01  0.00000000E+00
  6.40000000E+02  9.40000000E+01  0.00000000E+00
  6.50000000E+02  9.40000000E+01  0.00000000E+00
  6.60000000E+02  9.40000000E+01  0.00000000E+00
  6.70000000E+02  9.40000000E+01  0.00000000E+00
  6.80000000E+02  9.40000000E+01  0.00000000E+00
  6.90000000E+02  9.40000000E+01  0.00000000E+00
  7.00000000E+02  9.40000000E+01  0.00000000E+00
  7.10000000E+02  9.40000000E+01  0.00000000E+00
  7.20000000E+02  9.40000000E+01  0.00000000E+00
  7.30000000E+02  9.40000000E+01  0.00000000E+00
  7.40000000E+02  9.40000000E+01  0.00000000E+00
  7.50000000E+02  9.40000000E+01  0.00000000E+00
  7.60000000E+02  9.40000000E+01  0.00000000E+00
  7.70000000E+02  9.40000000E+01  0.00000000E+00
  7.80000000E+02  9.40000000E+01  0.00000000E+00
  7.90000000E+02  9.40000000E+01  0.00000000E+00
  8.00000000E+02  9.40000000E+01  0.00000000E+00
  8.10000000E+02  9.40000000E+01  0.00000000E+00
  8.20000000E+02  9.40000000E+01  0.00000000E+00
  8.30000000E+02  9.40000000E+01  0.00000000E+00
  8.40000000E+02  9.40000000E+01  0.00000000E+00
  8.50000000E+02  9.40000000E+01  0.00000000E+00
  8.60000000E+02  9.40000000E+01  0.00000000E+00
  8.70000000E+02  9.40000000E+01  0.00000000E+00
  8.80000000E+02  9.40000000E+01  0.00000000E+00
  8.90000000E+02  9.40000000E+01  0.00000000E+00
  9.00000000E+02  9.40000000E+01  0.00000000E+00
  9.10000000E+02  9.40000000E+01  0.00000000E+00
  9.20000000E+02  9.40000000E+01  0.00000000E+00
  9.30000000E+02  9.40000000E+01  0.00000000E+00
  9.40000000E+02  9.40000000E+01  0.00000000E+00
  9.50000000E+02  9.40000000E+01  0.00000000E+00
  9.60000000E+02  9.40000000E+01  0.00000000E+00
  9.70000000E+02  9.40000000E+01  0.00000000E+00
  9.80000000E+02  9.40000000E+01  0.00000000E+00
  9.90000000E+02  9.40000000E+01  0.00000000E+00
  1.00000000E+03  9.40000000E+01  0.00000000E+00
  0.00000000E+00  9.60000000E+01  0.00000000E+00
  1.00000000E+01  9.60000000E+01  0.00000000E+00
  2.00000000E+01  9.60000000E+01  0.00000000E+00
  3.00000000E+01  9.60000000E+01  0.00000000E+00
  4.00000000E+01  9.60000000E+01  0.00000000E+00
  5.00000000E+01  9.60000000E+01  0.00000000E+00
  6.00000000E+01  9.60000000E+01  0.00000000E+00
  7.00000000E+01  9.60000000E+01  0.00000000E+00
  8.00000000E+01  9.60000000E+01  0.00000000E+00
  9.00000000E+01  9.60000000E+01  0.00000000E+00
  1.00000000E+02  9.60000000E+01  0.00000000E+00
  1.10000000E+02  9.60000000E+01  0.00000000E+00
  1.20000000E+02  9.60000000E+01  0.00000000E+00
  1.30000000E+02  9.60000000E+01  0.00000000E+00
  1.40000000E+02  9.60000000E+01  0.00000000E+00
  1.50000000E+02  9.60000000E+01  0.00000000E+00
  1.60000000E+02  9.60000000E+01  0.00000000E+00
  1.70000000E+02  9.60000000E+01  0.00000000E+00
  1.80000000E+02  9.60000000E+01  0.00000000E+00
  1.90000000E+02  9.60000000E+01  0.00000000E+00
  2.00000000E+02  9.60000000E+01  0.00000000E+00
  2.10000000E+02  9.60000000E+01  0.00000000E+00
  2.20000000E+02  9.60000000E+01  0.00000000E+00
  2.30000000E+02  9.60000000E+01  0.00000000E+00
  2.40000000E+02  9.60000000E+01  0.00000000E+00
  2.50000000E+02  9.60000000E+01  0.00000000E+00
  2.60000000E+02  9.60000000E+01  0.00000000E+00
  2.70000000E+02  9.60000000E+01  0.00000000E+00
  2.80000000E+02  9.60000000E+01  0.00000000E+00
  2.90000000E+02  9.60000000E+01  0.00000000E+00
  3.00000000E+02  9.60000000E+01  0.00000000E+00
  3.10000000E+02  9.60000000E+01  0.00000000E+00
  3.20000000E+02  9.60000000E+01  0.00000000E+00
  3.30000000E+02  9.60000000E+01  0.00000000E+00
  3.40000000E+02  9.60000000E+01  0.00000000E+00
  3.50000000E+02  9.60000000E+01  0.00000000E+00
  3.60000000E+02  9.60000000E+01  0.00000000E+00
  3.70000000E+02  9.60000000E+01  0.00000000E+00
  3.80000000E+02  9.60000000E+01  0.00000000E+00
  3.90000000E+02  9.60000000E+01  0.00000000E+00
  4.00000000E+02  9.60000000E+01  0.00000000E+00
  4.10000000E+02  9.60000000E+01  0.00000000E+00
  4.20000000E+02  9.60000000E+01  0.00000000E+00
  4.30000000E+02  9.60000000E+01  0.00000000E+00
  4.40000000E+02  9.60000000E+01  0.00000000E+00
  4.50000000E+02  9.60000000E+01  0.00000000E+00
  4.60000000E+02  9.60000000E+01  0.00000000E+00
  4.70000000E+02  9.60000000E+01  0.00000000E+00
  4.80000000E+02  9.60000000E+01  0.00000000E+00
  4.90000000E+02  9.60000000E+01  0.00000000E+00
  5.00000000E+02  9.60000000E+01  0.00000000E+00
  5.10000000E+02  9.60000000E+01  0.00000000E+00
  5.20000000E+02  9.60000000E+01  0.00000000E+00
  5.30000000E+02  9.60000000E+01  0.00000000E+00
  5.40000000E+02  9.60000000E+01  0.00000000E+00
  5.50000000E+02  9.60000000E+01  0.00000000E+00
  5.60000000E+02  9.60000000E+01  0.00000000E+00
  5.70000000E+02  9.60000000E+01  0.00000000E+00
  5.80000000E+02  9.60000000E+01  0.00000000E+00
  5.90000000E+02  9.60000000E+01  0.00000000E+00
  6.00000000E+02  9.60000000E+01  0.00000000E+00
  6.10000000E+02  9.60000000E+01  0.00000000E+00
  6.20000000E+02  9.60000000E+01  0.00000000E+00
  6.30000000E+02  9.60000000E+01  0.00000000E+00
  6.40000000E+02  9.60000000E+01  0.00000000E+00
  6.50000000E+02  9.60000000E+01  0.00000000E+00
  6.60000000E+02  9.60000000E+01  0.00000000E+00
  6.70000000E+02  9.60000000E+01  0.00000000E+00
  6.80000000E+02  9.60000000E+01  0.00000000E+00
  6.90000000E+02  9.60000000E+01  0.00000000E+00
  7.00000000E+02  9.60000000E+01  0.00000000E+00
  7.10000000E+02  9.60000000E+01  0.00000000E+00
  7.20000000E+02  9.60000000E+01  0.00000000E+00
  7.30000000E+02  9.60000000E+01  0.00000000E+00
  7.40000000E+02  9.60000000E+01  0.00000000E+00
  7.50000000E+02  9.60000000E+01  0.00000000E+00
  7.60000000E+02  9.60000000E+01  0.00000000E+00
  7.70000000E+02  9.60000000E+01  0.00000000E+00
  7.80000000E+02  9.60000000E+01  0.00000000E+00
  7.90000000E+02  9.60000000E+01  0.00000000E+00
  8.00000000E+02  9.60000000E+01  0.00000000E+00
  8.10000000E+02  9.60000000E+01  0.00000000E+00
  8.20000000E+02  9.60000000E+01  0.00000000E+00
  8.30000000E+02  9.60000000E+01  0.00000000E+00
  8.40000000E+02  9.60000000E+01  0.00000000E+00
  8.50000000E+02  9.60000000E+01  0.00000000E+00
  8.60000000E+02  9.60000000E+01  0.00000000E+00
  8.70000000E+02  9.60000000E+01  0.00000000E+00
  8.80000000E+02  9.60000000E+01  0.00000000E+00
  8.90000000E+02  9.60000000E+01  0.00000000E+00
  9.00000000E+02  9.60000000E+01  0.00000000E+00
  9.10000000E+02  9.60000000E+01  0.00000000E+00
  9.20000000E+02  9.60000000E+01  0.00000000E+00
  9.30000000E+02  9.60000000E+01  0.00000000E+00
  9.40000000E+02  9.60000000E+01  0.00000000E+00
  9.50000000E+02  9.60000000E+01  0.00000000E+00
  9.60000000E+02  9.60000000E+01  0.00000000E+00
  9.70000000E+02  9.60000000E+01  0.00000000E+00
  9.80000000E+02  9.60000000E+01  0.00000000E+00
  9.90000000E+02  9.60000000E+01  0.00000000E+00
  1.00000000E+03  9.60000000E+01  0.00000000E+00
  0.00000000E+00  9.80000000E+01  0.00000000E+00
  1.00000000E+01  9.80000000E+01  0.00000000E+00
  2.00000000E+01  9.80000000E+01  0.00000000E+00
  3.00000000E+01  9.80000000E+01  0.00000000E+00
  4.00000000E+01  9.80000000E+01  0.00000000E+00
  5.00000000E+01  9.80000000E+01  0.00000000E+00
  6.00000000E+01  9.80000000E+01  0.00000000E+00
  7.00000000E+01  9.80000000E+01  0.00000000E+00
  8.00000000E+01  9.80000000E+01  0.00000000E+00
  9.00000000E+01  9.80000000E+01  0.00000000E+00
  1.00000000E+02  9.80000000E+01  0.00000000E+00
  1.10000000E+02  9.80000000E+01  0.00000000E+00
  1.20000000E+02  9.80000000E+01  0.00000000E+00
  1.30000000E+02  9.80000000E+01  0.00000000E+00
  1.40000000E+02  9.80000000E+01  0.00000000E+00
  1.50000000E+02  9.80000000E+01  0.00000000E+00
  1.60000000E+02  9.80000000E+01  0.00000000E+00
  1.70000000E+02  9.80000000E+01  0.00000000E+00
  1.80000000E+02  9.80000000E+01  0.00000000E+00
  1.90000000E+02  9.80000000E+01  0.00000000E+00
  2.00000000E+02  9.80000000E+01  0.00000000E+00
  2.10000000E+02  9.80000000E+01  0.00000000E+00
  2.20000000E+02  9.80000000E+01  0.00000000E+00
  2.30000000E+02  9.80000000E+01  0.00000000E+00
  2.40000000E+02  9.80000000E+01  0.00000000E+00
  2.50000000E+02  9.80000000E+01  0.00000000E+00
  2.60000000E+02  9.80000000E+01  0.00000000E+00
  2.70000000E+02  9.80000000E+01  0.00000000E+00
  2.80000000E+02  9.80000000E+01  0.00000000E+00
  2.90000000E+02  9.80000000E+01  0.00000000E+00
  3.00000000E+02  9.80000000E+01  0.00000000E+00
  3.10000000E+02  9.80000000E+01  0.00000000E+00
  3.20000000E+02  9.80000000E+01  0.00000000E+00
  3.30000000E+02  9.80000000E+01  0.00000000E+00
  3.40000000E+02  9.80000000E+01  0.00000000E+00
  3.50000000E+02  9.80000000E+01  0.00000000E+00
  3.60000000E+02  9.80000000E+01  0.00000000E+00
  3.70000000E+02  9.80000000E+01  0.00000000E+00
  3.80000000E+02  9.80000000E+01  0.00000000E+00
  3.90000000E+02  9.80000000E+01  0.00000000E+00
  4.00000000E+02  9.80000000E+01  0.00000000E+00
  4.10000000E+02  9.80000000E+01  0.00000000E+00
  4.20000000E+02  9.80000000E+01  0.00000000E+00
  4.30000000E+02  9.80000000E+01  0.00000000E+00
  4.40000000E+02  9.80000000E+01  0.00000000E+00
  4.50000000E+02  9.80000000E+01  0.00000000E+00
  4.60000000E+02  9.80000000E+01  0.00000000E+00
  4.70000000E+02  9.80000000E+01  0.00000000E+00
  4.80000000E+02  9.80000000E+01  0.00000000E+00
  4.90000000E+02  9.80000000E+01  0.00000000E+00
  5.00000000E+02  9.80000000E+01  0.00000000E+00
  5.10000000E+02  9.80000000E+01  0.00000000E+00
  5.20000000E+02  9.80000000E+01  0.00000000E+00
  5.30000000E+02  9.80000000E+01  0.00000000E+00
  5.40000000E+02  9.80000000E+01  0.00000000E+00
  5.50000000E+02  9.80000000E+01  0.00000000E+00
  5.60000000E+02  9.80000000E+01  0.00000000E+00
  5.70000000E+02  9.80000000E+01  0.00000000E+00
  5.80000000E+02  9.80000000E+01  0.00000000E+00
  5.90000000E+02  9.80000000E+01  0.00000000E+00
  6.00000000E+02  9.80000000E+01  0.00000000E+00
  6.10000000E+02  9.80000000E+01  0.00000000E+00
  6.20000000E+02  9.80000000E+01  0.00000000E+00
  6.30000000E+02  9.80000000E+01  0.00000000E+00
  6.40000000E+02  9.80000000E+01  0.00000000E+00
  6.50000000E+02  9.80000000E+01  0.00000000E+00
  6.60000000E+02  9.80000000E+01  0.00000000E+00
  6.70000000E+02  9.80000000E+01  0.00000000E+00
  6.80000000E+02  9.80000000E+01  0.00000000E+00
  6.90000000E+02  9.80000000E+01  0.00000000E+00
  7.00000000E+02  9.80000000E+01  0.00000000E+00
  7.10000000E+02  9.80000000E+01  0.00000000E+00
  7.20000000E+02  9.80000000E+01  0.00000000E+00
  7.30000000E+02  9.80000000E+01  0.00000000E+00
  7.40000000E+02  9.80000000E+01  0.00000000E+00
  7.50000000E+02  9.80000000E+01  0.00000000E+00
  7.60000000E+02  9.80000000E+01  0.00000000E+00
  7.70000000E+02  9.80000000E+01  0.00000000E+00
  7.80000000E+02  9.80000000E+01  0.00000000E+00
  7.90000000E+02  9.80000000E+01  0.00000000E+00
  8.00000000E+02  9.80000000E+01  0.00000000E+00
  8.10000000E+02  9.80000000E+01  0.00000000E+00
  8.20000000E+02  9.80000000E+01  0.00000000E+00
  8.30000000E+02  9.80000000E+01  0.00000000E+00
  8.40000000E+02  9.80000000E+01  0.00000000E+00
  8.50000000E+02  9.80000000E+01  0.00000000E+00
  8.60000000E+02  9.80000000E+01  0.00000000E+00
  8.70000000E+02  9.80000000E+01  0.00000000E+00
  8.80000000E+02  9.80000000E+01  0.00000000E+00
  8.90000000E+02  9.80000000E+01  0.00000000E+00
  9.00000000E+02  9.80000000E+01  0.00000000E+00
  9.10000000E+02  9.80000000E+01  0.00000000E+00
  9.20000000E+02  9.80000000E+01  0.00000000E+00
  9.30000000E+02  9.80000000E+01  0.00000000E+00
  9.40000000E+02  9.80000000E+01  0.00000000E+00
  9.50000000E+02  9.80000000E+01  0.00000000E+00
  9.60000000E+02  9.80000000E+01  0.00000000E+00
  9.70000000E+02  9.80000000E+01  0.00000000E+00
  9.80000000E+02  9.80000000E+01  0.00000000E+00
  9.90000000E+02  9.80000000E+01  0.00000000E+00
  1.00000000E+03  9.80000000E+01  0.00000000E+00
  0.00000000E+00  1.00000000E+02  0.00000000E+00
  1.00000000E+01  1.00000000E+02  0.00000000E+00
  2.00000000E+01  1.00000000E+02  0.00000000E+00
  3.00000000E+01  1.00000000E+02  0.00000000E+00
  4.00000000E+01  1.00000000E+02  0.00000000E+00
  5.00000000E+01  1.00000000E+02  0.00000000E+00
  6.00000000E+01  1.00000000E+02  0.00000000E+00
  7.00000000E+01  1.00000000E+02  0.00000000E+00
  8.00000000E+01  1.00000000E+02  0.00000000E+00
  9.00000000E+01  1.00000000E+02  0.00000000E+00
  1.00000000E+02  1.00000000E+02  0.00000000E+00
  1.10000000E+02  1.00000000E+02  0.00000000E+00
  1.20000000E+02  1.00000000E+02  0.00000000E+00
  1.30000000E+02  1.00000000E+02  0.00000000E+00
  1.40000000E+02  1.00000000E+02  0.00000000E+00
  1.50000000E+02  1.00000000E+02  0.00000000E+00
  1.60000000E+02  1.00000000E+02  0.00000000E+00
  1.70000000E+02  1.00000000E+02  0.00000000E+00
  1.80000000E+02  1.00000000E+02  0.00000000E+00
  1.90000000E+02  1.00000000E+02  0.00000000E+00
  2.00000000E+02  1.00000000E+02  0.00000000E+00
  2.10000000E+02  1.00000000E+02  0.00000000E+00
  2.20000000E+02  1.00000000E+02  0.00000000E+00
  2.30000000E+02  1.00000000E+02  0.00000000E+00
  2.40000000E+02  1.00000000E+02  0.00000000E+00
  2.50000000E+02  1.00000000E+02  0.00000000E+00
  2.60000000E+02  1.00000000E+02  0.00000000E+00
  2.70000000E+02  1.00000000E+02  0.00000000E+00
  2.80000000E+02  1.00000000E+02  0.00000000E+00
  2.90000000E+02  1.00000000E+02  0.00000000E+00
  3.00000000E+02  1.00000000E+02  0.00000000E+00
  3.10000000E+02  1.00000000E+02  0.00000000E+00
  3.20000000E+02  1.00000000E+02  0.00000000E+00
  3.30000000E+02  1.00000000E+02  0.00000000E+00
  3.40000000E+02  1.00000000E+02  0.00000000E+00
  3.50000000E+02  1.00000000E+02  0.00000000E+00
  3.60000000E+02  1.00000000E+02  0.00000000E+00
  3.70000000E+02  1.00000000E+02  0.00000000E+00
  3.80000000E+02  1.00000000E+02  0.00000000E+00
  3.90000000E+02  1.00000000E+02  0.00000000E+00
  4.00000000E+02  1.00000000E+02  0.00000000E+00
  4.10000000E+02  1.00000000E+02  0.00000000E+00
  4.20000000E+02  1.00000000E+02  0.00000000E+00
  4.30000000E+02  1.00000000E+02  0.00000000E+00
  4.40000000E+02  1.00000000E+02  0.00000000E+00
  4.50000000E+02  1.00000000E+02  0.00000000E+00
  4.60000000E+02  1.00000000E+02  0.00000000E+00
  4.70000000E+02  1.00000000E+02  0.00000000E+00
  4.80000000E+02  1.00000000E+02  0.00000000E+00
  4.90000000E+02  1.00000000E+02  0.00000000E+00
  5.00000000E+02  1.00000000E+02  0.00000000E+00
  5.10000000E+02  1.00000000E+02  0.00000000E+00
  5.20000000E+02  1.00000000E+02  0.00000000E+00
  5.30000000E+02  1.00000000E+02  0.00000000E+00
  5.40000000E+02  1.00000000E+02  0.00000000E+00
  5.50000000E+02  1.00000000E+02  0.00000000E+00
  5.60000000E+02  1.00000000E+02  0.00000000E+00
  5.70000000E+02  1.00000000E+02  0.00000000E+00
  5.80000000E+02  1.00000000E+02  0.00000000E+00
  5.90000000E+02  1.00000000E+02  0.00000000E+00
  6.00000000E+02  1.00000000E+02  0.00000000E+00
  6.10000000E+02  1.00000000E+02  0.00000000E+00
  6.20000000E+02  1.00000000E+02  0.00000000E+00
  6.30000000E+02  1.00000000E+02  0.00000000E+00
  6.40000000E+02  1.00000000E+02  0.00000000E+00
  6.50000000E+02  1.00000000E+02  0.00000000E+00
  6.60000000E+02  1.00000000E+02  0.00000000E+00
  6.70000000E+02  1.00000000E+02  0.00000000E+00
  6.80000000E+02  1.00000000E+02  0.00000000E+00
  6.90000000E+02  1.00000000E+02  0.00000000E+00
  7.00000000E+02  1.00000000E+02  0.00000000E+00
  7.10000000E+02  1.00000000E+02  0.00000000E+00
  7.20000000E+02  1.00000000E+02  0.00000000E+00
  7.30000000E+02  1.00000000E+02  0.00000000E+00
  7.40000000E+02  1.00000000E+02  0.00000000E+00
  7.50000000E+02  1.00000000E+02  0.00000000E+00
  7.60000000E+02  1.00000000E+02  0.00000000E+00
  7.70000000E+02  1.00000000E+02  0.00000000E+00
  7.80000000E+02  1.00000000E+02  0.00000000E+00
  7.90000000E+02  1.00000000E+02  0.00000000E+00
  8.00000000E+02  1.00000000E+02  0.00000000E+00
  8.10000000E+02  1.00000000E+02  0.00000000E+00
  8.20000000E+02  1.00000000E+02  0.00000000E+00
  8.30000000E+02  1.00000000E+02  0.00000000E+00
  8.40000000E+02  1.00000000E+02  0.00000000E+00
  8.50000000E+02  1.00000000E+02  0.00000000E+00
  8.60000000E+02  1.00000000E+02  0.00000000E+00
  8.70000000E+02  1.00000000E+02  0.00000000E+00
  8.80000000E+02  1.00000000E+02  0.00000000E+00
  8.90000000E+02  1.00000000E+02  0.00000000E+00
  9.00000000E+02  1.00000000E+02  0.00000000E+00
  9.10000000E+02  1.00000000E+02  0.00000000E+00
  9.20000000E+02  1.00000000E+02  0.00000000E+00
  9.30000000E+02  1.00000000E+02  0.00000000E+00
  9.40000000E+02  1.00000000E+02  0.00000000E+00
  9.50000000E+02  1.00000000E+02  0.00000000E+00
  9.60000000E+02  1.00000000E+02  0.00000000E+00
  9.70000000E+02  1.00000000E+02  0.00000000E+00
  9.80000000E+02  1.00000000E+02  0.00000000E+00
  9.90000000E+02  1.00000000E+02  0.00000000E+00
  1.00000000E+03  1.00000000E+02  0.00000000E+00
CELLS      5000     25000
         4           0           1         102         101
         4           1           2         103         102
         4           2           3         104         103
         4           3           4         105         104
         4           4           5         106         105
         4           5           6         107         106
         4           6           7         108         107
         4           7           8         109         108
         4           8           9         110         109
         4           9          10         111         110
         4          10          11         112         111
         4          11          12         113         112
         4          12          13         114         113
         4          13          14         115         114
         4          14          15         116         115
         4          15          16         117         116
         4          16          17         118         117
         4          17          18         119         118
         4          18          19         120         119
         4          19          20         121         120
         4          20          21         122         121
         4          21          22         123         122
         4          22          23         124         123
         4          23          24         125         124
         4          24          25         126         125
         4          25          26         127         126
         4          26          27         128         127
         4          27          28         129         128
         4          28          29         130         129
         4          29          30         131         130
         4          30          31         132         131
         4          31          32         133         132
         4          32          33         134         133
         4          33          34         135         134
         4          34          35         136         135
         4          35          36         137         136
         4          36          37         138         137
         4          37          38         139         138
         4          38          39         140         139
         4          39          40         141         140
         4          40          41         142         141
         4          41          42         143         142
         4          42          43         144         143
         4          43          44         145         144
         4          44          45         146         145
         4          45          46         147         146
         4          46          47         148         147
         4          47          48         149         148
         4          48          49         150         149
         4          49          50         151         150
         4          50          51         152         151
         4          51          52         153         152
         4          52          53         154         153
         4          53          54         155         154
         4          54          55         156         155
         4          55          56         157         156
         4          56          57         158         157
         4          57          58         159         158
         4          58          59         160         159
         4          59          60         161         160
         4          60          61         162         161
         4          61          62         163         162
         4          62          63         164         163
         4          63          64         165         164
         4          64          65         166         165
         4          65          66         167         166
         4          66          67         168         167
         4          67          68         169         168
         4          68          69         170         169
         4          69          70         171         170
         4          70          71         172         171
         4          71          72         173         172
         4          72          73         174         173
         4          73          74         175         174
         4          74          75         176         175
         4          75          76         177         176
         4          76          77         178         177
         4          77          78         179         178
         4          78          79         180         179
         4          79          80         181         180
         4          80          81         182         181
         4          81          82         183         182
         4          82          83         184         183
         4          83          84         185         184
         4          84          85         186         185
         4          85          86         187         186
         4          86          87         188         187
         4          87          88         189         188
         4          88          89         190         189
         4          89          90         191         190
         4          90          91         192         191
         4          91          92         193         192
         4          92          93         194         193
         4          93          94         195         194
         4          94          95         196         195
         4          95          96         197         196
         4          96          97         198         197
         4          97          98         199         198
         4          98          99         200         199
         4          99         100         201         200
         4         101         102         203         202
         4         102         103         204         203
         4         103         104         205         204
         4         104         105         206         205
         4         105         106         207         206
         4         106         107         208         207
         4         107         108         209         208
         4         108         109         210         209
         4         109         110         211         210
         4         110         111         212         211
         4         111         112         213         212
         4         112         113         214         213
         4         113         114         215         214
         4         114         115         216         215
         4         115         116         217         216
         4         116         117         218         217
         4         117         118         219         218
         4         118         119         220         219
         4         119         120         221         220
         4         120         121         222         221
         4         121         122         223         222
         4         122         123         224         223
         4         123         124         225         224
         4         124         125         226         225
         4         125         126         227         226
         4         126         127         228         227
         4         127         128         229         228
         4         128         129         230         229
         4         129         130         231         230
         4         130         131         232         231
         4         131         132         233         232
         4         132         133         234         233
         4         133         134         235         234
         4         134         135         236         235
         4         135         136         237         236
         4         136         137         238         237
         4         137         138         239         238
         4         138         139         240         239
         4         139         140         241         240
         4         140         141         242         241
         4         141         142         243         242
         4         142         143         244         243
         4         143         144         245         244
         4         144         145         246         245
         4         145         146         247         246
         4         146         147         248         247
         4         147         148         249         248
         4         148         149         250         249
         4         149         150         251         250
         4         150         151         252         251
         4         151         152         253         252
         4         152         153         254         253
         4         153         154         255         254
         4         154         155         256         255
         4         155         156         257         256
         4         156         157         258         257
         4         157         158         259         258
         4         158         159         260         259
         4         159         160         261         260
         4         160         161         262         261
         4         161         162         263         262
         4         162         163         264         263
         4         163         164         265         264
         4         164         165         266         265
         4         165         166         267         266
         4         166         167         268         267
         4         167         168         269         268
         4         168         169         270         269
         4         169         170         271         270
         4         170         171         272         271
         4         171         172         273         272
         4         172         173         274         273
         4         173         174         275         274
         4         174         175         276         275
         4         175         176         277         276
         4         176         177         278         277
         4         177         178         279         278
         4         178         179         280         279
         4         179         180         281         280
         4         180         181         282         281
         4         181         182         283         282
         4         182         183         284         283
         4         183         184         285         284
         4         184         185         286         285
         4         185         186         287         286
         4         186         187         288         287
         4         187         188         289         288
         4         188         189         290         289
         4         189         190         291         290
         4         190         191         292         291
         4         191         192         293         292
         4         192         193         294         293
         4         193         194         295         294
         4         194         195         296         295
         4         195         196         297         296
         4         196         197         298         297
         4         197         198         299         298
         4         198         199         300         299
         4         199         200         301         300
         4         200         201         302         301
         4         202         203         304         303
         4         203         204         305         304
         4         204         205         306         305
         4         205         206         307         306
         4         206         207         308         307
         4         207         208         309         308
         4         208         209         310         309
         4         209         210         311         310
         4         210         211         312         311
         4         211         212         313         312
         4         212         213         314         313
         4         213         214         315         314
         4         214         215         316         315
         4         215         216         317         316
         4         216         217         318         317
         4         217         218         319         318
         4         218         219         320         319
         4         219         220         321         320
         4         220         221         322         321
         4         221         222         323         322
         4         222         223         324         323
         4         223         224         325         324
         4         224         225         326         325
         4         225         226         327         326
         4         226         227         328         327
         4         227         228         329         328
         4         228         229         330         329
         4         229         230         331         330
         4         230         231         332         331
         4         231         232         333         332
         4         232         233         334         333
         4         233         234         335         334
         4         234         235         336         335
         4         235         236         337         336
         4         236         237         338         337
         4         237         238         339         338
         4         238         239         340         339
         4         239         240         341         340
         4         240         241         342         341
         4         241         242         343         342
         4         242         243         344         343
         4         243         244         345         344
         4         244         245         346         345
         4         245         246         347         346
         4         246         247         348         347
         4         247         248         349         348
         4         248         249         350         349
         4         249         250         351         350
         4         250         251         352         351
         4         251         252         353         352
         4         252         253         354         353
         4         253         254         355         354
         4         254         255         356         355
         4         255         256         357         356
         4         256         257         358         357
         4         257         258         359         358
         4         258         259         360         359
         4         259         260         361         360
         4         260         261         362         361
         4         261         262         363         362
         4         262         263         364         363
         4         263         264         365         364
         4         264         265         366         365
         4         265         266         367         366
         4         266         267         368         367
         4         267         268         369         368
         4         268         269         370         369
         4         269         270         371         370
         4         270         271         372         371
         4         271         272         373         372
         4         272         273         374         373
         4         273         274         375         374
         4         274         275         376         375
         4         275         276         377         376
         4         276         277         378         377
         4         277         278         379         378
         4         278         279         380         379
         4         279         280         381         380
         4         280         281         382         381
         4         281         282         383         382
         4         282         283         384         383
         4         283         284         385         384
         4         284         285         386         385
         4         285         286         387         386
         4         286         287         388         387
         4         287         288         389         388
         4         288         289         390         389
         4         289         290         391         390
         4         290         291         392         391
         4         291         292         393         392
         4         292         293         394         393
         4         293         294         395         394
         4         294         295         396         395
         4         295         296         397         396
         4         296         297         398         397
         4         297         298         399         398
         4         298         299         400         399
         4         299         300         401         400
         4         300         301         402         401
         4         301         302         403         402
         4         303         304         405         404
         4         304         305         406         405
         4         305         306         407         406
         4         306         307         408         407
         4         307         308         409         408
         4         308         309         410         409
         4         309         310         411         410
         4         310         311         412         411
         4         311         312         413         412
         4         312         313         414         413
         4         313         314         415         414
         4         314         315         416         415
         4         315         316         417         416
         4         316         317         418         417
         4         317         318         419         418
         4         318         319         420         419
         4         319         320         421         420
         4         320         321         422         421
         4         321         322         423         422
         4         322         323         424         423
         4         323         324         425         424
         4         324         325         426         425
         4         325         326         427         426
         4         326         327         428         427
         4         327         328         429         428
         4         328         329         430         429
         4         329         330         431         430
         4         330         331         432         431
         4         331         332         433         432
         4         332         333         434         433
         4         333         334         435         434
         4         334         335         436         435
         4         335         336         437         436
         4         336         337         438         437
         4         337         338         439         438
         4         338         339         440         439
         4         339         340         441         440
         4         340         341         442         441
         4         341         342         443         442
         4         342         343         444         443
         4         343         344         445         444
         4         344         345         446         445
         4         345         346         447         446
         4         346         347         448         447
         4         347         348         449         448
         4         348         349         450         449
         4         349         350         451         450
         4         350         351         452         451
         4         351         352         453         452
         4         352         353         454         453
         4         353         354         455         454
         4         354         355         456         455
         4         355         356         457         456
         4         356         357         458         457
         4         357         358         459         458
         4         358         359         460         459
         4         359         360         461         460
         4         360         361         462         461
         4         361         362         463         462
         4         362         363         464         463
         4         363         364         465         464
         4         364         365         466         465
         4         365         366         467         466
         4         366         367         468         467
         4         367         368         469         468
         4         368         369         470         469
         4         369         370         471         470
         4         370         371         472         471
         4         371         372         473         472
         4         372         373         474         473
         4         373         374         475         474
         4         374         375         476         475
         4         375         376         477         476
         4         376         377         478         477
         4         377         378         479         478
         4         378         379         480         479
         4         379         380         481         480
         4         380         381         482         481
         4         381         382         483         482
         4         382         383         484         483
         4         383         384         485         484
         4         384         385         486         485
         4         385         386         487         486
         4         386         387         488         487
         4         387         388         489         488
         4         388         389         490         489
         4         389         390         491         490
         4         390         391         492         491
         4         391         392         493         492
         4         392         393         494         493
         4         393         394         495         494
         4         394         395         496         495
         4         395         396         497         496
         4         396         397         498         497
         4         397         398         499         498
         4         398         399         500         499
         4         399         400         501         500
         4         400         401         502         501
         4         401         402         503         502
         4         402         403         504         503
         4         404         405         506         505
         4         405         406         507         506
         4         406         407         508         507
         4         407         408         509         508
         4         408         409         510         509
         4         409         410         511         510
         4         410         411         512         511
         4         411         412         513         512
         4         412         413         514         513
         4         413         414         515         514
         4         414         415         516         515
         4         415         416         517         516
         4         416         417         518         517
         4         417         418         519         518
         4         418         419         520         519
         4         419         420         521         520
         4         420         421         522         521
         4         421         422         523         522
         4         422         423         524         523
         4         423         424         525         524
         4         424         425         526         525
         4         425         426         527         526
         4         426         427         528         527
         4         427         428         529         528
         4         428         429         530         529
         4         429         430         531         530
         4         430         431         532         531
         4         431         432         533         532
         4         432         433         534         533
         4         433         434         535         534
         4         434         435         536         535
         4         435         436         537         536
         4         436         437         538         537
         4         437         438         539         538
         4         438         439         540         539
         4         439         440         541         540
         4         440         441         542         541
         4         441         442         543         542
         4         442         443         544         543
         4         443         444         545         544
         4         444         445         546         545
         4         445         446         547         546
         4         446         447         548         547
         4         447         448         549         548
         4         448         449         550         549
         4         449         450         551         550
         4         450         451         552         551
         4         451         452         553         552
         4         452         453         554         553
         4         453         454         555         554
         4         454         455         556         555
         4         455         456         557         556
         4         456         457         558         557
         4         457         458         559         558
         4         458         459         560         559
         4         459         460         561         560
         4         460         461         562         561
         4         461         462         563         562
         4         462         463         564         563
         4         463         464         565         564
         4         464         465         566         565
         4         465         466         567         566
         4         466         467         568         567
         4         467         468         569         568
         4         468         469         570         569
         4         469         470         571         570
         4         470         471         572         571
         4         471         472         573         572
         4         472         473         574         573
         4         473         474         575         574
         4         474         475         576         575
         4         475         476         577         576
         4         476         477         578         577
         4         477         478         579         578
         4         478         479         580         579
         4         479         480         581         580
         4         480         481         582         581
         4         481         482         583         582
         4         482         483         584         583
         4         483         484         585         584
         4         484         485         586         585
         4         485         486         587         586
         4         486         487         588         587
         4         487         488         589         588
         4         488         489         590         589
         4         489         490         591         590
         4         490         491         592         591
         4         491         492         593         592
         4         492         493         594         593
         4         493         494         595         594
         4         494         495         596         595
         4         495         496         597         596
         4         496         497         598         597
         4         497         498         599         598
         4         498         499         600         599
         4         499         500         601         600
         4         500         501         602         601
         4         501         502         603         602
         4         502         503         604         603
         4         503         504         605         604
         4         505         506         607         606
         4         506         507         608         607
         4         507         508         609         608
         4         508         509         610         609
         4         509         510         611         610
         4         510         511         612         611
         4         511         512         613         612
         4         512         513         614         613
         4         513         514         615         614
         4         514         515         616         615
         4         515         516         617         616
         4         516         517         618         617
         4         517         518         619         618
         4         518         519         620         619
         4         519         520         621         620
         4         520         521         622         621
         4         521         522         623         622
         4         522         523         624         623
         4         523         524         625         624
         4         524         525         626         625
         4         525         526         627         626
         4         526         527         628         627
         4         527         528         629         628
         4         528         529         630         629
         4         529         530         631         630
         4         530         531         632         631
         4         531         532         633         632
         4         532         533         634         633
         4         533         534         635         634
         4         534         535         636         635
         4         535         536         637         636
         4         536         537         638         637
         4         537         538         639         638
         4         538         539         640         639
         4         539         540         641         640
         4         540         541         642         641
         4         541         542         643         642
         4         542         543         644         643
         4         543         544         645         644
         4         544         545         646         645
         4         545         546         647         646
         4         546         547         648         647
         4         547         548         649         648
         4         548         549         650         649
         4         549         550         651         650
         4         550         551         652         651
         4         551         552         653         652
         4         552         553         654         653
         4         553         554         655         654
         4         554         555         656         655
         4         555         556         657         656
         4         556         557         658         657
         4         557         558         659         658
         4         558         559         660         659
         4         559         560         661         660
         4         560         561         662         661
         4         561         562         663         662
         4         562         563         664         663
         4         563         564         665         664
         4         564         565         666         665
         4         565         566         667         666
         4         566         567         668         667
         4         567         568         669         668
         4         568         569         670         669
         4         569         570         671         670
         4         570         571         672         671
         4         571         572         673         672
         4         572         573         674         673
         4         573         574         675         674
         4         574         575         676         675
         4         575         576         677         676
         4         576         577         678         677
         4         577         578         679         678
         4         578         579         680         679
         4         579         580         681         680
         4         580         581         682         681
         4         581         582         683         682
         4         582         583         684         683
         4         583         584         685         684
         4         584         585         686         685
         4         585         586         687         686
         4         586         587         688         687
         4         587         588         689         688
         4         588         589         690         689
         4         589         590         691         690
         4         590         591         692         691
         4         591         592         693         692
         4         592         593         694         693
         4         593         594         695         694
         4         594         595         696         695
         4         595         596         697         696
         4         596         597         698         697
         4         597         598         699         698
         4         598         599         700         699
         4         599         600         701         700
         4         600         601         702         701
         4         601         602         703         702
         4         602         603         704         703
         4         603         604         705         704
         4         604         605         706         705
         4         606         607         708         707
         4         607         608         709         708
         4         608         609         710         709
         4         609         610         711         710
         4         610         611         712         711
         4         611         612         713         712
         4         612         613         714         713
         4         613         614         715         714
         4         614         615         716         715
         4         615         616         717         716
         4         616         617         718         717
         4         617         618         719         718
         4         618         619         720         719
         4         619         620         721         720
         4         620         621         722         721
         4         621         622         723         722
         4         622         623         724         723
         4         623         624         725         724
         4         624         625         726         725
         4         625         626         727         726
         4         626         627         728         727
         4         627         628         729         728
         4         628         629         730         729
         4         629         630         731         730
         4         630         631         732         731
         4         631         632         733         732
         4         632         633         734         733
         4         633         634         735         734
         4         634         635         736         735
         4         635         636         737         736
         4         636         637         738         737
         4         637         638         739         738
         4         638         639         740         739
         4         639         640         741         740
         4         640         641         742         741
         4         641         642         743         742
         4         642         643         744         743
         4         643         644         745         744
         4         644         645         746         745
         4         645         646         747         746
         4         646         647         748         747
         4         647         648         749         748
         4         648         649         750         749
         4         649         650         751         750
         4         650         651         752         751
         4         651         652         753         752
         4         652         653         754         753
         4         653         654         755         754
         4         654         655         756         755
         4         655         656         757         756
         4         656         657         758         757
         4         657         658         759         758
         4         658         659         760         759
         4         659         660         761         760
         4         660         661         762         761
         4         661         662         763         762
         4         662         663         764         763
         4         663         664         765         764
         4         664         665         766         765
         4         665         666         767         766
         4         666         667         768         767
         4         667         668         769         768
         4         668         669         770         769
         4         669         670         771         770
         4         670         671         772         771
         4         671         672         773         772
         4         672         673         774         773
         4         673         674         775         774
         4         674         675         776         775
         4         675         676         777         776
         4         676         677         778         777
         4         677         678         779         778
         4         678         679         780         779
         4         679         680         781         780
         4         680         681         782         781
         4         681         682         783         782
         4         682         683         784         783
         4         683         684         785         784
         4         684         685         786         785
         4         685         686         787         786
         4         686         687         788         787
         4         687         688         789         788
         4         688         689         790         789
         4         689         690         791         790
         4         690         691         792         791
         4         691         692         793         792
         4         692         693         794         793
         4         693         694         795         794
         4         694         695         796         795
         4         695         696         797         796
         4         696         697         798         797
         4         697         698         799         798
         4         698         699         800         799
         4         699         700         801         800
         4         700         701         802         801
         4         701         702         803         802
         4         702         703         804         803
         4         703         704         805         804
         4         704         705         806         805
         4         705         706         807         806
         4         707         708         809         808
         4         708         709         810         809
         4         709         710         811         810
         4         710         711         812         811
         4         711         712         813         812
         4         712         713         814         813
         4         713         714         815         814
         4         714         715         816         815
         4         715         716         817         816
         4         716         717         818         817
         4         717         718         819         818
         4         718         719         820         819
         4         719         720         821         820
         4         720         721         822         821
         4         721         722         823         822
         4         722         723         824         823
         4         723         724         825         824
         4         724         725         826         825
         4         725         726         827         826
         4         726         727         828         827
         4         727         728         829         828
         4         728         729         830         829
         4         729         730         831         830
         4         730         731         832         831
         4         731         732         833         832
         4         732         733         834         833
         4         733         734         835         834
         4         734         735         836         835
         4         735         736         837         836
         4         736         737         838         837
         4         737         738         839         838
         4         738         739         840         839
         4         739         740         841         840
         4         740         741         842         841
         4         741         742         843         842
         4         742         743         844         843
         4         743         744         845         844
         4         744         745         846         845
         4         745         746         847         846
         4         746         747         848         847
         4         747         748         849         848
         4         748         749         850         849
         4         749         750         851         850
         4         750         751         852         851
         4         751         752         853         852
         4         752         753         854         853
         4         753         754         855         854
         4         754         755         856         855
         4         755         756         857         856
         4         756         757         858         857
         4         757         758         859         858
         4         758         759         860         859
         4         759         760         861         860
         4         760         761         862         861
         4         761         762         863         862
         4         762         763         864         863
         4         763         764         865         864
         4         764         765         866         865
         4         765         766         867         866
         4         766         767         868         867
         4         767         768         869         868
         4         768         769         870         869
         4         769         770         871         870
         4         770         771         872         871
         4         771         772         873         872
         4         772         773         874         873
         4         773         774         875         874
         4         774         775         876         875
         4         775         776         877         876
         4         776         777         878         877
         4         777         778         879         878
         4         778         779         880         879
         4         779         780         881         880
         4         780         781         882         881
         4         781         782         883         882
         4         782         783         884         883
         4         783         784         885         884
         4         784         785         886         885
         4         785         786         887         886
         4         786         787         888         887
         4         787         788         889         888
         4         788         789         890         889
         4         789         790         891         890
         4         790         791         892         891
         4         791         792         893         892
         4         792         793         894         893
         4         793         794         895         894
         4         794         795         896         895
         4         795         796         897         896
         4         796         797         898         897
         4         797         798         899         898
         4         798         799         900         899
         4         799         800         901         900
         4         800         801         902         901
         4         801         802         903         902
         4         802         803         904         903
         4         803         804         905         904
         4         804         805         906         905
         4         805         806         907         906
         4         806         807         908         907
         4         808         809         910         909
         4         809         810         911         910
         4         810         811         912         911
         4         811         812         913         912
         4         812         813         914         913
         4         813         814         915         914
         4         814         815         916         915
         4         815         816         917         916
         4         816         817         918         917
         4         817         818         919         918
         4         818         819         920         919
         4         819         820         921         920
         4         820         821         922         921
         4         821         822         923         922
         4         822         823         924         923
         4         823         824         925         924
         4         824         825         926         925
         4         825         826         927         926
         4         826         827         928         927
         4         827         828         929         928
         4         828         829         930         929
         4         829         830         931         930
         4         830         831         932         931
         4         831         832         933         932
         4         832         833         934         933
         4         833         834         935         934
         4         834         835         936         935
         4         835         836         937         936
         4         836         837         938         937
         4         837         838         939         938
         4         838         839         940         939
         4         839         840         941         940
         4         840         841         942         941
         4         841         842         943         942
         4         842         843         944         943
         4         843         844         945         944
         4         844         845         946         945
         4         845         846         947         946
         4         846         847         948         947
         4         847         848         949         948
         4         848         849         950         949
         4         849         850         951         950
         4         850         851         952         951
         4         851         852         953         952
         4         852         853         954         953
         4         853         854         955         954
         4         854         855         956         955
         4         855         856         957         956
         4         856         857         958         957
         4         857         858         959         958
         4         858         859         960         959
         4         859         860         961         960
         4         860         861         962         961
         4         861         862         963         962
         4         862         863         964         963
         4         863         864         965         964
         4         864         865         966         965
         4         865         866         967         966
         4         866         867         968         967
         4         867         868         969         968
         4         868         869         970         969
         4         869         870         971         970
         4         870         871         972         971
         4         871         872         973         972
         4         872         873         974         973
         4         873         874         975         974
         4         874         875         976         975
         4         875         876         977         976
         4         876         877         978         977
         4         877         878         979         978
         4         878         879         980         979
         4         879         880         981         980
         4         880         881         982         981
         4         881         882         983         982
         4         882         883         984         983
         4         883         884         985         984
         4         884         885         986         985
         4         885         886         987         986
         4         886         887         988         987
         4         887         888         989         988
         4         888         889         990         989
         4         889         890         991         990
         4         890         891         992         991
         4         891         892         993         992
         4         892         893         994         993
         4         893         894         995         994
         4         894         895         996         995
         4         895         896         997         996
         4         896         897         998         997
         4         897         898         999         998
         4         898         899        1000         999
         4         899         900        1001        1000
         4         900         901        1002        1001
         4         901         902        1003        1002
         4         902         903        1004        1003
         4         903         904        1005        1004
         4         904         905        1006        1005
         4         905         906        1007        1006
         4         906         907        1008        1007
         4         907         908        1009        1008
         4         909         910        1011        1010
         4         910         911        1012        1011
         4         911         912        1013        1012
         4         912         913        1014        1013
         4         913         914        1015        1014
         4         914         915        1016        1015
         4         915         916        1017        1016
         4         916         917        1018        1017
         4         917         918        1019        1018
         4         918         919        1020        1019
         4         919         920        1021        1020
         4         920         921        1022        1021
         4         921         922        1023        1022
         4         922         923        1024        1023
         4         923         924        1025        1024
         4         924         925        1026        1025
         4         925         926        1027        1026
         4         926         927        1028        1027
         4         927         928        1029        1028
         4         928         929        1030        1029
         4         929         930        1031        1030
         4         930         931        1032        1031
         4         931         932        1033        1032
         4         932         933        1034        1033
         4         933         934        1035        1034
         4         934         935        1036        1035
         4         935         936        1037        1036
         4         936         937        1038        1037
         4         937         938        1039        1038
         4         938         939        1040        1039
         4         939         940        1041        1040
         4         940         941        1042        1041
         4         941         942        1043        1042
         4         942         943        1044        1043
         4         943         944        1045        1044
         4         944         945        1046        1045
         4         945         946        1047        1046
         4         946         947        1048        1047
         4         947         948        1049        1048
         4         948         949        1050        1049
         4         949         950        1051        1050
         4         950         951        1052        1051
         4         951         952        1053        1052
         4         952         953        1054        1053
         4         953         954        1055        1054
         4         954         955        1056        1055
         4         955         956        1057        1056
         4         956         957        1058        1057
         4         957         958        1059        1058
         4         958         959        1060        1059
         4         959         960        1061        1060
         4         960         961        1062        1061
         4         961         962        1063        1062
         4         962         963        1064        1063
         4         963         964        1065        1064
         4         964         965        1066        1065
         4         965         966        1067        1066
         4         966         967        1068        1067
         4         967         968        1069        1068
         4         968         969        1070        1069
         4         969         970        1071        1070
         4         970         971        1072        1071
         4         971         972        1073        1072
         4         972         973        1074        1073
         4         973         974        1075        1074
         4         974         975        1076        1075
         4         975         976        1077        1076
         4         976         977        1078        1077
         4         977         978        1079        1078
         4         978         979        1080        1079
         4         979         980        1081        1080
         4         980         981        1082        1081
         4         981         982        1083        1082
         4         982         983        1084        1083
         4         983         984        1085        1084
         4         984         985        1086        1085
         4         985         986        1087        1086
         4         986         987        1088        1087
         4         987         988        1089        1088
         4         988         989        1090        1089
         4         989         990        1091        1090
         4         990         991        1092        1091
         4         991         992        1093        1092
         4         992         993        1094        1093
         4         993         994        1095        1094
         4         994         995        1096        1095
         4         995         996        1097        1096
         4         996         997        1098        1097
         4         997         998        1099        1098
         4         998         999        1100        1099
         4         999        1000        1101        1100
         4        1000        1001        1102        1101
         4        1001        1002        1103        1102
         4        1002        1003        1104        1103
         4        1003        1004        1105        1104
         4        1004        1005        1106        1105
         4        1005        1006        1107        1106
         4        1006        1007        1108        1107
         4        1007        1008        1109        1108
         4        1008        1009        1110        1109
         4        1010        1011        1112        1111
         4        1011        1012        1113        1112
         4        1012        1013        1114        1113
         4        1013        1014        1115        1114
         4        1014        1015        1116        1115
         4        1015        1016        1117        1116
         4        1016        1017        1118        1117
         4        1017        1018        1119        1118
         4        1018        1019        1120        1119
         4        1019        1020        1121        1120
         4        1020        1021        1122        1121
         4        1021        1022        1123        1122
         4        1022        1023        1124        1123
         4        1023        1024        1125        1124
         4        1024        1025        1126        1125
         4        1025        1026        1127        1126
         4        1026        1027        1128        1127
         4        1027        1028        1129        1128
         4        1028        1029        1130        1129
         4        1029        1030        1131        1130
         4        1030        1031        1132        1131
         4        1031        1032        1133        1132
         4        1032        1033        1134        1133
         4        1033        1034        1135        1134
         4        1034        1035        1136        1135
         4        1035        1036        1137        1136
         4        1036        1037        1138        1137
         4        1037        1038        1139        1138
         4        1038        1039        1140        1139
         4        1039        1040        1141        1140
         4        1040        1041        1142        1141
         4        1041        1042        1143        1142
         4        1042        1043        1144        1143
         4        1043        1044        1145        1144
         4        1044        1045        1146        1145
         4        1045        1046        1147        1146
         4        1046        1047        1148        1147
         4        1047        1048        1149        1148
         4        1048        1049        1150        1149
         4        1049        1050        1151        1150
         4        1050        1051        1152        1151
         4        1051        1052        1153        1152
         4        1052        1053        1154        1153
         4        1053        1054        1155        1154
         4        1054        1055        1156        1155
         4        1055        1056        1157        1156
         4        1056        1057        1158        1157
         4        1057        1058        1159        1158
         4        1058        1059        1160        1159
         4        1059        1060        1161        1160
         4        1060        1061        1162        1161
         4        1061        1062        1163        1162
         4        1062        1063        1164        1163
         4        1063        1064        1165        1164
         4        1064        1065        1166        1165
         4        1065        1066        1167        1166
         4        1066        1067        1168        1167
         4        1067        1068        1169        1168
         4        1068        1069        1170        1169
         4        1069        1070        1171        1170
         4        1070        1071        1172        1171
         4        1071        1072        1173        1172
         4        1072        1073        1174        1173
         4        1073        1074        1175        1174
         4        1074        1075        1176        1175
         4        1075        1076        1177        1176
         4        1076        1077        1178        1177
         4        1077        1078        1179        1178
         4        1078        1079        1180        1179
         4        1079        1080        1181        1180
         4        1080        1081        1182        1181
         4        1081        1082        1183        1182
         4        1082        1083        1184        1183
         4        1083        1084        1185        1184
         4        1084        1085        1186        1185
         4        1085        1086        1187        1186
         4        1086        1087        1188        1187
         4        1087        1088        1189        1188
         4        1088        1089        1190        1189
         4        1089        1090        1191        1190
         4        1090        1091        1192        1191
         4        1091        1092        1193        1192
         4        1092        1093        1194        1193
         4        1093        1094        1195        1194
         4        1094        1095        1196        1195
         4        1095        1096        1197        1196
         4        1096        1097        1198        1197
         4        1097        1098        1199        1198
         4        1098        1099        1200        1199
         4        1099        1100        1201        1200
         4        1100        1101        1202        1201
         4        1101        1102        1203        1202
         4        1102        1103        1204        1203
         4        1103        1104        1205        1204
         4        1104        1105        1206        1205
         4        1105        1106        1207        1206
         4        1106        1107        1208        1207
         4        1107        1108        1209        1208
         4        1108        1109        1210        1209
         4        1109        1110        1211        1210
         4        1111        1112        1213        1212
         4        1112        1113        1214        1213
         4        1113        1114        1215        1214
         4        1114        1115        1216        1215
         4        1115        1116        1217        1216
         4        1116        1117        1218        1217
         4        1117        1118        1219        1218
         4        1118        1119        1220        1219
         4        1119        1120        1221        1220
         4        1120        1121        1222        1221
         4        1121        1122        1223        1222
         4        1122        1123        1224        1223
         4        1123        1124        1225        1224
         4        1124        1125        1226        1225
         4        1125        1126        1227        1226
         4        1126        1127        1228        1227
         4        1127        1128        1229        1228
         4        1128        1129        1230        1229
         4        1129        1130        1231        1230
         4        1130        1131        1232        1231
         4        1131        1132        1233        1232
         4        1132        1133        1234        1233
         4        1133        1134        1235        1234
         4        1134        1135        1236        1235
         4        1135        1136        1237        1236
         4        1136        1137        1238        1237
         4        1137        1138        1239        1238
         4        1138        1139        1240        1239
         4        1139        1140        1241        1240
         4        1140        1141        1242        1241
         4        1141        1142        1243        1242
         4        1142        1143        1244        1243
         4        1143        1144        1245        1244
         4        1144        1145        1246        1245
         4        1145        1146        1247        1246
         4        1146        1147        1248        1247
         4        1147        1148        1249        1248
         4        1148        1149        1250        1249
         4        1149        1150        1251        1250
         4        1150        1151        1252        1251
         4        1151        1152        1253        1252
         4        1152        1153        1254        1253
         4        1153        1154        1255        1254
         4        1154        1155        1256        1255
         4        1155        1156        1257        1256
         4        1156        1157        1258        1257
         4        1157        1158        1259        1258
         4        1158        1159        1260        1259
         4        1159        1160        1261        1260
         4        1160        1161        1262        1261
         4        1161        1162        1263        1262
         4        1162        1163        1264        1263
         4        1163        1164        1265        1264
         4        1164        1165        1266        1265
         4        1165        1166        1267        1266
         4        1166        1167        1268        1267
         4        1167        1168        1269        1268
         4        1168        1169        1270        1269
         4        1169        1170        1271        1270
         4        1170        1171        1272        1271
         4        1171        1172        1273        1272
         4        1172        1173        1274        1273
         4        1173        1174        1275        1274
         4        1174        1175        1276        1275
         4        1175        1176        1277        1276
         4        1176        1177        1278        1277
         4        1177        1178        1279        1278
         4        1178        1179        1280        1279
         4        1179        1180        1281        1280
         4        1180        1181        1282        1281
         4        1181        1182        1283        1282
         4        1182        1183        1284        1283
         4        1183        1184        1285        1284
         4        1184        1185        1286        1285
         4        1185        1186        1287        1286
         4        1186        1187        1288        1287
         4        1187        1188        1289        1288
         4        1188        1189        1290        1289
         4        1189        1190        1291        1290
         4        1190        1191        1292        1291
         4        1191        1192        1293        1292
         4        1192        1193        1294        1293
         4        1193        1194        1295        1294
         4        1194        1195        1296        1295
         4        1195        1196        1297        1296
         4        1196        1197        1298        1297
         4        1197        1198        1299        1298
         4        1198        1199        1300        1299
         4        1199        1200        1301        1300
         4        1200        1201        1302        1301
         4        1201        1202        1303        1302
         4        1202        1203        1304        1303
         4        1203        1204        1305        1304
         4        1204        1205        1306        1305
         4        1205        1206        1307        1306
         4        1206        1207        1308        1307
         4        1207        1208        1309        1308
         4        1208        1209        1310        1309
         4        1209        1210        1311        1310
         4        1210        1211        1312        1311
         4        1212        1213        1314        1313
         4        1213        1214        1315        1314
         4        1214        1215        1316        1315
         4        1215        1216        1317        1316
         4        1216        1217        1318        1317
         4        1217        1218        1319        1318
         4        1218        1219        1320        1319
         4        1219        1220        1321        1320
         4        1220        1221        1322        1321
         4        1221        1222        1323        1322
         4        1222        1223        1324        1323
         4        1223        1224        1325        1324
         4        1224        1225        1326        1325
         4        1225        1226        1327        1326
         4        1226        1227        1328        1327
         4        1227        1228        1329        1328
         4        1228        1229        1330        1329
         4        1229        1230        1331        1330
         4        1230        1231        1332        1331
         4        1231        1232        1333        1332
         4        1232        1233        1334        1333
         4        1233        1234        1335        1334
         4        1234        1235        1336        1335
         4        1235        1236        1337        1336
         4        1236        1237        1338        1337
         4        1237        1238        1339        1338
         4        1238        1239        1340        1339
         4        1239        1240        1341        1340
         4        1240        1241        1342        1341
         4        1241        1242        1343        1342
         4        1242        1243        1344        1343
         4        1243        1244        1345        1344
         4        1244        1245        1346        1345
         4        1245        1246        1347        1346
         4        1246        1247        1348        1347
         4        1247        1248        1349        1348
         4        1248        1249        1350        1349
         4        1249        1250        1351        1350
         4        1250        1251        1352        1351
         4        1251        1252        1353        1352
         4        1252        1253        1354        1353
         4        1253        1254        1355        1354
         4        1254        1255        1356        1355
         4        1255        1256        1357        1356
         4        1256        1257        1358        1357
         4        1257        1258        1359        1358
         4        1258        1259        1360        1359
         4        1259        1260        1361        1360
         4        1260        1261        1362        1361
         4        1261        1262        1363        1362
         4        1262        1263        1364        1363
         4        1263        1264        1365        1364
         4        1264        1265        1366        1365
         4        1265        1266        1367        1366
         4        1266        1267        1368        1367
         4        1267        1268        1369        1368
         4        1268        1269        1370        1369
         4        1269        1270        1371        1370
         4        1270        1271        1372        1371
         4        1271        1272        1373        1372
         4        1272        1273        1374        1373
         4        1273        1274        1375        1374
         4        1274        1275        1376        1375
         4        1275        1276        1377        1376
         4        1276        1277        1378        1377
         4        1277        1278        1379        1378
         4        1278        1279        1380        1379
         4        1279        1280        1381        1380
         4        1280        1281        1382        1381
         4        1281        1282        1383        1382
         4        1282        1283        1384        1383
         4        1283        1284        1385        1384
         4        1284        1285        1386        1385
         4        1285        1286        1387        1386
         4        1286        1287        1388        1387
         4        1287        1288        1389        1388
         4        1288        1289        1390        1389
         4        1289        1290        1391        1390
         4        1290        1291        1392        1391
         4        1291        1292        1393        1392
         4        1292        1293        1394        1393
         4        1293        1294        1395        1394
         4        1294        1295        1396        1395
         4        1295        1296        1397        1396
         4        1296        1297        1398        1397
         4        1297        1298        1399        1398
         4        1298        1299        1400        1399
         4        1299        1300        1401        1400
         4        1300        1301        1402        1401
         4        1301        1302        1403        1402
         4        1302        1303        1404        1403
         4        1303        1304        1405        1404
         4        1304        1305        1406        1405
         4        1305        1306        1407        1406
         4        1306        1307        1408        1407
         4        1307        1308        1409        1408
         4        1308        1309        1410        1409
         4        1309        1310        1411        1410
         4        1310        1311        1412        1411
         4        1311        1312        1413        1412
         4        1313        1314        1415        1414
         4        1314        1315        1416        1415
         4        1315        1316        1417        1416
         4        1316        1317        1418        1417
         4        1317        1318        1419        1418
         4        1318        1319        1420        1419
         4        1319        1320        1421        1420
         4        1320        1321        1422        1421
         4        1321        1322        1423        1422
         4        1322        1323        1424        1423
         4        1323        1324        1425        1424
         4        1324        1325        1426        1425
         4        1325        1326        1427        1426
         4        1326        1327        1428        1427
         4        1327        1328        1429        1428
         4        1328        1329        1430        1429
         4        1329        1330        1431        1430
         4        1330        1331        1432        1431
         4        1331        1332        1433        1432
         4        1332        1333        1434        1433
         4        1333        1334        1435        1434
         4        1334        1335        1436        1435
         4        1335        1336        1437        1436
         4        1336        1337        1438        1437
         4        1337        1338        1439        1438
         4        1338        1339        1440        1439
         4        1339        1340        1441        1440
         4        1340        1341        1442        1441
         4        1341        1342        1443        1442
         4        1342        1343        1444        1443
         4        1343        1344        1445        1444
         4        1344        1345        1446        1445
         4        1345        1346        1447        1446
         4        1346        1347        1448        1447
         4        1347        1348        1449        1448
         4        1348        1349        1450        1449
         4        1349        1350        1451        1450
         4        1350        1351        1452        1451
         4        1351        1352        1453        1452
         4        1352        1353        1454        1453
         4        1353        1354        1455        1454
         4        1354        1355        1456        1455
         4        1355        1356        1457        1456
         4        1356        1357        1458        1457
         4        1357        1358        1459        1458
         4        1358        1359        1460        1459
         4        1359        1360        1461        1460
         4        1360        1361        1462        1461
         4        1361        1362        1463        1462
         4        1362        1363        1464        1463
         4        1363        1364        1465        1464
         4        1364        1365        1466        1465
         4        1365        1366        1467        1466
         4        1366        1367        1468        1467
         4        1367        1368        1469        1468
         4        1368        1369        1470        1469
         4        1369        1370        1471        1470
         4        1370        1371        1472        1471
         4        1371        1372        1473        1472
         4        1372        1373        1474        1473
         4        1373        1374        1475        1474
         4        1374        1375        1476        1475
         4        1375        1376        1477        1476
         4        1376        1377        1478        1477
         4        1377        1378        1479        1478
         4        1378        1379        1480        1479
         4        1379        1380        1481        1480
         4        1380        1381        1482        1481
         4        1381        1382        1483        1482
         4        1382        1383        1484        1483
         4        1383        1384        1485        1484
         4        1384        1385        1486        1485
         4        1385        1386        1487        1486
         4        1386        1387        1488        1487
         4        1387        1388        1489        1488
         4        1388        1389        1490        1489
         4        1389        1390        1491        1490
         4        1390        1391        1492        1491
         4        1391        1392        1493        1492
         4        1392        1393        1494        1493
         4        1393        1394        1495        1494
         4        1394        1395        1496        1495
         4        1395        1396        1497        1496
         4        1396        1397        1498        1497
         4        1397        1398        1499        1498
         4        1398        1399        1500        1499
         4        1399        1400        1501        1500
         4        1400        1401        1502        1501
         4        1401        1402        1503        1502
         4        1402        1403        1504        1503
         4        1403        1404        1505        1504
         4        1404        1405        1506        1505
         4        1405        1406        1507        1506
         4        1406        1407        1508        1507
         4        1407        1408        1509        1508
         4        1408        1409        1510        1509
         4        1409        1410        1511        1510
         4        1410        1411        1512        1511
         4        1411        1412        1513        1512
         4        1412        1413        1514        1513
         4        1414        1415        1516        1515
         4        1415        1416        1517        1516
         4        1416        1417        1518        1517
         4        1417        1418        1519        1518
         4        1418        1419        1520        1519
         4        1419        1420        1521        1520
         4        1420        1421        1522        1521
         4        1421        1422        1523        1522
         4        1422        1423        1524        1523
         4        1423        1424        1525        1524
         4        1424        1425        1526        1525
         4        1425        1426        1527        1526
         4        1426        1427        1528        1527
         4        1427        1428        1529        1528
         4        1428        1429        1530        1529
         4        1429        1430        1531        1530
         4        1430        1431        1532        1531
         4        1431        1432        1533        1532
         4        1432        1433        1534        1533
         4        1433        1434        1535        1534
         4        1434        1435        1536        1535
         4        1435        1436        1537        1536
         4        1436        1437        1538        1537
         4        1437        1438        1539        1538
         4        1438        1439        1540        1539
         4        1439        1440        1541        1540
         4        1440        1441        1542        1541
         4        1441        1442        1543        1542
         4        1442        1443        1544        1543
         4        1443        1444        1545        1544
         4        1444        1445        1546        1545
         4        1445        1446        1547        1546
         4        1446        1447        1548        1547
         4        1447        1448        1549        1548
         4        1448        1449        1550        1549
         4        1449        1450        1551        1550
         4        1450        1451        1552        1551
         4        1451        1452        1553        1552
         4        1452        1453        1554        1553
         4        1453        1454        1555        1554
         4        1454        1455        1556        1555
         4        1455        1456        1557        1556
         4        1456        1457        1558        1557
         4        1457        1458        1559        1558
         4        1458        1459        1560        1559
         4        1459        1460        1561        1560
         4        1460        1461        1562        1561
         4        1461        1462        1563        1562
         4        1462        1463        1564        1563
         4        1463        1464        1565        1564
         4        1464        1465        1566        1565
         4        1465        1466        1567        1566
         4        1466        1467        1568        1567
         4        1467        1468        1569        1568
         4        1468        1469        1570        1569
         4        1469        1470        1571        1570
         4        1470        1471        1572        1571
         4        1471        1472        1573        1572
         4        1472        1473        1574        1573
         4        1473        1474        1575        1574
         4        1474        1475        1576        1575
         4        1475        1476        1577        1576
         4        1476        1477        1578        1577
         4        1477        1478        1579        1578
         4        1478        1479        1580        1579
         4        1479        1480        1581        1580
         4        1480        1481        1582        1581
         4        1481        1482        1583        1582
         4        1482        1483        1584        1583
         4        1483        1484        1585        1584
         4        1484        1485        1586        1585
         4        1485        1486        1587        1586
         4        1486        1487        1588        1587
         4        1487        1488        1589        1588
         4        1488        1489        1590        1589
         4        1489        1490        1591        1590
         4        1490        1491        1592        1591
         4        1491        1492        1593        1592
         4        1492        1493        1594        1593
         4        1493        1494        1595        1594
         4        1494        1495        1596        1595
         4        1495        1496        1597        1596
         4        1496        1497        1598        1597
         4        1497        1498        1599        1598
         4        1498        1499        1600        1599
         4        1499        1500        1601        1600
         4        1500        1501        1602        1601
         4        1501        1502        1603        1602
         4        1502        1503        1604        1603
         4        1503        1504        1605        1604
         4        1504        1505        1606        1605
         4        1505        1506        1607        1606
         4        1506        1507        1608        1607
         4        1507        1508        1609        1608
         4        1508        1509        1610        1609
         4        1509        1510        1611        1610
         4        1510        1511        1612        1611
         4        1511        1512        1613        1612
         4        1512        1513        1614        1613
         4        1513        1514        1615        1614
         4        1515        1516        1617        1616
         4        1516        1517        1618        1617
         4        1517        1518        1619        1618
         4        1518        1519        1620        1619
         4        1519        1520        1621        1620
         4        1520        1521        1622        1621
         4        1521        1522        1623        1622
         4        1522        1523        1624        1623
         4        1523        1524        1625        1624
         4        1524        1525        1626        1625
         4        1525        1526        1627        1626
         4        1526        1527        1628        1627
         4        1527        1528        1629        1628
         4        1528        1529        1630        1629
         4        1529        1530        1631        1630
         4        1530        1531        1632        1631
         4        1531        1532        1633        1632
         4        1532        1533        1634        1633
         4        1533        1534        1635        1634
         4        1534        1535        1636        1635
         4        1535        1536        1637        1636
         4        1536        1537        1638        1637
         4        1537        1538        1639        1638
         4        1538        1539        1640        1639
         4        1539        1540        1641        1640
         4        1540        1541        1642        1641
         4        1541        1542        1643        1642
         4        1542        1543        1644        1643
         4        1543        1544        1645        1644
         4        1544        1545        1646        1645
         4        1545        1546        1647        1646
         4        1546        1547        1648        1647
         4        1547        1548        1649        1648
         4        1548        1549        1650        1649
         4        1549        1550        1651        1650
         4        1550        1551        1652        1651
         4        1551        1552        1653        1652
         4        1552        1553        1654        1653
         4        1553        1554        1655        1654
         4        1554        1555        1656        1655
         4        1555        1556        1657        1656
         4        1556        1557        1658        1657
         4        1557        1558        1659        1658
         4        1558        1559        1660        1659
         4        1559        1560        1661        1660
         4        1560        1561        1662        1661
         4        1561        1562        1663        1662
         4        1562        1563        1664        1663
         4        1563        1564        1665        1664
         4        1564        1565        1666        1665
         4        1565        1566        1667        1666
         4        1566        1567        1668        1667
         4        1567        1568        1669        1668
         4        1568        1569        1670        1669
         4        1569        1570        1671        1670
         4        1570        1571        1672        1671
         4        1571        1572        1673        1672
         4        1572        1573        1674        1673
         4        1573        1574        1675        1674
         4        1574        1575        1676        1675
         4        1575        1576        1677        1676
         4        1576        1577        1678        1677
         4        1577        1578        1679        1678
         4        1578        1579        1680        1679
         4        1579        1580        1681        1680
         4        1580        1581        1682        1681
         4        1581        1582        1683        1682
         4        1582        1583        1684        1683
         4        1583        1584        1685        1684
         4        1584        1585        1686        1685
         4        1585        1586        1687        1686
         4        1586        1587        1688        1687
         4        1587        1588        1689        1688
         4        1588        1589        1690        1689
         4        1589        1590        1691        1690
         4        1590        1591        1692        1691
         4        1591        1592        1693        1692
         4        1592        1593        1694        1693
         4        1593        1594        1695        1694
         4        1594        1595        1696        1695
         4        1595        1596        1697        1696
         4        1596        1597        1698        1697
         4        1597        1598        1699        1698
         4        1598        1599        1700        1699
         4        1599        1600        1701        1700
         4        1600        1601        1702        1701
         4        1601        1602        1703        1702
         4        1602        1603        1704        1703
         4        1603        1604        1705        1704
         4        1604        1605        1706        1705
         4        1605        1606        1707        1706
         4        1606        1607        1708        1707
         4        1607        1608        1709        1708
         4        1608        1609        1710        1709
         4        1609        1610        1711        1710
         4        1610        1611        1712        1711
         4        1611        1612        1713        1712
         4        1612        1613        1714        1713
         4        1613        1614        1715        1714
         4        1614        1615        1716        1715
         4        1616        1617        1718        1717
         4        1617        1618        1719        1718
         4        1618        1619        1720        1719
         4        1619        1620        1721        1720
         4        1620        1621        1722        1721
         4        1621        1622        1723        1722
         4        1622        1623        1724        1723
         4        1623        1624        1725        1724
         4        1624        1625        1726        1725
         4        1625        1626        1727        1726
         4        1626        1627        1728        1727
         4        1627        1628        1729        1728
         4        1628        1629        1730        1729
         4        1629        1630        1731        1730
         4        1630        1631        1732        1731
         4        1631        1632        1733        1732
         4        1632        1633        1734        1733
         4        1633        1634        1735        1734
         4        1634        1635        1736        1735
         4        1635        1636        1737        1736
         4        1636        1637        1738        1737
         4        1637        1638        1739        1738
         4        1638        1639        1740        1739
         4        1639        1640        1741        1740
         4        1640        1641        1742        1741
         4        1641        1642        1743        1742
         4        1642        1643        1744        1743
         4        1643        1644        1745        1744
         4        1644        1645        1746        1745
         4        1645        1646        1747        1746
         4        1646        1647        1748        1747
         4        1647        1648        1749        1748
         4        1648        1649        1750        1749
         4        1649        1650        1751        1750
         4        1650        1651        1752        1751
         4        1651        1652        1753        1752
         4        1652        1653        1754        1753
         4        1653        1654        1755        1754
         4        1654        1655        1756        1755
         4        1655        1656        1757        1756
         4        1656        1657        1758        1757
         4        1657        1658        1759        1758
         4        1658        1659        1760        1759
         4        1659        1660        1761        1760
         4        1660        1661        1762        1761
         4        1661        1662        1763        1762
         4        1662        1663        1764        1763
         4        1663        1664        1765        1764
         4        1664        1665        1766        1765
         4        1665        1666        1767        1766
         4        1666        1667        1768        1767
         4        1667        1668        1769        1768
         4        1668        1669        1770        1769
         4        1669        1670        1771        1770
         4        1670        1671        1772        1771
         4        1671        1672        1773        1772
         4        1672        1673        1774        1773
         4        1673        1674        1775        1774
         4        1674        1675        1776        1775
         4        1675        1676        1777        1776
         4        1676        1677        1778        1777
         4        1677        1678        1779        1778
         4        1678        1679        1780        1779
         4        1679        1680        1781        1780
         4        1680        1681        1782        1781
         4        1681        1682        1783        1782
         4        1682        1683        1784        1783
         4        1683        1684        1785        1784
         4        1684        1685        1786        1785
         4        1685        1686        1787        1786
         4        1686        1687        1788        1787
         4        1687        1688        1789        1788
         4        1688        1689        1790        1789
         4        1689        1690        1791        1790
         4        1690        1691        1792        1791
         4        1691        1692        1793        1792
         4        1692        1693        1794        1793
         4        1693        1694        1795        1794
         4        1694        1695        1796        1795
         4        1695        1696        1797        1796
         4        1696        1697        1798        1797
         4        1697        1698        1799        1798
         4        1698        1699        1800        1799
         4        1699        1700        1801        1800
         4        1700        1701        1802        1801
         4        1701        1702        1803        1802
         4        1702        1703        1804        1803
         4        1703        1704        1805        1804
         4        1704        1705        1806        1805
         4        1705        1706        1807        1806
         4        1706        1707        1808        1807
         4        1707        1708        1809        1808
         4        1708        1709        1810        1809
         4        1709        1710        1811        1810
         4        1710        1711        1812        1811
         4        1711        1712        1813        1812
         4        1712        1713        1814        1813
         4        1713        1714        1815        1814
         4        1714        1715        1816        1815
         4        1715        1716        1817        1816
         4        1717        1718        1819        1818
         4        1718        1719        1820        1819
         4        1719        1720        1821        1820
         4        1720        1721        1822        1821
         4        1721        1722        1823        1822
         4        1722        1723        1824        1823
         4        1723        1724        1825        1824
         4        1724        1725        1826        1825
         4        1725        1726        1827        1826
         4        1726        1727        1828        1827
         4        1727        1728        1829        1828
         4        1728        1729        1830        1829
         4        1729        1730        1831        1830
         4        1730        1731        1832        1831
         4        1731        1732        1833        1832
         4        1732        1733        1834        1833
         4        1733        1734        1835        1834
         4        1734        1735        1836        1835
         4        1735        1736        1837        1836
         4        1736        1737        1838        1837
         4        1737        1738        1839        1838
         4        1738        1739        1840        1839
         4        1739        1740        1841        1840
         4        1740        1741        1842        1841
         4        1741        1742        1843        1842
         4        1742        1743        1844        1843
         4        1743        1744        1845        1844
         4        1744        1745        1846        1845
         4        1745        1746        1847        1846
         4        1746        1747        1848        1847
         4        1747        1748        1849        1848
         4        1748        1749        1850        1849
         4        1749        1750        1851        1850
         4        1750        1751        1852        1851
         4        1751        1752        1853        1852
         4        1752        1753        1854        1853
         4        1753        1754        1855        1854
         4        1754        1755        1856        1855
         4        1755        1756        1857        1856
         4        1756        1757        1858        1857
         4        1757        1758        1859        1858
         4        1758        1759        1860        1859
         4        1759        1760        1861        1860
         4        1760        1761        1862        1861
         4        1761        1762        1863        1862
         4        1762        1763        1864        1863
         4        1763        1764        1865        1864
         4        1764        1765        1866        1865
         4        1765        1766        1867        1866
         4        1766        1767        1868        1867
         4        1767        1768        1869        1868
         4        1768        1769        1870        1869
         4        1769        1770        1871        1870
         4        1770        1771        1872        1871
         4        1771        1772        1873        1872
         4        1772        1773        1874        1873
         4        1773        1774        1875        1874
         4        1774        1775        1876        1875
         4        1775        1776        1877        1876
         4        1776        1777        1878        1877
         4        1777        1778        1879        1878
         4        1778        1779        1880        1879
         4        1779        1780        1881        1880
         4        1780        1781        1882        1881
         4        1781        1782        1883        1882
         4        1782        1783        1884        1883
         4        1783        1784        1885        1884
         4        1784        1785        1886        1885
         4        1785        1786        1887        1886
         4        1786        1787        1888        1887
         4        1787        1788        1889        1888
         4        1788        1789        1890        1889
         4        1789        1790        1891        1890
         4        1790        1791        1892        1891
         4        1791        1792        1893        1892
         4        1792        1793        1894        1893
         4        1793        1794        1895        1894
         4        1794        1795        1896        1895
         4        1795        1796        1897        1896
         4        1796        1797        1898        1897
         4        1797        1798        1899        1898
         4        1798        1799        1900        1899
         4        1799        1800        1901        1900
         4        1800        1801        1902        1901
         4        1801        1802        1903        1902
         4        1802        1803        1904        1903
         4        1803        1804        1905        1904
         4        1804        1805        1906        1905
         4        1805        1806        1907        1906
         4        1806        1807        1908        1907
         4        1807        1808        1909        1908
         4        1808        1809        1910        1909
         4        1809        1810        1911        1910
         4        1810        1811        1912        1911
         4        1811        1812        1913        1912
         4        1812        1813        1914        1913
         4        1813        1814        1915        1914
         4        1814        1815        1916        1915
         4        1815        1816        1917        1916
         4        1816        1817        1918        1917
         4        1818        1819        1920        1919
         4        1819        1820        1921        1920
         4        1820        1821        1922        1921
         4        1821        1822        1923        1922
         4        1822        1823        1924        1923
         4        1823        1824        1925        1924
         4        1824        1825        1926        1925
         4        1825        1826        1927        1926
         4        1826        1827        1928        1927
         4        1827        1828        1929        1928
         4        1828        1829        1930        1929
         4        1829        1830        1931        1930
         4        1830        1831        1932        1931
         4        1831        1832        1933        1932
         4        1832        1833        1934        1933
         4        1833        1834        1935        1934
         4        1834        1835        1936        1935
         4        1835        1836        1937        1936
         4        1836        1837        1938        1937
         4        1837        1838        1939        1938
         4        1838        1839        1940        1939
         4        1839        1840        1941        1940
         4        1840        1841        1942        1941
         4        1841        1842        1943        1942
         4        1842        1843        1944        1943
         4        1843        1844        1945        1944
         4        1844        1845        1946        1945
         4        1845        1846        1947        1946
         4        1846        1847        1948        1947
         4        1847        1848        1949        1948
         4        1848        1849        1950        1949
         4        1849        1850        1951        1950
         4        1850        1851        1952        1951
         4        1851        1852        1953        1952
         4        1852        1853        1954        1953
         4        1853        1854        1955        1954
         4        1854        1855        1956        1955
         4        1855        1856        1957        1956
         4        1856        1857        1958        1957
         4        1857        1858        1959        1958
         4        1858        1859        1960        1959
         4        1859        1860        1961        1960
         4        1860        1861        1962        1961
         4        1861        1862        1963        1962
         4        1862        1863        1964        1963
         4        1863        1864        1965        1964
         4        1864        1865        1966        1965
         4        1865        1866        1967        1966
         4        1866        1867        1968        1967
         4        1867        1868        1969        1968
         4        1868        1869        1970        1969
         4        1869        1870        1971        1970
         4        1870        1871        1972        1971
         4        1871        1872        1973        1972
         4        1872        1873        1974        1973
         4        1873        1874        1975        1974
         4        1874        1875        1976        1975
         4        1875        1876        1977        1976
         4        1876        1877        1978        1977
         4        1877        1878        1979        1978
         4        1878        1879        1980        1979
         4        1879        1880        1981        1980
         4        1880        1881        1982        1981
         4        1881        1882        1983        1982
         4        1882        1883        1984        1983
         4        1883        1884        1985        1984
         4        1884        1885        1986        1985
         4        1885        1886        1987        1986
         4        1886        1887        1988        1987
         4        1887        1888        1989        1988
         4        1888        1889        1990        1989
         4        1889        1890        1991        1990
         4        1890        1891        1992        1991
         4        1891        1892        1993        1992
         4        1892        1893        1994        1993
         4        1893        1894        1995        1994
         4        1894        1895        1996        1995
         4        1895        1896        1997        1996
         4        1896        1897        1998        1997
         4        1897        1898        1999        1998
         4        1898        1899        2000        1999
         4        1899        1900        2001        2000
         4        1900        1901        2002        2001
         4        1901        1902        2003        2002
         4        1902        1903        2004        2003
         4        1903        1904        2005        2004
         4        1904        1905        2006        2005
         4        1905        1906        2007        2006
         4        1906        1907        2008        2007
         4        1907        1908        2009        2008
         4        1908        1909        2010        2009
         4        1909        1910        2011        2010
         4        1910        1911        2012        2011
         4        1911        1912        2013        2012
         4        1912        1913        2014        2013
         4        1913        1914        2015        2014
         4        1914        1915        2016        2015
         4        1915        1916        2017        2016
         4        1916        1917        2018        2017
         4        1917        1918        2019        2018
         4        1919        1920        2021        2020
         4        1920        1921        2022        2021
         4        1921        1922        2023        2022
         4        1922        1923        2024        2023
         4        1923        1924        2025        2024
         4        1924        1925        2026        2025
         4        1925        1926        2027        2026
         4        1926        1927        2028        2027
         4        1927        1928        2029        2028
         4        1928        1929        2030        2029
         4        1929        1930        2031        2030
         4        1930        1931        2032        2031
         4        1931        1932        2033        2032
         4        1932        1933        2034        2033
         4        1933        1934        2035        2034
         4        1934        1935        2036        2035
         4        1935        1936        2037        2036
         4        1936        1937        2038        2037
         4        1937        1938        2039        2038
         4        1938        1939        2040        2039
         4        1939        1940        2041        2040
         4        1940        1941        2042        2041
         4        1941        1942        2043        2042
         4        1942        1943        2044        2043
         4        1943        1944        2045        2044
         4        1944        1945        2046        2045
         4        1945        1946        2047        2046
         4        1946        1947        2048        2047
         4        1947        1948        2049        2048
         4        1948        1949        2050        2049
         4        1949        1950        2051        2050
         4        1950        1951        2052        2051
         4        1951        1952        2053        2052
         4        1952        1953        2054        2053
         4        1953        1954        2055        2054
         4        1954        1955        2056        2055
         4        1955        1956        2057        2056
         4        1956        1957        2058        2057
         4        1957        1958        2059        2058
         4        1958        1959        2060        2059
         4        1959        1960        2061        2060
         4        1960        1961        2062        2061
         4        1961        1962        2063        2062
         4        1962        1963        2064        2063
         4        1963        1964        2065        2064
         4        1964        1965        2066        2065
         4        1965        1966        2067        2066
         4        1966        1967        2068        2067
         4        1967        1968        2069        2068
         4        1968        1969        2070        2069
         4        1969        1970        2071        2070
         4        1970        1971        2072        2071
         4        1971        1972        2073        2072
         4        1972        1973        2074        2073
         4        1973        1974        2075        2074
         4        1974        1975        2076        2075
         4        1975        1976        2077        2076
         4        1976        1977        2078        2077
         4        1977        1978        2079        2078
         4        1978        1979        2080        2079
         4        1979        1980        2081        2080
         4        1980        1981        2082        2081
         4        1981        1982        2083        2082
         4        1982        1983        2084        2083
         4        1983        1984        2085        2084
         4        1984        1985        2086        2085
         4        1985        1986        2087        2086
         4        1986        1987        2088        2087
         4        1987        1988        2089        2088
         4        1988        1989        2090        2089
         4        1989        1990        2091        2090
         4        1990        1991        2092        2091
         4        1991        1992        2093        2092
         4        1992        1993        2094        2093
         4        1993        1994        2095        2094
         4        1994        1995        2096        2095
         4        1995        1996        2097        2096
         4        1996        1997        2098        2097
         4        1997        1998        2099        2098
         4        1998        1999        2100        2099
         4        1999        2000        2101        2100
         4        2000        2001        2102        2101
         4        2001        2002        2103        2102
         4        2002        2003        2104        2103
         4        2003        2004        2105        2104
         4        2004        2005        2106        2105
         4        2005        2006        2107        2106
         4        2006        2007        2108        2107
         4        2007        2008        2109        2108
         4        2008        2009        2110        2109
         4        2009        2010        2111        2110
         4        2010        2011        2112        2111
         4        2011        2012        2113        2112
         4        2012        2013        2114        2113
         4        2013        2014        2115        2114
         4        2014        2015        2116        2115
         4        2015        2016        2117        2116
         4        2016        2017        2118        2117
         4        2017        2018        2119        2118
         4        2018        2019        2120        2119
         4        2020        2021        2122        2121
         4        2021        2022        2123        2122
         4        2022        2023        2124        2123
         4        2023        2024        2125        2124
         4        2024        2025        2126        2125
         4        2025        2026        2127        2126
         4        2026        2027        2128        2127
         4        2027        2028        2129        2128
         4        2028        2029        2130        2129
         4        2029        2030        2131        2130
         4        2030        2031        2132        2131
         4        2031        2032        2133        2132
         4        2032        2033        2134        2133
         4        2033        2034        2135        2134
         4        2034        2035        2136        2135
         4        2035        2036        2137        2136
         4        2036        2037        2138        2137
         4        2037        2038        2139        2138
         4        2038        2039        2140        2139
         4        2039        2040        2141        2140
         4        2040        2041        2142        2141
         4        2041        2042        2143        2142
         4        2042        2043        2144        2143
         4        2043        2044        2145        2144
         4        2044        2045        2146        2145
         4        2045        2046        2147        2146
         4        2046        2047        2148        2147
         4        2047        2048        2149        2148
         4        2048        2049        2150        2149
         4        2049        2050        2151        2150
         4        2050        2051        2152        2151
         4        2051        2052        2153        2152
         4        2052        2053        2154        2153
         4        2053        2054        2155        2154
         4        2054        2055        2156        2155
         4        2055        2056        2157        2156
         4        2056        2057        2158        2157
         4        2057        2058        2159        2158
         4        2058        2059        2160        2159
         4        2059        2060        2161        2160
         4        2060        2061        2162        2161
         4        2061        2062        2163        2162
         4        2062        2063        2164        2163
         4        2063        2064        2165        2164
         4        2064        2065        2166        2165
         4        2065        2066        2167        2166
         4        2066        2067        2168        2167
         4        2067        2068        2169        2168
         4        2068        2069        2170        2169
         4        2069        2070        2171        2170
         4        2070        2071        2172        2171
         4        2071        2072        2173        2172
         4        2072        2073        2174        2173
         4        2073        2074        2175        2174
         4        2074        2075        2176        2175
         4        2075        2076        2177        2176
         4        2076        2077        2178        2177
         4        2077        2078        2179        2178
         4        2078        2079        2180        2179
         4        2079        2080        2181        2180
         4        2080        2081        2182        2181
         4        2081        2082        2183        2182
         4        2082        2083        2184        2183
         4        2083        2084        2185        2184
         4        2084        2085        2186        2185
         4        2085        2086        2187        2186
         4        2086        2087        2188        2187
         4        2087        2088        2189        2188
         4        2088        2089        2190        2189
         4        2089        2090        2191        2190
         4        2090        2091        2192        2191
         4        2091        2092        2193        2192
         4        2092        2093        2194        2193
         4        2093        2094        2195        2194
         4        2094        2095        2196        2195
         4        2095        2096        2197        2196
         4        2096        2097        2198        2197
         4        2097        2098        2199        2198
         4        2098        2099        2200        2199
         4        2099        2100        2201        2200
         4        2100        2101        2202        2201
         4        2101        2102        2203        2202
         4        2102        2103        2204        2203
         4        2103        2104        2205        2204
         4        2104        2105        2206        2205
         4        2105        2106        2207        2206
         4        2106        2107        2208        2207
         4        2107        2108        2209        2208
         4        2108        2109        2210        2209
         4        2109        2110        2211        2210
         4        2110        2111        2212        2211
         4        2111        2112        2213        2212
         4        2112        2113        2214        2213
         4        2113        2114        2215        2214
         4        2114        2115        2216        2215
         4        2115        2116        2217        2216
         4        2116        2117        2218        2217
         4        2117        2118        2219        2218
         4        2118        2119        2220        2219
         4        2119        2120        2221        2220
         4        2121        2122        2223        2222
         4        2122        2123        2224        2223
         4        2123        2124        2225        2224
         4        2124        2125        2226        2225
         4        2125        2126        2227        2226
         4        2126        2127        2228        2227
         4        2127        2128        2229        2228
         4        2128        2129        2230        2229
         4        2129        2130        2231        2230
         4        2130        2131        2232        2231
         4        2131        2132        2233        2232
         4        2132        2133        2234        2233
         4        2133        2134        2235        2234
         4        2134        2135        2236        2235
         4        2135        2136        2237        2236
         4        2136        2137        2238        2237
         4        2137        2138        2239        2238
         4        2138        2139        2240        2239
         4        2139        2140        2241        2240
         4        2140        2141        2242        2241
         4        2141        2142        2243        2242
         4        2142        2143        2244        2243
         4        2143        2144        2245        2244
         4        2144        2145        2246        2245
         4        2145        2146        2247        2246
         4        2146        2147        2248        2247
         4        2147        2148        2249        2248
         4        2148        2149        2250        2249
         4        2149        2150        2251        2250
         4        2150        2151        2252        2251
         4        2151        2152        2253        2252
         4        2152        2153        2254        2253
         4        2153        2154        2255        2254
         4        2154        2155        2256        2255
         4        2155        2156        2257        2256
         4        2156        2157        2258        2257
         4        2157        2158        2259        2258
         4        2158        2159        2260        2259
         4        2159        2160        2261        2260
         4        2160        2161        2262        2261
         4        2161        2162        2263        2262
         4        2162        2163        2264        2263
         4        2163        2164        2265        2264
         4        2164        2165        2266        2265
         4        2165        2166        2267        2266
         4        2166        2167        2268        2267
         4        2167        2168        2269        2268
         4        2168        2169        2270        2269
         4        2169        2170        2271        2270
         4        2170        2171        2272        2271
         4        2171        2172        2273        2272
         4        2172        2173        2274        2273
         4        2173        2174        2275        2274
         4        2174        2175        2276        2275
         4        2175        2176        2277        2276
         4        2176        2177        2278        2277
         4        2177        2178        2279        2278
         4        2178        2179        2280        2279
         4        2179        2180        2281        2280
         4        2180        2181        2282        2281
         4        2181        2182        2283        2282
         4        2182        2183        2284        2283
         4        2183        2184        2285        2284
         4        2184        2185        2286        2285
         4        2185        2186        2287        2286
         4        2186        2187        2288        2287
         4        2187        2188        2289        2288
         4        2188        2189        2290        2289
         4        2189        2190        2291        2290
         4        2190        2191        2292        2291
         4        2191        2192        2293        2292
         4        2192        2193        2294        2293
         4        2193        2194        2295        2294
         4        2194        2195        2296        2295
         4        2195        2196        2297        2296
         4        2196        2197        2298        2297
         4        2197        2198        2299        2298
         4        2198        2199        2300        2299
         4        2199        2200        2301        2300
         4        2200        2201        2302        2301
         4        2201        2202        2303        2302
         4        2202        2203        2304        2303
         4        2203        2204        2305        2304
         4        2204        2205        2306        2305
         4        2205        2206        2307        2306
         4        2206        2207        2308        2307
         4        2207        2208        2309        2308
         4        2208        2209        2310        2309
         4        2209        2210        2311        2310
         4        2210        2211        2312        2311
         4        2211        2212        2313        2312
         4        2212        2213        2314        2313
         4        2213        2214        2315        2314
         4        2214        2215        2316        2315
         4        2215        2216        2317        2316
         4        2216        2217        2318        2317
         4        2217        2218        2319        2318
         4        2218        2219        2320        2319
         4        2219        2220        2321        2320
         4        2220        2221        2322        2321
         4        2222        2223        2324        2323
         4        2223        2224        2325        2324
         4        2224        2225        2326        2325
         4        2225        2226        2327        2326
         4        2226        2227        2328        2327
         4        2227        2228        2329        2328
         4        2228        2229        2330        2329
         4        2229        2230        2331        2330
         4        2230        2231        2332        2331
         4        2231        2232        2333        2332
         4        2232        2233        2334        2333
         4        2233        2234        2335        2334
         4        2234        2235        2336        2335
         4        2235        2236        2337        2336
         4        2236        2237        2338        2337
         4        2237        2238        2339        2338
         4        2238        2239        2340        2339
         4        2239        2240        2341        2340
         4        2240        2241        2342        2341
         4        2241        2242        2343        2342
         4        2242        2243        2344        2343
         4        2243        2244        2345        2344
         4        2244        2245        2346        2345
         4        2245        2246        2347        2346
         4        2246        2247        2348        2347
         4        2247        2248        2349        2348
         4        2248        2249        2350        2349
         4        2249        2250        2351        2350
         4        2250        2251        2352        2351
         4        2251        2252        2353        2352
         4        2252        2253        2354        2353
         4        2253        2254        2355        2354
         4        2254        2255        2356        2355
         4        2255        2256        2357        2356
         4        2256        2257        2358        2357
         4        2257        2258        2359        2358
         4        2258        2259        2360        2359
         4        2259        2260        2361        2360
         4        2260        2261        2362        2361
         4        2261        2262        2363        2362
         4        2262        2263        2364        2363
         4        2263        2264        2365        2364
         4        2264        2265        2366        2365
         4        2265        2266        2367        2366
         4        2266        2267        2368        2367
         4        2267        2268        2369        2368
         4        2268        2269        2370        2369
         4        2269        2270        2371        2370
         4        2270        2271        2372        2371
         4        2271        2272        2373        2372
         4        2272        2273        2374        2373
         4        2273        2274        2375        2374
         4        2274        2275        2376        2375
         4        2275        2276        2377        2376
         4        2276        2277        2378        2377
         4        2277        2278        2379        2378
         4        2278        2279        2380        2379
         4        2279        2280        2381        2380
         4        2280        2281        2382        2381
         4        2281        2282        2383        2382
         4        2282        2283        2384        2383
         4        2283        2284        2385        2384
         4        2284        2285        2386        2385
         4        2285        2286        2387        2386
         4        2286        2287        2388        2387
         4        2287        2288        2389        2388
         4        2288        2289        2390        2389
         4        2289        2290        2391        2390
         4        2290        2291        2392        2391
         4        2291        2292        2393        2392
         4        2292        2293        2394        2393
         4        2293        2294        2395        2394
         4        2294        2295        2396        2395
         4        2295        2296        2397        2396
         4        2296        2297        2398        2397
         4        2297        2298        2399        2398
         4        2298        2299        2400        2399
         4        2299        2300        2401        2400
         4        2300        2301        2402        2401
         4        2301        2302        2403        2402
         4        2302        2303        2404        2403
         4        2303        2304        2405        2404
         4        2304        2305        2406        2405
         4        2305        2306        2407        2406
         4        2306        2307        2408        2407
         4        2307        2308        2409        2408
         4        2308        2309        2410        2409
         4        2309        2310        2411        2410
         4        2310        2311        2412        2411
         4        2311        2312        2413        2412
         4        2312        2313        2414        2413
         4        2313        2314        2415        2414
         4        2314        2315        2416        2415
         4        2315        2316        2417        2416
         4        2316        2317        2418        2417
         4        2317        2318        2419        2418
         4        2318        2319        2420        2419
         4        2319        2320        2421        2420
         4        2320        2321        2422        2421
         4        2321        2322        2423        2422
         4        2323        2324        2425        2424
         4        2324        2325        2426        2425
         4        2325        2326        2427        2426
         4        2326        2327        2428        2427
         4        2327        2328        2429        2428
         4        2328        2329        2430        2429
         4        2329        2330        2431        2430
         4        2330        2331        2432        2431
         4        2331        2332        2433        2432
         4        2332        2333        2434        2433
         4        2333        2334        2435        2434
         4        2334        2335        2436        2435
         4        2335        2336        2437        2436
         4        2336        2337        2438        2437
         4        2337        2338        2439        2438
         4        2338        2339        2440        2439
         4        2339        2340        2441        2440
         4        2340        2341        2442        2441
         4        2341        2342        2443        2442
         4        2342        2343        2444        2443
         4        2343        2344        2445        2444
         4        2344        2345        2446        2445
         4        2345        2346        2447        2446
         4        2346        2347        2448        2447
         4        2347        2348        2449        2448
         4        2348        2349        2450        2449
         4        2349        2350        2451        2450
         4        2350        2351        2452        2451
         4        2351        2352        2453        2452
         4        2352        2353        2454        2453
         4        2353        2354        2455        2454
         4        2354        2355        2456        2455
         4        2355        2356        2457        2456
         4        2356        2357        2458        2457
         4        2357        2358        2459        2458
         4        2358        2359        2460        2459
         4        2359        2360        2461        2460
         4        2360        2361        2462        2461
         4        2361        2362        2463        2462
         4        2362        2363        2464        2463
         4        2363        2364        2465        2464
         4        2364        2365        2466        2465
         4        2365        2366        2467        2466
         4        2366        2367        2468        2467
         4        2367        2368        2469        2468
         4        2368        2369        2470        2469
         4        2369        2370        2471        2470
         4        2370        2371        2472        2471
         4        2371        2372        2473        2472
         4        2372        2373        2474        2473
         4        2373        2374        2475        2474
         4        2374        2375        2476        2475
         4        2375        2376        2477        2476
         4        2376        2377        2478        2477
         4        2377        2378        2479        2478
         4        2378        2379        2480        2479
         4        2379        2380        2481        2480
         4        2380        2381        2482        2481
         4        2381        2382        2483        2482
         4        2382        2383        2484        2483
         4        2383        2384        2485        2484
         4        2384        2385        2486        2485
         4        2385        2386        2487        2486
         4        2386        2387        2488        2487
         4        2387        2388        2489        2488
         4        2388        2389        2490        2489
         4        2389        2390        2491        2490
         4        2390        2391        2492        2491
         4        2391        2392        2493        2492
         4        2392        2393        2494        2493
         4        2393        2394        2495        2494
         4        2394        2395        2496        2495
         4        2395        2396        2497        2496
         4        2396        2397        2498        2497
         4        2397        2398        2499        2498
         4        2398        2399        2500        2499
         4        2399        2400        2501        2500
         4        2400        2401        2502        2501
         4        2401        2402        2503        2502
         4        2402        2403        2504        2503
         4        2403        2404        2505        2504
         4        2404        2405        2506        2505
         4        2405        2406        2507        2506
         4        2406        2407        2508        2507
         4        2407        2408        2509        2508
         4        2408        2409        2510        2509
         4        2409        2410        2511        2510
         4        2410        2411        2512        2511
         4        2411        2412        2513        2512
         4        2412        2413        2514        2513
         4        2413        2414        2515        2514
         4        2414        2415        2516        2515
         4        2415        2416        2517        2516
         4        2416        2417        2518        2517
         4        2417        2418        2519        2518
         4        2418        2419        2520        2519
         4        2419        2420        2521        2520
         4        2420        2421        2522        2521
         4        2421        2422        2523        2522
         4        2422        2423        2524        2523
         4        2424        2425        2526        2525
         4        2425        2426        2527        2526
         4        2426        2427        2528        2527
         4        2427        2428        2529        2528
         4        2428        2429        2530        2529
         4        2429        2430        2531        2530
         4        2430        2431        2532        2531
         4        2431        2432        2533        2532
         4        2432        2433        2534        2533
         4        2433        2434        2535        2534
         4        2434        2435        2536        2535
         4        2435        2436        2537        2536
         4        2436        2437        2538        2537
         4        2437        2438        2539        2538
         4        2438        2439        2540        2539
         4        2439        2440        2541        2540
         4        2440        2441        2542        2541
         4        2441        2442        2543        2542
         4        2442        2443        2544        2543
         4        2443        2444        2545        2544
         4        2444        2445        2546        2545
         4        2445        2446        2547        2546
         4        2446        2447        2548        2547
         4        2447        2448        2549        2548
         4        2448        2449        2550        2549
         4        2449        2450        2551        2550
         4        2450        2451        2552        2551
         4        2451        2452        2553        2552
         4        2452        2453        2554        2553
         4        2453        2454        2555        2554
         4        2454        2455        2556        2555
         4        2455        2456        2557        2556
         4        2456        2457        2558        2557
         4        2457        2458        2559        2558
         4        2458        2459        2560        2559
         4        2459        2460        2561        2560
         4        2460        2461        2562        2561
         4        2461        2462        2563        2562
         4        2462        2463        2564        2563
         4        2463        2464        2565        2564
         4        2464        2465        2566        2565
         4        2465        2466        2567        2566
         4        2466        2467        2568        2567
         4        2467        2468        2569        2568
         4        2468        2469        2570        2569
         4        2469        2470        2571        2570
         4        2470        2471        2572        2571
         4        2471        2472        2573        2572
         4        2472        2473        2574        2573
         4        2473        2474        2575        2574
         4        2474        2475        2576        2575
         4        2475        2476        2577        2576
         4        2476        2477        2578        2577
         4        2477        2478        2579        2578
         4        2478        2479        2580        2579
         4        2479        2480        2581        2580
         4        2480        2481        2582        2581
         4        2481        2482        2583        2582
         4        2482        2483        2584        2583
         4        2483        2484        2585        2584
         4        2484        2485        2586        2585
         4        2485        2486        2587        2586
         4        2486        2487        2588        2587
         4        2487        2488        2589        2588
         4        2488        2489        2590        2589
         4        2489        2490        2591        2590
         4        2490        2491        2592        2591
         4        2491        2492        2593        2592
         4        2492        2493        2594        2593
         4        2493        2494        2595        2594
         4        2494        2495        2596        2595
         4        2495        2496        2597        2596
         4        2496        2497        2598        2597
         4        2497        2498        2599        2598
         4        2498        2499        2600        2599
         4        2499        2500        2601        2600
         4        2500        2501        2602        2601
         4        2501        2502        2603        2602
         4        2502        2503        2604        2603
         4        2503        2504        2605        2604
         4        2504        2505        2606        2605
         4        2505        2506        2607        2606
         4        2506        2507        2608        2607
         4        2507        2508        2609        2608
         4        2508        2509        2610        2609
         4        2509        2510        2611        2610
         4        2510        2511        2612        2611
         4        2511        2512        2613        2612
         4        2512        2513        2614        2613
         4        2513        2514        2615        2614
         4        2514        2515        2616        2615
         4        2515        2516        2617        2616
         4        2516        2517        2618        2617
         4        2517        2518        2619        2618
         4        2518        2519        2620        2619
         4        2519        2520        2621        2620
         4        2520        2521        2622        2621
         4        2521        2522        2623        2622
         4        2522        2523        2624        2623
         4        2523        2524        2625        2624
         4        2525        2526        2627        2626
         4        2526        2527        2628        2627
         4        2527        2528        2629        2628
         4        2528        2529        2630        2629
         4        2529        2530        2631        2630
         4        2530        2531        2632        2631
         4        2531        2532        2633        2632
         4        2532        2533        2634        2633
         4        2533        2534        2635        2634
         4        2534        2535        2636        2635
         4        2535        2536        2637        2636
         4        2536        2537        2638        2637
         4        2537        2538        2639        2638
         4        2538        2539        2640        2639
         4        2539        2540        2641        2640
         4        2540        2541        2642        2641
         4        2541        2542        2643        2642
         4        2542        2543        2644        2643
         4        2543        2544        2645        2644
         4        2544        2545        2646        2645
         4        2545        2546        2647        2646
         4        2546        2547        2648        2647
         4        2547        2548        2649        2648
         4        2548        2549        2650        2649
         4        2549        2550        2651        2650
         4        2550        2551        2652        2651
         4        2551        2552        2653        2652
         4        2552        2553        2654        2653
         4        2553        2554        2655        2654
         4        2554        2555        2656        2655
         4        2555        2556        2657        2656
         4        2556        2557        2658        2657
         4        2557        2558        2659        2658
         4        2558        2559        2660        2659
         4        2559        2560        2661        2660
         4        2560        2561        2662        2661
         4        2561        2562        2663        2662
         4        2562        2563        2664        2663
         4        2563        2564        2665        2664
         4        2564        2565        2666        2665
         4        2565        2566        2667        2666
         4        2566        2567        2668        2667
         4        2567        2568        2669        2668
         4        2568        2569        2670        2669
         4        2569        2570        2671        2670
         4        2570        2571        2672        2671
         4        2571        2572        2673        2672
         4        2572        2573        2674        2673
         4        2573        2574        2675        2674
         4        2574        2575        2676        2675
         4        2575        2576        2677        2676
         4        2576        2577        2678        2677
         4        2577        2578        2679        2678
         4        2578        2579        2680        2679
         4        2579        2580        2681        2680
         4        2580        2581        2682        2681
         4        2581        2582        2683        2682
         4        2582        2583        2684        2683
         4        2583        2584        2685        2684
         4        2584        2585        2686        2685
         4        2585        2586        2687        2686
         4        2586        2587        2688        2687
         4        2587        2588        2689        2688
         4        2588        2589        2690        2689
         4        2589        2590        2691        2690
         4        2590        2591        2692        2691
         4        2591        2592        2693        2692
         4        2592        2593        2694        2693
         4        2593        2594        2695        2694
         4        2594        2595        2696        2695
         4        2595        2596        2697        2696
         4        2596        2597        2698        2697
         4        2597        2598        2699        2698
         4        2598        2599        2700        2699
         4        2599        2600        2701        2700
         4        2600        2601        2702        2701
         4        2601        2602        2703        2702
         4        2602        2603        2704        2703
         4        2603        2604        2705        2704
         4        2604        2605        2706        2705
         4        2605        2606        2707        2706
         4        2606        2607        2708        2707
         4        2607        2608        2709        2708
         4        2608        2609        2710        2709
         4        2609        2610        2711        2710
         4        2610        2611        2712        2711
         4        2611        2612        2713        2712
         4        2612        2613        2714        2713
         4        2613        2614        2715        2714
         4        2614        2615        2716        2715
         4        2615        2616        2717        2716
         4        2616        2617        2718        2717
         4        2617        2618        2719        2718
         4        2618        2619        2720        2719
         4        2619        2620        2721        2720
         4        2620        2621        2722        2721
         4        2621        2622        2723        2722
         4        2622        2623        2724        2723
         4        2623        2624        2725        2724
         4        2624        2625        2726        2725
         4        2626        2627        2728        2727
         4        2627        2628        2729        2728
         4        2628        2629        2730        2729
         4        2629        2630        2731        2730
         4        2630        2631        2732        2731
         4        2631        2632        2733        2732
         4        2632        2633        2734        2733
         4        2633        2634        2735        2734
         4        2634        2635        2736        2735
         4        2635        2636        2737        2736
         4        2636        2637        2738        2737
         4        2637        2638        2739        2738
         4        2638        2639        2740        2739
         4        2639        2640        2741        2740
         4        2640        2641        2742        2741
         4        2641        2642        2743        2742
         4        2642        2643        2744        2743
         4        2643        2644        2745        2744
         4        2644        2645        2746        2745
         4        2645        2646        2747        2746
         4        2646        2647        2748        2747
         4        2647        2648        2749        2748
         4        2648        2649        2750        2749
         4        2649        2650        2751        2750
         4        2650        2651        2752        2751
         4        2651        2652        2753        2752
         4        2652        2653        2754        2753
         4        2653        2654        2755        2754
         4        2654        2655        2756        2755
         4        2655        2656        2757        2756
         4        2656        2657        2758        2757
         4        2657        2658        2759        2758
         4        2658        2659        2760        2759
         4        2659        2660        2761        2760
         4        2660        2661        2762        2761
         4        2661        2662        2763        2762
         4        2662        2663        2764        2763
         4        2663        2664        2765        2764
         4        2664        2665        2766        2765
         4        2665        2666        2767        2766
         4        2666        2667        2768        2767
         4        2667        2668        2769        2768
         4        2668        2669        2770        2769
         4        2669        2670        2771        2770
         4        2670        2671        2772        2771
         4        2671        2672        2773        2772
         4        2672        2673        2774        2773
         4        2673        2674        2775        2774
         4        2674        2675        2776        2775
         4        2675        2676        2777        2776
         4        2676        2677        2778        2777
         4        2677        2678        2779        2778
         4        2678        2679        2780        2779
         4        2679        2680        2781        2780
         4        2680        2681        2782        2781
         4        2681        2682        2783        2782
         4        2682        2683        2784        2783
         4        2683        2684        2785        2784
         4        2684        2685        2786        2785
         4        2685        2686        2787        2786
         4        2686        2687        2788        2787
         4        2687        2688        2789        2788
         4        2688        2689        2790        2789
         4        2689        2690        2791        2790
         4        2690        2691        2792        2791
         4        2691        2692        2793        2792
         4        2692        2693        2794        2793
         4        2693        2694        2795        2794
         4        2694        2695        2796        2795
         4        2695        2696        2797        2796
         4        2696        2697        2798        2797
         4        2697        2698        2799        2798
         4        2698        2699        2800        2799
         4        2699        2700        2801        2800
         4        2700        2701        2802        2801
         4        2701        2702        2803        2802
         4        2702        2703        2804        2803
         4        2703        2704        2805        2804
         4        2704        2705        2806        2805
         4        2705        2706        2807        2806
         4        2706        2707        2808        2807
         4        2707        2708        2809        2808
         4        2708        2709        2810        2809
         4        2709        2710        2811        2810
         4        2710        2711        2812        2811
         4        2711        2712        2813        2812
         4        2712        2713        2814        2813
         4        2713        2714        2815        2814
         4        2714        2715        2816        2815
         4        2715        2716        2817        2816
         4        2716        2717        2818        2817
         4        2717        2718        2819        2818
         4        2718        2719        2820        2819
         4        2719        2720        2821        2820
         4        2720        2721        2822        2821
         4        2721        2722        2823        2822
         4        2722        2723        2824        2823
         4        2723        2724        2825        2824
         4        2724        2725        2826        2825
         4        2725        2726        2827        2826
         4        2727        2728        2829        2828
         4        2728        2729        2830        2829
         4        2729        2730        2831        2830
         4        2730        2731        2832        2831
         4        2731        2732        2833        2832
         4        2732        2733        2834        2833
         4        2733        2734        2835        2834
         4        2734        2735        2836        2835
         4        2735        2736        2837        2836
         4        2736        2737        2838        2837
         4        2737        2738        2839        2838
         4        2738        2739        2840        2839
         4        2739        2740        2841        2840
         4        2740        2741        2842        2841
         4        2741        2742        2843        2842
         4        2742        2743        2844        2843
         4        2743        2744        2845        2844
         4        2744        2745        2846        2845
         4        2745        2746        2847        2846
         4        2746        2747        2848        2847
         4        2747        2748        2849        2848
         4        2748        2749        2850        2849
         4        2749        2750        2851        2850
         4        2750        2751        2852        2851
         4        2751        2752        2853        2852
         4        2752        2753        2854        2853
         4        2753        2754        2855        2854
         4        2754        2755        2856        2855
         4        2755        2756        2857        2856
         4        2756        2757        2858        2857
         4        2757        2758        2859        2858
         4        2758        2759        2860        2859
         4        2759        2760        2861        2860
         4        2760        2761        2862        2861
         4        2761        2762        2863        2862
         4        2762        2763        2864        2863
         4        2763        2764        2865        2864
         4        2764        2765        2866        2865
         4        2765        2766        2867        2866
         4        2766        2767        2868        2867
         4        2767        2768        2869        2868
         4        2768        2769        2870        2869
         4        2769        2770        2871        2870
         4        2770        2771        2872        2871
         4        2771        2772        2873        2872
         4        2772        2773        2874        2873
         4        2773        2774        2875        2874
         4        2774        2775        2876        2875
         4        2775        2776        2877        2876
         4        2776        2777        2878        2877
         4        2777        2778        2879        2878
         4        2778        2779        2880        2879
         4        2779        2780        2881        2880
         4        2780        2781        2882        2881
         4        2781        2782        2883        2882
         4        2782        2783        2884        2883
         4        2783        2784        2885        2884
         4        2784        2785        2886        2885
         4        2785        2786        2887        2886
         4        2786        2787        2888        2887
         4        2787        2788        2889        2888
         4        2788        2789        2890        2889
         4        2789        2790        2891        2890
         4        2790        2791        2892        2891
         4        2791        2792        2893        2892
         4        2792        2793        2894        2893
         4        2793        2794        2895        2894
         4        2794        2795        2896        2895
         4        2795        2796        2897        2896
         4        2796        2797        2898        2897
         4        2797        2798        2899        2898
         4        2798        2799        2900        2899
         4        2799        2800        2901        2900
         4        2800        2801        2902        2901
         4        2801        2802        2903        2902
         4        2802        2803        2904        2903
         4        2803        2804        2905        2904
         4        2804        2805        2906        2905
         4        2805        2806        2907        2906
         4        2806        2807        2908        2907
         4        2807        2808        2909        2908
         4        2808        2809        2910        2909
         4        2809        2810        2911        2910
         4        2810        2811        2912        2911
         4        2811        2812        2913        2912
         4        2812        2813        2914        2913
         4        2813        2814        2915        2914
         4        2814        2815        2916        2915
         4        2815        2816        2917        2916
         4        2816        2817        2918        2917
         4        2817        2818        2919        2918
         4        2818        2819        2920        2919
         4        2819        2820        2921        2920
         4        2820        2821        2922        2921
         4        2821        2822        2923        2922
         4        2822        2823        2924        2923
         4        2823        2824        2925        2924
         4        2824        2825        2926        2925
         4        2825        2826        2927        2926
         4        2826        2827        2928        2927
         4        2828        2829        2930        2929
         4        2829        2830        2931        2930
         4        2830        2831        2932        2931
         4        2831        2832        2933        2932
         4        2832        2833        2934        2933
         4        2833        2834        2935        2934
         4        2834        2835        2936        2935
         4        2835        2836        2937        2936
         4        2836        2837        2938        2937
         4        2837        2838        2939        2938
         4        2838        2839        2940        2939
         4        2839        2840        2941        2940
         4        2840        2841        2942        2941
         4        2841        2842        2943        2942
         4        2842        2843        2944        2943
         4        2843        2844        2945        2944
         4        2844        2845        2946        2945
         4        2845        2846        2947        2946
         4        2846        2847        2948        2947
         4        2847        2848        2949        2948
         4        2848        2849        2950        2949
         4        2849        2850        2951        2950
         4        2850        2851        2952        2951
         4        2851        2852        2953        2952
         4        2852        2853        2954        2953
         4        2853        2854        2955        2954
         4        2854        2855        2956        2955
         4        2855        2856        2957        2956
         4        2856        2857        2958        2957
         4        2857        2858        2959        2958
         4        2858        2859        2960        2959
         4        2859        2860        2961        2960
         4        2860        2861        2962        2961
         4        2861        2862        2963        2962
         4        2862        2863        2964        2963
         4        2863        2864        2965        2964
         4        2864        2865        2966        2965
         4        2865        2866        2967        2966
         4        2866        2867        2968        2967
         4        2867        2868        2969        2968
         4        2868        2869        2970        2969
         4        2869        2870        2971        2970
         4        2870        2871        2972        2971
         4        2871        2872        2973        2972
         4        2872        2873        2974        2973
         4        2873        2874        2975        2974
         4        2874        2875        2976        2975
         4        2875        2876        2977        2976
         4        2876        2877        2978        2977
         4        2877        2878        2979        2978
         4        2878        2879        2980        2979
         4        2879        2880        2981        2980
         4        2880        2881        2982        2981
         4        2881        2882        2983        2982
         4        2882        2883        2984        2983
         4        2883        2884        2985        2984
         4        2884        2885        2986        2985
         4        2885        2886        2987        2986
         4        2886        2887        2988        2987
         4        2887        2888        2989        2988
         4        2888        2889        2990        2989
         4        2889        2890        2991        2990
         4        2890        2891        2992        2991
         4        2891        2892        2993        2992
         4        2892        2893        2994        2993
         4        2893        2894        2995        2994
         4        2894        2895        2996        2995
         4        2895        2896        2997        2996
         4        2896        2897        2998        2997
         4        2897        2898        2999        2998
         4        2898        2899        3000        2999
         4        2899        2900        3001        3000
         4        2900        2901        3002        3001
         4        2901        2902        3003        3002
         4        2902        2903        3004        3003
         4        2903        2904        3005        3004
         4        2904        2905        3006        3005
         4        2905        2906        3007        3006
         4        2906        2907        3008        3007
         4        2907        2908        3009        3008
         4        2908        2909        3010        3009
         4        2909        2910        3011        3010
         4        2910        2911        3012        3011
         4        2911        2912        3013        3012
         4        2912        2913        3014        3013
         4        2913        2914        3015        3014
         4        2914        2915        3016        3015
         4        2915        2916        3017        3016
         4        2916        2917        3018        3017
         4        2917        2918        3019        3018
         4        2918        2919        3020        3019
         4        2919        2920        3021        3020
         4        2920        2921        3022        3021
         4        2921        2922        3023        3022
         4        2922        2923        3024        3023
         4        2923        2924        3025        3024
         4        2924        2925        3026        3025
         4        2925        2926        3027        3026
         4        2926        2927        3028        3027
         4        2927        2928        3029        3028
         4        2929        2930        3031        3030
         4        2930        2931        3032        3031
         4        2931        2932        3033        3032
         4        2932        2933        3034        3033
         4        2933        2934        3035        3034
         4        2934        2935        3036        3035
         4        2935        2936        3037        3036
         4        2936        2937        3038        3037
         4        2937        2938        3039        3038
         4        2938        2939        3040        3039
         4        2939        2940        3041        3040
         4        2940        2941        3042        3041
         4        2941        2942        3043        3042
         4        2942        2943        3044        3043
         4        2943        2944        3045        3044
         4        2944        2945        3046        3045
         4        2945        2946        3047        3046
         4        2946        2947        3048        3047
         4        2947        2948        3049        3048
         4        2948        2949        3050        3049
         4        2949        2950        3051        3050
         4        2950        2951        3052        3051
         4        2951        2952        3053        3052
         4        2952        2953        3054        3053
         4        2953        2954        3055        3054
         4        2954        2955        3056        3055
         4        2955        2956        3057        3056
         4        2956        2957        3058        3057
         4        2957        2958        3059        3058
         4        2958        2959        3060        3059
         4        2959        2960        3061        3060
         4        2960        2961        3062        3061
         4        2961        2962        3063        3062
         4        2962        2963        3064        3063
         4        2963        2964        3065        3064
         4        2964        2965        3066        3065
         4        2965        2966        3067        3066
         4        2966        2967        3068        3067
         4        2967        2968        3069        3068
         4        2968        2969        3070        3069
         4        2969        2970        3071        3070
         4        2970        2971        3072        3071
         4        2971        2972        3073        3072
         4        2972        2973        3074        3073
         4        2973        2974        3075        3074
         4        2974        2975        3076        3075
         4        2975        2976        3077        3076
         4        2976        2977        3078        3077
         4        2977        2978        3079        3078
         4        2978        2979        3080        3079
         4        2979        2980        3081        3080
         4        2980        2981        3082        3081
         4        2981        2982        3083        3082
         4        2982        2983        3084        3083
         4        2983        2984        3085        3084
         4        2984        2985        3086        3085
         4        2985        2986        3087        3086
         4        2986        2987        3088        3087
         4        2987        2988        3089        3088
         4        2988        2989        3090        3089
         4        2989        2990        3091        3090
         4        2990        2991        3092        3091
         4        2991        2992        3093        3092
         4        2992        2993        3094        3093
         4        2993        2994        3095        3094
         4        2994        2995        3096        3095
         4        2995        2996        3097        3096
         4        2996        2997        3098        3097
         4        2997        2998        3099        3098
         4        2998        2999        3100        3099
         4        2999        3000        3101        3100
         4        3000        3001        3102        3101
         4        3001        3002        3103        3102
         4        3002        3003        3104        3103
         4        3003        3004        3105        3104
         4        3004        3005        3106        3105
         4        3005        3006        3107        3106
         4        3006        3007        3108        3107
         4        3007        3008        3109        3108
         4        3008        3009        3110        3109
         4        3009        3010        3111        3110
         4        3010        3011        3112        3111
         4        3011        3012        3113        3112
         4        3012        3013        3114        3113
         4        3013        3014        3115        3114
         4        3014        3015        3116        3115
         4        3015        3016        3117        3116
         4        3016        3017        3118        3117
         4        3017        3018        3119        3118
         4        3018        3019        3120        3119
         4        3019        3020        3121        3120
         4        3020        3021        3122        3121
         4        3021        3022        3123        3122
         4        3022        3023        3124        3123
         4        3023        3024        3125        3124
         4        3024        3025        3126        3125
         4        3025        3026        3127        3126
         4        3026        3027        3128        3127
         4        3027        3028        3129        3128
         4        3028        3029        3130        3129
         4        3030        3031        3132        3131
         4        3031        3032        3133        3132
         4        3032        3033        3134        3133
         4        3033        3034        3135        3134
         4        3034        3035        3136        3135
         4        3035        3036        3137        3136
         4        3036        3037        3138        3137
         4        3037        3038        3139        3138
         4        3038        3039        3140        3139
         4        3039        3040        3141        3140
         4        3040        3041        3142        3141
         4        3041        3042        3143        3142
         4        3042        3043        3144        3143
         4        3043        3044        3145        3144
         4        3044        3045        3146        3145
         4        3045        3046        3147        3146
         4        3046        3047        3148        3147
         4        3047        3048        3149        3148
         4        3048        3049        3150        3149
         4        3049        3050        3151        3150
         4        3050        3051        3152        3151
         4        3051        3052        3153        3152
         4        3052        3053        3154        3153
         4        3053        3054        3155        3154
         4        3054        3055        3156        3155
         4        3055        3056        3157        3156
         4        3056        3057        3158        3157
         4        3057        3058        3159        3158
         4        3058        3059        3160        3159
         4        3059        3060        3161        3160
         4        3060        3061        3162        3161
         4        3061        3062        3163        3162
         4        3062        3063        3164        3163
         4        3063        3064        3165        3164
         4        3064        3065        3166        3165
         4        3065        3066        3167        3166
         4        3066        3067        3168        3167
         4        3067        3068        3169        3168
         4        3068        3069        3170        3169
         4        3069        3070        3171        3170
         4        3070        3071        3172        3171
         4        3071        3072        3173        3172
         4        3072        3073        3174        3173
         4        3073        3074        3175        3174
         4        3074        3075        3176        3175
         4        3075        3076        3177        3176
         4        3076        3077        3178        3177
         4        3077        3078        3179        3178
         4        3078        3079        3180        3179
         4        3079        3080        3181        3180
         4        3080        3081        3182        3181
         4        3081        3082        3183        3182
         4        3082        3083        3184        3183
         4        3083        3084        3185        3184
         4        3084        3085        3186        3185
         4        3085        3086        3187        3186
         4        3086        3087        3188        3187
         4        3087        3088        3189        3188
         4        3088        3089        3190        3189
         4        3089        3090        3191        3190
         4        3090        3091        3192        3191
         4        3091        3092        3193        3192
         4        3092        3093        3194        3193
         4        3093        3094        3195        3194
         4        3094        3095        3196        3195
         4        3095        3096        3197        3196
         4        3096        3097        3198        3197
         4        3097        3098        3199        3198
         4        3098        3099        3200        3199
         4        3099        3100        3201        3200
         4        3100        3101        3202        3201
         4        3101        3102        3203        3202
         4        3102        3103        3204        3203
         4        3103        3104        3205        3204
         4        3104        3105        3206        3205
         4        3105        3106        3207        3206
         4        3106        3107        3208        3207
         4        3107        3108        3209        3208
         4        3108        3109        3210        3209
         4        3109        3110        3211        3210
         4        3110        3111        3212        3211
         4        3111        3112        3213        3212
         4        3112        3113        3214        3213
         4        3113        3114        3215        3214
         4        3114        3115        3216        3215
         4        3115        3116        3217        3216
         4        3116        3117        3218        3217
         4        3117        3118        3219        3218
         4        3118        3119        3220        3219
         4        3119        3120        3221        3220
         4        3120        3121        3222        3221
         4        3121        3122        3223        3222
         4        3122        3123        3224        3223
         4        3123        3124        3225        3224
         4        3124        3125        3226        3225
         4        3125        3126        3227        3226
         4        3126        3127        3228        3227
         4        3127        3128        3229        3228
         4        3128        3129        3230        3229
         4        3129        3130        3231        3230
         4        3131        3132        3233        3232
         4        3132        3133        3234        3233
         4        3133        3134        3235        3234
         4        3134        3135        3236        3235
         4        3135        3136        3237        3236
         4        3136        3137        3238        3237
         4        3137        3138        3239        3238
         4        3138        3139        3240        3239
         4        3139        3140        3241        3240
         4        3140        3141        3242        3241
         4        3141        3142        3243        3242
         4        3142        3143        3244        3243
         4        3143        3144        3245        3244
         4        3144        3145        3246        3245
         4        3145        3146        3247        3246
         4        3146        3147        3248        3247
         4        3147        3148        3249        3248
         4        3148        3149        3250        3249
         4        3149        3150        3251        3250
         4        3150        3151        3252        3251
         4        3151        3152        3253        3252
         4        3152        3153        3254        3253
         4        3153        3154        3255        3254
         4        3154        3155        3256        3255
         4        3155        3156        3257        3256
         4        3156        3157        3258        3257
         4        3157        3158        3259        3258
         4        3158        3159        3260        3259
         4        3159        3160        3261        3260
         4        3160        3161        3262        3261
         4        3161        3162        3263        3262
         4        3162        3163        3264        3263
         4        3163        3164        3265        3264
         4        3164        3165        3266        3265
         4        3165        3166        3267        3266
         4        3166        3167        3268        3267
         4        3167        3168        3269        3268
         4        3168        3169        3270        3269
         4        3169        3170        3271        3270
         4        3170        3171        3272        3271
         4        3171        3172        3273        3272
         4        3172        3173        3274        3273
         4        3173        3174        3275        3274
         4        3174        3175        3276        3275
         4        3175        3176        3277        3276
         4        3176        3177        3278        3277
         4        3177        3178        3279        3278
         4        3178        3179        3280        3279
         4        3179        3180        3281        3280
         4        3180        3181        3282        3281
         4        3181        3182        3283        3282
         4        3182        3183        3284        3283
         4        3183        3184        3285        3284
         4        3184        3185        3286        3285
         4        3185        3186        3287        3286
         4        3186        3187        3288        3287
         4        3187        3188        3289        3288
         4        3188        3189        3290        3289
         4        3189        3190        3291        3290
         4        3190        3191        3292        3291
         4        3191        3192        3293        3292
         4        3192        3193        3294        3293
         4        3193        3194        3295        3294
         4        3194        3195        3296        3295
         4        3195        3196        3297        3296
         4        3196        3197        3298        3297
         4        3197        3198        3299        3298
         4        3198        3199        3300        3299
         4        3199        3200        3301        3300
         4        3200        3201        3302        3301
         4        3201        3202        3303        3302
         4        3202        3203        3304        3303
         4        3203        3204        3305        3304
         4        3204        3205        3306        3305
         4        3205        3206        3307        3306
         4        3206        3207        3308        3307
         4        3207        3208        3309        3308
         4        3208        3209        3310        3309
         4        3209        3210        3311        3310
         4        3210        3211        3312        3311
         4        3211        3212        3313        3312
         4        3212        3213        3314        3313
         4        3213        3214        3315        3314
         4        3214        3215        3316        3315
         4        3215        3216        3317        3316
         4        3216        3217        3318        3317
         4        3217        3218        3319        3318
         4        3218        3219        3320        3319
         4        3219        3220        3321        3320
         4        3220        3221        3322        3321
         4        3221        3222        3323        3322
         4        3222        3223        3324        3323
         4        3223        3224        3325        3324
         4        3224        3225        3326        3325
         4        3225        3226        3327        3326
         4        3226        3227        3328        3327
         4        3227        3228        3329        3328
         4        3228        3229        3330        3329
         4        3229        3230        3331        3330
         4        3230        3231        3332        3331
         4        3232        3233        3334        3333
         4        3233        3234        3335        3334
         4        3234        3235        3336        3335
         4        3235        3236        3337        3336
         4        3236        3237        3338        3337
         4        3237        3238        3339        3338
         4        3238        3239        3340        3339
         4        3239        3240        3341        3340
         4        3240        3241        3342        3341
         4        3241        3242        3343        3342
         4        3242        3243        3344        3343
         4        3243        3244        3345        3344
         4        3244        3245        3346        3345
         4        3245        3246        3347        3346
         4        3246        3247        3348        3347
         4        3247        3248        3349        3348
         4        3248        3249        3350        3349
         4        3249        3250        3351        3350
         4        3250        3251        3352        3351
         4        3251        3252        3353        3352
         4        3252        3253        3354        3353
         4        3253        3254        3355        3354
         4        3254        3255        3356        3355
         4        3255        3256        3357        3356
         4        3256        3257        3358        3357
         4        3257        3258        3359        3358
         4        3258        3259        3360        3359
         4        3259        3260        3361        3360
         4        3260        3261        3362        3361
         4        3261        3262        3363        3362
         4        3262        3263        3364        3363
         4        3263        3264        3365        3364
         4        3264        3265        3366        3365
         4        3265        3266        3367        3366
         4        3266        3267        3368        3367
         4        3267        3268        3369        3368
         4        3268        3269        3370        3369
         4        3269        3270        3371        3370
         4        3270        3271        3372        3371
         4        3271        3272        3373        3372
         4        3272        3273        3374        3373
         4        3273        3274        3375        3374
         4        3274        3275        3376        3375
         4        3275        3276        3377        3376
         4        3276        3277        3378        3377
         4        3277        3278        3379        3378
         4        3278        3279        3380        3379
         4        3279        3280        3381        3380
         4        3280        3281        3382        3381
         4        3281        3282        3383        3382
         4        3282        3283        3384        3383
         4        3283        3284        3385        3384
         4        3284        3285        3386        3385
         4        3285        3286        3387        3386
         4        3286        3287        3388        3387
         4        3287        3288        3389        3388
         4        3288        3289        3390        3389
         4        3289        3290        3391        3390
         4        3290        3291        3392        3391
         4        3291        3292        3393        3392
         4        3292        3293        3394        3393
         4        3293        3294        3395        3394
         4        3294        3295        3396        3395
         4        3295        3296        3397        3396
         4        3296        3297        3398        3397
         4        3297        3298        3399        3398
         4        3298        3299        3400        3399
         4        3299        3300        3401        3400
         4        3300        3301        3402        3401
         4        3301        3302        3403        3402
         4        3302        3303        3404        3403
         4        3303        3304        3405        3404
         4        3304        3305        3406        3405
         4        3305        3306        3407        3406
         4        3306        3307        3408        3407
         4        3307        3308        3409        3408
         4        3308        3309        3410        3409
         4        3309        3310        3411        3410
         4        3310        3311        3412        3411
         4        3311        3312        3413        3412
         4        3312        3313        3414        3413
         4        3313        3314        3415        3414
         4        3314        3315        3416        3415
         4        3315        3316        3417        3416
         4        3316        3317        3418        3417
         4        3317        3318        3419        3418
         4        3318        3319        3420        3419
         4        3319        3320        3421        3420
         4        3320        3321        3422        3421
         4        3321        3322        3423        3422
         4        3322        3323        3424        3423
         4        3323        3324        3425        3424
         4        3324        3325        3426        3425
         4        3325        3326        3427        3426
         4        3326        3327        3428        3427
         4        3327        3328        3429        3428
         4        3328        3329        3430        3429
         4        3329        3330        3431        3430
         4        3330        3331        3432        3431
         4        3331        3332        3433        3432
         4        3333        3334        3435        3434
         4        3334        3335        3436        3435
         4        3335        3336        3437        3436
         4        3336        3337        3438        3437
         4        3337        3338        3439        3438
         4        3338        3339        3440        3439
         4        3339        3340        3441        3440
         4        3340        3341        3442        3441
         4        3341        3342        3443        3442
         4        3342        3343        3444        3443
         4        3343        3344        3445        3444
         4        3344        3345        3446        3445
         4        3345        3346        3447        3446
         4        3346        3347        3448        3447
         4        3347        3348        3449        3448
         4        3348        3349        3450        3449
         4        3349        3350        3451        3450
         4        3350        3351        3452        3451
         4        3351        3352        3453        3452
         4        3352        3353        3454        3453
         4        3353        3354        3455        3454
         4        3354        3355        3456        3455
         4        3355        3356        3457        3456
         4        3356        3357        3458        3457
         4        3357        3358        3459        3458
         4        3358        3359        3460        3459
         4        3359        3360        3461        3460
         4        3360        3361        3462        3461
         4        3361        3362        3463        3462
         4        3362        3363        3464        3463
         4        3363        3364        3465        3464
         4        3364        3365        3466        3465
         4        3365        3366        3467        3466
         4        3366        3367        3468        3467
         4        3367        3368        3469        3468
         4        3368        3369        3470        3469
         4        3369        3370        3471        3470
         4        3370        3371        3472        3471
         4        3371        3372        3473        3472
         4        3372        3373        3474        3473
         4        3373        3374        3475        3474
         4        3374        3375        3476        3475
         4        3375        3376        3477        3476
         4        3376        3377        3478        3477
         4        3377        3378        3479        3478
         4        3378        3379        3480        3479
         4        3379        3380        3481        3480
         4        3380        3381        3482        3481
         4        3381        3382        3483        3482
         4        3382        3383        3484        3483
         4        3383        3384        3485        3484
         4        3384        3385        3486        3485
         4        3385        3386        3487        3486
         4        3386        3387        3488        3487
         4        3387        3388        3489        3488
         4        3388        3389        3490        3489
         4        3389        3390        3491        3490
         4        3390        3391        3492        3491
         4        3391        3392        3493        3492
         4        3392        3393        3494        3493
         4        3393        3394        3495        3494
         4        3394        3395        3496        3495
         4        3395        3396        3497        3496
         4        3396        3397        3498        3497
         4        3397        3398        3499        3498
         4        3398        3399        3500        3499
         4        3399        3400        3501        3500
         4        3400        3401        3502        3501
         4        3401        3402        3503        3502
         4        3402        3403        3504        3503
         4        3403        3404        3505        3504
         4        3404        3405        3506        3505
         4        3405        3406        3507        3506
         4        3406        3407        3508        3507
         4        3407        3408        3509        3508
         4        3408        3409        3510        3509
         4        3409        3410        3511        3510
         4        3410        3411        3512        3511
         4        3411        3412        3513        3512
         4        3412        3413        3514        3513
         4        3413        3414        3515        3514
         4        3414        3415        3516        3515
         4        3415        3416        3517        3516
         4        3416        3417        3518        3517
         4        3417        3418        3519        3518
         4        3418        3419        3520        3519
         4        3419        3420        3521        3520
         4        3420        3421        3522        3521
         4        3421        3422        3523        3522
         4        3422        3423        3524        3523
         4        3423        3424        3525        3524
         4        3424        3425        3526        3525
         4        3425        3426        3527        3526
         4        3426        3427        3528        3527
         4        3427        3428        3529        3528
         4        3428        3429        3530        3529
         4        3429        3430        3531        3530
         4        3430        3431        3532        3531
         4        3431        3432        3533        3532
         4        3432        3433        3534        3533
         4        3434        3435        3536        3535
         4        3435        3436        3537        3536
         4        3436        3437        3538        3537
         4        3437        3438        3539        3538
         4        3438        3439        3540        3539
         4        3439        3440        3541        3540
         4        3440        3441        3542        3541
         4        3441        3442        3543        3542
         4        3442        3443        3544        3543
         4        3443        3444        3545        3544
         4        3444        3445        3546        3545
         4        3445        3446        3547        3546
         4        3446        3447        3548        3547
         4        3447        3448        3549        3548
         4        3448        3449        3550        3549
         4        3449        3450        3551        3550
         4        3450        3451        3552        3551
         4        3451        3452        3553        3552
         4        3452        3453        3554        3553
         4        3453        3454        3555        3554
         4        3454        3455        3556        3555
         4        3455        3456        3557        3556
         4        3456        3457        3558        3557
         4        3457        3458        3559        3558
         4        3458        3459        3560        3559
         4        3459        3460        3561        3560
         4        3460        3461        3562        3561
         4        3461        3462        3563        3562
         4        3462        3463        3564        3563
         4        3463        3464        3565        3564
         4        3464        3465        3566        3565
         4        3465        3466        3567        3566
         4        3466        3467        3568        3567
         4        3467        3468        3569        3568
         4        3468        3469        3570        3569
         4        3469        3470        3571        3570
         4        3470        3471        3572        3571
         4        3471        3472        3573        3572
         4        3472        3473        3574        3573
         4        3473        3474        3575        3574
         4        3474        3475        3576        3575
         4        3475        3476        3577        3576
         4        3476        3477        3578        3577
         4        3477        3478        3579        3578
         4        3478        3479        3580        3579
         4        3479        3480        3581        3580
         4        3480        3481        3582        3581
         4        3481        3482        3583        3582
         4        3482        3483        3584        3583
         4        3483        3484        3585        3584
         4        3484        3485        3586        3585
         4        3485        3486        3587        3586
         4        3486        3487        3588        3587
         4        3487        3488        3589        3588
         4        3488        3489        3590        3589
         4        3489        3490        3591        3590
         4        3490        3491        3592        3591
         4        3491        3492        3593        3592
         4        3492        3493        3594        3593
         4        3493        3494        3595        3594
         4        3494        3495        3596        3595
         4        3495        3496        3597        3596
         4        3496        3497        3598        3597
         4        3497        3498        3599        3598
         4        3498        3499        3600        3599
         4        3499        3500        3601        3600
         4        3500        3501        3602        3601
         4        3501        3502        3603        3602
         4        3502        3503        3604        3603
         4        3503        3504        3605        3604
         4        3504        3505        3606        3605
         4        3505        3506        3607        3606
         4        3506        3507        3608        3607
         4        3507        3508        3609        3608
         4        3508        3509        3610        3609
         4        3509        3510        3611        3610
         4        3510        3511        3612        3611
         4        3511        3512        3613        3612
         4        3512        3513        3614        3613
         4        3513        3514        3615        3614
         4        3514        3515        3616        3615
         4        3515        3516        3617        3616
         4        3516        3517        3618        3617
         4        3517        3518        3619        3618
         4        3518        3519        3620        3619
         4        3519        3520        3621        3620
         4        3520        3521        3622        3621
         4        3521        3522        3623        3622
         4        3522        3523        3624        3623
         4        3523        3524        3625        3624
         4        3524        3525        3626        3625
         4        3525        3526        3627        3626
         4        3526        3527        3628        3627
         4        3527        3528        3629        3628
         4        3528        3529        3630        3629
         4        3529        3530        3631        3630
         4        3530        3531        3632        3631
         4        3531        3532        3633        3632
         4        3532        3533        3634        3633
         4        3533        3534        3635        3634
         4        3535        3536        3637        3636
         4        3536        3537        3638        3637
         4        3537        3538        3639        3638
         4        3538        3539        3640        3639
         4        3539        3540        3641        3640
         4        3540        3541        3642        3641
         4        3541        3542        3643        3642
         4        3542        3543        3644        3643
         4        3543        3544        3645        3644
         4        3544        3545        3646        3645
         4        3545        3546        3647        3646
         4        3546        3547        3648        3647
         4        3547        3548        3649        3648
         4        3548        3549        3650        3649
         4        3549        3550        3651        3650
         4        3550        3551        3652        3651
         4        3551        3552        3653        3652
         4        3552        3553        3654        3653
         4        3553        3554        3655        3654
         4        3554        3555        3656        3655
         4        3555        3556        3657        3656
         4        3556        3557        3658        3657
         4        3557        3558        3659        3658
         4        3558        3559        3660        3659
         4        3559        3560        3661        3660
         4        3560        3561        3662        3661
         4        3561        3562        3663        3662
         4        3562        3563        3664        3663
         4        3563        3564        3665        3664
         4        3564        3565        3666        3665
         4        3565        3566        3667        3666
         4        3566        3567        3668        3667
         4        3567        3568        3669        3668
         4        3568        3569        3670        3669
         4        3569        3570        3671        3670
         4        3570        3571        3672        3671
         4        3571        3572        3673        3672
         4        3572        3573        3674        3673
         4        3573        3574        3675        3674
         4        3574        3575        3676        3675
         4        3575        3576        3677        3676
         4        3576        3577        3678        3677
         4        3577        3578        3679        3678
         4        3578        3579        3680        3679
         4        3579        3580        3681        3680
         4        3580        3581        3682        3681
         4        3581        3582        3683        3682
         4        3582        3583        3684        3683
         4        3583        3584        3685        3684
         4        3584        3585        3686        3685
         4        3585        3586        3687        3686
         4        3586        3587        3688        3687
         4        3587        3588        3689        3688
         4        3588        3589        3690        3689
         4        3589        3590        3691        3690
         4        3590        3591        3692        3691
         4        3591        3592        3693        3692
         4        3592        3593        3694        3693
         4        3593        3594        3695        3694
         4        3594        3595        3696        3695
         4        3595        3596        3697        3696
         4        3596        3597        3698        3697
         4        3597        3598        3699        3698
         4        3598        3599        3700        3699
         4        3599        3600        3701        3700
         4        3600        3601        3702        3701
         4        3601        3602        3703        3702
         4        3602        3603        3704        3703
         4        3603        3604        3705        3704
         4        3604        3605        3706        3705
         4        3605        3606        3707        3706
         4        3606        3607        3708        3707
         4        3607        3608        3709        3708
         4        3608        3609        3710        3709
         4        3609        3610        3711        3710
         4        3610        3611        3712        3711
         4        3611        3612        3713        3712
         4        3612        3613        3714        3713
         4        3613        3614        3715        3714
         4        3614        3615        3716        3715
         4        3615        3616        3717        3716
         4        3616        3617        3718        3717
         4        3617        3618        3719        3718
         4        3618        3619        3720        3719
         4        3619        3620        3721        3720
         4        3620        3621        3722        3721
         4        3621        3622        3723        3722
         4        3622        3623        3724        3723
         4        3623        3624        3725        3724
         4        3624        3625        3726        3725
         4        3625        3626        3727        3726
         4        3626        3627        3728        3727
         4        3627        3628        3729        3728
         4        3628        3629        3730        3729
         4        3629        3630        3731        3730
         4        3630        3631        3732        3731
         4        3631        3632        3733        3732
         4        3632        3633        3734        3733
         4        3633        3634        3735        3734
         4        3634        3635        3736        3735
         4        3636        3637        3738        3737
         4        3637        3638        3739        3738
         4        3638        3639        3740        3739
         4        3639        3640        3741        3740
         4        3640        3641        3742        3741
         4        3641        3642        3743        3742
         4        3642        3643        3744        3743
         4        3643        3644        3745        3744
         4        3644        3645        3746        3745
         4        3645        3646        3747        3746
         4        3646        3647        3748        3747
         4        3647        3648        3749        3748
         4        3648        3649        3750        3749
         4        3649        3650        3751        3750
         4        3650        3651        3752        3751
         4        3651        3652        3753        3752
         4        3652        3653        3754        3753
         4        3653        3654        3755        3754
         4        3654        3655        3756        3755
         4        3655        3656        3757        3756
         4        3656        3657        3758        3757
         4        3657        3658        3759        3758
         4        3658        3659        3760        3759
         4        3659        3660        3761        3760
         4        3660        3661        3762        3761
         4        3661        3662        3763        3762
         4        3662        3663        3764        3763
         4        3663        3664        3765        3764
         4        3664        3665        3766        3765
         4        3665        3666        3767        3766
         4        3666        3667        3768        3767
         4        3667        3668        3769        3768
         4        3668        3669        3770        3769
         4        3669        3670        3771        3770
         4        3670        3671        3772        3771
         4        3671        3672        3773        3772
         4        3672        3673        3774        3773
         4        3673        3674        3775        3774
         4        3674        3675        3776        3775
         4        3675        3676        3777        3776
         4        3676        3677        3778        3777
         4        3677        3678        3779        3778
         4        3678        3679        3780        3779
         4        3679        3680        3781        3780
         4        3680        3681        3782        3781
         4        3681        3682        3783        3782
         4        3682        3683        3784        3783
         4        3683        3684        3785        3784
         4        3684        3685        3786        3785
         4        3685        3686        3787        3786
         4        3686        3687        3788        3787
         4        3687        3688        3789        3788
         4        3688        3689        3790        3789
         4        3689        3690        3791        3790
         4        3690        3691        3792        3791
         4        3691        3692        3793        3792
         4        3692        3693        3794        3793
         4        3693        3694        3795        3794
         4        3694        3695        3796        3795
         4        3695        3696        3797        3796
         4        3696        3697        3798        3797
         4        3697        3698        3799        3798
         4        3698        3699        3800        3799
         4        3699        3700        3801        3800
         4        3700        3701        3802        3801
         4        3701        3702        3803        3802
         4        3702        3703        3804        3803
         4        3703        3704        3805        3804
         4        3704        3705        3806        3805
         4        3705        3706        3807        3806
         4        3706        3707        3808        3807
         4        3707        3708        3809        3808
         4        3708        3709        3810        3809
         4        3709        3710        3811        3810
         4        3710        3711        3812        3811
         4        3711        3712        3813        3812
         4        3712        3713        3814        3813
         4        3713        3714        3815        3814
         4        3714        3715        3816        3815
         4        3715        3716        3817        3816
         4        3716        3717        3818        3817
         4        3717        3718        3819        3818
         4        3718        3719        3820        3819
         4        3719        3720        3821        3820
         4        3720        3721        3822        3821
         4        3721        3722        3823        3822
         4        3722        3723        3824        3823
         4        3723        3724        3825        3824
         4        3724        3725        3826        3825
         4        3725        3726        3827        3826
         4        3726        3727        3828        3827
         4        3727        3728        3829        3828
         4        3728        3729        3830        3829
         4        3729        3730        3831        3830
         4        3730        3731        3832        3831
         4        3731        3732        3833        3832
         4        3732        3733        3834        3833
         4        3733        3734        3835        3834
         4        3734        3735        3836        3835
         4        3735        3736        3837        3836
         4        3737        3738        3839        3838
         4        3738        3739        3840        3839
         4        3739        3740        3841        3840
         4        3740        3741        3842        3841
         4        3741        3742        3843        3842
         4        3742        3743        3844        3843
         4        3743        3744        3845        3844
         4        3744        3745        3846        3845
         4        3745        3746        3847        3846
         4        3746        3747        3848        3847
         4        3747        3748        3849        3848
         4        3748        3749        3850        3849
         4        3749        3750        3851        3850
         4        3750        3751        3852        3851
         4        3751        3752        3853        3852
         4        3752        3753        3854        3853
         4        3753        3754        3855        3854
         4        3754        3755        3856        3855
         4        3755        3756        3857        3856
         4        3756        3757        3858        3857
         4        3757        3758        3859        3858
         4        3758        3759        3860        3859
         4        3759        3760        3861        3860
         4        3760        3761        3862        3861
         4        3761        3762        3863        3862
         4        3762        3763        3864        3863
         4        3763        3764        3865        3864
         4        3764        3765        3866        3865
         4        3765        3766        3867        3866
         4        3766        3767        3868        3867
         4        3767        3768        3869        3868
         4        3768        3769        3870        3869
         4        3769        3770        3871        3870
         4        3770        3771        3872        3871
         4        3771        3772        3873        3872
         4        3772        3773        3874        3873
         4        3773        3774        3875        3874
         4        3774        3775        3876        3875
         4        3775        3776        3877        3876
         4        3776        3777        3878        3877
         4        3777        3778        3879        3878
         4        3778        3779        3880        3879
         4        3779        3780        3881        3880
         4        3780        3781        3882        3881
         4        3781        3782        3883        3882
         4        3782        3783        3884        3883
         4        3783        3784        3885        3884
         4        3784        3785        3886        3885
         4        3785        3786        3887        3886
         4        3786        3787        3888        3887
         4        3787        3788        3889        3888
         4        3788        3789        3890        3889
         4        3789        3790        3891        3890
         4        3790        3791        3892        3891
         4        3791        3792        3893        3892
         4        3792        3793        3894        3893
         4        3793        3794        3895        3894
         4        3794        3795        3896        3895
         4        3795        3796        3897        3896
         4        3796        3797        3898        3897
         4        3797        3798        3899        3898
         4        3798        3799        3900        3899
         4        3799        3800        3901        3900
         4        3800        3801        3902        3901
         4        3801        3802        3903        3902
         4        3802        3803        3904        3903
         4        3803        3804        3905        3904
         4        3804        3805        3906        3905
         4        3805        3806        3907        3906
         4        3806        3807        3908        3907
         4        3807        3808        3909        3908
         4        3808        3809        3910        3909
         4        3809        3810        3911        3910
         4        3810        3811        3912        3911
         4        3811        3812        3913        3912
         4        3812        3813        3914        3913
         4        3813        3814        3915        3914
         4        3814        3815        3916        3915
         4        3815        3816        3917        3916
         4        3816        3817        3918        3917
         4        3817        3818        3919        3918
         4        3818        3819        3920        3919
         4        3819        3820        3921        3920
         4        3820        3821        3922        3921
         4        3821        3822        3923        3922
         4        3822        3823        3924        3923
         4        3823        3824        3925        3924
         4        3824        3825        3926        3925
         4        3825        3826        3927        3926
         4        3826        3827        3928        3927
         4        3827        3828        3929        3928
         4        3828        3829        3930        3929
         4        3829        3830        3931        3930
         4        3830        3831        3932        3931
         4        3831        3832        3933        3932
         4        3832        3833        3934        3933
         4        3833        3834        3935        3934
         4        3834        3835        3936        3935
         4        3835        3836        3937        3936
         4        3836        3837        3938        3937
         4        3838        3839        3940        3939
         4        3839        3840        3941        3940
         4        3840        3841        3942        3941
         4        3841        3842        3943        3942
         4        3842        3843        3944        3943
         4        3843        3844        3945        3944
         4        3844        3845        3946        3945
         4        3845        3846        3947        3946
         4        3846        3847        3948        3947
         4        3847        3848        3949        3948
         4        3848        3849        3950        3949
         4        3849        3850        3951        3950
         4        3850        3851        3952        3951
         4        3851        3852        3953        3952
         4        3852        3853        3954        3953
         4        3853        3854        3955        3954
         4        3854        3855        3956        3955
         4        3855        3856        3957        3956
         4        3856        3857        3958        3957
         4        3857        3858        3959        3958
         4        3858        3859        3960        3959
         4        3859        3860        3961        3960
         4        3860        3861        3962        3961
         4        3861        3862        3963        3962
         4        3862        3863        3964        3963
         4        3863        3864        3965        3964
         4        3864        3865        3966        3965
         4        3865        3866        3967        3966
         4        3866        3867        3968        3967
         4        3867        3868        3969        3968
         4        3868        3869        3970        3969
         4        3869        3870        3971        3970
         4        3870        3871        3972        3971
         4        3871        3872        3973        3972
         4        3872        3873        3974        3973
         4        3873        3874        3975        3974
         4        3874        3875        3976        3975
         4        3875        3876        3977        3976
         4        3876        3877        3978        3977
         4        3877        3878        3979        3978
         4        3878        3879        3980        3979
         4        3879        3880        3981        3980
         4        3880        3881        3982        3981
         4        3881        3882        3983        3982
         4        3882        3883        3984        3983
         4        3883        3884        3985        3984
         4        3884        3885        3986        3985
         4        3885        3886        3987        3986
         4        3886        3887        3988        3987
         4        3887        3888        3989        3988
         4        3888        3889        3990        3989
         4        3889        3890        3991        3990
         4        3890        3891        3992        3991
         4        3891        3892        3993        3992
         4        3892        3893        3994        3993
         4        3893        3894        3995        3994
         4        3894        3895        3996        3995
         4        3895        3896        3997        3996
         4        3896        3897        3998        3997
         4        3897        3898        3999        3998
         4        3898        3899        4000        3999
         4        3899        3900        4001        4000
         4        3900        3901        4002        4001
         4        3901        3902        4003        4002
         4        3902        3903        4004        4003
         4        3903        3904        4005        4004
         4        3904        3905        4006        4005
         4        3905        3906        4007        4006
         4        3906        3907        4008        4007
         4        3907        3908        4009        4008
         4        3908        3909        4010        4009
         4        3909        3910        4011        4010
         4        3910        3911        4012        4011
         4        3911        3912        4013        4012
         4        3912        3913        4014        4013
         4        3913        3914        4015        4014
         4        3914        3915        4016        4015
         4        3915        3916        4017        4016
         4        3916        3917        4018        4017
         4        3917        3918        4019        4018
         4        3918        3919        4020        4019
         4        3919        3920        4021        4020
         4        3920        3921        4022        4021
         4        3921        3922        4023        4022
         4        3922        3923        4024        4023
         4        3923        3924        4025        4024
         4        3924        3925        4026        4025
         4        3925        3926        4027        4026
         4        3926        3927        4028        4027
         4        3927        3928        4029        4028
         4        3928        3929        4030        4029
         4        3929        3930        4031        4030
         4        3930        3931        4032        4031
         4        3931        3932        4033        4032
         4        3932        3933        4034        4033
         4        3933        3934        4035        4034
         4        3934        3935        4036        4035
         4        3935        3936        4037        4036
         4        3936        3937        4038        4037
         4        3937        3938        4039        4038
         4        3939        3940        4041        4040
         4        3940        3941        4042        4041
         4        3941        3942        4043        4042
         4        3942        3943        4044        4043
         4        3943        3944        4045        4044
         4        3944        3945        4046        4045
         4        3945        3946        4047        4046
         4        3946        3947        4048        4047
         4        3947        3948        4049        4048
         4        3948        3949        4050        4049
         4        3949        3950        4051        4050
         4        3950        3951        4052        4051
         4        3951        3952        4053        4052
         4        3952        3953        4054        4053
         4        3953        3954        4055        4054
         4        3954        3955        4056        4055
         4        3955        3956        4057        4056
         4        3956        3957        4058        4057
         4        3957        3958        4059        4058
         4        3958        3959        4060        4059
         4        3959        3960        4061        4060
         4        3960        3961        4062        4061
         4        3961        3962        4063        4062
         4        3962        3963        4064        4063
         4        3963        3964        4065        4064
         4        3964        3965        4066        4065
         4        3965        3966        4067        4066
         4        3966        3967        4068        4067
         4        3967        3968        4069        4068
         4        3968        3969        4070        4069
         4        3969        3970        4071        4070
         4        3970        3971        4072        4071
         4        3971        3972        4073        4072
         4        3972        3973        4074        4073
         4        3973        3974        4075        4074
         4        3974        3975        4076        4075
         4        3975        3976        4077        4076
         4        3976        3977        4078        4077
         4        3977        3978        4079        4078
         4        3978        3979        4080        4079
         4        3979        3980        4081        4080
         4        3980        3981        4082        4081
         4        3981        3982        4083        4082
         4        3982        3983        4084        4083
         4        3983        3984        4085        4084
         4        3984        3985        4086        4085
         4        3985        3986        4087        4086
         4        3986        3987        4088        4087
         4        3987        3988        4089        4088
         4        3988        3989        4090        4089
         4        3989        3990        4091        4090
         4        3990        3991        4092        4091
         4        3991        3992        4093        4092
         4        3992        3993        4094        4093
         4        3993        3994        4095        4094
         4        3994        3995        4096        4095
         4        3995        3996        4097        4096
         4        3996        3997        4098        4097
         4        3997        3998        4099        4098
         4        3998        3999        4100        4099
         4        3999        4000        4101        4100
         4        4000        4001        4102        4101
         4        4001        4002        4103        4102
         4        4002        4003        4104        4103
         4        4003        4004        4105        4104
         4        4004        4005        4106        4105
         4        4005        4006        4107        4106
         4        4006        4007        4108        4107
         4        4007        4008        4109        4108
         4        4008        4009        4110        4109
         4        4009        4010        4111        4110
         4        4010        4011        4112        4111
         4        4011        4012        4113        4112
         4        4012        4013        4114        4113
         4        4013        4014        4115        4114
         4        4014        4015        4116        4115
         4        4015        4016        4117        4116
         4        4016        4017        4118        4117
         4        4017        4018        4119        4118
         4        4018        4019        4120        4119
         4        4019        4020        4121        4120
         4        4020        4021        4122        4121
         4        4021        4022        4123        4122
         4        4022        4023        4124        4123
         4        4023        4024        4125        4124
         4        4024        4025        4126        4125
         4        4025        4026        4127        4126
         4        4026        4027        4128        4127
         4        4027        4028        4129        4128
         4        4028        4029        4130        4129
         4        4029        4030        4131        4130
         4        4030        4031        4132        4131
         4        4031        4032        4133        4132
         4        4032        4033        4134        4133
         4        4033        4034        4135        4134
         4        4034        4035        4136        4135
         4        4035        4036        4137        4136
         4        4036        4037        4138        4137
         4        4037        4038        4139        4138
         4        4038        4039        4140        4139
         4        4040        4041        4142        4141
         4        4041        4042        4143        4142
         4        4042        4043        4144        4143
         4        4043        4044        4145        4144
         4        4044        4045        4146        4145
         4        4045        4046        4147        4146
         4        4046        4047        4148        4147
         4        4047        4048        4149        4148
         4        4048        4049        4150        4149
         4        4049        4050        4151        4150
         4        4050        4051        4152        4151
         4        4051        4052        4153        4152
         4        4052        4053        4154        4153
         4        4053        4054        4155        4154
         4        4054        4055        4156        4155
         4        4055        4056        4157        4156
         4        4056        4057        4158        4157
         4        4057        4058        4159        4158
         4        4058        4059        4160        4159
         4        4059        4060        4161        4160
         4        4060        4061        4162        4161
         4        4061        4062        4163        4162
         4        4062        4063        4164        4163
         4        4063        4064        4165        4164
         4        4064        4065        4166        4165
         4        4065        4066        4167        4166
         4        4066        4067        4168        4167
         4        4067        4068        4169        4168
         4        4068        4069        4170        4169
         4        4069        4070        4171        4170
         4        4070        4071        4172        4171
         4        4071        4072        4173        4172
         4        4072        4073        4174        4173
         4        4073        4074        4175        4174
         4        4074        4075        4176        4175
         4        4075        4076        4177        4176
         4        4076        4077        4178        4177
         4        4077        4078        4179        4178
         4        4078        4079        4180        4179
         4        4079        4080        4181        4180
         4        4080        4081        4182        4181
         4        4081        4082        4183        4182
         4        4082        4083        4184        4183
         4        4083        4084        4185        4184
         4        4084        4085        4186        4185
         4        4085        4086        4187        4186
         4        4086        4087        4188        4187
         4        4087        4088        4189        4188
         4        4088        4089        4190        4189
         4        4089        4090        4191        4190
         4        4090        4091        4192        4191
         4        4091        4092        4193        4192
         4        4092        4093        4194        4193
         4        4093        4094        4195        4194
         4        4094        4095        4196        4195
         4        4095        4096        4197        4196
         4        4096        4097        4198        4197
         4        4097        4098        4199        4198
         4        4098        4099        4200        4199
         4        4099        4100        4201        4200
         4        4100        4101        4202        4201
         4        4101        4102        4203        4202
         4        4102        4103        4204        4203
         4        4103        4104        4205        4204
         4        4104        4105        4206        4205
         4        4105        4106        4207        4206
         4        4106        4107        4208        4207
         4        4107        4108        4209        4208
         4        4108        4109        4210        4209
         4        4109        4110        4211        4210
         4        4110        4111        4212        4211
         4        4111        4112        4213        4212
         4        4112        4113        4214        4213
         4        4113        4114        4215        4214
         4        4114        4115        4216        4215
         4        4115        4116        4217        4216
         4        4116        4117        4218        4217
         4        4117        4118        4219        4218
         4        4118        4119        4220        4219
         4        4119        4120        4221        4220
         4        4120        4121        4222        4221
         4        4121        4122        4223        4222
         4        4122        4123        4224        4223
         4        4123        4124        4225        4224
         4        4124        4125        4226        4225
         4        4125        4126        4227        4226
         4        4126        4127        4228        4227
         4        4127        4128        4229        4228
         4        4128        4129        4230        4229
         4        4129        4130        4231        4230
         4        4130        4131        4232        4231
         4        4131        4132        4233        4232
         4        4132        4133        4234        4233
         4        4133        4134        4235        4234
         4        4134        4135        4236        4235
         4        4135        4136        4237        4236
         4        4136        4137        4238        4237
         4        4137        4138        4239        4238
         4        4138        4139        4240        4239
         4        4139        4140        4241        4240
         4        4141        4142        4243        4242
         4        4142        4143        4244        4243
         4        4143        4144        4245        4244
         4        4144        4145        4246        4245
         4        4145        4146        4247        4246
         4        4146        4147        4248        4247
         4        4147        4148        4249        4248
         4        4148        4149        4250        4249
         4        4149        4150        4251        4250
         4        4150        4151        4252        4251
         4        4151        4152        4253        4252
         4        4152        4153        4254        4253
         4        4153        4154        4255        4254
         4        4154        4155        4256        4255
         4        4155        4156        4257        4256
         4        4156        4157        4258        4257
         4        4157        4158        4259        4258
         4        4158        4159        4260        4259
         4        4159        4160        4261        4260
         4        4160        4161        4262        4261
         4        4161        4162        4263        4262
         4        4162        4163        4264        4263
         4        4163        4164        4265        4264
         4        4164        4165        4266        4265
         4        4165        4166        4267        4266
         4        4166        4167        4268        4267
         4        4167        4168        4269        4268
         4        4168        4169        4270        4269
         4        4169        4170        4271        4270
         4        4170        4171        4272        4271
         4        4171        4172        4273        4272
         4        4172        4173        4274        4273
         4        4173        4174        4275        4274
         4        4174        4175        4276        4275
         4        4175        4176        4277        4276
         4        4176        4177        4278        4277
         4        4177        4178        4279        4278
         4        4178        4179        4280        4279
         4        4179        4180        4281        4280
         4        4180        4181        4282        4281
         4        4181        4182        4283        4282
         4        4182        4183        4284        4283
         4        4183        4184        4285        4284
         4        4184        4185        4286        4285
         4        4185        4186        4287        4286
         4        4186        4187        4288        4287
         4        4187        4188        4289        4288
         4        4188        4189        4290        4289
         4        4189        4190        4291        4290
         4        4190        4191        4292        4291
         4        4191        4192        4293        4292
         4        4192        4193        4294        4293
         4        4193        4194        4295        4294
         4        4194        4195        4296        4295
         4        4195        4196        4297        4296
         4        4196        4197        4298        4297
         4        4197        4198        4299        4298
         4        4198        4199        4300        4299
         4        4199        4200        4301        4300
         4        4200        4201        4302        4301
         4        4201        4202        4303        4302
         4        4202        4203        4304        4303
         4        4203        4204        4305        4304
         4        4204        4205        4306        4305
         4        4205        4206        4307        4306
         4        4206        4207        4308        4307
         4        4207        4208        4309        4308
         4        4208        4209        4310        4309
         4        4209        4210        4311        4310
         4        4210        4211        4312        4311
         4        4211        4212        4313        4312
         4        4212        4213        4314        4313
         4        4213        4214        4315        4314
         4        4214        4215        4316        4315
         4        4215        4216        4317        4316
         4        4216        4217        4318        4317
         4        4217        4218        4319        4318
         4        4218        4219        4320        4319
         4        4219        4220        4321        4320
         4        4220        4221        4322        4321
         4        4221        4222        4323        4322
         4        4222        4223        4324        4323
         4        4223        4224        4325        4324
         4        4224        4225        4326        4325
         4        4225        4226        4327        4326
         4        4226        4227        4328        4327
         4        4227        4228        4329        4328
         4        4228        4229        4330        4329
         4        4229        4230        4331        4330
         4        4230        4231        4332        4331
         4        4231        4232        4333        4332
         4        4232        4233        4334        4333
         4        4233        4234        4335        4334
         4        4234        4235        4336        4335
         4        4235        4236        4337        4336
         4        4236        4237        4338        4337
         4        4237        4238        4339        4338
         4        4238        4239        4340        4339
         4        4239        4240        4341        4340
         4        4240        4241        4342        4341
         4        4242        4243        4344        4343
         4        4243        4244        4345        4344
         4        4244        4245        4346        4345
         4        4245        4246        4347        4346
         4        4246        4247        4348        4347
         4        4247        4248        4349        4348
         4        4248        4249        4350        4349
         4        4249        4250        4351        4350
         4        4250        4251        4352        4351
         4        4251        4252        4353        4352
         4        4252        4253        4354        4353
         4        4253        4254        4355        4354
         4        4254        4255        4356        4355
         4        4255        4256        4357        4356
         4        4256        4257        4358        4357
         4        4257        4258        4359        4358
         4        4258        4259        4360        4359
         4        4259        4260        4361        4360
         4        4260        4261        4362        4361
         4        4261        4262        4363        4362
         4        4262        4263        4364        4363
         4        4263        4264        4365        4364
         4        4264        4265        4366        4365
         4        4265        4266        4367        4366
         4        4266        4267        4368        4367
         4        4267        4268        4369        4368
         4        4268        4269        4370        4369
         4        4269        4270        4371        4370
         4        4270        4271        4372        4371
         4        4271        4272        4373        4372
         4        4272        4273        4374        4373
         4        4273        4274        4375        4374
         4        4274        4275        4376        4375
         4        4275        4276        4377        4376
         4        4276        4277        4378        4377
         4        4277        4278        4379        4378
         4        4278        4279        4380        4379
         4        4279        4280        4381        4380
         4        4280        4281        4382        4381
         4        4281        4282        4383        4382
         4        4282        4283        4384        4383
         4        4283        4284        4385        4384
         4        4284        4285        4386        4385
         4        4285        4286        4387        4386
         4        4286        4287        4388        4387
         4        4287        4288        4389        4388
         4        4288        4289        4390        4389
         4        4289        4290        4391        4390
         4        4290        4291        4392        4391
         4        4291        4292        4393        4392
         4        4292        4293        4394        4393
         4        4293        4294        4395        4394
         4        4294        4295        4396        4395
         4        4295        4296        4397        4396
         4        4296        4297        4398        4397
         4        4297        4298        4399        4398
         4        4298        4299        4400        4399
         4        4299        4300        4401        4400
         4        4300        4301        4402        4401
         4        4301        4302        4403        4402
         4        4302        4303        4404        4403
         4        4303        4304        4405        4404
         4        4304        4305        4406        4405
         4        4305        4306        4407        4406
         4        4306        4307        4408        4407
         4        4307        4308        4409        4408
         4        4308        4309        4410        4409
         4        4309        4310        4411        4410
         4        4310        4311        4412        4411
         4        4311        4312        4413        4412
         4        4312        4313        4414        4413
         4        4313        4314        4415        4414
         4        4314        4315        4416        4415
         4        4315        4316        4417        4416
         4        4316        4317        4418        4417
         4        4317        4318        4419        4418
         4        4318        4319        4420        4419
         4        4319        4320        4421        4420
         4        4320        4321        4422        4421
         4        4321        4322        4423        4422
         4        4322        4323        4424        4423
         4        4323        4324        4425        4424
         4        4324        4325        4426        4425
         4        4325        4326        4427        4426
         4        4326        4327        4428        4427
         4        4327        4328        4429        4428
         4        4328        4329        4430        4429
         4        4329        4330        4431        4430
         4        4330        4331        4432        4431
         4        4331        4332        4433        4432
         4        4332        4333        4434        4433
         4        4333        4334        4435        4434
         4        4334        4335        4436        4435
         4        4335        4336        4437        4436
         4        4336        4337        4438        4437
         4        4337        4338        4439        4438
         4        4338        4339        4440        4439
         4        4339        4340        4441        4440
         4        4340        4341        4442        4441
         4        4341        4342        4443        4442
         4        4343        4344        4445        4444
         4        4344        4345        4446        4445
         4        4345        4346        4447        4446
         4        4346        4347        4448        4447
         4        4347        4348        4449        4448
         4        4348        4349        4450        4449
         4        4349        4350        4451        4450
         4        4350        4351        4452        4451
         4        4351        4352        4453        4452
         4        4352        4353        4454        4453
         4        4353        4354        4455        4454
         4        4354        4355        4456        4455
         4        4355        4356        4457        4456
         4        4356        4357        4458        4457
         4        4357        4358        4459        4458
         4        4358        4359        4460        4459
         4        4359        4360        4461        4460
         4        4360        4361        4462        4461
         4        4361        4362        4463        4462
         4        4362        4363        4464        4463
         4        4363        4364        4465        4464
         4        4364        4365        4466        4465
         4        4365        4366        4467        4466
         4        4366        4367        4468        4467
         4        4367        4368        4469        4468
         4        4368        4369        4470        4469
         4        4369        4370        4471        4470
         4        4370        4371        4472        4471
         4        4371        4372        4473        4472
         4        4372        4373        4474        4473
         4        4373        4374        4475        4474
         4        4374        4375        4476        4475
         4        4375        4376        4477        4476
         4        4376        4377        4478        4477
         4        4377        4378        4479        4478
         4        4378        4379        4480        4479
         4        4379        4380        4481        4480
         4        4380        4381        4482        4481
         4        4381        4382        4483        4482
         4        4382        4383        4484        4483
         4        4383        4384        4485        4484
         4        4384        4385        4486        4485
         4        4385        4386        4487        4486
         4        4386        4387        4488        4487
         4        4387        4388        4489        4488
         4        4388        4389        4490        4489
         4        4389        4390        4491        4490
         4        4390        4391        4492        4491
         4        4391        4392        4493        4492
         4        4392        4393        4494        4493
         4        4393        4394        4495        4494
         4        4394        4395        4496        4495
         4        4395        4396        4497        4496
         4        4396        4397        4498        4497
         4        4397        4398        4499        4498
         4        4398        4399        4500        4499
         4        4399        4400        4501        4500
         4        4400        4401        4502        4501
         4        4401        4402        4503        4502
         4        4402        4403        4504        4503
         4        4403        4404        4505        4504
         4        4404        4405        4506        4505
         4        4405        4406        4507        4506
         4        4406        4407        4508        4507
         4        4407        4408        4509        4508
         4        4408        4409        4510        4509
         4        4409        4410        4511        4510
         4        4410        4411        4512        4511
         4        4411        4412        4513        4512
         4        4412        4413        4514        4513
         4        4413        4414        4515        4514
         4        4414        4415        4516        4515
         4        4415        4416        4517        4516
         4        4416        4417        4518        4517
         4        4417        4418        4519        4518
         4        4418        4419        4520        4519
         4        4419        4420        4521        4520
         4        4420        4421        4522        4521
         4        4421        4422        4523        4522
         4        4422        4423        4524        4523
         4        4423        4424        4525        4524
         4        4424        4425        4526        4525
         4        4425        4426        4527        4526
         4        4426        4427        4528        4527
         4        4427        4428        4529        4528
         4        4428        4429        4530        4529
         4        4429        4430        4531        4530
         4        4430        4431        4532        4531
         4        4431        4432        4533        4532
         4        4432        4433        4534        4533
         4        4433        4434        4535        4534
         4        4434        4435        4536        4535
         4        4435        4436        4537        4536
         4        4436        4437        4538        4537
         4        4437        4438        4539        4538
         4        4438        4439        4540        4539
         4        4439        4440        4541        4540
         4        4440        4441        4542        4541
         4        4441        4442        4543        4542
         4        4442        4443        4544        4543
         4        4444        4445        4546        4545
         4        4445        4446        4547        4546
         4        4446        4447        4548        4547
         4        4447        4448        4549        4548
         4        4448        4449        4550        4549
         4        4449        4450        4551        4550
         4        4450        4451        4552        4551
         4        4451        4452        4553        4552
         4        4452        4453        4554        4553
         4        4453        4454        4555        4554
         4        4454        4455        4556        4555
         4        4455        4456        4557        4556
         4        4456        4457        4558        4557
         4        4457        4458        4559        4558
         4        4458        4459        4560        4559
         4        4459        4460        4561        4560
         4        4460        4461        4562        4561
         4        4461        4462        4563        4562
         4        4462        4463        4564        4563
         4        4463        4464        4565        4564
         4        4464        4465        4566        4565
         4        4465        4466        4567        4566
         4        4466        4467        4568        4567
         4        4467        4468        4569        4568
         4        4468        4469        4570        4569
         4        4469        4470        4571        4570
         4        4470        4471        4572        4571
         4        4471        4472        4573        4572
         4        4472        4473        4574        4573
         4        4473        4474        4575        4574
         4        4474        4475        4576        4575
         4        4475        4476        4577        4576
         4        4476        4477        4578        4577
         4        4477        4478        4579        4578
         4        4478        4479        4580        4579
         4        4479        4480        4581        4580
         4        4480        4481        4582        4581
         4        4481        4482        4583        4582
         4        4482        4483        4584        4583
         4        4483        4484        4585        4584
         4        4484        4485        4586        4585
         4        4485        4486        4587        4586
         4        4486        4487        4588        4587
         4        4487        4488        4589        4588
         4        4488        4489        4590        4589
         4        4489        4490        4591        4590
         4        4490        4491        4592        4591
         4        4491        4492        4593        4592
         4        4492        4493        4594        4593
         4        4493        4494        4595        4594
         4        4494        4495        4596        4595
         4        4495        4496        4597        4596
         4        4496        4497        4598        4597
         4        4497        4498        4599        4598
         4        4498        4499        4600        4599
         4        4499        4500        4601        4600
         4        4500        4501        4602        4601
         4        4501        4502        4603        4602
         4        4502        4503        4604        4603
         4        4503        4504        4605        4604
         4        4504        4505        4606        4605
         4        4505        4506        4607        4606
         4        4506        4507        4608        4607
         4        4507        4508        4609        4608
         4        4508        4509        4610        4609
         4        4509        4510        4611        4610
         4        4510        4511        4612        4611
         4        4511        4512        4613        4612
         4        4512        4513        4614        4613
         4        4513        4514        4615        4614
         4        4514        4515        4616        4615
         4        4515        4516        4617        4616
         4        4516        4517        4618        4617
         4        4517        4518        4619        4618
         4        4518        4519        4620        4619
         4        4519        4520        4621        4620
         4        4520        4521        4622        4621
         4        4521        4522        4623        4622
         4        4522        4523        4624        4623
         4        4523        4524        4625        4624
         4        4524        4525        4626        4625
         4        4525        4526        4627        4626
         4        4526        4527        4628        4627
         4        4527        4528        4629        4628
         4        4528        4529        4630        4629
         4        4529        4530        4631        4630
         4        4530        4531        4632        4631
         4        4531        4532        4633        4632
         4        4532        4533        4634        4633
         4        4533        4534        4635        4634
         4        4534        4535        4636        4635
         4        4535        4536        4637        4636
         4        4536        4537        4638        4637
         4        4537        4538        4639        4638
         4        4538        4539        4640        4639
         4        4539        4540        4641        4640
         4        4540        4541        4642        4641
         4        4541        4542        4643        4642
         4        4542        4543        4644        4643
         4        4543        4544        4645        4644
         4        4545        4546        4647        4646
         4        4546        4547        4648        4647
         4        4547        4548        4649        4648
         4        4548        4549        4650        4649
         4        4549        4550        4651        4650
         4        4550        4551        4652        4651
         4        4551        4552        4653        4652
         4        4552        4553        4654        4653
         4        4553        4554        4655        4654
         4        4554        4555        4656        4655
         4        4555        4556        4657        4656
         4        4556        4557        4658        4657
         4        4557        4558        4659        4658
         4        4558        4559        4660        4659
         4        4559        4560        4661        4660
         4        4560        4561        4662        4661
         4        4561        4562        4663        4662
         4        4562        4563        4664        4663
         4        4563        4564        4665        4664
         4        4564        4565        4666        4665
         4        4565        4566        4667        4666
         4        4566        4567        4668        4667
         4        4567        4568        4669        4668
         4        4568        4569        4670        4669
         4        4569        4570        4671        4670
         4        4570        4571        4672        4671
         4        4571        4572        4673        4672
         4        4572        4573        4674        4673
         4        4573        4574        4675        4674
         4        4574        4575        4676        4675
         4        4575        4576        4677        4676
         4        4576        4577        4678        4677
         4        4577        4578        4679        4678
         4        4578        4579        4680        4679
         4        4579        4580        4681        4680
         4        4580        4581        4682        4681
         4        4581        4582        4683        4682
         4        4582        4583        4684        4683
         4        4583        4584        4685        4684
         4        4584        4585        4686        4685
         4        4585        4586        4687        4686
         4        4586        4587        4688        4687
         4        4587        4588        4689        4688
         4        4588        4589        4690        4689
         4        4589        4590        4691        4690
         4        4590        4591        4692        4691
         4        4591        4592        4693        4692
         4        4592        4593        4694        4693
         4        4593        4594        4695        4694
         4        4594        4595        4696        4695
         4        4595        4596        4697        4696
         4        4596        4597        4698        4697
         4        4597        4598        4699        4698
         4        4598        4599        4700        4699
         4        4599        4600        4701        4700
         4        4600        4601        4702        4701
         4        4601        4602        4703        4702
         4        4602        4603        4704        4703
         4        4603        4604        4705        4704
         4        4604        4605        4706        4705
         4        4605        4606        4707        4706
         4        4606        4607        4708        4707
         4        4607        4608        4709        4708
         4        4608        4609        4710        4709
         4        4609        4610        4711        4710
         4        4610        4611        4712        4711
         4        4611        4612        4713        4712
         4        4612        4613        4714        4713
         4        4613        4614        4715        4714
         4        4614        4615        4716        4715
         4        4615        4616        4717        4716
         4        4616        4617        4718        4717
         4        4617        4618        4719        4718
         4        4618        4619        4720        4719
         4        4619        4620        4721        4720
         4        4620        4621        4722        4721
         4        4621        4622        4723        4722
         4        4622        4623        4724        4723
         4        4623        4624        4725        4724
         4        4624        4625        4726        4725
         4        4625        4626        4727        4726
         4        4626        4627        4728        4727
         4        4627        4628        4729        4728
         4        4628        4629        4730        4729
         4        4629        4630        4731        4730
         4        4630        4631        4732        4731
         4        4631        4632        4733        4732
         4        4632        4633        4734        4733
         4        4633        4634        4735        4734
         4        4634        4635        4736        4735
         4        4635        4636        4737        4736
         4        4636        4637        4738        4737
         4        4637        4638        4739        4738
         4        4638        4639        4740        4739
         4        4639        4640        4741        4740
         4        4640        4641        4742        4741
         4        4641        4642        4743        4742
         4        4642        4643        4744        4743
         4        4643        4644        4745        4744
         4        4644        4645        4746        4745
         4        4646        4647        4748        4747
         4        4647        4648        4749        4748
         4        4648        4649        4750        4749
         4        4649        4650        4751        4750
         4        4650        4651        4752        4751
         4        4651        4652        4753        4752
         4        4652        4653        4754        4753
         4        4653        4654        4755        4754
         4        4654        4655        4756        4755
         4        4655        4656        4757        4756
         4        4656        4657        4758        4757
         4        4657        4658        4759        4758
         4        4658        4659        4760        4759
         4        4659        4660        4761        4760
         4        4660        4661        4762        4761
         4        4661        4662        4763        4762
         4        4662        4663        4764        4763
         4        4663        4664        4765        4764
         4        4664        4665        4766        4765
         4        4665        4666        4767        4766
         4        4666        4667        4768        4767
         4        4667        4668        4769        4768
         4        4668        4669        4770        4769
         4        4669        4670        4771        4770
         4        4670        4671        4772        4771
         4        4671        4672        4773        4772
         4        4672        4673        4774        4773
         4        4673        4674        4775        4774
         4        4674        4675        4776        4775
         4        4675        4676        4777        4776
         4        4676        4677        4778        4777
         4        4677        4678        4779        4778
         4        4678        4679        4780        4779
         4        4679        4680        4781        4780
         4        4680        4681        4782        4781
         4        4681        4682        4783        4782
         4        4682        4683        4784        4783
         4        4683        4684        4785        4784
         4        4684        4685        4786        4785
         4        4685        4686        4787        4786
         4        4686        4687        4788        4787
         4        4687        4688        4789        4788
         4        4688        4689        4790        4789
         4        4689        4690        4791        4790
         4        4690        4691        4792        4791
         4        4691        4692        4793        4792
         4        4692        4693        4794        4793
         4        4693        4694        4795        4794
         4        4694        4695        4796        4795
         4        4695        4696        4797        4796
         4        4696        4697        4798        4797
         4        4697        4698        4799        4798
         4        4698        4699        4800        4799
         4        4699        4700        4801        4800
         4        4700        4701        4802        4801
         4        4701        4702        4803        4802
         4        4702        4703        4804        4803
         4        4703        4704        4805        4804
         4        4704        4705        4806        4805
         4        4705        4706        4807        4806
         4        4706        4707        4808        4807
         4        4707        4708        4809        4808
         4        4708        4709        4810        4809
         4        4709        4710        4811        4810
         4        4710        4711        4812        4811
         4        4711        4712        4813        4812
         4        4712        4713        4814        4813
         4        4713        4714        4815        4814
         4        4714        4715        4816        4815
         4        4715        4716        4817        4816
         4        4716        4717        4818        4817
         4        4717        4718        4819        4818
         4        4718        4719        4820        4819
         4        4719        4720        4821        4820
         4        4720        4721        4822        4821
         4        4721        4722        4823        4822
         4        4722        4723        4824        4823
         4        4723        4724        4825        4824
         4        4724        4725        4826        4825
         4        4725        4726        4827        4826
         4        4726        4727        4828        4827
         4        4727        4728        4829        4828
         4        4728        4729        4830        4829
         4        4729        4730        4831        4830
         4        4730        4731        4832        4831
         4        4731        4732        4833        4832
         4        4732        4733        4834        4833
         4        4733        4734        4835        4834
         4        4734        4735        4836        4835
         4        4735        4736        4837        4836
         4        4736        4737        4838        4837
         4        4737        4738        4839        4838
         4        4738        4739        4840        4839
         4        4739        4740        4841        4840
         4        4740        4741        4842        4841
         4        4741        4742        4843        4842
         4        4742        4743        4844        4843
         4        4743        4744        4845        4844
         4        4744        4745        4846        4845
         4        4745        4746        4847        4846
         4        4747        4748        4849        4848
         4        4748        4749        4850        4849
         4        4749        4750        4851        4850
         4        4750        4751        4852        4851
         4        4751        4752        4853        4852
         4        4752        4753        4854        4853
         4        4753        4754        4855        4854
         4        4754        4755        4856        4855
         4        4755        4756        4857        4856
         4        4756        4757        4858        4857
         4        4757        4758        4859        4858
         4        4758        4759        4860        4859
         4        4759        4760        4861        4860
         4        4760        4761        4862        4861
         4        4761        4762        4863        4862
         4        4762        4763        4864        4863
         4        4763        4764        4865        4864
         4        4764        4765        4866        4865
         4        4765        4766        4867        4866
         4        4766        4767        4868        4867
         4        4767        4768        4869        4868
         4        4768        4769        4870        4869
         4        4769        4770        4871        4870
         4        4770        4771        4872        4871
         4        4771        4772        4873        4872
         4        4772        4773        4874        4873
         4        4773        4774        4875        4874
         4        4774        4775        4876        4875
         4        4775        4776        4877        4876
         4        4776        4777        4878        4877
         4        4777        4778        4879        4878
         4        4778        4779        4880        4879
         4        4779        4780        4881        4880
         4        4780        4781        4882        4881
         4        4781        4782        4883        4882
         4        4782        4783        4884        4883
         4        4783        4784        4885        4884
         4        4784        4785        4886        4885
         4        4785        4786        4887        4886
         4        4786        4787        4888        4887
         4        4787        4788        4889        4888
         4        4788        4789        4890        4889
         4        4789        4790        4891        4890
         4        4790        4791        4892        4891
         4        4791        4792        4893        4892
         4        4792        4793        4894        4893
         4        4793        4794        4895        4894
         4        4794        4795        4896        4895
         4        4795        4796        4897        4896
         4        4796        4797        4898        4897
         4        4797        4798        4899        4898
         4        4798        4799        4900        4899
         4        4799        4800        4901        4900
         4        4800        4801        4902        4901
         4        4801        4802        4903        4902
         4        4802        4803        4904        4903
         4        4803        4804        4905        4904
         4        4804        4805        4906        4905
         4        4805        4806        4907        4906
         4        4806        4807        4908        4907
         4        4807        4808        4909        4908
         4        4808        4809        4910        4909
         4        4809        4810        4911        4910
         4        4810        4811        4912        4911
         4        4811        4812        4913        4912
         4        4812        4813        4914        4913
         4        4813        4814        4915        4914
         4        4814        4815        4916        4915
         4        4815        4816        4917        4916
         4        4816        4817        4918        4917
         4        4817        4818        4919        4918
         4        4818        4819        4920        4919
         4        4819        4820        4921        4920
         4        4820        4821        4922        4921
         4        4821        4822        4923        4922
         4        4822        4823        4924        4923
         4        4823        4824        4925        4924
         4        4824        4825        4926        4925
         4        4825        4826        4927        4926
         4        4826        4827        4928        4927
         4        4827        4828        4929        4928
         4        4828        4829        4930        4929
         4        4829        4830        4931        4930
         4        4830        4831        4932        4931
         4        4831        4832        4933        4932
         4        4832        4833        4934        4933
         4        4833        4834        4935        4934
         4        4834        4835        4936        4935
         4        4835        4836        4937        4936
         4        4836        4837        4938        4937
         4        4837        4838        4939        4938
         4        4838        4839        4940        4939
         4        4839        4840        4941        4940
         4        4840        4841        4942        4941
         4        4841        4842        4943        4942
         4        4842        4843        4944        4943
         4        4843        4844        4945        4944
         4        4844        4845        4946        4945
         4        4845        4846        4947        4946
         4        4846        4847        4948        4947
         4        4848        4849        4950        4949
         4        4849        4850        4951        4950
         4        4850        4851        4952        4951
         4        4851        4852        4953        4952
         4        4852        4853        4954        4953
         4        4853        4854        4955        4954
         4        4854        4855        4956        4955
         4        4855        4856        4957        4956
         4        4856        4857        4958        4957
         4        4857        4858        4959        4958
         4        4858        4859        4960        4959
         4        4859        4860        4961        4960
         4        4860        4861        4962        4961
         4        4861        4862        4963        4962
         4        4862        4863        4964        4963
         4        4863        4864        4965        4964
         4        4864        4865        4966        4965
         4        4865        4866        4967        4966
         4        4866        4867        4968        4967
         4        4867        4868        4969        4968
         4        4868        4869        4970        4969
         4        4869        4870        4971        4970
         4        4870        4871        4972        4971
         4        4871        4872        4973        4972
         4        4872        4873        4974        4973
         4        4873        4874        4975        4974
         4        4874        4875        4976        4975
         4        4875        4876        4977        4976
         4        4876        4877        4978        4977
         4        4877        4878        4979        4978
         4        4878        4879        4980        4979
         4        4879        4880        4981        4980
         4        4880        4881        4982        4981
         4        4881        4882        4983        4982
         4        4882        4883        4984        4983
         4        4883        4884        4985        4984
         4        4884        4885        4986        4985
         4        4885        4886        4987        4986
         4        4886        4887        4988        4987
         4        4887        4888        4989        4988
         4        4888        4889        4990        4989
         4        4889        4890        4991        4990
         4        4890        4891        4992        4991
         4        4891        4892        4993        4992
         4        4892        4893        4994        4993
         4        4893        4894        4995        4994
         4        4894        4895        4996        4995
         4        4895        4896        4997        4996
         4        4896        4897        4998        4997
         4        4897        4898        4999        4998
         4        4898        4899        5000        4999
         4        4899        4900        5001        5000
         4        4900        4901        5002        5001
         4        4901        4902        5003        5002
         4        4902        4903        5004        5003
         4        4903        4904        5005        5004
         4        4904        4905        5006        5005
         4        4905        4906        5007        5006
         4        4906        4907        5008        5007
         4        4907        4908        5009        5008
         4        4908        4909        5010        5009
         4        4909        4910        5011        5010
         4        4910        4911        5012        5011
         4        4911        4912        5013        5012
         4        4912        4913        5014        5013
         4        4913        4914        5015        5014
         4        4914        4915        5016        5015
         4        4915        4916        5017        5016
         4        4916        4917        5018        5017
         4        4917        4918        5019        5018
         4        4918        4919        5020        5019
         4        4919        4920        5021        5020
         4        4920        4921        5022        5021
         4        4921        4922        5023        5022
         4        4922        4923        5024        5023
         4        4923        4924        5025        5024
         4        4924        4925        5026        5025
         4        4925        4926        5027        5026
         4        4926        4927        5028        5027
         4        4927        4928        5029        5028
         4        4928        4929        5030        5029
         4        4929        4930        5031        5030
         4        4930        4931        5032        5031
         4        4931        4932        5033        5032
         4        4932        4933        5034        5033
         4        4933        4934        5035        5034
         4        4934        4935        5036        5035
         4        4935        4936        5037        5036
         4        4936        4937        5038        5037
         4        4937        4938        5039        5038
         4        4938        4939        5040        5039
         4        4939        4940        5041        5040
         4        4940        4941        5042        5041
         4        4941        4942        5043        5042
         4        4942        4943        5044        5043
         4        4943        4944        5045        5044
         4        4944        4945        5046        5045
         4        4945        4946        5047        5046
         4        4946        4947        5048        5047
         4        4947        4948        5049        5048
         4        4949        4950        5051        5050
         4        4950        4951        5052        5051
         4        4951        4952        5053        5052
         4        4952        4953        5054        5053
         4        4953        4954        5055        5054
         4        4954        4955        5056        5055
         4        4955        4956        5057        5056
         4        4956        4957        5058        5057
         4        4957        4958        5059        5058
         4        4958        4959        5060        5059
         4        4959        4960        5061        5060
         4        4960        4961        5062        5061
         4        4961        4962        5063        5062
         4        4962        4963        5064        5063
         4        4963        4964        5065        5064
         4        4964        4965        5066        5065
         4        4965        4966        5067        5066
         4        4966        4967        5068        5067
         4        4967        4968        5069        5068
         4        4968        4969        5070        5069
         4        4969        4970        5071        5070
         4        4970        4971        5072        5071
         4        4971        4972        5073        5072
         4        4972        4973        5074        5073
         4        4973        4974        5075        5074
         4        4974        4975        5076        5075
         4        4975        4976        5077        5076
         4        4976        4977        5078        5077
         4        4977        4978        5079        5078
         4        4978        4979        5080        5079
         4        4979        4980        5081        5080
         4        4980        4981        5082        5081
         4        4981        4982        5083        5082
         4        4982        4983        5084        5083
         4        4983        4984        5085        5084
         4        4984        4985        5086        5085
         4        4985        4986        5087        5086
         4        4986        4987        5088        5087
         4        4987        4988        5089        5088
         4        4988        4989        5090        5089
         4        4989        4990        5091        5090
         4        4990        4991        5092        5091
         4        4991        4992        5093        5092
         4        4992        4993        5094        5093
         4        4993        4994        5095        5094
         4        4994        4995        5096        5095
         4        4995        4996        5097        5096
         4        4996        4997        5098        5097
         4        4997        4998        5099        5098
         4        4998        4999        5100        5099
         4        4999        5000        5101        5100
         4        5000        5001        5102        5101
         4        5001        5002        5103        5102
         4        5002        5003        5104        5103
         4        5003        5004        5105        5104
         4        5004        5005        5106        5105
         4        5005        5006        5107        5106
         4        5006        5007        5108        5107
         4        5007        5008        5109        5108
         4        5008        5009        5110        5109
         4        5009        5010        5111        5110
         4        5010        5011        5112        5111
         4        5011        5012        5113        5112
         4        5012        5013        5114        5113
         4        5013        5014        5115        5114
         4        5014        5015        5116        5115
         4        5015        5016        5117        5116
         4        5016        5017        5118        5117
         4        5017        5018        5119        5118
         4        5018        5019        5120        5119
         4        5019        5020        5121        5120
         4        5020        5021        5122        5121
         4        5021        5022        5123        5122
         4        5022        5023        5124        5123
         4        5023        5024        5125        5124
         4        5024        5025        5126        5125
         4        5025        5026        5127        5126
         4        5026        5027        5128        5127
         4        5027        5028        5129        5128
         4        5028        5029        5130        5129
         4        5029        5030        5131        5130
         4        5030        5031        5132        5131
         4        5031        5032        5133        5132
         4        5032        5033        5134        5133
         4        5033        5034        5135        5134
         4        5034        5035        5136        5135
         4        5035        5036        5137        5136
         4        5036        5037        5138        5137
         4        5037        5038        5139        5138
         4        5038        5039        5140        5139
         4        5039        5040        5141        5140
         4        5040        5041        5142        5141
         4        5041        5042        5143        5142
         4        5042        5043        5144        5143
         4        5043        5044        5145        5144
         4        5044        5045        5146        5145
         4        5045        5046        5147        5146
         4        5046        5047        5148        5147
         4        5047        5048        5149        5148
         4        5048        5049        5150        5149
CELL_TYPES       5000
9
9
9
9
9
9
9
9
9
9
9
9
9
9
9
9
9
9
9
9
9
9
9
9
9
9
9
9
9
9
9
9
9
9
9
9
9
9
9
9
9
9
9
9
9
9
9
9
9
9
9
9
9
9
9
9
9
9
9
9
9
9
9
9
9
9
9
9
9
9
9
9
9
9
9
9
9
9
9
9
9
9
9
9
9
9
9
9
9
9
9
9
9
9
9
9
9
9
9
9
9
9
9
9
9
9
9
9
9
9
9
9
9
9
9
9
9
9
9
9
9
9
9
9
9
9
9
9
9
9
9
9
9
9
9
9
9
9
9
9
9
9
9
9
9
9
9
9
9
9
9
9
9
9
9
9
9
9
9
9
9
9
9
9
9
9
9
9
9
9
9
9
9
9
9
9
9
9
9
9
9
9
9
9
9
9
9
9
9
9
9
9
9
9
9
9
9
9
9
9
9
9
9
9
9
9
9
9
9
9
9
9
9
9
9
9
9
9
9
9
9
9
9
9
9
9
9
9
9
9
9
9
9
9
9
9
9
9
9
9
9
9
9
9
9
9
9
9
9
9
9
9
9
9
9
9
9
9
9
9
9
9
9
9
9
9
9
9
9
9
9
9
9
9
9
9
9
9
9
9
9
9
9
9
9
9
9
9
9
9
9
9
9
9
9
9
9
9
9
9
9
9
9
9
9
9
9
9
9
9
9
9
9
9
9
9
9
9
9
9
9
9
9
9
9
9
9
9
9
9
9
9
9
9
9
9
9
9
9
9
9
9
9
9
9
9
9
9
9
9
9
9
9
9
9
9
9
9
9
9
9
9
9
9
9
9
9
9
9
9
9
9
9
9
9
9
9
9
9
9
9
9
9
9
9
9
9
9
9
9
9
9
9
9
9
9
9
9
9
9
9
9
9
9
9
9
9
9
9
9
9
9
9
9
9
9
9
9
9
9
9
9
9
9
9
9
9
9
9
9
9
9
9
9
9
9
9
9
9
9
9
9
9
9
9
9
9
9
9
9
9
9
9
9
9
9
9
9
9
9
9
9
9
9
9
9
9
9
9
9
9
9
9
9
9
9
9
9
9
9
9
9
9
9
9
9
9
9
9
9
9
9
9
9
9
9
9
9
9
9
9
9
9
9
9
9
9
9
9
9
9
9
9
9
9
9
9
9
9
9
9
9
9
9
9
9
9
9
9
9
9
9
9
9
9
9
9
9
9
9
9
9
9
9
9
9
9
9
9
9
9
9
9
9
9
9
9
9
9
9
9
9
9
9
9
9
9
9
9
9
9
9
9
9
9
9
9
9
9
9
9
9
9
9
9
9
9
9
9
9
9
9
9
9
9
9
9
9
9
9
9
9
9
9
9
9
9
9
9
9
9
9
9
9
9
9
9
9
9
9
9
9
9
9
9
9
9
9
9
9
9
9
9
9
9
9
9
9
9
9
9
9
9
9
9
9
9
9
9
9
9
9
9
9
9
9
9
9
9
9
9
9
9
9
9
9
9
9
9
9
9
9
9
9
9
9
9
9
9
9
9
9
9
9
9
9
9
9
9
9
9
9
9
9
9
9
9
9
9
9
9
9
9
9
9
9
9
9
9
9
9
9
9
9
9
9
9
9
9
9
9
9
9
9
9
9
9
9
9
9
9
9
9
9
9
9
9
9
9
9
9
9
9
9
9
9
9
9
9
9
9
9
9
9
9
9
9
9
9
9
9
9
9
9
9
9
9
9
9
9
9
9
9
9
9
9
9
9
9
9
9
9
9
9
9
9
9
9
9
9
9
9
9
9
9
9
9
9
9
9
9
9
9
9
9
9
9
9
9
9
9
9
9
9
9
9
9
9
9
9
9
9
9
9
9
9
9
9
9
9
9
9
9
9
9
9
9
9
9
9
9
9
9
9
9
9
9
9
9
9
9
9
9
9
9
9
9
9
9
9
9
9
9
9
9
9
9
9
9
9
9
9
9
9
9
9
9
9
9
9
9
9
9
9
9
9
9
9
9
9
9
9
9
9
9
9
9
9
9
9
9
9
9
9
9
9
9
9
9
9
9
9
9
9
9
9
9
9
9
9
9
9
9
9
9
9
9
9
9
9
9
9
9
9
9
9
9
9
9
9
9
9
9
9
9
9
9
9
9
9
9
9
9
9
9
9
9
9
9
9
9
9
9
9
9
9
9
9
9
9
9
9
9
9
9
9
9
9
9
9
9
9
9
9
9
9
9
9
9
9
9
9
9
9
9
9
9
9
9
9
9
9
9
9
9
9
9
9
9
9
9
9
9
9
9
9
9
9
9
9
9
9
9
9
9
9
9
9
9
9
9
9
9
9
9
9
9
9
9
9
9
9
9
9
9
9
9
9
9
9
9
9
9
9
9
9
9
9
9
9
9
9
9
9
9
9
9
9
9
9
9
9
9
9
9
9
9
9
9
9
9
9
9
9
9
9
9
9
9
9
9
9
9
9
9
9
9
9
9
9
9
9
9
9
9
9
9
9
9
9
9
9
9
9
9
9
9
9
9
9
9
9
9
9
9
9
9
9
9
9
9
9
9
9
9
9
9
9
9
9
9
9
9
9
9
9
9
9
9
9
9
9
9
9
9
9
9
9
9
9
9
9
9
9
9
9
9
9
9
9
9
9
9
9
9
9
9
9
9
9
9
9
9
9
9
9
9
9
9
9
9
9
9
9
9
9
9
9
9
9
9
9
9
9
9
9
9
9
9
9
9
9
9
9
9
9
9
9
9
9
9
9
9
9
9
9
9
9
9
9
9
9
9
9
9
9
9
9
9
9
9
9
9
9
9
9
9
9
9
9
9
9
9
9
9
9
9
9
9
9
9
9
9
9
9
9
9
9
9
9
9
9
9
9
9
9
9
9
9
9
9
9
9
9
9
9
9
9
9
9
9
9
9
9
9
9
9
9
9
9
9
9
9
9
9
9
9
9
9
9
9
9
9
9
9
9
9
9
9
9
9
9
9
9
9
9
9
9
9
9
9
9
9
9
9
9
9
9
9
9
9
9
9
9
9
9
9
9
9
9
9
9
9
9
9
9
9
9
9
9
9
9
9
9
9
9
9
9
9
9
9
9
9
9
9
9
9
9
9
9
9
9
9
9
9
9
9
9
9
9
9
9
9
9
9
9
9
9
9
9
9
9
9
9
9
9
9
9
9
9
9
9
9
9
9
9
9
9
9
9
9
9
9
9
9
9
9
9
9
9
9
9
9
9
9
9
9
9
9
9
9
9
9
9
9
9
9
9
9
9
9
9
9
9
9
9
9
9
9
9
9
9
9
9
9
9
9
9
9
9
9
9
9
9
9
9
9
9
9
9
9
9
9
9
9
9
9
9
9
9
9
9
9
9
9
9
9
9
9
9
9
9
9
9
9
9
9
9
9
9
9
9
9
9
9
9
9
9
9
9
9
9
9
9
9
9
9
9
9
9
9
9
9
9
9
9
9
9
9
9
9
9
9
9
9
9
9
9
9
9
9
9
9
9
9
9
9
9
9
9
9
9
9
9
9
9
9
9
9
9
9
9
9
9
9
9
9
9
9
9
9
9
9
9
9
9
9
9
9
9
9
9
9
9
9
9
9
9
9
9
9
9
9
9
9
9
9
9
9
9
9
9
9
9
9
9
9
9
9
9
9
9
9
9
9
9
9
9
9
9
9
9
9
9
9
9
9
9
9
9
9
9
9
9
9
9
9
9
9
9
9
9
9
9
9
9
9
9
9
9
9
9
9
9
9
9
9
9
9
9
9
9
9
9
9
9
9
9
9
9
9
9
9
9
9
9
9
9
9
9
9
9
9
9
9
9
9
9
9
9
9
9
9
9
9
9
9
9
9
9
9
9
9
9
9
9
9
9
9
9
9
9
9
9
9
9
9
9
9
9
9
9
9
9
9
9
9
9
9
9
9
9
9
9
9
9
9
9
9
9
9
9
9
9
9
9
9
9
9
9
9
9
9
9
9
9
9
9
9
9
9
9
9
9
9
9
9
9
9
9
9
9
9
9
9
9
9
9
9
9
9
9
9
9
9
9
9
9
9
9
9
9
9
9
9
9
9
9
9
9
9
9
9
9
9
9
9
9
9
9
9
9
9
9
9
9
9
9
9
9
9
9
9
9
9
9
9
9
9
9
9
9
9
9
9
9
9
9
9
9
9
9
9
9
9
9
9
9
9
9
9
9
9
9
9
9
9
9
9
9
9
9
9
9
9
9
9
9
9
9
9
9
9
9
9
9
9
9
9
9
9
9
9
9
9
9
9
9
9
9
9
9
9
9
9
9
9
9
9
9
9
9
9
9
9
9
9
9
9
9
9
9
9
9
9
9
9
9
9
9
9
9
9
9
9
9
9
9
9
9
9
9
9
9
9
9
9
9
9
9
9
9
9
9
9
9
9
9
9
9
9
9
9
9
9
9
9
9
9
9
9
9
9
9
9
9
9
9
9
9
9
9
9
9
9
9
9
9
9
9
9
9
9
9
9
9
9
9
9
9
9
9
9
9
9
9
9
9
9
9
9
9
9
9
9
9
9
9
9
9
9
9
9
9
9
9
9
9
9
9
9
9
9
9
9
9
9
9
9
9
9
9
9
9
9
9
9
9
9
9
9
9
9
9
9
9
9
9
9
9
9
9
9
9
9
9
9
9
9
9
9
9
9
9
9
9
9
9
9
9
9
9
9
9
9
9
9
9
9
9
9
9
9
9
9
9
9
9
9
9
9
9
9
9
9
9
9
9
9
9
9
9
9
9
9
9
9
9
9
9
9
9
9
9
9
9
9
9
9
9
9
9
9
9
9
9
9
9
9
9
9
9
9
9
9
9
9
9
9
9
9
9
9
9
9
9
9
9
9
9
9
9
9
9
9
9
9
9
9
9
9
9
9
9
9
9
9
9
9
9
9
9
9
9
9
9
9
9
9
9
9
9
9
9
9
9
9
9
9
9
9
9
9
9
9
9
9
9
9
9
9
9
9
9
9
9
9
9
9
9
9
9
9
9
9
9
9
9
9
9
9
9
9
9
9
9
9
9
9
9
9
9
9
9
9
9
9
9
9
9
9
9
9
9
9
9
9
9
9
9
9
9
9
9
9
9
9
9
9
9
9
9
9
9
9
9
9
9
9
9
9
9
9
9
9
9
9
9
9
9
9
9
9
9
9
9
9
9
9
9
9
9
9
9
9
9
9
9
9
9
9
9
9
9
9
9
9
9
9
9
9
9
9
9
9
9
9
9
9
9
9
9
9
9
9
9
9
9
9
9
9
9
9
9
9
9
9
9
9
9
9
9
9
9
9
9
9
9
9
9
9
9
9
9
9
9
9
9
9
9
9
9
9
9
9
9
9
9
9
9
9
9
9
9
9
9
9
9
9
9
9
9
9
9
9
9
9
9
9
9
9
9
9
9
9
9
9
9
9
9
9
9
9
9
9
9
9
9
9
9
9
9
9
9
9
9
9
9
9
9
9
9
9
9
9
9
9
9
9
9
9
9
9
9
9
9
9
9
9
9
9
9
9
9
9
9
9
9
9
9
9
9
9
9
9
9
9
9
9
9
9
9
9
9
9
9
9
9
9
9
9
9
9
9
9
9
9
9
9
9
9
9
9
9
9
9
9
9
9
9
9
9
9
9
9
9
9
9
9
9
9
9
9
9
9
9
9
9
9
9
9
9
9
9
9
9
9
9
9
9
9
9
9
9
9
9
9
9
9
9
9
9
9
9
9
9
9
9
9
9
9
9
9
9
9
9
9
9
9
9
9
9
9
9
9
9
9
9
9
9
9
9
9
9
9
9
9
9
9
9
9
9
9
9
9
9
9
9
9
9
9
9
9
9
9
9
9
9
9
9
9
9
9
9
9
9
9
9
9
9
9
9
9
9
9
9
9
9
9
9
9
9
9
9
9
9
9
9
9
9
9
9
9
9
9
9
9
9
9
9
9
9
9
9
9
9
9
9
9
9
9
9
9
9
9
9
9
9
9
9
9
9
9
9
9
9
9
9
9
9
9
9
9
9
9
9
9
9
9
9
9
9
9
9
9
9
9
9
9
9
9
9
9
9
9
9
9
9
9
9
9
9
9
9
9
9
9
9
9
9
9
9
9
9
9
9
9
9
9
9
9
9
9
9
9
9
9
9
9
9
9
9
9
9
9
9
9
9
9
9
9
9
9
9
9
9
9
9
9
9
9
9
9
9
9
9
9
9
9
9
9
9
9
9
9
9
9
9
9
9
9
9
9
9
9
9
9
9
9
9
9
9
9
9
9
9
9
9
9
9
9
9
9
9
9
9
9
9
9
9
9
9
9
9
9
9
9
9
9
9
9
9
9
9
9
9
9
9
9
9
9
9
9
9
9
9
9
9
9
9
9
9
9
9
9
9
9
9
9
9
9
9
9
9
9
9
9
9
9
9
9
9
9
9
9
9
9
9
9
9
9
9
9
9
9
9
9
9
9
9
9
9
9
9
9
9
9
9
9
9
9
9
9
9
9
9
9
9
9
9
9
9
9
9
9
9
9
9
9
9
9
9
9
9
9
9
9
9
9
9
9
9
9
9
9
9
9
9
9
9
9
9
9
9
9
9
9
9
9
9
9
9
9
9
9
9
9
9
9
9
9
9
9
9
9
9
9
9
9
9
9
9
9
9
9
9
9
9
9
9
9
9
9
9
9
9
9
9
9
9
9
9
9
9
9
9
9
9
9
9
9
9
9
9
9
9
9
9
9
9
9
9
9
9
9
9
9
9
9
9
9
9
9
9
9
9
9
9
9
9
9
9
9
9
9
9
9
9
9
9
9
9
9
9
9
9
9
9
9
9
9
9
9
9
9
9
9
9
9
9
9
9
9
9
9
9
9
9
9
9
9
9
9
9
9
9
9
9
9
9
9
9
9
9
9
9
9
9
9
9
9
9
9
9
9
9
9
9
9
9
9
9
9
9
9
9
9
9
9
9
9
9
9
9
9
9
9
9
9
9
9
9
9
9
9
9
9
9
9
9
9
9
9
9
9
9
9
9
9
9
9
9
9
9
9
9
9
9
9
9
9
9
9
9
9
9
9
9
9
9
9
9
9
9
9
9
9
9
9
9
9
9
9
9
9
9
9
9
9
9
9
9
9
9
9
9
9
9
9
9
9
9
9
9
9
9
9
9
9
9
9
9
9
9
9
9
9
9
9
9
9
9
9
9
9
9
9
9
9
9
9
9
9
9
9
9
9
9
9
9
9
9
9
9
9
9
9
9
9
9
9
9
9
9
9
9
9
9
9
9
9
9
9
9
9
9
9
9
9
9
9
9
9
9
9
9
9
9
9
9
9
9
9
9
9
9
9
9
9
9
9
9
9
9
9
9
9
9
9
9
9
9
9
9
9
9
9
9
9
9
9
9
9
9
9
9
9
9
9
9
9
9
9
9
9
9
9
9
9
9
9
9
9
9
9
9
9
9
9
9
9
9
9
9
9
9
9
9
9
9
9
9
9
9
9
9
9
9
9
9
9
9
9
9
9
9
9
9
9
9
9
9
9
9
9
9
9
9
9
9
9
9
9
9
9
9
9
9
9
9
9
9
9
9
9
9
9
9
9
9
9
9
9
9
9
9
9
9
9
9
9
9
9
9
9
9
9
9
9
9
9
9
9
9
9
9
9
9
9
9
9
9
9
9
9
9
9
9
9
9
9
9
9
9
9
9
9
9
9
9
9
9
9
9
9
9
9
9
9
9
9
9
9
9
9
9
9
9
9
9
9
9
9
9
9
9
9
9
9
9
9
9
9
9
9
9
9
9
9
9
9
9
9
9
9
9
9
9
9
9
9
9
9
9
9
9
9
9
9
9
9
9
9
9
9
9
9
9
9
9
9
9
9
9
9
9
9
9
9
9
9
9
9
9
9
9
9
9
9
9
9
9
9
9
9
9
9
9
9
9
9
9
9
9
9
9
9
9
9
9
9
9
9
9
9
9
9
9
9
9
9
9
9
9
9
9
9
9
9
9
9
9
9
9
9
9
9
9
9
9
9
9
9
9
9
9
9
9
9
9
9
9
9
9
9
9
9
9
9
9
9
9
9
9
9
9
9
9
9
9
9
9
9
9
9
9
9
9
9
9
9
9
9
9
9
9
9
9
9
9
9
9
9
9
9
9
9
9
9
9
9
9
9
9
9
9
9
9
9
9
9
9
9
9
9
9
9
9
9
9
9
9
9
9
9
9
9
9
9
9
9
9
9
9
9
9
9
9
9
9
9
9
9
9
9
9
9
9
9
9
9
9
9
9
9
9
9
9
9
9
9
9
9
9
9
9
9
9
9
9
9
9
9
9
9
9
9
9
9
9
9
9
9
9
9
9
9
9
9
9
9
9
9
9
9
9
9
9
9
9
9
9
9
9
9
9
9
9
9
9
9
9
9
9
9
9
9
9
9
9
9
9
9
9
9
9
9
9
9
9
9
9
9
9
9
9
9
9
9
9
9
9
9
9
9
9
9
9
9
9
9
9
9
9
9
9
9
9
9
9
9
9
9
9
9
9
9
9
9
9
9
9
9
9
9
9
9
9
9
9
9
9
9
9
9
9
9
9
9
9
9
9
9
9
9
9
9
9
9
9
9
9
9
9
9
9
9
9
9
9
9
9
9
9
9
9
9
9
9
9
9
9
9
9
9
9
9
9
9
9
9
9
9
9
9
9
9
9
9
9
9
9
9
9
9
9
9
9
9
9
9
9
9
9
9
9
9
9
9
9
9
9
9
9
9
9
9
9
9
9
9
9
9
9
9
9
9
9
9
9
9
9
9
9
9
9
9
9
9
9
9
9
9
9
9
9
9
9
9
9
9
9
9
9
9
9
9
9
9
9
9
9
9
9
9
9
9
9
9
9
9
9
9
9
9
9
9
9
9
9
9
9
9
9
9
9
9
9
9
9
9
9
9
9
9
9
9
9
9
9
9
9
9
9
9
9
9
9
9
9
9
9
9
9
9
9
9
9
9
9
9
9
9
9
9
9
9
9
9
9
9
9
9
9
9
9
9
9
9
9
9
9
9
9
9
9
9
9
9
9
9
9
9
9
9
9
9
9
9
9
9
9
9
9
9
9
9
9
9
9
9
9
9
9
9
9
9
9
9
9
9
9
9
9
9
9
9
9
9
9
9
9
9
9
9
9
9
9
9
9
9
9
9
9
9
9
9
9
9
9
9
9
9
9
9
9
9
9
9
9
9
9
9
9
9
9
9
9
9
9
9
9
9
9
9
9
9
9
9
9
9
9
9
9
9
9
9
9
9
9
9
9
9
9
9
9
9
9
9
9
9
9
9
9
9
9
9
9
9
9
9
9
9
9
9
9
9
9
9
9
9
9
9
9
9
9
9
9
9
9
9
9
9
9
9
9
9
9
9
9
9
9
9
9
9
9
9
9
9
9
9
9
9
9
9
9
9
9
9
9
9
9
9
9
9
9
9
9
9
9
9
9
9
9
9
9
9
9
9
9
9
9
9
9
9
9
9
9
9
9
9
9
9
9
9
9
9
9
9
9
9
9
9
9
9
9
9
9
9
9
9
9
9
9
9
9
9
9
9
9
9
9
9
9
9
9
9
9
9
9
9
9
9
9
9
9
9
9
9
9
9
9
9
9
9
9
9
9
9
9
9
9
9
9
9
9
9
9
9
9
9
9
9
9
9
9
9
9
9
9
9
9
9
9
9
9
9
9
9
9
9
9
9
9
9
9
9
9
9
9
9
9
9
9
9
9
9
9
9
9
9
9
9
9
9
9
9
9
9
9
9
9
9
9
9
9
9
9
9
9
9
9
9
9
9
9
9
9
9
9
9
9
9
9
9
9
9
9
9
9
9
9
9
9
9
9
9
9
9
9
9
9
9
9
9
9
9
9
9
9
9
9
9
9
9
9
9
9
9
9
9
9
9
9
9
9
9
9
9
9
9
9
9
9
9
9
9
9
9
9
9
9
9
9
9
9
9
9
9
9
9
9
9
9
9
9
9
9
9
9
9
9
9
9
9
9
9
9
9
9
9
9
9
9
9
9
9
9
9
9
9
9
9
9
9
9
9
9
9
9
9
9
9
9
9
9
9
9
9
9
9
9
9
9
9
9
9
9
9
9
9
9
9
9
9
9
9
9
9
9
9
9
9
9
9
9
9
9
9
9
9
9
9
9
9
9
9
9
9
9
9
9
9
9
9
9
9
9
9
9
9
9
9
9
9
9
9
9
9
9
9
9
9
9
9
9
9
9
9
9
9
9
9
9
9
9
9
9
9
9
9
9
9
9
9
9
9
9
9
9
9
9
9
9
9
9
9
9
9
9
9
9
9
9
9
9
9
9
9
9
9
9
9
9
9
9
9
9
9
9
9
9
9
9
9
9
9
9
9
9
9
9
9
9
9
9
9
9
9
9
9
9
9
9
9
9
9
9
9
9
9
9
9
9
9
9
9
9
9
9
9
9
9
9
9
9
9
9
9
9
9
9
9
9
9
9
9
9
9
9
9
9
9
9
9
9
9
9
9
9
9
9
9
9
9
9
9
9
9
9
9
9
9
9
9
9
9
9
9
9
9
9
9
9
9
9
9
9
9
9
9
9
9
9
9
9
9
9
9
9
9
9
9
9
9
9
9
9
9
9
9
9
9
9
9
9
9
9
9
9
9
9
9
9
9
9
9
9
9
9
9
9
9
9
9
9
9
9
9
9
9
9
9
9
9
9
9
9
9
9
9
9
9
9
9
9
9
9
9
9
9
9
9
9
9
9
9
9
9
9
9
9
9
9
9
9
9
9
9
9
9
9
9
9
9
9
9
9
9
9
9
9
9
9
9
9
9
9
9
9
9
9
9
9
9
9
9
9
9
9
9
9
9
9
9
9
9
9
9
9
9
9
9
9
9
9
9
9
9
9
9
9
9
9
9
9
9
9
9
9
9
9
9
9
9
9
9
9
9
9
9
9
9
9
9
9
9
9
9
9
9
9
9
9
9
9
9
9
9
9
9
9
9
9
9
9
9
9
9
9
9
9
9
9
9
9
9
9
9
9
9
9
9
9
9
9
9
9
9
9
9
9
9
9
9
9
9
9
9
9
9
9
9
9
9
9
9
9
9
9
9
9
9
9
9
9
9
9
9
9
9
9
9
9
9
9
9
9
9
9
9
9
9
9
9
9
9
9
9
9
9
9
9
9
9
9
9
9
9
9
9
9
9
9
9
9
9
9
9
9
9
9
9
9
9
9
9
9
9
9
9
9
9
9
9
9
9
9
9
9
POINT_DATA      5151
SCALARS p double 
LOOKUP_TABLE default
   50000000.0000000     
   49903748.5454950     
   49807506.7013046     
   49711245.9615249     
   49614928.8466826     
   49518512.6027630     
   49421950.6252334     
   49325193.5694834     
   49228190.2110703     
   49130888.1430188     
   49033234.3282215     
   48935175.5291282     
   48836658.6337682     
   48737630.8974504     
   48638040.1177056     
   48537834.7578622     
   48436964.0320936     
   48335377.9623501     
   48233027.4153865     
   48129864.1262420     
   48025840.7129885     
   47920910.6863383     
   47815028.4567236     
   47708149.3407159     
   47600229.5680701     
   47491226.2902497     
   47381097.5909662     
   47269802.4990330     
   47157301.0036634     
   47043554.0722318     
   46928523.6704309     
   46812172.7847125     
   46694465.4468662     
   46575366.7605714     
   46454842.9297548     
   46332861.2885796     
   46209390.3328993     
   46084399.7530121     
   45957860.4675596     
   45829744.6584170     
   45700025.8064307     
   45568678.7278646     
   45435679.6114177     
   45301006.0556868     
   45164637.1069398     
   45026553.2970794     
   44886736.6816712     
   44745170.8779110     
   44601841.1024135     
   44456734.2086948     
   44309838.7242300     
   44161144.8869618     
   44010644.6811381     
   43858331.8723559     
   43704202.0416888     
   43548252.6187771     
   43390482.9137601     
   43230894.1479318     
   43069489.4830043     
   42906274.0488659     
   42741254.9697285     
   42574441.3885599     
   42405844.4897077     
   42235477.5196308     
   42063355.8056606     
   41889496.7727299     
   41713919.9580238     
   41536647.0235117     
   41357701.7663526     
   41177110.1271679     
   40994900.1962067     
   40811102.2174371     
   40625748.5906206     
   40438873.8714289     
   40250514.7696751     
   40060710.1457122     
   39869501.0050353     
   39676930.4910623     
   39483043.8759887     
   39287888.5494670     
   39091514.0046642     
   38893971.8209609     
   38695315.6421510     
   38495601.1484571     
   38294886.0199417     
   38093229.8879398     
   37890694.2698950     
   37687342.4814075     
   37483239.5173482     
   37278451.8915215     
   37073047.4215874     
   36867094.9428964     
   36660663.9317640     
   36453824.0161382     
   36246644.3497110     
   36039192.8265736     
   35831535.1103327     
   35623733.4587465     
   35415845.2372471     
   35207921.0528862     
   35000000.0000000     
   50000000.0000000     
   49903747.9676213     
   49807505.9602350     
   49711245.1341162     
   49614928.0013682     
   49518511.7779452     
   49421949.8473221     
   49325192.8543296     
   49228189.5675239     
   49130887.5747598     
   49033233.8354104     
   48935175.1095844     
   48836658.2838707     
   48737630.6127833     
   48638039.8935147     
   48537834.5893631     
   48436963.9146723     
   48335377.8916837     
   48233027.3875085     
   48129864.1375681     
   48025840.7603177     
   47920910.7668366     
   47815028.5678990     
   47708149.4803876     
   47600229.7343363     
   47491226.4814552     
   47381097.8056721     
   47269802.7359876     
   47157301.2617765     
   47043554.3505512     
   46928523.9681218     
   46812173.1010388     
   46694465.7811744     
   46575367.1122764     
   46454843.2983272     
   46332861.6735350     
   46209390.7337882     
   46084400.1694115     
   45957860.8990652     
   45829745.1046367     
   45700026.2669779     
   45568679.2023530     
   45435680.0994562     
   45301006.5568747     
   45164637.6208626     
   45026553.8233048     
   44886737.2197452     
   44745171.4273548     
   44601841.6627197     
   44456734.7793246     
   44309839.3046099     
   44161145.4764810     
   44010645.2791454     
   43858332.4781571     
   43704202.6545438     
   43548253.2378973     
   43390483.5383056     
   43230894.7770087     
   43069490.1156616     
   42906274.6840927     
   42741255.6064505     
   42574442.0256362     
   42405845.1259268     
   42235478.1537065     
   42063356.4362268     
   41889497.3983357     
   41713920.5771266     
   41536647.6344703     
   41357702.3674185     
   41177110.7164753     
   40994900.7717605     
   40811102.7770995     
   40625749.1320949     
   40438874.3922407     
   40250515.2671505     
   40060710.6169536     
   39869501.4468930     
   39676930.9001039     
   39483044.2484653     
   39287888.8812784     
   39091514.2913236     
   38893972.0575629     
   38695315.8233465     
   38495601.2684408     
   38294886.0724618     
   38093229.8663420     
   37890694.1672165     
   37687342.2905452     
   37483239.2313294     
   37278451.5039169     
   37073046.9271135     
   36867094.3382624     
   36660663.2168453     
   36453823.1954992     
   36246643.4347270     
   36039191.8377478     
   35831534.0818238     
   35623732.4399777     
   35415844.3160807     
   35207920.3264031     
   35000000.0000000     
   50000000.0000000     
   49903746.3222536     
   49807503.7835863     
   49711242.6970059     
   49614925.5021827     
   49518509.3364161     
   49421947.5427972     
   49325190.7352220     
   49228187.6606337     
   49130885.8913477     
   49033232.3760622     
   48935173.8678361     
   48836657.2489188     
   48737629.7714398     
   48638039.2315802     
   48537834.0925557     
   48436963.5692273     
   48335377.6847151     
   48233027.3072017     
   48129864.1732574     
   48025840.9024857     
   47920911.0070658     
   47815028.8987940     
   47708149.8954830     
   47600230.2279988     
   47491227.0487871     
   47381098.4424184     
   47269803.4384509     
   47157302.0267390     
   47043555.1752045     
   46928524.8500052     
   46812174.0379842     
   46694466.7712581     
   46575368.1537766     
   46454844.3896869     
   46332862.8133290     
   46209391.9206948     
   46084401.4021867     
   45957862.1765199     
   45829746.4256167     
   45700027.6303458     
   45568680.6069712     
   45435681.5441727     
   45301008.0405085     
   45164639.1421916     
   45026555.3810540     
   44886738.8125754     
   44745173.0538526     
   44601843.3213873     
   44456736.4685710     
   44309841.0227416     
   44161147.2216935     
   44010647.0495150     
   43858334.2716325     
   43704204.4689382     
   43548255.0708803     
   43390485.3873953     
   43230896.6395631     
   43069491.9888703     
   42906276.5649682     
   42741257.4918181     
   42574443.9121242     
   42405847.0099551     
   42235480.0314740     
   42063358.3036971     
   41889499.2512212     
   41713922.4108695     
   41536649.4442212     
   41357704.1480106     
   41177112.4623952     
   40994902.4771127     
   40811104.4355657     
   40625750.7368859     
   40438875.9360405     
   40250516.7420516     
   40060712.0143829     
   39869502.7575281     
   39676932.1137802     
   39483045.3540751     
   39287889.8666644     
   39091515.1431736     
   38893972.7613114     
   38695316.3630970     
   38495601.6269274     
   38294886.2310754     
   38093229.8052583     
   37890693.8656766     
   37687341.7273569     
   37483238.3856799     
   37278450.3566124     
   37073045.4623940     
   36867092.5463666     
   36660661.0975403     
   36453820.7627708     
   36246640.7230281     
   36039188.9097194     
   35831531.0400958     
   35623729.4387830     
   35415841.6099984     
   35207918.2594029     
   35000000.0000000     
   50000000.0000000     
   49903743.7648823     
   49807500.2673418     
   49711238.7377725     
   49614921.4230417     
   49518505.3439397     
   49421943.7704208     
   49325187.2651769     
   49228184.5382400     
   49130883.1358158     
   49033229.9886100     
   48935171.8378617     
   48836655.5585574     
   48737628.3988538     
   48638038.1532592     
   48537833.2848681     
   48436963.0094188     
   48335377.3515070     
   48233027.1811078     
   48129864.2367078     
   48025841.1398226     
   47920911.4044587     
   47815029.4441082     
   47708150.5781237     
   47600231.0387471     
   47491227.9796377     
   47381099.4864262     
   47269804.5895877     
   47157303.2797647     
   47043556.5255513     
   46928526.2936742     
   46812175.5714555     
   46694468.3914108     
   46575369.8578191     
   46454846.1750960     
   46332864.6777961     
   46209393.8620786     
   46084403.4184719     
   45957864.2657797     
   45829748.5859801     
   45700029.8599678     
   45568682.9040060     
   45435683.9067492     
   45301010.4667082     
   45164641.6300276     
   45026557.9284520     
   44886741.4173560     
   44745175.7137142     
   44601846.0338905     
   44456739.2311231     
   44309843.8325823     
   44161150.0758812     
   44010649.9449127     
   43858337.2048948     
   43704207.4364983     
   43548258.0689370     
   43390488.4118997     
   43230899.6862051     
   43069495.0530651     
   42906279.6418415     
   42741260.5761911     
   42574446.9984964     
   42405850.0924864     
   42235483.1039639     
   42063361.3595618     
   41889502.2834672     
   41713925.4120632     
   41536652.4064530     
   41357707.0628535     
   41177115.3208560     
   40994905.2695745     
   40811107.1517201     
   40625753.3656535     
   40438878.4654787     
   40250519.1592469     
   40060714.3053279     
   39869504.9069819     
   39676934.1051129     
   39483047.1690988     
   39287891.4854553     
   39091516.5438924     
   38893973.9200371     
   38695317.2536939     
   38495602.2209748     
   38294886.4979056     
   38093229.7121629     
   37890693.3783679     
   37687340.8107971     
   37483237.0054329     
   37278448.4809147     
   37073043.0651947     
   36867089.6116423     
   36660657.6252324     
   36453816.7767756     
   36246636.2816259     
   36039184.1193429     
   35831526.0733665     
   35623724.5620305     
   35415837.2377696     
   35207915.0497151     
   35000000.0000000     
   50000000.0000000     
   49903740.4151448     
   49807495.5093409     
   49711233.3399649     
   49614915.8379660     
   49518499.8662485     
   49421938.5895187     
   49325182.4978277     
   49228180.2488401     
   49130879.3517942     
   49033226.7120011     
   48935169.0540553     
   48836653.2427505     
   48737626.5206895     
   48638036.6800616     
   48537832.1838171     
   48436962.2489438     
   48335376.9021189     
   48233027.0158349     
   48129864.3312621     
   48025841.4725888     
   47920911.9563698     
   47815030.1984583     
   47708151.5203470     
   47600232.1561868     
   47491229.2613189     
   47381100.9228392     
   47269806.1724898     
   47157305.0019993     
   47043558.3808870     
   46928528.2766621     
   46812177.6773034     
   46694470.6158734     
   46575372.1971018     
   46454848.6257704     
   46332867.2367265     
   46209396.5263568     
   46084406.1853602     
   45957867.1326606     
   45829751.5503102     
   45700032.9192379     
   45568686.0557042     
   45435687.1483277     
   45301013.7955525     
   45164645.0434285     
   45026561.4235797     
   44886744.9912354     
   44745179.3632018     
   44601849.7556534     
   44456743.0216177     
   44309847.6880348     
   44161153.9922685     
   44010653.9179440     
   43858341.2299935     
   43704211.5087841     
   43548262.1832084     
   43390492.5626155     
   43230903.8674672     
   43069499.2585988     
   42906283.8649762     
   42741264.8098392     
   42574451.2351307     
   42405854.3241150     
   42235487.3221022     
   42063365.5552014     
   41889506.4470392     
   41713929.5333969     
   41536656.4747269     
   41357711.0665380     
   41177119.2476462     
   40994909.1063107     
   40811110.8842942     
   40625756.9788985     
   40438881.9430407     
   40250522.4834352     
   40060717.4569431     
   39869507.8651205     
   39676936.8469496     
   39483049.6696487     
   39287893.7173220     
   39091518.4770150     
   38893975.5214526     
   38695318.4873442     
   38495603.0476024     
   38294886.8750969     
   38093229.5946278     
   37890692.7185739     
   37687339.5601220     
   37483235.1160510     
   37278445.9086987     
   37073039.7739906     
   36867085.5793544     
   36660652.8522314     
   36453811.2972288     
   36246630.1783784     
   36039177.5435677     
   35831519.2701786     
   35623717.9115529     
   35415831.3209580     
   35207910.8490084     
   35000000.0000000     
   50000000.0000000     
   49903736.3671805     
   49807489.6036144     
   49711226.5846586     
   49614908.8201694     
   49518492.9691360     
   49421932.0598102     
   49325176.4873961     
   49228174.8415431     
   49130874.5834888     
   49033222.5856773     
   48935165.5512114     
   48836650.3317661     
   48737624.1628264     
   48638034.8336349     
   48537830.8069919     
   48436961.3015201     
   48335376.3465908     
   48233026.8179418     
   48129864.4601933     
   48025841.9009605     
   47920912.6600612     
   47815031.1563647     
   47708152.7140935     
   47600233.5698294     
   47491230.8810512     
   47381102.7367149     
   47269808.1701675     
   47157307.1745120     
   47043560.7204362     
   46928530.7764359     
   46812180.3313172     
   46694473.4188299     
   46575375.1442690     
   46454851.7128755     
   46332870.4598624     
   46209399.8819004     
   46084409.6699006     
   45957870.7429351     
   45829755.2831475     
   45700036.7715074     
   45568690.0242701     
   45435691.2300066     
   45301017.9870759     
   45164649.3414073     
   45026565.8244714     
   44886749.4913135     
   44745183.9585274     
   44601854.4420478     
   44456747.7946367     
   44309852.5429440     
   44161158.9240193     
   44010658.9211508     
   43858346.2989110     
   43704216.6372849     
   43548267.3647608     
   43390497.7902617     
   43230909.1337998     
   43069504.5557379     
   42906289.1845447     
   42741270.1429364     
   42574456.5723041     
   42405859.6553289     
   42235492.6367032     
   42063370.8418784     
   41889511.6937787     
   41713934.7274296     
   41536661.6024670     
   41357716.1135108     
   41177124.1984028     
   40994913.9443271     
   40811115.5918529     
   40625761.5369481     
   40438886.3310317     
   40250526.6791291     
   40060721.4361920     
   39869511.6016167     
   39676940.3119447     
   39483052.8316470     
   39287896.5417549     
   39091520.9259113     
   38893977.5531278     
   38695320.0561463     
   38495604.1037669     
   38294887.3647918     
   38093229.4602992     
   37890691.8997470     
   37687337.9948687     
   37483232.7434049     
   37278442.6723850     
   37073035.6279392     
   36867080.4955713     
   36660646.8317134     
   36453804.3847000     
   36246622.4817655     
   36039169.2595591     
   35831510.7181958     
   35623709.5861837     
   35415823.9764858     
   35207905.7761513     
   35000000.0000000     
   50000000.0000000     
   49903731.6966539     
   49807482.6379086     
   49711218.5506552     
   49614900.4417730     
   49518484.7183334     
   49421924.2413318     
   49325169.2886351     
   49228168.3660372     
   49130868.8756549     
   49033217.6495553     
   48935161.3645066     
   48836646.8561595     
   48737621.3513419     
   48638032.6357471     
   48537829.1720376     
   48436960.1808691     
   48335375.6949266     
   48233026.5939219     
   48129864.6266878     
   48025842.4250153     
   47920913.5126889     
   47815032.3122389     
   47708154.1511953     
   47600235.2690804     
   47491232.8259538     
   47381104.9130145     
   47269810.5655410     
   47157309.7782880     
   47043563.5233452     
   46928533.7703905     
   46812183.5092190     
   46694476.7744012     
   46575378.6719064     
   46454855.4075215     
   46332874.3168939     
   46209403.8970308     
   46084413.8390937     
   45957875.0623291     
   45829759.7489869     
   45700041.3800826     
   45568694.7718624     
   45435696.1128388     
   45301023.0012668     
   45164654.4829293     
   45026571.0891123     
   44886754.8746396     
   44745189.4558499     
   44601860.0483901     
   44456753.5047041     
   44309858.3510941     
   44161164.8242338     
   44010664.9070082     
   43858352.3635593     
   43704222.7734157     
   43548273.5645830     
   43390504.0454746     
   43230915.4355666     
   43069510.8946577     
   42906295.5506232     
   42741276.5255551     
   42574462.9601866     
   42405866.0365037     
   42235498.9984623     
   42063377.1707305     
   41889517.9753949     
   41713940.9465810     
   41536667.7429508     
   41357722.1580640     
   41177130.1285997     
   40994919.7404584     
   40811121.2327819     
   40625766.9999416     
   40438891.5915612     
   40250531.7106385     
   40060726.2098299     
   39869516.0859306     
   39676944.4725387     
   39483056.6308049     
   39287899.9380405     
   39091523.8737614     
   38893980.0024664     
   38695321.9520651     
   38495605.3863372     
   38294887.9691050     
   38093229.3168724     
   37890690.9354829     
   37687336.1348300     
   37483229.9137490     
   37278438.8049154     
   37073030.6668540     
   36867074.4071294     
   36660639.6176776     
   36453796.1005382     
   36246613.2607881     
   36039159.3445362     
   35831500.5038218     
   35623699.6820103     
   35415815.3133657     
   35207899.9262724     
   35000000.0000000     
   50000000.0000000     
   49903726.4655835     
   49807474.6928989     
   49711209.3142475     
   49614890.7736994     
   49518475.1793705     
   49421915.1943757     
   49325160.9567760     
   49228160.8725558     
   49130862.2735707     
   49033211.9440049     
   48935156.5294801     
   48836642.8467536     
   48737618.1124930     
   48638030.1082676     
   48537827.2966361     
   48436958.9006975     
   48335374.9570759     
   48233026.3501858     
   48129864.8338304     
   48025843.0447160     
   47920914.5112880     
   47815033.6603700     
   47708155.8233637     
   47600237.2432281     
   47491235.0830343     
   47381107.4365940     
   47269813.3414321     
   47157312.7942210     
   47043566.7686757     
   46928537.2358418     
   46812187.1866578     
   46694480.6566408     
   46575382.7525366     
   46454859.6807595     
   46332878.7774553     
   46209408.5400164     
   46084418.6598896     
   45957880.0565193     
   45829764.9122749     
   45700046.7082215     
   45568700.2605923     
   45435701.7578291     
   45301028.7980642     
   45164660.4269097     
   45026577.1754358     
   44886761.0982095     
   44745195.8112726     
   44601866.5299388     
   44456760.1062832     
   44309865.0662058     
   44161171.6459454     
   44010671.8279205     
   43858359.3757763     
   43704229.8685139     
   43548280.7335813     
   43390511.2788042     
   43230922.7230400     
   43069518.2254369     
   42906302.9131863     
   42741283.9076608     
   42574470.3488352     
   42405873.4178954     
   42235506.3579491     
   42063384.4927622     
   41889525.2434572     
   41713948.1431227     
   41536674.8492991     
   41357729.1543245     
   41177136.9935372     
   40994926.4513561     
   40811127.7652743     
   40625773.3278167     
   40438897.6865276     
   40250537.5420538     
   40060731.7443854     
   39869521.2872911     
   39676949.3009382     
   39483061.0426010     
   39287903.8852393     
   39091527.3035324     
   38893982.8566803     
   38695324.1669058     
   38495606.8920671     
   38294888.6900959     
   38093229.1720641     
   37890689.8394938     
   37687334.0000277     
   37483226.6536947     
   37278434.3397249     
   37073024.9311742     
   36867067.3615972     
   36660631.2649017     
   36453786.5068012     
   36246602.5848856     
   36039147.8755857     
   35831488.7120575     
   35623688.2920545     
   35415805.4316407     
   35207893.3769861     
   35000000.0000000     
   50000000.0000000     
   49903720.7257171     
   49807465.8422620     
   49711198.9489381     
   49614879.8856053     
   49518464.4174656     
   49421904.9794299     
   49325151.5474823     
   49228152.4118449     
   49130854.8230100     
   49033205.5098250     
   48935151.0820111     
   48836638.3346179     
   48737614.4726949     
   48638027.2731473     
   48537825.1984862     
   48436957.4746781     
   48335374.1429159     
   48233026.0930438     
   48129865.0845864     
   48025843.7598955     
   47920915.6527586     
   47815035.1949109     
   47708157.7221765     
   47600239.4814328     
   47491237.6391788     
   47381110.2921950     
   47269816.4805558     
   47157316.2031053     
   47043570.4353971     
   46928541.1500211     
   46812191.3392043     
   46694485.0395296     
   46575387.3586145     
   46454864.5035773     
   46332883.8111214     
   46209413.7790689     
   46084424.0991840     
   45957885.6911298     
   45829770.7374066     
   45700052.7191320     
   45568706.4525204     
   45435708.1259313     
   45301035.3373558     
   45164667.1322109     
   45026584.0413216     
   44886768.1189627     
   44745202.9808407     
   44601873.8418917     
   44456767.5537740     
   44309872.6419334     
   44161179.3421175     
   44010679.6362191     
   43858367.2873226     
   43704237.8738350     
   43548288.8225760     
   43390519.4407096     
   43230930.9463966     
   43069526.4980534     
   42906311.2221019     
   42741292.2391059     
   42574478.6881879     
   42405881.7496345     
   42235514.6656003     
   42063392.7588377     
   41889533.4493862     
   41713956.2691692     
   41536682.8744673     
   41357737.0562442     
   41177144.7483304     
   40994934.0334766     
   40811135.1473176     
   40625780.4802950     
   40438904.5776037     
   40250544.1372304     
   40060738.0061433     
   39869527.1746764     
   39676954.7690953     
   39483066.0422592     
   39287908.3621623     
   39091531.1979539     
   38893986.1027639     
   38695326.6922872     
   38495608.6175680     
   38294889.5297408     
   38093229.0335841     
   37890688.6255792     
   37687331.6106835     
   37483222.9901804     
   37278429.3107115     
   37073018.4619327     
   36867059.4072395     
   36660621.8288977     
   36453775.6661945     
   36246590.5238578     
   36039134.9295148     
   35831475.4264076     
   35623675.5058908     
   35415794.4224502     
   35207886.1927427     
   35000000.0000000     
   50000000.0000000     
   49903714.5209357     
   49807456.1531537     
   49711187.5252497     
   49614867.8458231     
   49518452.4974480     
   49421893.6571254     
   49325141.1168098     
   49228143.0351306     
   49130846.5702157     
   49033198.3882193     
   48935145.0582955     
   48836633.3510456     
   48737610.4584989     
   48638024.1523960     
   48537822.8952826     
   48436955.9164291     
   48335373.2622316     
   48233025.8286872     
   48129865.3817854     
   48025844.5702409     
   47920916.9338508     
   47815036.9098656     
   47708159.8390664     
   47600241.9727152     
   47491240.4811409     
   47381113.4644354     
   47269819.9655116     
   47157319.9856290     
   47043574.5023807     
   46928545.4900689     
   46812195.9423455     
   46694489.8969706     
   46575392.4625231     
   46454869.8468957     
   46332889.3874038     
   46209419.5823400     
   46084430.1238152     
   45957891.9317295     
   45829777.1887234     
   45700059.3759683     
   45568713.3096543     
   45435715.1780462     
   45301042.5789755     
   45164674.5576405     
   45026591.6445923     
   44886775.8937808     
   44745210.9205388     
   44601881.9393833     
   44456775.8015102     
   44309881.0318614     
   44161187.8656406     
   44010688.2841581     
   43858376.0498778     
   43704246.7405493     
   43548297.7822976     
   43390528.4815550     
   43230940.0557128     
   43069535.6623790     
   42906320.4271261     
   42741301.4696249     
   42574487.9280578     
   42405890.9817191     
   42235523.8717126     
   42063401.9196733     
   41889542.5444459     
   41713965.2766699     
   41536691.7712349     
   41357745.8175895     
   41177153.3478983     
   40994942.4430689     
   40811143.3366807     
   40625788.4168680     
   40438912.2262207     
   40250551.4597711     
   40060744.9611269     
   39869533.7167951     
   39676960.8486876     
   39483071.6047275     
   39287913.3473474     
   39091535.5394925     
   38893989.7274678     
   38695329.5196137     
   38495610.5592797     
   38294890.4899020     
   38093228.9091036     
   37890687.3075938     
   37687328.9871863     
   37483218.9504398     
   37278423.7522038     
   37073011.3007225     
   36867050.5929806     
   36660611.3658688     
   36453763.6420188     
   36246577.1477929     
   36039120.5827476     
   35831460.7287987     
   35623661.4093851     
   35415782.3686293     
   35207878.4279226     
   35000000.0000000     
   50000000.0000000     
   49903707.8889978     
   49807445.6868528     
   49711175.1106588     
   49614854.7213172     
   49518439.4837078     
   49421881.2881914     
   49325129.7211725     
   49228132.7940887     
   49130837.5618715     
   49033190.6207696     
   48935138.4948207     
   48836627.9275287     
   48737606.0965680     
   48638020.7680594     
   48537820.4046927     
   48436954.2394926     
   48335372.3246953     
   48233025.5631697     
   48129865.7281026     
   48025845.4752765     
   47920918.3511496     
   47815038.7990746     
   47708162.1653076     
   47600244.7059451     
   47491243.5955322     
   47381116.9378001     
   47269823.7787763     
   47157324.1223656     
   47043578.9483927     
   46928550.2330286     
   46812200.9714791     
   46694495.2027848     
   46575398.0365690     
   46454875.6815639     
   46332895.4757469     
   46209425.9179183     
   46084436.7005611     
   45957898.7438287     
   45829784.2305097     
   45700066.6418291     
   45568720.7939463     
   45435722.8750187     
   45301050.4827006     
   45164682.6619485     
   45026599.9430120     
   44886784.3794840     
   44745219.5862880     
   44601890.7774821     
   44456784.8037564     
   44309890.1895022     
   44161197.1693293     
   44010697.7239120     
   43858385.6150374     
   43704256.4197383     
   43548307.5633826     
   43390538.3516054     
   43230950.0009603     
   43069545.6681749     
   42906330.4778978     
   42741311.5488284     
   42574498.0181270     
   42405901.0640090     
   42235533.9264364     
   42063411.9258299     
   41889552.4797363     
   41713975.1173992     
   41536701.4921975     
   41357755.3919310     
   41177162.7469528     
   40994951.6361632     
   40811152.2909012     
   40625797.0967835     
   40438920.5935535     
   40250559.4730109     
   40060752.5750801     
   39869540.8820672     
   39676967.5110968     
   39483077.7046545     
   39287918.8190360     
   39091540.3103264     
   38893993.7172712     
   38695332.6400465     
   38495612.7134400     
   38294891.5722967     
   38093228.8062226     
   37890685.8994144     
   37687326.1500586     
   37483214.5619667     
   37278417.6989255     
   37073003.4896609     
   36867040.9683676     
   36660599.9326694     
   36453750.4981233     
   36246562.5270079     
   36039104.9112548     
   35831444.6995156     
   35623646.0845954     
   35415769.3455274     
   35207870.1290811     
   35000000.0000000     
   50000000.0000000     
   49903700.8628311     
   49807434.4994450     
   49711161.7696405     
   49614840.5776628     
   49518425.4401664     
   49421867.9334230     
   49325117.4173135     
   49228121.7408172     
   49130827.8450752     
   49033182.2494084     
   48935131.4283377     
   48836622.0957307     
   48737601.4136501     
   48638017.1421932     
   48537817.7443327     
   48436952.4573117     
   48335371.3398455     
   48233025.3023871     
   48129866.1260414     
   48025846.4743477     
   47920919.9010599     
   47815040.8562017     
   47708164.6920039     
   47600247.6698304     
   47491246.9688121     
   47381120.6966320     
   47269827.9026944     
   47157328.5937676     
   47043583.7520875     
   46928555.3558413     
   46812206.4019083     
   46694500.9307060     
   46575404.0529781     
   46454881.9783562     
   46332902.0455253     
   46209432.7538260     
   46084443.7961365     
   45957906.0928773     
   45829791.8269908     
   45700074.4797548     
   45568728.8672907     
   45435731.1776362     
   45301059.0082502     
   45164691.4038253     
   45026608.8942833     
   44886793.5328295     
   44745228.9339439     
   44601900.3111882     
   44456794.5147058     
   44309900.0682932     
   44161207.2059191     
   44010707.9075719     
   43858395.9343092     
   43704266.8623909     
   43548318.1163698     
   43390549.0010227     
   43230960.7320015     
   43069556.4650870     
   42906341.3239340     
   42741322.4261980     
   42574508.9079407     
   42405911.9462191     
   42235544.7797685     
   42063422.7277059     
   41889563.2061845     
   41713985.7429493     
   41536711.9897563     
   41357765.7326342     
   41177172.8999882     
   40994961.5685589     
   40811161.9672727     
   40625806.4790315     
   40438929.6405058     
   40250568.1399997     
   40060760.8134496     
   39869548.6386048     
   39676974.7273884     
   39483084.3163680     
   39287924.7551478     
   39091545.4923196     
   38893998.0583544     
   38695336.0444740     
   38495615.0760527     
   38294892.7784630     
   38093228.7324352     
   37890684.4149035     
   37687323.1199192     
   37483209.8524776     
   37278411.1859584     
   37072995.0713520     
   36867030.5835326     
   36660587.5867667     
   36453736.2988668     
   36246546.7320043     
   36039087.9905140     
   35831427.4171680     
   35623629.6098188     
   35415755.4218825     
   35207861.3366083     
   35000000.0000000     
   50000000.0000000     
   49903693.4715064     
   49807422.6424857     
   49711147.5637993     
   49614825.4790559     
   49518410.4302671     
   49421853.6536597     
   49325104.2622804     
   49228109.9278095     
   49130817.4673107     
   49033173.3163910     
   48935123.8958327     
   48836615.8874584     
   48737596.4365510     
   48638013.2968366     
   48537814.9317419     
   48436950.5832068     
   48335370.3170644     
   48233025.0520568     
   48129866.5779139     
   48025847.5666036     
   47920921.5797908     
   47815043.0747195     
   47708167.4100759     
   47600250.8529055     
   47491250.5872773     
   47381124.7251230     
   47269832.3194714     
   47157333.3801590     
   47043588.8920014     
   46928560.8353395     
   46812212.2088367     
   46694507.0543759     
   46575410.4838914     
   46454888.7079682     
   46332909.0660392     
   46209440.0580154     
   46084451.3771896     
   45957913.9442610     
   45829799.9423299     
   45700082.8527249     
   45568737.4915218     
   45435740.0466253     
   45301068.1152821     
   45164700.7418992     
   45026618.4560451     
   44886803.3105086     
   44745238.9192938     
   44601910.4954306     
   44456804.8884771     
   44309910.6215936     
   44161217.9280636     
   44010718.7871427     
   43858406.9591098     
   43704278.0194001     
   43548329.3916967     
   43390560.3798617     
   43230972.1985856     
   43069568.0026411     
   42906352.9146246     
   42741334.0510805     
   42574520.5469020     
   42405923.5779131     
   42235556.3815455     
   42063434.2755296     
   41889574.6745376     
   41713997.1047210     
   41536723.2161097     
   41357776.7928487     
   41177183.7612697     
   40994972.1958129     
   40811172.3228319     
   40625816.5223306     
   40438939.3276948     
   40250577.4234870     
   40060769.6413676     
   39869556.9541928     
   39676982.4682906     
   39483091.4138517     
   39287931.1332573     
   39091551.0669948     
   38894002.7365698     
   38695339.7234806     
   38495617.6428554     
   38294894.1097259     
   38093228.6950930     
   37890682.8678710     
   37687319.9174440     
   37483204.8498722     
   37278404.2487021     
   37072986.0888477     
   36867019.4891561     
   36660574.3862056     
   36453721.1090851     
   36246529.8334383     
   36039069.8954932     
   35831408.9586978     
   35623612.0597520     
   35415740.6606705     
   35207852.0859802     
   35000000.0000000     
   50000000.0000000     
   49903685.7409853     
   49807410.1636153     
   49711132.5520630     
   49614809.4883558     
   49518394.5169838     
   49421838.5097759     
   49325090.3134073     
   49228097.4079310     
   49130806.4764200     
   49033163.8642648     
   48935115.9344963     
   48836609.3346309     
   48737591.1921038     
   48638009.2539837     
   48537811.9843565     
   48436948.6303501     
   48335369.2655551     
   48233024.8176970     
   48129867.0858222     
   48025848.7509795     
   47920923.3833398     
   47815045.4478955     
   47708170.3102485     
   47600254.2435202     
   47491254.4370521     
   47381129.0073050     
   47269837.0111647     
   47157338.4617280     
   47043594.3465465     
   46928566.6482417     
   46812218.3673633     
   46694513.5473404     
   46575417.3013612     
   46454895.8410126     
   46332916.5065120     
   46209447.7983661     
   46084459.4102996     
   45957922.2632991     
   45829808.5406259     
   45700091.7236558     
   45568746.6284109     
   45435749.4426503     
   45301077.7633910     
   45164710.6347342     
   45026628.5858704     
   44886813.6691446     
   44745249.4980545     
   44601921.2850647     
   44456815.8791121     
   44309921.8026819     
   44161229.2883314     
   44010730.3145399     
   43858418.6407617     
   43704289.8415590     
   43548341.3396954     
   43390572.4380654     
   43230984.3503439     
   43069580.2302381     
   42906365.1992274     
   42741346.3726830     
   42574532.8842651     
   42405935.9084976     
   42235568.6814371     
   42063446.5193527     
   41889586.8353548     
   41714009.1539151     
   41536735.1232441     
   41357788.5254991     
   41177195.2848237     
   40994983.4732282     
   40811183.3143462     
   40625827.1851142     
   40438949.6154366     
   40250587.2859047     
   40060779.0236336     
   39869565.7962696     
   39676990.7041733     
   39483098.9707227     
   39287937.9305679     
   39091557.0155068     
   38894007.7374127     
   38695343.6673153     
   38495620.4092851     
   38294895.5671604     
   38093228.7013661     
   37890681.2720344     
   37687316.5633241     
   37483199.5821909     
   37278396.9228321     
   37072976.5856074     
   36867007.7364283     
   36660560.3895766     
   36453704.9940653     
   36246511.9021070     
   36039050.7006596     
   35831389.3994289     
   35623593.5057352     
   35415725.1198941     
   35207842.4087194     
   35000000.0000000     
   50000000.0000000     
   49903677.6947071     
   49807397.1071169     
   49711116.7909163     
   49614792.6671596     
   49518377.7628473     
   49421822.5626824     
   49325075.6283023     
   49228084.2343972     
   49130794.9205763     
   49033153.9358391     
   48935107.5816908     
   48836602.4692475     
   48737585.7071374     
   48638005.0355532     
   48537808.9194804     
   48436946.6117399     
   48335368.1943174     
   48233024.6046046     
   48129867.6516379     
   48025850.0261792     
   47920925.3074771     
   47815047.9687781     
   47708173.3830380     
   47600257.8298282     
   47491258.5040783     
   47381133.5270409     
   47269841.9596766     
   47157343.8185201     
   47043600.0940040     
   46928572.7711469     
   46812224.8524774     
   46694520.3830443     
   46575424.4773466     
   46454903.3480162     
   46332924.3360864     
   46209455.9426820     
   46084467.8619734     
   45957931.0152420     
   45829817.5859105     
   45700101.0553984     
   45568756.2396648     
   45435759.3263104     
   45301087.9121065     
   45164721.0408276     
   45026639.2412639     
   44886824.5652904     
   44745260.6258697     
   44601932.6348699     
   44456827.4405729     
   44309933.5647532     
   44161241.2392035     
   44010742.4415866     
   43858430.9304897     
   43704302.2795580     
   43548353.9105891     
   43390585.1254619     
   43230997.1367856     
   43069593.0971501     
   42906378.1268633     
   42741359.3400673     
   42574545.8691305     
   42405948.8872157     
   42235581.6289397     
   42063459.4090424     
   41889599.6389994     
   41714021.8415250     
   41536747.6629247     
   41357800.8832750     
   41177207.4244267     
   40994995.3558424     
   40811194.8983014     
   40625838.4255171     
   40438960.4637314     
   40250597.6893518     
   40060788.9246973     
   39869575.1319079     
   39676999.4050271     
   39483106.9602079     
   39287945.1238873     
   39091563.3186146     
   38894013.0459909     
   38695347.8658590     
   38495623.3704429     
   38294897.1515536     
   38093228.7582036     
   37890679.6409760     
   37687313.0782222     
   37483194.0775693     
   37278389.2442555     
   37072966.6054555     
   36866995.3770129     
   36660545.6559857     
   36453688.0195284     
   36246493.0089484     
   36039030.4800111     
   35831368.8131603     
   35623574.0160488     
   35415708.8532998     
   35207832.3331466     
   35000000.0000000     
   50000000.0000000     
   49903669.3540546     
   49807383.5144184     
   49711100.3346601     
   49614775.0759057     
   49518360.2299883     
   49421805.8733387     
   49325060.2648391     
   49228070.4607531     
   49130782.8482557     
   49033143.5741523     
   48935098.8749165     
   48836595.3233530     
   48737580.0084435     
   48638000.6633571     
   48537805.7542564     
   48436944.5401732     
   48335367.1121229     
   48233024.4178326     
   48129868.2769831     
   48025851.3906571     
   47920927.3477294     
   47815050.6301820     
   47708176.6187396     
   47600261.5997763     
   47491262.7741050     
   47381138.2680161     
   47269847.1467459     
   47157349.4304313     
   47043606.1125185     
   46928579.1805288     
   46812231.6390539     
   46694527.5348277     
   46575431.9837101     
   46454911.1994158     
   46332932.5238216     
   46209464.4586885     
   46084476.6986438     
   45957940.1652684     
   45829827.0421465     
   45700110.8107355     
   45568766.2869230     
   45435769.6581381     
   45301098.5208901     
   45164731.9186081     
   45026650.3796600     
   44886835.9554262     
   44745272.2583078     
   44601944.4995471     
   44456839.5267398     
   44309945.8609165     
   44161253.7330702     
   44010755.1200101     
   43858443.7794177     
   43704315.2839807     
   43548367.0544882     
   43390598.3917599     
   43231010.5072937     
   43069606.5525149     
   42906391.6465111     
   42741372.9021446     
   42574559.4504392     
   42405962.4631412     
   42235595.1733699     
   42063472.8942747     
   41889613.0356318     
   41714035.1183278     
   41536760.7866870     
   41357813.8186212     
   41177220.1335948     
   40995007.7984166     
   40811207.0308892     
   40625850.2013620     
   40438971.8322489     
   40250608.5955778     
   40060799.3086406     
   39869584.9277955     
   39677008.5404419     
   39483115.3551210     
   39287952.6896014     
   39091569.9566532     
   38894018.6469947     
   38695352.3085908     
   38495626.5210577     
   38294898.8633658     
   38093228.8722907     
   37890677.9880977     
   37687309.4827252     
   37483188.3641917     
   37278381.2490639     
   37072956.1925377     
   36866982.4630081     
   36660530.2450267     
   36453670.2516180     
   36246473.2250564     
   36039009.3071308     
   35831347.2722964     
   35623553.6562457     
   35415691.9110226     
   35207821.8849796     
   35000000.0000000     
   50000000.0000000     
   49903660.7387338     
   49807369.4245424     
   49711083.2356849     
   49614756.7740017     
   49518341.9801975     
   49421788.5027747     
   49325044.2811552     
   49228056.1408560     
   49130770.3082093     
   49033132.8224392     
   48935089.8517759     
   48836587.9290020     
   48737574.1227410     
   48637996.1590668     
   48537802.5056345     
   48436942.4282174     
   48335366.0274894     
   48233024.2621674     
   48129868.9632083     
   48025852.8425994     
   47920929.4993635     
   47815053.4246737     
   47708180.0074144     
   47600265.5410925     
   47491267.2326793     
   47381143.2137295     
   47269852.5539406     
   47157355.2772015     
   47043612.3800918     
   46928585.8527310     
   46812238.7018486     
   46694534.9759211     
   46575439.7922135     
   46454919.3655555     
   46332941.0386898     
   46209473.3140290     
   46084485.8866657     
   45957949.6784831     
   45829836.8732248     
   45700120.9523804     
   45568776.7317559     
   45435780.3985966     
   45301109.5491339     
   45164743.2264335     
   45026661.9584204     
   44886847.7959575     
   44745284.3508595     
   44601956.8337160     
   44456852.0914082     
   44309958.6441918     
   44161266.7222283     
   44010768.3014396     
   43858457.1385658     
   43704328.8053009     
   43548380.7213871     
   43390612.1865451     
   43231024.4111207     
   43069620.5453324     
   42906405.7070034     
   42741387.0076709     
   42574573.5769669     
   42405976.5851723     
   42235609.2638577     
   42063486.9245277     
   41889626.9752017     
   41714048.9348764     
   41536774.4458280     
   41357827.2837289     
   41177233.3655742     
   40995020.7554237     
   40811219.6679950     
   40625862.4701461     
   40438983.6803133     
   40250619.9659672     
   40060810.1391602     
   39869595.1502156     
   39677018.0795857     
   39483124.1278390     
   39287960.6036489     
   39091576.9095054     
   38894024.5246645     
   38695356.9845538     
   38495629.8554482     
   38294900.7026888     
   38093229.0500046     
   37890676.3265749     
   37687305.7972959     
   37483182.4702400     
   37278372.9734841     
   37072945.3912750     
   36866969.0469091     
   36660514.2167571     
   36453651.7568955     
   36246452.6217073     
   36038987.2552625     
   35831324.8480107     
   35623532.4895017     
   35415674.3401646     
   35207811.0878191     
   35000000.0000000     
   50000000.0000000     
   49903651.8670864     
   49807354.8745098     
   49711065.5447502     
   49614737.8199739     
   49518323.0750003     
   49421770.5121220     
   49325027.7356537     
   49228041.3288579     
   49130757.3494348     
   49033121.7240953     
   48935080.5499352     
   48836580.3182198     
   48737568.0766392     
   48637991.5441788     
   48537799.1903404     
   48436940.2881804     
   48335364.9486541     
   48233024.1421045     
   48129869.7113721     
   48025854.3799058     
   47920931.7573698     
   47815056.3445572     
   47708183.5388771     
   47600269.6412754     
   47491271.8651359     
   47381148.3474851     
   47269858.1626500     
   47157361.3384072     
   47043618.8745771     
   46928592.7639616     
   46812246.0154933     
   46694542.6794420     
   46575447.8745145     
   46454927.8166826     
   46332949.8495737     
   46209482.4762632     
   46084495.3923146     
   45957959.5199144     
   45829847.0429624     
   45700131.4429735     
   45568787.5356624     
   45435791.5080778     
   45301120.9561582     
   45164754.9225888     
   45026673.9348320     
   44886860.0432127     
   44745296.8589355     
   44601969.5919133     
   44456865.0882861     
   44309971.8675077     
   44161280.1588783     
   44010781.9374024     
   43858470.9588470     
   43704342.7938789     
   43548394.8611598     
   43390626.4592760     
   43231038.7973846     
   43069635.0244596     
   42906420.2570211     
   42741401.6052412     
   42574588.1973188     
   42405991.2020263     
   42235623.8493406     
   42063501.4490746     
   41889641.4074405     
   41714063.2414917     
   41536788.5913972     
   41357841.2305258     
   41177247.0733298     
   40995034.1810379     
   40811232.7651861     
   40625875.1890283     
   40438995.9668893     
   40250631.7615230     
   40060821.3795501     
   39869605.7650278     
   39677027.9911830     
   39483133.2502784     
   39287968.8414946     
   39091584.1565725     
   38894030.6627594     
   38695361.8823192     
   38495633.3674842     
   38294902.6692038     
   38093229.2973689     
   37890674.6693068     
   37687302.0422207     
   37483176.4238417     
   37278364.4538263     
   37072934.2463163     
   36866955.1815690     
   36660497.6316739     
   36453632.6023425     
   36246431.2704000     
   36038964.3974071     
   35831301.6104377     
   35623510.5769760     
   35415656.1853159     
   35207799.9635506     
   35000000.0000000     
   50000000.0000000     
   49903642.7563541     
   49807339.8997069     
   49711047.3112669     
   49614718.2716340     
   49518303.5757464     
   49421751.9626537     
   49325010.6870100     
   49228026.0791903     
   49130744.0211476     
   49033110.3226408     
   48935071.0070853     
   48836572.5229630     
   48737561.8965987     
   48637986.8399776     
   48537795.8248413     
   48436938.1320807     
   48335363.8835467     
   48233024.0618245     
   48129870.5222198     
   48025856.0001701     
   47920934.1164457     
   47815059.3818592     
   47708187.2026829     
   47600273.8875831     
   47491276.6565876     
   47381153.6523830     
   47269863.9540779     
   47157367.5934559     
   47043625.5736733     
   46928599.8902879     
   46812253.5544920     
   46694550.6183903     
   46575456.2021628     
   46454936.5229449     
   46332958.9252630     
   46209491.9128634     
   46084505.1817834     
   45957969.6545121     
   45829857.5151003     
   45700142.2450813     
   45568798.6600681     
   45435802.9469003     
   45301132.7012095     
   45164766.9652837     
   45026686.2661051     
   44886872.6534406     
   44745309.7378644     
   44601982.7285899     
   44456878.4709925     
   44309985.4836987     
   44161293.9951219     
   44010795.9793216     
   43858485.1910636     
   43704357.1999587     
   43548409.4235574     
   43390641.1592805     
   43231053.6150647     
   43069649.9386064     
   42906435.2450892     
   42741416.6432850     
   42574603.2599239     
   42406006.2622330     
   42235638.8785572     
   42063516.4169769     
   41889656.2818547     
   41714077.9882544     
   41536803.1741886     
   41357855.6106668     
   41177261.2095365     
   40995048.0291236     
   40811246.2776994     
   40625888.3148156     
   40439008.6505677     
   40250643.9428514     
   40060832.9926841     
   39869616.7376486     
   39677038.2434940     
   39483142.6938716     
   39287977.3781031     
   39091591.6767450     
   38894037.0445242     
   38695366.9899507     
   38495637.0505466     
   38294904.7621376     
   38093229.6200058     
   37890673.0288654     
   37687298.2375562     
   37483170.2530140     
   37278355.7264302     
   37072922.8024884     
   36866940.9201596     
   36660480.5506924     
   36453612.8553676     
   36246409.2429068     
   36038940.8064380     
   35831277.6288884     
   35623487.9781754     
   35415637.4890264     
   35207788.5326832     
   35000000.0000000     
   50000000.0000000     
   49903633.4229051     
   49807324.5342193     
   49711028.5835785     
   49614698.1862596     
   49518283.5437112     
   49421732.9158319     
   49324993.1941814     
   49228010.4465495     
   49130730.3727506     
   49033098.6616822     
   48935061.2608998     
   48836564.5750771     
   48737555.6088908     
   48637982.0674979     
   48537792.4253110     
   48436935.9716153     
   48335362.8397607     
   48233024.0251678     
   48129871.3961608     
   48025857.7006614     
   47920936.5709788     
   47815062.5283149     
   47708190.9881148     
   47600278.2670214     
   47491281.5919156     
   47381159.1113121     
   47269869.9092343     
   47157374.0215788     
   47043632.4549192     
   46928607.2076319     
   46812261.2932157     
   46694558.7656448     
   46575464.7465970     
   46454945.4543877     
   46332968.2344521     
   46209501.5912124     
   46084515.2211805     
   45957980.0471445     
   45829868.2533013     
   45700153.3211937     
   45568810.0663231     
   45435814.6753077     
   45301144.7434585     
   45164779.3126510     
   45026698.9093709     
   44886885.5828092     
   44745322.9428905     
   44601996.1981089     
   44456892.1930538     
   44309999.4455026     
   44161308.1829587     
   44010810.3785129     
   43858499.7859050     
   43704371.9736640     
   43548424.3582034     
   43390656.2357517     
   43231068.8129973     
   43069665.2363313     
   42906450.6195716     
   42741432.0700609     
   42574618.7130301     
   42406021.7141298     
   42235654.3000409     
   42063531.7770777     
   41889671.5477178     
   41714093.1249979     
   41536818.1447323     
   41357870.3755254     
   41177275.7265684     
   40995062.2532245     
   40811260.1604299     
   40625901.8039503     
   40439021.6895510     
   40250656.4701460     
   40060844.9409986     
   39869628.0330324     
   39677048.8042925     
   39483152.4295430     
   39287986.1879125     
   39091599.4483728     
   38894043.6526564     
   38695372.2949670     
   38495640.8974862     
   38294906.9802169     
   38093230.0230860     
   37890671.4174418     
   37687294.4030721     
   37483163.9856063     
   37278346.8276071     
   37072911.1047444     
   36866926.3161299     
   36660463.0351258     
   36453592.5838186     
   36246386.6113341     
   36038916.5552324     
   35831252.9720842     
   35623464.7513181     
   35415618.2922381     
   35207776.8146407     
   35000000.0000000     
   50000000.0000000     
   49903623.8824333     
   49807308.8111414     
   49711009.4092409     
   49614677.6207872     
   49518263.0402091     
   49421713.4333612     
   49324975.3164199     
   49227994.4858818     
   49130716.4538034     
   49033086.7848723     
   48935051.3489911     
   48836556.5062521     
   48737549.2395548     
   48637977.2474848     
   48537789.0075938     
   48436933.8181274     
   48335361.8245245     
   48233024.0356094     
   48129872.3332465     
   48025859.4783042     
   47920939.1150300     
   47815065.7753529     
   47708194.8841711     
   47600282.7663339     
   47491286.6557601     
   47381164.7069406     
   47269876.0089291     
   47157380.6018254     
   47043639.4956886     
   46928614.6917654     
   46812269.2058988     
   46694567.0939596     
   46575473.4791411     
   46454954.5809504     
   46332977.7457372     
   46209511.4786012     
   46084525.4765269     
   45957990.6625973     
   45829879.2211478     
   45700164.6337222     
   45568821.7156999     
   45435826.6534663     
   45301157.0419980     
   45164791.9227448     
   45026711.8216798     
   44886898.7874028     
   44745336.4291716     
   44602009.9547431     
   44456906.2079022     
   44310013.7055582     
   44161322.6742842     
   44010825.0861818     
   43858514.6939439     
   43704387.0649957     
   43548439.6145913     
   43390671.6377446     
   43231084.3398726     
   43069680.8660373     
   42906466.3286675     
   42741447.8336522     
   42574634.5046983     
   42406037.5058555     
   42235670.0621139     
   42063547.4779954     
   41889687.1540644     
   41714108.6013000     
   41536833.4532858     
   41357885.4761847     
   41177290.5764897     
   40995076.8065532     
   40811274.3679191     
   40625915.6124979     
   40439035.0416394     
   40250669.3031721     
   40060857.1864751     
   39869639.6156521     
   39677059.6408448     
   39483162.4276846     
   39287995.2448069     
   39091607.4492349     
   38894050.4692720     
   38695377.7843037     
   38495644.9005814     
   38294909.3216219     
   38093230.5112777     
   37890669.8467904     
   37687290.5581926     
   37483157.6492382     
   37278337.7935803     
   37072899.1981084     
   36866911.4231640     
   36660445.1466640     
   36453571.8559977     
   36246363.4481925     
   36038891.7168182     
   35831227.7084077     
   35623440.9536974     
   35415598.6346849     
   35207764.8280183     
   35000000.0000000     
   50000000.0000000     
   49903614.1501374     
   49807292.7628667     
   49710989.8353018     
   49614656.6320149     
   49518242.1267156     
   49421693.5772489     
   49324957.1132868     
   49227978.2523688     
   49130702.3139894     
   49033074.7358681     
   48935041.3088643     
   48836548.3479762     
   48737542.8143537     
   48637972.4003521     
   48537785.5871667     
   48436931.6825728     
   48335360.8446719     
   48233024.0962327     
   48129873.3331477     
   48025861.3296590     
   47920941.7423165     
   47815069.1140805     
   47708198.8795524     
   47600287.3719900     
   47491291.8325112     
   47381170.4217088     
   47269882.2337650     
   47157387.3130566     
   47043646.6731842     
   46928622.3183051     
   46812277.2666348     
   46694575.5759600     
   46575482.3710014     
   46454963.8724637     
   46332987.4276135     
   46209521.5422262     
   46084535.9137547     
   45958001.4655705     
   45829890.3821399     
   45700176.1449981     
   45568833.5693923     
   45435838.8414633     
   45301169.5558416     
   45164804.7535379     
   45026724.9599995     
   44886912.2232204     
   44745350.1517767     
   44602023.9526728     
   44456920.4688733     
   44310028.2164025     
   44161337.4208869     
   44010840.0534212     
   43858529.8656336     
   43704402.4238279     
   43548455.1420807     
   43390687.3141721     
   43231100.1442297     
   43069696.7759674     
   42906482.3204059     
   42741463.8819614     
   42574650.5827981     
   42406053.5853446     
   42235686.1128813     
   42063563.4681171     
   41889703.0496822     
   41714124.3664758     
   41536849.0498263     
   41357900.8634278     
   41177305.7110444     
   40995091.6419806     
   40811288.8543435     
   40625929.6961335     
   40439048.6642174     
   40250682.4012515     
   40060869.6906234     
   39869651.4494800     
   39677070.7198882     
   39483172.6581326     
   39288004.5220898     
   39091615.6565092     
   38894057.4758713     
   38695383.4442751     
   38495649.0514948     
   38294911.7839376     
   38093231.0886936     
   37890668.3281718     
   37687286.7219341     
   37483151.2712369     
   37278328.6604220     
   37072887.1276183     
   36866896.2951368     
   36660426.9473540     
   36453550.7406806     
   36246339.8264742     
   36038866.3645339     
   35831201.9061661     
   35623416.6420442     
   35415578.5552697     
   35207752.5908127     
   35000000.0000000     
   50000000.0000000     
   49903604.2408847     
   49807276.4213651     
   49710969.9085791     
   49614635.2768130     
   49518220.8649984     
   49421673.4098687     
   49324938.6446694     
   49227961.8014120     
   49130688.0030814     
   49033062.5582859     
   48935031.1778685     
   48836540.1314869     
   48737536.3587274     
   48637967.5461397     
   48537782.1791005     
   48436929.5754851     
   48335359.9066114     
   48233024.2097028     
   48129874.3951315     
   48025863.2509025     
   47920944.4461947     
   47815072.5352693     
   47708202.9626496     
   47600292.0701751     
   47491297.1062988     
   47381176.2378206     
   47269888.5641300     
   47157394.1339396     
   47043653.9644335     
   46928630.0627086     
   46812285.4493726     
   46694584.1841394     
   46575491.3932630     
   46454973.2986472     
   46332997.2484730     
   46209531.7491871     
   46084546.4987045     
   45958012.4206772     
   45829901.6996935     
   45700187.8172706     
   45568845.5885127     
   45435851.1993051     
   45301182.2439214     
   45164817.7629206     
   45026738.2812130     
   44886925.8461735     
   44745364.0656842     
   44602038.1459839     
   44456934.9292034     
   44310042.9304686     
   44161352.3744454     
   44010855.2312078     
   43858545.2513052     
   43704417.9999056     
   43548470.8898936     
   43390703.2138018     
   43231116.1744535     
   43069712.9142007     
   42906498.5426416     
   42741480.1627062     
   42574666.8950017     
   42406069.9003224     
   42235702.4002252     
   42063579.6955925     
   41889719.1831057     
   41714140.3695702     
   41536864.8840424     
   41357916.4877304     
   41177321.0816477     
   40995106.7120256     
   40811303.5735032     
   40625944.0101302     
   40439062.5142391     
   40250695.7232473     
   40060882.4144643     
   39869663.4979688     
   39677082.0076099     
   39483183.0901428     
   39288013.9924565     
   39091624.0467410     
   38894064.6533039     
   38695389.2605348     
   38495653.3412291     
   38294914.3641045     
   38093231.7588355     
   37890666.8722917     
   37687282.9128416     
   37483144.8785694     
   37278319.4639869     
   37072874.9382654     
   36866880.9860665     
   36660408.4995774     
   36453529.3071362     
   36246315.8197364     
   36038840.5721992     
   35831175.6338672     
   35623391.8728906     
   35415558.0924231     
   35207740.1206356     
   35000000.0000000     
   50000000.0000000     
   49903594.1693665     
   49807259.8184505     
   49710949.6759408     
   49614613.6123428     
   49518199.3172544     
   49421652.9940284     
   49324919.9707966     
   49227945.1886158     
   49130673.5709047     
   49033050.2956550     
   48935020.9931464     
   48836531.8877204     
   48737529.8977446     
   48637962.7044692     
   48537778.7980199     
   48436927.5069399     
   48335359.0162949     
   48233024.3782394     
   48129875.5180380     
   48025865.2378069     
   47920947.2196428     
   47815076.0293406     
   47708207.1215307     
   47600296.8467793     
   47491302.4609846     
   47381182.1372362     
   47269894.9801916     
   47157401.0429417     
   47043661.3462827     
   46928637.9002696     
   46812293.7279124     
   46694592.8908560     
   46575500.5168876     
   46454982.8291063     
   46333007.1766019     
   46209542.0664848     
   46084557.1971235     
   45958023.4924413     
   45829913.1371387     
   45700199.6127048     
   45568857.7340906     
   45435863.6869159     
   45301195.0650862     
   45164830.9086991     
   45026751.7421165     
   44886939.6120843     
   44745378.1257799     
   44602052.4886655     
   44456949.5420277     
   44310057.8000831     
   44161367.4865264     
   44010870.5704003     
   43858560.8011645     
   43704433.7428408     
   43548486.8071118     
   43390719.2852519     
   43231132.3787705     
   43069729.2286479     
   42906514.9430511     
   42741496.6234142     
   42574683.3887797     
   42406086.3982992     
   42235718.8717988     
   42063596.1083269     
   41889735.5026097     
   41714156.5593504     
   41536880.9053269     
   41357932.2992512     
   41177336.6393761     
   40995121.9688453     
   40811318.4788107     
   40625958.5093467     
   40439076.5482156     
   40250709.2275488     
   40060895.3185130     
   39869675.7240328     
   39677093.4696249     
   39483193.6923667     
   39288023.6279670     
   39091632.5958125     
   38894071.9817335     
   38695395.2180349     
   38495657.7600815     
   38294917.0583674     
   38093232.5245378     
   37890665.4892394     
   37687279.1489210     
   37483138.4977731     
   37278310.2398430     
   37072862.6749300     
   36866865.5500647     
   36660389.8660271     
   36453507.6251476     
   36246291.5021891     
   36038814.4142949     
   35831148.9605053     
   35623366.7029352     
   35415537.2844532     
   35207727.4349134     
   35000000.0000000     
   50000000.0000000     
   49903583.9502479     
   49807242.9860461     
   49710929.1845889     
   49614591.6962820     
   49518177.5462528     
   49421632.3930390     
   49324901.1522554     
   49227928.4697681     
   49130659.0672976     
   49033037.9913668     
   48935010.7915798     
   48836523.6472583     
   48737523.4560523     
   48637957.8944972     
   48537775.4580620     
   48436925.4865189     
   48335358.1791866     
   48233024.6035895     
   48129876.7002563     
   48025867.2857207     
   47920950.0552439     
   47815079.5863507     
   47708211.3439292     
   47600301.6873872     
   47491307.8801523     
   47381188.1016643     
   47269901.4618897     
   47157408.0183246     
   47043668.7953928     
   46928645.8061143     
   46812302.0759022     
   46694601.6683297     
   46575509.7127102     
   46454992.4333302     
   46333017.1801785     
   46209552.4610192     
   46084567.9746635     
   45958034.6452956     
   45829924.6577176     
   45700211.4933803     
   45568869.9670714     
   45435876.2641352     
   45301207.9781001     
   45164844.1485928     
   45026765.2994181     
   44886953.4766841     
   44745392.2868549     
   44602066.9346080     
   44456964.2603778     
   44310072.7774639     
   44161382.7085819     
   44010886.0217360     
   43858576.4652891     
   43704449.6021102     
   43548502.8426730     
   43390735.4769882     
   43231148.7052453     
   43069745.6670481     
   42906531.4691276     
   42741513.2114186     
   42574700.0113956     
   42406103.0265652     
   42235735.4750208     
   42063612.6539763     
   41889751.9562019     
   41714172.8842995     
   41536897.0627681     
   41357948.2478242     
   41177352.3349585     
   40995137.3642246     
   40811333.5232808     
   40625973.1482149     
   40439090.7222012     
   40250722.8720565     
   40060908.3627625     
   39869688.0900288     
   39677105.0709557     
   39483204.4328272     
   39288033.4000181     
   39091641.2789115     
   38894079.4406019     
   38695401.3009860     
   38495662.2975977     
   38294919.8622235     
   38093233.3879090     
   37890664.1884231     
   37687275.4475701     
   37483132.1548826     
   37278301.0231977     
   37072850.3823137     
   36866850.0412828     
   36660371.1096812     
   36453485.7650319     
   36246266.9487859     
   36038787.9661499     
   35831121.9558561     
   35623341.1894142     
   35415516.1698917     
   35207714.5510827     
   35000000.0000000     
   50000000.0000000     
   49903573.5983161     
   49807225.9564499     
   49710908.4823475     
   49614569.5870557     
   49518155.6154815     
   49421611.6707848     
   49324882.2500044     
   49227911.7008187     
   49130644.5420690     
   49033025.6886225     
   48935000.6097342     
   48836515.4402720     
   48737517.0578236     
   48637953.1348681     
   48537772.1728336     
   48436923.5232717     
   48335357.4002293     
   48233024.8869994     
   48129877.9397012     
   48025869.3895475     
   47920952.9451690     
   47815083.1959760     
   47708215.6172312     
   47600306.5772672     
   47491313.3470991     
   47381194.1125543     
   47269907.9889307     
   47157415.0381396     
   47043676.2882346     
   46928653.7551969     
   46812310.4668348     
   46694610.4886386     
   46575518.9514365     
   46455002.0806889     
   46333027.2272708     
   46209562.8995870     
   46084578.7968792     
   45958045.8435803     
   45829936.2245831     
   45700223.4212893     
   45568882.2483141     
   45435888.8907170     
   45301220.9416408     
   45164857.4402336     
   45026778.9097356     
   44886967.3956108     
   44745406.5036035     
   44602081.4376010     
   44456979.0371798     
   44310087.8147176     
   44161397.9919467     
   44010901.5358285     
   43858592.1936258     
   43704465.5270515     
   43548518.9453680     
   43390751.7373203     
   43231165.1017767     
   43069762.1769640     
   42906548.0681774     
   42741529.8738537     
   42574716.7099012     
   42406119.7321848     
   42235752.1570696     
   42063629.2799402     
   41889768.4916174     
   41714189.2926088     
   41536913.3051433     
   41357964.2829505     
   41177368.1187677     
   40995152.8495666     
   40811348.6595189     
   40625987.8807284     
   40439104.9917803     
   40250736.6141673     
   40060921.5066666     
   39869700.5577381     
   39677116.7760107     
   39483215.2788945     
   39288043.2793164     
   39091650.0704992     
   38894087.0085932     
   38695407.4928156     
   38495666.9425240     
   38294922.7703687     
   38093234.3502716     
   37890662.9785036     
   37687271.8255060     
   37483125.8753534     
   37278291.8488212     
   37072838.1048677     
   36866834.5138538     
   36660352.2937722     
   36453463.7976575     
   36246242.2353155     
   36038761.3041339     
   35831094.6907812     
   35623315.3904798     
   35415494.7878412     
   35207701.4867841     
   35000000.0000000     
   50000000.0000000     
   49903563.1286316     
   49807208.7626075     
   49710887.6179594     
   49614547.3440751     
   49518133.5892959     
   49421590.8917923     
   49324863.3253855     
   49227894.9378539     
   49130630.0449514     
   49033013.4303762     
   48934990.4837982     
   48836507.2964646     
   48737510.7267033     
   48637948.4436643     
   48537768.9553675     
   48436921.6256783     
   48335356.6838124     
   48233025.2291863     
   48129879.2337888     
   48025871.5437265     
   47920955.8811592     
   47815086.8474993     
   47708219.9284636     
   47600311.5013618     
   47491318.8448276     
   47381200.1510900     
   47269914.5407809     
   47157422.0802218     
   47043683.8010843     
   46928661.7222961     
   46812318.8740435     
   46694619.3237168     
   46575528.2036403     
   46455011.7404315     
   46333037.2858348     
   46209573.3488805     
   46084589.6292263     
   45958057.0515413     
   45829947.8007969     
   45700235.3583357     
   45568894.5385903     
   45435901.5263278     
   45301233.9142978     
   45164870.7411635     
   45026792.5295953     
   44886981.3244078     
   44745420.7306219     
   44602095.9513312     
   44456993.8252519     
   44310102.8638376     
   44161413.2878361     
   44010917.0631652     
   43858607.9359878     
   43704481.4668610     
   43548535.0638374     
   43390768.0143983     
   43231181.5160941     
   43069778.7057784     
   42906564.6873154     
   42741546.5576501     
   42574733.4311318     
   42406136.4619923     
   42235768.8648784     
   42063645.9333567     
   41889785.0563116     
   41714205.7321713     
   41536929.5809107     
   41357980.3537898     
   41177383.9408111     
   40995168.3758836     
   40811363.8397108     
   40626002.6604311     
   40439119.3120548     
   40250750.4107608     
   40060934.7091244     
   39869713.0883473     
   39677128.5485631     
   39483226.1972624     
   39288053.2358504     
   39091658.9442789     
   38894094.6635967     
   38695413.7761256     
   38495671.6827604     
   38294925.7766426     
   38093235.4121009     
   37890661.8673251     
   37687268.2986901     
   37483119.6839824     
   37278282.7509658     
   37072825.8867157     
   36866819.0218297     
   36660333.4817532     
   36453441.7944589     
   36246217.4384920     
   36038734.5058530     
   35831067.2375415     
   35623289.3655902     
   35415473.1783331     
   35207688.2600596     
   35000000.0000000     
   50000000.0000000     
   49903552.5566854     
   49807191.4383939     
   49710866.6413929     
   49614525.0279807     
   49518111.5330687     
   49421570.1212964     
   49324844.4401306     
   49227878.2370663     
   49130615.6255508     
   49033001.2592755     
   48934980.4495217     
   48836499.2450097     
   48737504.4857515     
   48637943.8383558     
   48537765.8180776     
   48436919.8016095     
   48335356.0337378     
   48233025.6303096     
   48129880.5794125     
   48025873.7422112     
   47920958.8545096     
   47815090.5297950     
   47708224.2642820     
   47600316.4442775     
   47491324.3560366     
   47381206.1981816     
   47269921.0966614     
   47157429.1221855     
   47043691.3100195     
   46928669.6820114     
   46812327.2707004     
   46694628.1453511     
   46575537.4397613     
   46455021.3816837     
   46333047.3237124     
   46209583.7754850     
   46084600.4370601     
   45958068.2333284     
   45829959.3493284     
   45700247.2663326     
   45568906.7985826     
   45435914.1305453     
   45301246.8545712     
   45164884.0088339     
   45026806.1154298     
   44886995.2185219     
   44745434.9224059     
   44602110.4293806     
   44457008.5773024     
   44310117.8767019     
   44161428.5473436     
   44010932.5541049     
   43858623.6420518     
   43704497.3705902     
   43548551.1465683     
   43390784.2562098     
   43231197.8957543     
   43069795.2006904     
   42906581.2734614     
   42741563.2095307     
   42574750.1217015     
   42406153.1625863     
   42235785.5451290     
   42063662.5610958     
   41889801.5974544     
   41714222.1505753     
   41536945.8382025     
   41357996.4091531     
   41177399.7507225     
   40995183.8937868     
   40811379.0156130     
   40626017.4404053     
   40439133.6376308     
   40250764.2181842     
   40060947.9284637     
   39869725.6424308     
   39677140.3517305     
   39483237.1539243     
   39288063.2388632     
   39091667.8731644     
   38894102.3826709     
   38695420.1326508     
   38495676.5053106     
   38294928.8739733     
   38093236.5729607     
   37890660.8618447     
   37687264.8822506     
   37483113.6048246     
   37278273.7632804     
   37072813.7715729     
   36866803.6191132     
   36660314.7372561     
   36453419.8274449     
   36246192.6360423     
   36038707.6503474     
   35831039.6701175     
   35623263.1759132     
   35415451.3826984     
   35207674.8895590     
   35000000.0000000     
   50000000.0000000     
   49903541.8985659     
   49807174.0189132     
   49710845.6041613     
   49614502.7008916     
   49518089.5133392     
   49421549.4253032     
   49324825.6563643     
   49227861.6547202     
   49130601.3332915     
   49032989.2175966     
   48934970.5421502     
   48836491.3144891     
   48737498.3573851     
   48637939.3357476     
   48537762.7727127     
   48436918.0582871     
   48335355.4531858     
   48233026.0899423     
   48129881.9729180     
   48025875.9784500     
   47920961.8560510     
   47815094.2313150     
   47708228.6109593     
   47600321.3902749     
   47491329.8631139     
   47381212.2344595     
   47269927.6355416     
   47157436.1414194     
   47043698.7909149     
   46928677.6087600     
   46812335.6298120     
   46694636.9251789     
   46575546.6301028     
   46455030.9734460     
   46333057.3086293     
   46209594.1458779     
   46084611.1856336     
   45958079.3529944     
   45829970.8330529     
   45700259.1070017     
   45568918.9888830     
   45435926.6628568     
   45301259.7208702     
   45164897.2006031     
   45026819.6235768     
   44887009.0333017     
   44745449.0333490     
   44602124.8252248     
   44457023.2459280     
   44310132.8050704     
   44161443.7214385     
   44010947.9588747     
   43858639.2613555     
   43704513.1871435     
   43548567.1418915     
   43390800.4105760     
   43231214.1881372     
   43069811.6087116     
   42906597.7733353     
   42741579.7760064     
   42574766.7279988     
   42406169.7803247     
   42235802.1442470     
   42063679.1097546     
   41889818.0619242     
   41714238.4950969     
   41536962.0248177     
   41358012.3974946     
   41177415.4977536     
   40995199.3534782     
   40811394.1385419     
   40626032.1732610     
   40439147.9226070     
   40250777.9922388     
   40060961.1224254     
   39869738.1799324     
   39677152.1479538     
   39483248.1141490     
   39288073.2568247     
   39091676.8292478     
   38894110.1420058     
   38695426.5432153     
   38495681.3962332     
   38294932.0543197     
   38093237.8314392     
   37890659.9680596     
   37687261.5904012     
   37483107.6611067     
   37278264.9187212     
   37072801.8026594     
   36866788.3593828     
   36660296.1240457     
   36453397.9692008     
   36246167.9067885     
   36038680.8182880     
   35831012.0645389     
   35623236.8847481     
   35415429.4439624     
   35207661.3947597     
   35000000.0000000     
   50000000.0000000     
   49903531.1711407     
   49807156.5408176     
   49710824.5596589     
   49614480.4266591     
   49518067.5979589     
   49421528.8706468     
   49324807.0365989     
   49227845.2471103     
   49130587.2173558     
   49032977.3471768     
   48934960.7963552     
   48836483.5328261     
   48737492.3633176     
   48637934.9519258     
   48537759.8303096     
   48436916.4022436     
   48335354.9446806     
   48233026.6070414     
   48129883.4100802     
   48025878.2453649     
   47920964.8761344     
   47815097.9400750     
   47708232.9543735     
   47600326.3232591     
   47491335.3481278     
   47381218.2402678     
   47269934.1361343     
   47157443.1150821     
   47043706.2194386     
   46928685.4767728     
   46812343.9242175     
   46694645.6346857     
   46575555.7448298     
   46455040.4845919     
   46333067.2081939     
   46209604.4264266     
   46084621.8400963     
   45958090.3744929     
   45829982.2147504     
   45700270.8419717     
   45568931.0699916     
   45435939.0826582     
   45301272.4715112     
   45164910.2737357     
   45026833.0102775     
   44887022.7239961     
   44745463.0177412     
   44602139.0922306     
   44457037.7836115     
   44310147.6005836     
   44161458.7609634     
   44010963.2275682     
   43858654.7432948     
   43704528.8652748     
   43548582.9979785     
   43390816.4251490     
   43231230.3404431     
   43069827.8766623     
   42906614.1334541     
   42741596.2033714     
   42574783.1961814     
   42406186.2613205     
   42235818.6083966     
   42063695.5256510     
   41889834.3963015     
   41714254.7126947     
   41536978.0882154     
   41358028.2669048     
   41177431.1307660     
   40995214.7047406     
   40811409.1593643     
   40626046.8111248     
   40439162.1205619     
   40250791.6881664     
   40060974.2481480     
   39869750.6601475     
   39677163.8989772     
   39483259.0424579     
   39288083.2574042     
   39091685.7837679     
   38894117.9168862     
   38695432.9876894     
   38495686.3405910     
   38294935.3086140     
   38093239.1850823     
   37890659.1909316     
   37687258.4363589     
   37483101.8751369     
   37278256.2494578     
   37072790.0226074     
   36866773.2960124     
   36660277.7059632     
   36453376.2928823     
   36246143.3307218     
   36038654.0921695     
   35830984.4992198     
   35623210.5579691     
   35415407.4072665     
   35207647.7962065     
   35000000.0000000     
   50000000.0000000     
   49903520.3922570     
   49807139.0426561     
   49710803.5635142     
   49614458.2711258     
   49518045.8562336     
   49421508.5250372     
   49324788.6437229     
   49227829.0705143     
   49130573.3266185     
   49032965.6893415     
   48934951.2461616     
   48836475.9272174     
   48737486.5244969     
   48637930.7022021     
   48537757.0011446     
   48436914.8392803     
   48335354.5100557     
   48233027.1799190     
   48129884.8860772     
   48025880.5353323     
   47920967.9046134     
   47815101.6436407     
   47708237.2799973     
   47600331.2267707     
   47491340.7928197     
   47381224.1956579     
   47269940.5768903     
   47157450.0200975     
   47043713.5710485     
   46928693.2600921     
   46812352.1265858     
   46694654.2452025     
   46575564.7539664     
   46455049.8838658     
   46333076.9898953     
   46209614.5833875     
   46084632.3654930     
   45958101.2616778     
   45829993.4571047     
   45700282.4327771     
   45568943.0023158     
   45435951.3492524     
   45301285.0647173     
   45164923.1854008     
   45026846.2316750     
   44887036.2457527     
   44745476.8297671     
   44602153.1836547     
   44457052.1427198     
   44310162.2147598     
   44161473.6166326     
   44010978.3101426     
   43858670.0371217     
   43704544.3535854     
   43548598.6628381     
   43390832.2474084     
   43231246.2996891     
   43069843.9511680     
   42906630.3001272     
   42741612.4376996     
   42574799.4721727     
   42406202.5514363     
   42235834.8834756     
   42063711.7548191     
   41889850.5468634     
   41714270.7500030     
   41536993.9755076     
   41358043.9651025     
   41177446.5982232     
   40995229.8969301     
   40811424.0284880     
   40626061.3056292     
   40439176.1845422     
   40250805.2606356     
   40060987.2621525     
   39869763.0417062     
   39677175.5658280     
   39483269.9026010     
   39288093.2074439     
   39091694.7070780     
   38894125.6816543     
   38695439.4449462     
   38495691.3224003     
   38294938.6267026     
   38093240.6303258     
   37890658.5343105     
   37687255.4322571     
   37483096.2682113     
   37278247.7867744     
   37072778.4733636     
   36866758.4819820     
   36660259.5468629     
   36453354.8721985     
   36246118.9890676     
   36038627.5564978     
   35830957.0553011     
   35623184.2644930     
   35415385.3203282     
   35207634.1157764     
   35000000.0000000     
   50000000.0000000     
   49903509.5809674     
   49807121.5652553     
   49710782.6739647     
   49614436.3023864     
   49518024.3590574     
   49421488.4571002     
   49324770.5409792     
   49227813.1811375     
   49130559.7095743     
   49032954.2848266     
   48934941.9248719     
   48836468.5240610     
   48737480.8610398     
   48637926.6010573     
   48537754.2946848     
   48436913.3744262     
   48335354.1504176     
   48233027.8062126     
   48129886.3954672     
   48025882.8401618     
   47920970.9308281     
   47815105.3291141     
   47708241.5728865     
   47600336.0839768     
   47491346.1785969     
   47381230.0803826     
   47269946.9359937     
   47157456.8331513     
   47043720.8209893     
   46928700.9325688     
   46812360.2094131     
   46694662.7279044     
   46575573.6273949     
   46455059.1398820     
   46333086.6211023     
   46209624.5829042     
   46084642.7267622     
   45958111.9783017     
   45830004.5227018     
   45700293.8408570     
   45568954.7461685     
   45435963.4218481     
   45301297.4586163     
   45164935.8926704     
   45026859.2438132     
   44887049.5536159     
   44745490.4235040     
   44602167.0526420     
   44457066.2755024     
   44310176.5989936     
   44161488.2390293     
   44010993.1564170     
   43858685.0919413     
   43704559.6005205     
   43548614.0843143     
   43390847.8246582     
   43231262.0127055     
   43069859.7786558     
   42906646.2194533     
   42741628.4248404     
   42574815.5016568     
   42406218.5962802     
   42235850.9151104     
   42063727.7430030     
   41889866.4595780     
   41714286.5533256     
   41537009.6334534     
   41358059.4394284     
   41177461.8481827     
   40995244.8789667     
   40811438.6958521     
   40626075.6079029     
   40439190.0670512     
   40250818.6637290     
   40061000.1203271     
   39869775.2825556     
   39677187.1087967     
   39483280.6575341     
   39288103.0729310     
   39091703.5686145     
   38894133.4096725     
   38695445.8928173     
   38495696.3245798     
   38294941.9972859     
   38093242.1624263     
   37890658.0008548     
   37687252.5890572     
   37483090.8605159     
   37278239.5609659     
   37072767.1960840     
   36866743.9697810     
   36660241.7105378     
   36453333.7813834     
   36246094.9643368     
   36038601.2979688     
   35830929.8169968     
   35623158.0767760     
   35415363.2339470     
   35207620.3769774     
   35000000.0000000     
   50000000.0000000     
   49903498.7577875     
   49807104.1521435     
   49710761.9522552     
   49614414.5910495     
   49518003.1790381     
   49421468.7364041     
   49324752.7919341     
   49227797.6350490     
   49130546.4142600     
   49032943.1736961     
   48934932.8649852     
   48836461.3488829     
   48737475.3921668     
   48637922.6620828     
   48537751.7195374     
   48436912.0118949     
   48335353.8661115     
   48233028.4828555     
   48129887.9321633     
   48025885.1510769     
   47920973.9435884     
   47815108.9831207     
   47708245.8176692     
   47600340.8776622     
   47491351.4865254     
   47381235.8738902     
   47269953.1913573     
   47157463.5306868     
   47043727.9442886     
   46928708.4678592     
   46812368.1450210     
   46694671.0538084     
   46575582.3348537     
   46455068.2211230     
   46333096.0690617     
   46209634.3910068     
   46084652.8887353     
   45958122.4880149     
   45830015.3740289     
   45700305.0275543     
   45568966.2617674     
   45435975.2595589     
   45301309.6112400     
   45164948.3525189     
   45026872.0026347     
   44887062.6025262     
   44745503.7529207     
   44602180.6522235     
   44457080.1340893     
   44310190.7045536     
   44161502.5786036     
   44011007.7160695     
   43858699.8567095     
   43704574.5543675     
   43548629.2100826     
   43390863.1040240     
   43231277.4261330     
   43069875.3053509     
   42906661.8373161     
   42741644.1104144     
   42574831.2300745     
   42406234.3412012     
   42235866.6486509     
   42063743.4356524     
   41889882.0800990     
   41714302.0686303     
   41537025.0084518     
   41358074.6368377     
   41177476.8282891     
   40995259.5993266     
   40811453.1109185     
   40626089.6685599     
   40439203.7200377     
   40250831.8509304     
   40061012.7779133     
   39869787.3399432     
   39677198.4874176     
   39483291.2693962     
   39288112.8189716     
   39091712.3368654     
   38894141.0732857     
   38695452.3080495     
   38495701.3288983     
   38294945.4078584     
   38093243.7753905     
   37890657.5919507     
   37687249.9164568     
   37483085.6710254     
   37278231.6012297     
   37072756.2310228     
   36866729.8113030     
   36660224.2606339     
   36453313.0951545     
   36246071.3403624     
   36038575.4056332     
   35830902.8719416     
   35623132.0713413     
   35415341.2025652     
   35207606.6052898     
   35000000.0000000     
   50000000.0000000     
   49903487.9449936     
   49807086.8500247     
   49710741.4630608     
   49614393.2104984     
   49517982.3906073     
   49421449.4334738     
   49324735.4604335     
   49227782.4881091     
   49130533.4881684     
   49032932.3952545     
   48934924.0981139     
   48836454.4262593     
   48737470.1361326     
   48637918.8979212     
   48537749.2833995     
   48436910.7550418     
   48335353.6566844     
   48233029.2060475     
   48129889.4894097     
   48025887.4586953     
   47920976.9311589     
   47815112.5917960     
   47708249.9985360     
   47600345.5902212     
   47491356.6973232     
   47381241.5553194     
   47269959.3206179     
   47157470.0889015     
   47043734.9157550     
   46928715.8394233     
   46812375.9055540     
   46694679.1937715     
   46575590.8459356     
   46455077.0959382     
   46333105.3008974     
   46209643.9736108     
   46084662.8161355     
   45958132.7543646     
   45830025.9734735     
   45700315.9541142     
   45568977.5092340     
   45435986.8214019     
   45301321.4805227     
   45164960.5218211     
   45026884.4639807     
   44887075.3473181     
   44745516.7718758     
   44602193.9353148     
   44457093.6704894     
   44310204.4825808     
   44161516.5856709     
   44011021.9386354     
   43858714.2802306     
   43704589.1632525     
   43548643.9876480     
   43390878.0324497     
   43231292.4864191     
   43069890.4772733     
   42906677.0993811     
   42741659.4398101     
   42574846.6026192     
   42406249.7312846     
   42235882.0291661     
   42063758.7779174     
   41889897.3537597     
   41714317.2415429     
   41537040.0465360     
   41358089.5038935     
   41177491.4857659     
   40995274.0060339     
   40811467.2226626     
   40626103.4376902     
   40439217.0948846     
   40250844.7751123     
   40061025.1894909     
   39869799.1704008     
   39677209.6604498     
   39483301.6994867     
   39288122.4097638     
   39091720.9793385     
   38894148.6437848     
   38695458.6662601     
   38495706.3159228     
   38294948.8446462     
   38093245.4619037     
   37890657.3076296     
   37687247.4227957     
   37483080.7173984     
   37278223.9355511     
   37072745.6174141     
   36866716.0577310     
   36660207.2605537     
   36453292.8886540     
   36246048.2023176     
   36038549.9710459     
   35830876.3115372     
   35623106.3293413     
   35415319.2848973     
   35207592.8285615     
   35000000.0000000     
   50000000.0000000     
   49903477.1669712     
   49807069.7093137     
   49710721.2749362     
   49614372.2371461     
   49517962.0701172     
   49421430.6197880     
   49324718.6105471     
   49227767.7958861     
   49130520.9781561     
   49032921.9879533     
   48934915.6548952     
   48836447.7797375     
   48737465.1101561     
   48637915.3202052     
   48537746.9930060     
   48436909.6063212     
   48335353.5208500     
   48233029.9712249     
   48129891.0597574     
   48025889.7530093     
   47920979.8812421     
   47815116.1407734     
   47708254.0992298     
   47600350.2036492     
   47491361.7913542     
   47381247.1034942     
   47269965.3011326     
   47157476.4837437     
   47043741.7099746     
   46928723.0205222     
   46812383.4629785     
   46694687.1184899     
   46575599.1300875     
   46455085.7325427     
   46333114.2836094     
   46209653.2965159     
   46084672.4735768     
   45958142.7407938     
   45830036.2833227     
   45700326.5816837     
   45568988.4485924     
   45435998.0662970     
   45301333.0243005     
   45164972.3573514     
   45026896.5835885     
   44887087.7427191     
   44745529.4341163     
   44602206.8547149     
   44457106.8365884     
   44310217.8840864     
   44161530.2104092     
   44011035.7735048     
   43858728.3111550     
   43704603.3751386     
   43548658.3643417     
   43390892.5566948     
   43231307.1398154     
   43069905.2402345     
   42906691.9510916     
   42741674.3581797     
   42574861.5642329     
   42406264.7113476     
   42235897.0014396     
   42063773.7146432     
   41889912.2255684     
   41714332.0173416     
   41537054.6933675     
   41358103.9867606     
   41177505.7674095     
   40995288.0466536     
   40811480.9795650     
   40626116.8648504     
   40439230.1423989     
   40250857.3885238     
   40061037.3089649     
   39869810.7297283     
   39677220.5858581     
   39483311.9082438     
   39288131.8085719     
   39091729.4625310     
   38894156.0913690     
   38695464.9418929     
   38495711.2649662     
   38294952.2925461     
   38093247.2132569     
   37890657.1464831     
   37687245.1149586     
   37483076.0158683     
   37278216.5905851     
   37072735.3933463     
   36866702.7594129     
   36660190.7733448     
   36453273.2373756     
   36246025.6367136     
   36038525.0883930     
   35830850.2312920     
   35623080.9371542     
   35415297.5446408     
   35207579.0774704     
   35000000.0000000     
   50000000.0000000     
   49903466.4506295     
   49807052.7847429     
   49710701.4607914     
   49614351.7506799     
   49517942.2959148     
   49421412.3677586     
   49324702.3064978     
   49227753.6135634     
   49130508.9303421     
   49032911.9892923     
   48934907.5648996     
   48836441.4317526     
   48737460.3303484     
   48637911.9394960     
   48537744.8540770     
   48436908.5672419     
   48335353.4564521     
   48233030.7730318     
   48129892.6350406     
   48025892.0233666     
   47920982.7809641     
   47815119.6151723     
   47708258.1030357     
   47600354.6995359     
   47491366.7486220     
   47381252.4969187     
   47269971.1099749     
   47157482.6909101     
   47043748.3013090     
   46928729.9842164     
   46812390.7890806     
   46694694.7984970     
   46575607.1566082     
   46455094.0990166     
   46333122.9840727     
   46209662.3254055     
   46084681.8255634     
   45958152.4106405     
   45830046.2657622     
   45700336.8713106     
   45568999.0397685     
   45436008.9530659     
   45301344.2003100     
   45164983.8157829     
   45026908.3170911     
   44887099.7433483     
   44745541.6932762     
   44602219.3631040     
   44457119.5841476     
   44310230.8599500     
   44161543.4028580     
   44011049.1699203     
   43858741.8979769     
   43704617.1378227     
   43548672.2873187     
   43390906.6233314     
   43231321.3323740     
   43069919.5398339     
   42906706.3376659     
   42741688.8104353     
   42574876.0596020     
   42406279.2259356     
   42235911.5099649     
   42063788.1903658     
   41889926.6402032     
   41714346.3409515     
   41537068.8942298     
   41358118.0311990     
   41177519.6195816     
   40995301.6682831     
   40811494.3296037     
   40626129.8990546     
   40439242.8128010     
   40250869.6427793     
   40061049.0895520     
   39869821.9729781     
   39677231.2207954     
   39483321.8552226     
   39288140.9777007     
   39091737.7518983     
   38894163.3851098     
   38695471.1081743     
   38495716.1540343     
   38294955.7350622     
   38093249.0192729     
   37890657.1055769     
   37687242.9982761     
   37483071.5811307     
   37278209.5915306     
   37072725.5956288     
   36866689.9657264     
   36660174.8615759     
   36453254.2170701     
   36246003.7313724     
   36038500.8545930     
   35830824.7311474     
   35623055.9870171     
   35415276.0512813     
   35207565.3860750     
   35000000.0000000     
   50000000.0000000     
   49903455.8258974     
   49807036.1360547     
   49710682.0983919     
   49614331.8342895     
   49517923.1483929     
   49421394.7506897     
   49324686.6125760     
   49227739.9958342     
   49130497.3899996     
   49032902.4357150     
   48934899.8565346     
   48836435.4035427     
   48737455.8116377     
   48637908.7652193     
   48537742.8712651     
   48436907.6383240     
   48335353.4604290     
   48233031.6052903     
   48129894.2063533     
   48025894.2584517     
   47920985.6168593     
   47815122.9995856     
   47708261.9927723     
   47600359.0590575     
   47491371.5487642     
   47381257.7137734     
   47269976.7239314     
   47157488.6858423     
   47043754.6638934     
   46928736.7033642     
   46812397.8554649     
   46694702.2041627     
   46575614.8946482     
   46455102.1633041     
   46333131.3690371     
   46209671.0258455     
   46084690.8364890     
   45958161.7271374     
   45830055.8828756     
   45700346.7839430     
   45569009.2425895     
   45436019.4404311     
   45301354.9661874     
   45164994.8536861     
   45026919.6200160     
   44887111.3037152     
   44745553.5028753     
   44602231.4130427     
   44457131.8648022     
   44310243.3609185     
   44161556.1129152     
   44011062.0769754     
   43858754.9890321     
   43704630.3989335     
   43548685.7035553     
   43390920.1787414     
   43231335.0099449     
   43069933.3214558     
   42906720.2040931     
   42741702.7412457     
   42574890.0331537     
   42406293.2193177     
   42235925.4989411     
   42063802.1493072     
   41889940.5420069     
   41714360.1569397     
   41537082.5940231     
   41358131.5825577     
   41177532.9882030     
   40995314.8175461     
   40811507.2202458     
   40626142.4887655     
   40439255.0557152     
   40250881.4888472     
   40061060.4837673     
   39869832.8544400     
   39677241.5215846     
   39483331.4990744     
   39288149.8784700     
   39091745.8118240     
   38894170.4929138     
   38695477.1370695     
   38495720.9597736     
   38294959.1542433     
   38093250.8682319     
   37890657.1803631     
   37687241.0764224     
   37483067.4262267     
   37278202.9620014     
   37072716.2596516     
   36866677.7249335     
   36660159.5871972     
   36453235.9036324     
   36245982.5753736     
   36038477.3693663     
   35830799.9157826     
   35623031.5776913     
   35415254.8810141     
   35207551.7924730     
   35000000.0000000     
   50000000.0000000     
   49903445.3263260     
   49807019.8287946     
   49710663.2708789     
   49614312.5748707     
   49517904.7100129     
   49421377.8427145     
   49324671.5930369     
   49227726.9967855     
   49130486.4014385     
   49032893.3624982     
   48934892.5569445     
   48836429.7150602     
   48737451.5676943     
   48637905.8056021     
   48537741.0481017     
   48436906.8190541     
   48335353.5287772     
   48233032.4609720     
   48129895.7640259     
   48025896.4462673     
   47920988.3748560     
   47815126.2780692     
   47708265.7507827     
   47600363.2629698     
   47491376.1710473     
   47381262.7319110     
   47269982.1194985     
   47157494.4437248     
   47043760.7716347     
   46928743.1506200     
   46812404.6335536     
   46694709.3056923     
   46575622.3132088     
   46455109.8932126     
   46333139.4051258     
   46209679.3632845     
   46084699.4706362     
   45958170.6534110     
   45830065.0966440     
   45700356.2804285     
   45569019.0167828     
   45436029.4870151     
   45301365.2794680     
   45165005.4275279     
   45026930.4477838     
   44887122.3782188     
   44745564.8163173     
   44602242.9569701     
   44457143.6300595     
   44310255.3376032     
   44161568.2903364     
   44011074.4436122     
   43858767.5324957     
   43704643.1059291     
   43548698.5598463     
   43390933.1691142     
   43231348.1181733     
   43069946.5302667     
   42906733.4951302     
   42741716.0950325     
   42574903.4290521     
   42406306.6354830     
   42235938.9122687     
   42063815.5353710     
   41889953.8749823     
   41714373.4095096     
   41537095.7372590     
   41358144.5857692     
   41177545.8187472     
   40995327.4405851     
   40811519.5984399     
   40626154.5818858     
   40439266.8201599     
   40250892.8770388     
   40061071.4434123     
   39869843.3276270     
   39677251.4437011     
   39483340.7975256     
   39288158.4711905     
   39091753.6055901     
   38894177.3814872     
   38695482.9992389     
   38495725.6574184     
   38294962.5306198     
   38093252.7467951     
   37890657.3645903     
   37687239.3513108     
   37483063.5624228     
   37278196.7238900     
   37072707.4192361     
   36866666.0840239     
   36660145.0113850     
   36453218.3729656     
   36245962.2589720     
   36038454.7352666     
   35830775.8948876     
   35623007.8151554     
   35415234.1177965     
   35207538.3396016     
   35000000.0000000     
   50000000.0000000     
   49903434.9898286     
   49807003.9352198     
   49710645.0673005     
   49614294.0631946     
   49517887.0652938     
   49421361.7187072     
   49324657.3119813     
   49227714.6697690     
   49130476.0078796     
   49032884.8036349     
   48934885.6919063     
   48836424.3848811     
   48737447.6108526     
   48637903.0676064     
   48537739.3869429     
   48436906.1078415     
   48335353.6565162     
   48233033.3321690     
   48129897.2976026     
   48025898.5741170     
   47920991.0402624     
   47815129.4341306     
   47708269.3589264     
   47600367.2916026     
   47491380.5943621     
   47381267.5288523     
   47269987.2728799     
   47157499.9394836     
   47043766.5982094     
   46928749.2984335     
   46812411.0945855     
   46694716.0731259     
   46575629.3811411     
   46455117.2564127     
   46333147.0588359     
   46209687.3030528     
   46084707.6921759     
   45958179.1524811     
   45830073.8689452     
   45700365.3215133     
   45569028.3219756     
   45436039.0513402     
   45301375.0975848     
   45165015.4936709     
   45026940.7557075     
   44887132.9211457     
   44745575.5868894     
   44602253.9472026     
   44457154.8312975     
   44310266.7404795     
   44161579.8847322     
   44011086.2186194     
   43858779.4763798     
   43704655.2060946     
   43548710.8028029     
   43390945.5404432     
   43231360.6024961     
   43069959.1112114     
   42906746.1552991     
   42741728.8159669     
   42574916.1911947     
   42406319.4181359     
   42235951.6935455     
   42063828.2921377     
   41889966.5827876     
   41714386.0424966     
   41537108.2680548     
   41358156.9853436     
   41177558.0562345     
   40995339.4830551     
   40811531.4106090     
   40626166.1257509     
   40439278.0545388     
   40250903.7569982     
   40061081.9195625     
   39869853.3452607     
   39677260.9417569     
   39483349.7073583     
   39288166.7151391     
   39091761.0953478     
   38894184.0163000     
   38695488.6639945     
   38495730.2207382     
   38294965.8431397     
   38093254.6399297     
   37890657.6502133     
   37687237.8229869     
   37483059.9990875     
   37278190.8972271     
   37072699.1064786     
   36866655.0885461     
   36660131.1943703     
   36453201.7008230     
   36245942.8734823     
   36038433.0576702     
   35830752.7833914     
   35622984.8133135     
   35415213.8545571     
   35207525.0762210     
   35000000.0000000     
   50000000.0000000     
   49903424.8595999     
   49806988.5353422     
   49710627.5831417     
   49614276.3940321     
   49517870.3007661     
   49421346.4541696     
   49324643.8332169     
   49227703.0672592     
   49130466.2513201     
   49032876.7917123     
   48934879.2857213     
   48836419.4301120     
   48737443.9520316     
   48637900.5568639     
   48537737.8889154     
   48436905.5019742     
   48335353.8376527     
   48233034.2100659     
   48129898.7958195     
   48025900.6285875     
   47920993.5977535     
   47815132.4507191     
   47708272.7985714     
   47600371.1248530     
   47491384.7972187     
   47381272.0817837     
   47269992.1599841     
   47157505.1477832     
   47043772.1170631     
   46928755.1190484     
   46812417.2096150     
   46694722.4763382     
   46575636.0671461     
   46455124.2204374     
   46333154.2965373     
   46209694.8103619     
   46084715.4651675     
   45958187.1872606     
   45830082.1615536     
   45700373.8678424     
   45569037.1176943     
   45436048.0918270     
   45301384.3778680     
   45165025.0083724     
   45026950.4989915     
   44887142.8866700     
   44745585.7677606     
   44602264.3359327     
   44457165.4197633     
   44310277.5198840     
   44161590.8455673     
   44011097.3506304     
   43858790.7685319     
   43704666.6465399     
   43548722.3788495     
   43390957.2385241     
   43231372.4081396     
   43069971.0090109     
   42906758.1288829     
   42741740.8479658     
   42574928.2632084     
   42406331.5106938     
   42235963.7860624     
   42063840.3628610     
   41889978.6087320     
   41714397.9993632     
   41537120.1301287     
   41358168.7253635     
   41177569.6452257     
   40995350.8901170     
   40811542.6026438     
   40626177.0671204     
   40439288.7066321     
   40250914.0776926     
   40061091.8625564     
   39869862.8592584     
   39677269.9694840     
   39483358.1843908     
   39288174.5685360     
   39091768.2420888     
   38894190.3615514     
   38695494.0992580     
   38495734.6219856     
   38294969.0691057     
   38093256.5308310     
   37890658.0273011     
   37687236.4895200     
   37483056.7435630     
   37278185.5000345     
   37072691.3515859     
   36866644.7824279     
   36660118.1952505     
   36453185.9626240     
   36245924.5111302     
   36038412.4447164     
   35830730.7016306     
   35622962.6947025     
   35415194.1945817     
   35207512.0581346     
   35000000.0000000     
   50000000.0000000     
   49903414.9852733     
   49806973.7181203     
   49710610.9208303     
   49614259.6662201     
   49517854.5048843     
   49421332.1250897     
   49324631.2201007     
   49227692.2406991     
   49130457.1723897     
   49032869.3577833     
   48934873.3611031     
   48836414.8662933     
   48737440.6006547     
   48637898.2776089     
   48537736.5538616     
   48436904.9975743     
   48335354.0651453     
   48233035.0849124     
   48129900.2465827     
   48025902.5955322     
   47920996.0313581     
   47815135.3102162     
   47708276.0505868     
   47600374.7421806     
   47491388.7577434     
   47381276.3675537     
   47269996.7564225     
   47157510.0430262     
   47043777.3014091     
   46928760.5845022     
   46812422.9495123     
   46694728.4850373     
   46575642.3397744     
   46455130.7526822     
   46333161.0844728     
   46209701.8503056     
   46084722.7535580     
   45958194.7205554     
   45830089.9361396     
   45700381.8799590     
   45569045.3633640     
   45436056.5667948     
   45301393.0775449     
   45165033.9277840     
   45026959.6327304     
   44887152.2288517     
   44745595.3119805     
   44602274.0752275     
   44457175.3465724     
   44310287.6260140     
   44161601.1221579     
   44011107.7881215     
   43858801.3566324     
   43704677.3741974     
   43548733.2342222     
   43390968.2089517     
   43231383.4801166     
   43069982.1681590     
   42906769.3599229     
   42741752.1346895     
   42574939.5884467     
   42406342.8562819     
   42235975.1327999     
   42063851.6904633     
   41889989.8957711     
   41714409.2231941     
   41537131.2667953     
   41358179.7494786     
   41177580.5298174     
   40995361.6064321     
   40811553.1198959     
   40626187.3521713     
   40439298.7235884     
   40250923.7874024     
   40061101.2219842     
   39869871.8207199     
   39677278.4797191     
   39483366.1834591     
   39288181.9885219     
   39091775.0056179     
   38894196.3801352     
   38695499.2715176     
   38495738.8318450     
   38294972.1841115     
   38093258.4008462     
   37890658.4839439     
   37687235.3468917     
   37483053.8010352     
   37278180.5481740     
   37072684.1827019     
   36866635.2077841     
   36660106.0717831     
   36453171.2332469     
   36245907.2648662     
   36038393.0071954     
   35830709.7754425     
   35622941.5911680     
   35415175.2530980     
   35207499.3497271     
   35000000.0000000     
   50000000.0000000     
   49903405.4243974     
   49806959.5828117     
   49710595.1901888     
   49614243.9826589     
   49517839.7678971     
   49421318.8077708     
   49324619.5353615     
   49227682.2403314     
   49130448.8101981     
   49032862.5312312     
   48934867.9390610     
   48836410.7073015     
   48737437.5645674     
   48637896.2326108     
   48537735.3802851     
   48436904.5895552     
   48335354.3308704     
   48233035.9459958     
   48129901.6369474     
   48025904.4600551     
   47920998.3244470     
   47815137.9944261     
   47708279.0953367     
   47600378.1226025     
   47491392.4536747     
   47381280.3626709     
   47270001.0375077     
   47157514.5993519     
   47043782.1242279     
   46928765.6666253     
   46812428.2849626     
   46694734.0687658     
   46575648.1674262     
   46455136.8204050     
   46333167.3887587     
   46209708.3878583     
   46084729.5211826     
   45958201.7150638     
   45830097.1542697     
   45700389.3183036     
   45569053.0183083     
   45436064.4344603     
   45301401.1537384     
   45165042.2079504     
   45026968.1119090     
   44887160.9016358     
   44745604.1724787     
   44602283.1170275     
   44457184.5627062     
   44310297.0089253     
   44161610.6636707     
   44011117.4794101     
   43858811.1881929     
   43704687.3358204     
   43548743.3149662     
   43390978.3971180     
   43231393.7632238     
   43069992.5329192     
   42906779.7922162     
   42741762.6195377     
   42574950.1099858     
   42406353.3977309     
   42235985.6764243     
   42063862.2175319     
   41890000.3865033     
   41714419.6566923     
   41537141.6209604     
   41358190.0009008     
   41177590.6536361     
   40995371.5761558     
   40811562.9071716     
   40626196.9264908     
   40439308.0519171     
   40250932.8337129     
   40061109.9466778     
   39869880.1799152     
   39677286.4243891     
   39483373.6583989     
   39288188.9311361     
   39091781.3445253     
   38894202.0336066     
   38695504.1457876     
   38495742.8193806     
   38294975.1619789     
   38093260.2293965     
   37890659.0061592     
   37687234.3888832     
   37483051.1743993     
   37278176.0551900     
   37072677.6257270     
   36866626.4047127     
   36660094.8801625     
   36453157.5867933     
   36245891.2281414     
   36038374.8583802     
   35830690.1361668     
   35622921.6444705     
   35415157.1590744     
   35207487.0259243     
   35000000.0000000     
   50000000.0000000     
   49903396.2443476     
   49806946.2404872     
   49710580.5087883     
   49614229.4502293     
   49517826.1816737     
   49421306.5786298     
   49324608.8409028     
   49227673.1150176     
   49130441.2021734     
   49032856.3396296     
   48934863.0387805     
   48836406.9652480     
   48737434.8499540     
   48637894.4231067     
   48537734.3652963     
   48436904.2715774     
   48335354.6255880     
   48233036.7816149     
   48129902.9530978     
   48025906.2064954     
   47921000.4597212     
   47815140.4845677     
   47708281.9126736     
   47600381.2446891     
   47491395.8623606     
   47381284.0433021     
   47270004.9782523     
   47157518.7906356     
   47043786.5582671     
   46928770.3370414     
   46812433.1864668     
   46694739.1969000     
   46575653.5183512     
   46455142.3907265     
   46333173.1753838     
   46209714.3878762     
   46084735.7317643     
   45958208.1333771     
   45830103.7774061     
   45700396.1432145     
   45569060.0417488     
   45436071.6529378     
   45301408.5634672     
   45165049.8048088     
   45026975.8914006     
   44887168.8588517     
   44745612.3020634     
   44602291.4131456     
   44457193.0190117     
   44310305.6185311     
   44161619.4191211     
   44011126.3726529     
   43858820.2105543     
   43704696.4779800     
   43548752.5669333     
   43390987.7482090     
   43231403.2020394     
   43070002.0473230     
   42906789.3693119     
   42741772.2456466     
   42574959.7706217     
   42406363.0775726     
   42235995.3592837     
   42063871.8863155     
   41890010.0231653     
   41714429.2421746     
   41537151.1351170     
   41358199.4223996     
   41177599.9598333     
   40995380.7429326     
   40811571.9087259     
   40626205.7350703     
   40439316.6374807     
   40250941.1635056     
   40061117.9847009     
   39869887.8862734     
   39677293.7544970     
   39483380.5620285     
   39288195.3512952     
   39091787.2161614     
   38894207.2821498     
   38695508.6855669     
   38495746.5519862     
   38294977.9746945     
   38093261.9939002     
   37890659.5777973     
   37687233.6069609     
   37483048.8641228     
   37278172.0321472     
   37072671.7041294     
   36866618.4110790     
   36660084.6747787     
   36453145.0963273     
   36245876.4946417     
   36038358.1137986     
   35830671.9205414     
   35622903.0067617     
   35415140.0572336     
   35207475.1747305     
   35000000.0000000     
   50000000.0000000     
   49903387.5248375     
   49806933.8156822     
   49710567.0021485     
   49614216.1796246     
   49517813.8394828     
   49421295.5139632     
   49324599.1975846     
   49227664.9120428     
   49130434.3838915     
   49032850.8085959     
   48934858.6774997     
   48836403.6503765     
   48737432.4612540     
   48637892.8487325     
   48537733.5045579     
   48436904.0360056     
   48335354.9389082     
   48233037.5790541     
   48129904.1803278     
   48025907.8184133     
   47921002.4192016     
   47815142.7612669     
   47708284.4819333     
   47600384.0865604     
   47491398.9607561     
   47381287.3852707     
   47270008.5533680     
   47157522.5904883     
   47043790.5760406     
   46928774.5671673     
   46812437.6243410     
   46694743.8386508     
   46575658.3606493     
   46455147.4306302     
   46333178.4102107     
   46209719.8150972     
   46084741.3489141     
   45958213.9379790     
   45830109.7669069     
   45700402.3149278     
   45569066.3928047     
   45436078.1802384     
   45301415.2636448     
   45165056.6741891     
   45026982.9259668     
   44887176.0542121     
   44745619.6534203     
   44602298.9152662     
   44457200.6661997     
   44310313.4046007     
   44161627.3373714     
   44011134.4158444     
   43858828.3708848     
   43704704.7470642     
   43548760.9357802     
   43390996.2072031     
   43231411.7409202     
   43070010.6551660     
   42906798.0345090     
   42741780.9558861     
   42574968.5128667     
   42406371.8380371     
   42236004.1234049     
   42063880.6387201     
   41890018.7476283     
   41714437.9215676     
   41537159.7513407     
   41358207.9562978     
   41177608.3910810     
   40995389.0498913     
   40811580.0682577     
   40626213.7222988     
   40439324.4254883     
   40250948.7229504     
   40061125.2833397     
   39869894.8883714     
   39677300.4201087     
   39483386.8461331     
   39288201.2027735     
   39091792.5766108     
   38894212.0845458     
   38695512.8527999     
   38495749.9953356     
   38294980.5923483     
   38093263.6696955     
   37890660.1804462     
   37687232.9901602     
   37483046.8681051     
   37278168.4874638     
   37072666.4387483     
   36866611.2622878     
   36660075.5079580     
   36453133.8335869     
   36245863.1579803     
   36038342.8909453     
   35830655.2704863     
   35622885.8408582     
   35415124.1102487     
   35207463.9005622     
   35000000.0000000     
   50000000.0000000     
   49903379.3612751     
   49806922.4481160     
   49710554.8037138     
   49614204.2850994     
   49517802.8357241     
   49421285.6896805     
   49324590.6649861     
   49227657.6769070     
   49130428.3888967     
   49032845.9616396     
   48934854.8703818     
   48836400.7709586     
   48737430.4010756     
   48637891.5074556     
   48537732.7922306     
   48436903.8738674     
   48335355.2592586     
   48233038.3245589     
   48129905.3030219     
   48025909.2785761     
   47921004.1842189     
   47815144.8045498     
   47708286.7819301     
   47600386.6258829     
   47491401.7254215     
   47381290.3640556     
   47270011.7372655     
   47157525.9722565     
   47043794.1498296     
   46928778.3282137     
   46812441.5687177     
   46694747.9630639     
   46575662.6622709     
   46455151.9069630     
   46333183.0589759     
   46209724.6341412     
   46084746.3361315     
   45958219.0912463     
   45830115.0840260     
   45700407.7935766     
   45569072.0304932     
   45436083.9742699     
   45301421.2110798     
   45165062.7718123     
   45026989.1702568     
   44887182.4413124     
   44745626.1791123     
   44602305.5749436     
   44457207.4548438     
   44310320.3167578     
   44161634.3671300     
   44011141.5568146     
   43858835.6161783     
   43704712.0892748     
   43548768.3669661     
   43391003.7188686     
   43231419.3239996     
   43070018.3000062     
   42906805.7308532     
   42741788.6928567     
   42574976.2789466     
   42406379.6210497     
   42236011.9104899     
   42063888.4163055     
   41890026.5013949     
   41714445.6364041     
   41537167.4112862     
   41358215.5444670     
   41177615.8895670     
   40995396.4396397     
   40811587.3289036     
   40626220.8319579     
   40439331.3604894     
   40250955.4574989     
   40061131.7890948     
   39869901.1339239     
   39677306.3703411     
   39483392.4614491     
   39288206.4381835     
   39091797.3806687     
   38894216.3981427     
   38695516.6078375     
   38495753.1133332     
   38294982.9830721     
   38093265.2299632     
   37890660.7933364     
   37687232.5249685     
   37483045.1815353     
   37278165.4267400     
   37072661.8475902     
   36866604.9910435     
   36660067.4296858     
   36453123.8686699     
   36245851.3113456     
   36038329.3089299     
   35830640.3327781     
   35622870.3202203     
   35415109.5010324     
   35207453.3287008     
   35000000.0000000     
   50000000.0000000     
   49903371.8693260     
   49806912.2943209     
   49710544.0545352     
   49614193.8841526     
   49517793.2656047     
   49421277.1810048     
   49324583.3011481     
   49227651.4531040     
   49130423.2485142     
   49032841.8200047     
   48934851.6303853     
   48836398.3331871     
   48737428.6701116     
   48637890.3955057     
   48537732.2209198     
   48436903.7748107     
   48335355.5738529     
   48233039.0033123     
   48129906.3046385     
   48025910.5689455     
   47921005.7354052     
   47815146.5938360     
   47708288.7909529     
   47600388.8398672     
   47491404.1325209     
   47381292.9547908     
   47270014.5040542     
   47157528.9090230     
   47043797.2516831     
   46928781.5911855     
   46812444.9895464     
   46694751.5390207     
   46575666.3910179     
   46455155.7864361     
   46333187.0872901     
   46209728.8095109     
   46084750.6568048     
   45958223.5554491     
   45830119.6899135     
   45700412.5391916     
   45569076.9137291     
   45436088.9928369     
   45301426.3624749     
   45165068.0532910     
   45026994.5788069     
   44887187.9736299     
   44745631.8315780     
   44602311.3436013     
   44457213.3353795     
   44310326.3044793     
   44161640.4569492     
   44011147.7432285     
   43858841.8932523     
   43704718.4506268     
   43548774.8057504     
   43391010.2277615     
   43231425.8951847     
   43070024.9251610     
   42906812.4011345     
   42741795.3988868     
   42574983.0107977     
   42406386.3682272     
   42236018.6619127     
   42063895.1602823     
   41890033.2255949     
   41714452.3278193     
   41537174.0561832     
   41358222.1283238     
   41177622.3969910     
   40995402.8542605     
   40811593.6332341     
   40626227.0072157     
   40439337.3863677     
   40250961.3118769     
   40061137.4476734     
   39869906.5697741     
   39677311.5533500     
   39483397.3576498     
   39288211.0089580     
   39091801.5818179     
   38894220.1788256     
   38695519.9094004     
   38495755.8680672     
   38294985.1129786     
   38093266.6456512     
   37890661.3932455     
   37687232.1952067     
   37483043.7967469     
   37278162.8525815     
   37072657.9456173     
   36866599.6271004     
   36660060.4873125     
   36453115.2696929     
   36245841.0471069     
   36038317.4880526     
   35830627.2586355     
   35622856.6285423     
   35415096.4349064     
   35207443.6113446     
   35000000.0000000     
   50000000.0000000     
   49903365.1912297     
   49806903.5288561     
   49710534.9026164     
   49614185.0971655     
   49517785.2247522     
   49421270.0621434     
   49324577.1622964     
   49227646.2818859     
   49130418.9916537     
   49032838.4025069     
   48934848.9681308     
   48836396.3410683     
   48737427.2670519     
   48637889.5073074     
   48537731.7816229     
   48436903.7270640     
   48335355.8686603     
   48233039.5994114     
   48129907.1676925     
   48025911.6706663     
   47921007.0526850     
   47815148.1079342     
   47708290.4867616     
   47600390.7052663     
   47491406.1578215     
   47381295.1322655     
   47270016.8275429     
   47157531.3736075     
   47043799.8534187     
   46928784.3268832     
   46812447.8565942     
   46694754.5352398     
   46575669.5145444     
   46455159.0356258     
   46333190.4606394     
   46209732.3055920     
   46084754.2742117     
   45958227.2927509     
   45830123.5456158     
   45700416.5117014     
   45569081.0013246     
   45436093.1936404     
   45301430.6744269     
   45165072.4741281     
   45026999.1060398     
   44887192.6045232     
   44745636.5631315     
   44602316.1725314     
   44457218.2581023     
   44310331.3170946     
   44161645.5552242     
   44011152.9225834     
   43858847.1487467     
   43704723.7769455     
   43548780.1971912     
   43391015.6782231     
   43231431.3981546     
   43070030.4737049     
   42906817.9878844     
   42741801.0160298     
   42574988.6500638     
   42406392.0208755     
   42236024.3187160     
   42063900.8115084     
   41890038.8609823     
   41714457.9365473     
   41537179.6268327     
   41358227.6488262     
   41177627.8545606     
   40995408.2353072     
   40811598.9232490     
   40626232.1906231     
   40439342.4463364     
   40250966.2300791     
   40061142.2039819     
   39869911.1418853     
   39677315.9163199     
   39483401.4833323     
   39288214.8653334     
   39091805.1322068     
   38894223.3809898     
   38695522.7145420     
   38495758.2197623     
   38294986.9461026     
   38093267.8853988     
   37890661.9544029     
   37687231.9819109     
   37483042.7030707     
   37278160.7644198     
   37072654.7445294     
   36866595.1969999     
   36660054.7252404     
   36453108.1024256     
   36245832.4563799     
   36038307.5492948     
   35830616.2032488     
   35622844.9588983     
   35415085.1412260     
   35207434.9359860     
   35000000.0000000     
   50000000.0000000     
   49903359.5047094     
   49806896.3444859     
   49710527.5019779     
   49614178.0470166     
   49517778.8087480     
   49421264.4059373     
   49324572.3025437     
   49227642.2020169     
   49130415.6446061     
   49032835.7253667     
   48934846.8917649     
   48836394.7963126     
   48737426.1884977     
   48637888.8354125     
   48537731.4636767     
   48436903.7173964     
   48335356.1283756     
   48233040.0958469     
   48129907.8737411     
   48025912.5640552     
   47921008.1152689     
   47815149.3250369     
   47708291.8465854     
   47600392.1983740     
   47491407.7766936     
   47381296.8709244     
   47270018.6812406     
   47157533.3385675     
   47043801.9266240     
   46928786.5059040     
   46812450.1394479     
   46694756.9202774     
   46575672.0003580     
   46455161.6209742     
   46333193.1443859     
   46209735.0866544     
   46084757.1515194     
   45958230.2652094     
   45830126.6120759     
   45700419.6709322     
   45569084.2519900     
   45436096.5342775     
   45301434.1034268     
   45165075.9897175     
   45027002.7062643     
   44887196.2872317     
   44745640.3259610     
   44602320.0128931     
   44457222.1731679     
   44310335.3037836     
   44161649.6101917     
   44011157.0422086     
   43858851.3291218     
   43704728.0138651     
   43548784.4861432     
   43391020.0143781     
   43231435.7763578     
   43070034.8884671     
   42906822.4333734     
   42741805.4860616     
   42574993.1380933     
   42406396.5199865     
   42236028.8216088     
   42063905.3104860     
   41890043.3479320     
   41714462.4029179     
   41537184.0636041     
   41358232.0464699     
   41177632.2029879     
   40995412.5238004     
   40811603.1403729     
   40626236.3241089     
   40439346.4829329     
   40250970.1553634     
   40061146.0021199     
   39869914.7953327     
   39677319.4054545     
   39483404.7860053     
   39288217.9563335     
   39091807.9826296     
   38894225.9575127     
   38695524.9786147     
   38495760.1267356     
   38294988.4443427     
   38093268.9154620     
   37890662.4483956     
   37687231.8632125     
   37483041.8866862     
   37278159.1583285     
   37072652.2525390     
   36866591.7237991     
   36660050.1845973     
   36453102.4298949     
   36245825.6285646     
   36038299.6137065     
   35830607.3252754     
   35622835.5125159     
   35415075.8736350     
   35207427.5372223     
   35000000.0000000     
   50000000.0000000     
   49903355.0357697     
   49806890.9501503     
   49710522.0117553     
   49614172.8586197     
   49517774.1125827     
   49421260.2834954     
   49324568.7735671     
   49227639.2495170     
   49130413.2308315     
   49032833.8020372     
   48934845.4068220     
   48836393.6982250     
   48737425.4288750     
   48637888.3704331     
   48537731.2547068     
   48436903.7310797     
   48335356.3363917     
   48233040.4744819     
   48129908.4033683     
   48025913.2285917     
   47921008.9016473     
   47815150.2227175     
   47708292.8471198     
   47600393.2950253     
   47491408.9641108     
   47381298.1448688     
   47270020.0383580     
   47157534.7762002     
   47043803.4426580     
   46928788.0986436     
   46812451.8075150     
   46694758.6625291     
   46575673.8158210     
   46455163.5087906     
   46333195.1037691     
   46209737.1168528     
   46084759.2517862     
   45958232.4347771     
   45830128.8501341     
   45700421.9766086     
   45569086.6243334     
   45436098.9722424     
   45301436.6058595     
   45165078.5553431     
   45027005.3336750     
   44887198.9748748     
   44745643.0721288     
   44602322.8157123     
   44457225.0305902     
   44310338.2135761     
   44161652.5699287     
   44011160.0492629     
   43858854.3806566     
   43704731.1068273     
   43548787.6172554     
   43391023.1801326     
   43231438.9730102     
   43070038.1120294     
   42906825.6796088     
   42741808.7504782     
   42574996.4159371     
   42406399.8062351     
   42236032.1109625     
   42063908.5973585     
   41890046.6264369     
   41714465.6668534     
   41537187.3064314     
   41358235.2612853     
   41177635.3824857     
   40995415.6602244     
   40811606.2254525     
   40626239.3489760     
   40439349.4380150     
   40250973.0302462     
   40061148.7853742     
   39869917.4742973     
   39677321.9659678     
   39483407.2120781     
   39288220.2297558     
   39091810.0825068     
   38894227.8597300     
   38695526.6552363     
   38495761.5453530     
   38294989.5674047     
   38093269.6996410     
   37890662.8440738     
   37687231.8142194     
   37483041.3304715     
   37278158.0268358     
   37072650.4741408     
   36866589.2267876     
   36660046.9028944     
   36453098.3119596     
   36245820.6508621     
   36038293.8016883     
   35830600.7862357     
   35622828.4975949     
   35415068.9074029     
   35207421.7137194     
   35000000.0000000     
   50000000.0000000     
   49903352.0774062     
   49806887.5645790     
   49710518.5962367     
   49614169.6580935     
   49517771.2301197     
   49421257.7637959     
   49324566.6242674     
   49227637.4573963     
   49130411.7707387     
   49032832.6430293     
   48934844.5160834     
   48836393.0435938     
   48737424.9803486     
   48637888.1009755     
   48537731.1405779     
   48436903.7518516     
   48335356.4747726     
   48233040.7160336     
   48129908.7361732     
   48025913.6429096     
   47921009.3895855     
   47815150.7779273     
   47708293.4645272     
   47600393.9705962     
   47491409.6946515     
   47381298.9278583     
   47270020.8718090     
   47157535.6585447     
   47043804.3726536     
   46928789.0752981     
   46812452.8300255     
   46694759.7302320     
   46575674.9281523     
   46455164.6652532     
   46333196.3039067     
   46209738.3602279     
   46084760.5379619     
   45958233.7633020     
   45830130.2205285     
   45700423.3883539     
   45569088.0768610     
   45436100.4649254     
   45301438.1380035     
   45165080.1261791     
   45027006.9423516     
   44887200.6204518     
   44745644.7535703     
   44602324.5318808     
   44457226.7802408     
   44310339.9953509     
   44161654.3823514     
   44011161.8907338     
   43858856.2494480     
   43704733.0010789     
   43548789.5349700     
   43391025.1191723     
   43231440.9310926     
   43070040.0867235     
   42906827.6683320     
   42741810.7504925     
   42574998.4243455     
   42406401.8199769     
   42236034.1268093     
   42063910.6119078     
   41890048.6361051     
   41714467.6678661     
   41537189.2948110     
   41358237.2328345     
   41177637.3327652     
   40995417.5845240     
   40811608.1187529     
   40626241.2058986     
   40439351.2527570     
   40250974.7964982     
   40061150.4962144     
   39869919.1220593     
   39677323.5420768     
   39483408.7068505     
   39288221.6321577     
   39091811.3798678     
   38894229.0374121     
   38695527.6962594     
   38495762.4299873     
   38294990.2727473     
   38093270.1992077     
   37890663.1074588     
   37687231.8068967     
   37483041.0138519     
   37278157.3587348     
   37072649.4098763     
   36866587.7211942     
   36660044.9136740     
   36453095.8048578     
   36245817.6077485     
   36038290.2322861     
   35830596.7494208     
   35622824.1293676     
   35415064.5310019     
   35207417.8530043     
   35000000.0000000     
   50000000.0000000     
   49903351.0173761     
   49806886.4016483     
   49710517.4280376     
   49614168.5706029     
   49517770.2539610     
   49421256.9131075     
   49324565.9004650     
   49227636.8553604     
   49130411.2814663     
   49032832.2557302     
   48934844.2194364     
   48836392.8265802     
   48737424.8327359     
   48637888.0135755     
   48537731.1053452     
   48436903.7618797     
   48335356.5242285     
   48233040.8000562     
   48129908.8507580     
   48025913.7847900     
   47921009.5561197     
   47815150.9669947     
   47708293.6744360     
   47600394.2000049     
   47491409.9425003     
   47381299.1933130     
   47270021.1542138     
   47157535.9573835     
   47043804.6875192     
   46928789.4058663     
   46812453.1760344     
   46694760.0914660     
   46575675.3044284     
   46455165.0564102     
   46333196.7097963     
   46209738.7807076     
   46084760.9728890     
   45958234.2125282     
   45830130.6838957     
   45700423.8656903     
   45569088.5679779     
   45436100.9696138     
   45301438.6560316     
   45165080.6572896     
   45027007.4862593     
   44887201.1768411     
   44745645.3220934     
   44602325.1121554     
   44457227.3718483     
   44310340.5978342     
   44161654.9952135     
   44011162.5134361     
   43858856.8814084     
   43704733.6416707     
   43548790.1835202     
   43391025.7749604     
   43231441.5933491     
   43070040.7546293     
   42906828.3410166     
   42741811.4270331     
   42574999.1037658     
   42406402.5012455     
   42236034.8088386     
   42063911.2935517     
   41890049.3161569     
   41714468.3450550     
   41537189.9677984     
   41358237.9002084     
   41177637.9930327     
   40995418.2361020     
   40811608.7599550     
   40626241.8349185     
   40439351.8676470     
   40250975.3951412     
   40061151.0762883     
   39869919.6809931     
   39677324.0769947     
   39483409.2145045     
   39288222.1088454     
   39091811.8213356     
   38894229.4387420     
   38695528.0517415     
   38495762.7329796     
   38294990.5155289     
   38093270.3728368     
   37890663.2016509     
   37687231.8099484     
   37483040.9126486     
   37278157.1388918     
   37072649.0560907     
   36866587.2178923     
   36660044.2461179     
   36453094.9608044     
   36245816.5802105     
   36038289.0230149     
   35830595.3770451     
   35622822.6343059     
   35415063.0267613     
   35207416.4682611     
   35000000.0000000     
VECTORS u double 
    0.00000E+00         0.00000E+00         0.00000E+00
    0.00000E+00         0.00000E+00         0.00000E+00
    0.00000E+00         0.00000E+00         0.00000E+00
    0.00000E+00         0.00000E+00         0.00000E+00
    0.00000E+00         0.00000E+00         0.00000E+00
    0.00000E+00         0.00000E+00         0.00000E+00
    0.00000E+00         0.00000E+00         0.00000E+00
    0.00000E+00         0.00000E+00         0.00000E+00
    0.00000E+00         0.00000E+00         0.00000E+00
    0.00000E+00         0.00000E+00         0.00000E+00
    0.00000E+00         0.00000E+00         0.00000E+00
    0.00000E+00         0.00000E+00         0.00000E+00
    0.00000E+00         0.00000E+00         0.00000E+00
    0.00000E+00         0.00000E+00         0.00000E+00
    0.00000E+00         0.00000E+00         0.00000E+00
    0.00000E+00         0.00000E+00         0.00000E+00
    0.00000E+00         0.00000E+00         0.00000E+00
    0.00000E+00         0.00000E+00         0.00000E+00
    0.00000E+00         0.00000E+00         0.00000E+00
    0.00000E+00         0.00000E+00         0.00000E+00
    0.00000E+00         0.00000E+00         0.00000E+00
    0.00000E+00         0.00000E+00         0.00000E+00
    0.00000E+00         0.00000E+00         0.00000E+00
    0.00000E+00         0.00000E+00         0.00000E+00
    0.00000E+00         0.00000E+00         0.00000E+00
    0.00000E+00         0.00000E+00         0.00000E+00
    0.00000E+00         0.00000E+00         0.00000E+00
    0.00000E+00         0.00000E+00         0.00000E+00
    0.00000E+00         0.00000E+00         0.00000E+00
    0.00000E+00         0.00000E+00         0.00000E+00
    0.00000E+00         0.00000E+00         0.00000E+00
    0.00000E+00         0.00000E+00         0.00000E+00
    0.00000E+00         0.00000E+00         0.00000E+00
    0.00000E+00         0.00000E+00         0.00000E+00
    0.00000E+00         0.00000E+00         0.00000E+00
    0.00000E+00         0.00000E+00         0.00000E+00
    0.00000E+00         0.00000E+00         0.00000E+00
    0.00000E+00         0.00000E+00         0.00000E+00
    0.00000E+00         0.00000E+00         0.00000E+00
    0.00000E+00         0.00000E+00         0.00000E+00
    0.00000E+00         0.00000E+00         0.00000E+00
    0.00000E+00         0.00000E+00         0.00000E+00
    0.00000E+00         0.00000E+00         0.00000E+00
    0.00000E+00         0.00000E+00         0.00000E+00
    0.00000E+00         0.00000E+00         0.00000E+00
    0.00000E+00         0.00000E+00         0.00000E+00
    0.00000E+00         0.00000E+00         0.00000E+00
    0.00000E+00         0.00000E+00         0.00000E+00
    0.00000E+00         0.00000E+00         0.00000E+00
    0.00000E+00         0.00000E+00         0.00000E+00
    0.00000E+00         0.00000E+00         0.00000E+00
    0.00000E+00         0.00000E+00         0.00000E+00
    0.00000E+00         0.00000E+00         0.00000E+00
    0.00000E+00         0.00000E+00         0.00000E+00
    0.00000E+00         0.00000E+00         0.00000E+00
    0.00000E+00         0.00000E+00         0.00000E+00
    0.00000E+00         0.00000E+00         0.00000E+00
    0.00000E+00         0.00000E+00         0.00000E+00
    0.00000E+00         0.00000E+00         0.00000E+00
    0.00000E+00         0.00000E+00         0.00000E+00
    0.00000E+00         0.00000E+00         0.00000E+00
    0.00000E+00         0.00000E+00         0.00000E+00
    0.00000E+00         0.00000E+00         0.00000E+00
    0.00000E+00         0.00000E+00         0.00000E+00
    0.00000E+00         0.00000E+00         0.00000E+00
    0.00000E+00         0.00000E+00         0.00000E+00
    0.00000E+00         0.00000E+00         0.00000E+00
    0.00000E+00         0.00000E+00         0.00000E+00
    0.00000E+00         0.00000E+00         0.00000E+00
    0.00000E+00         0.00000E+00         0.00000E+00
    0.00000E+00         0.00000E+00         0.00000E+00
    0.00000E+00         0.00000E+00         0.00000E+00
    0.00000E+00         0.00000E+00         0.00000E+00
    0.00000E+00         0.00000E+00         0.00000E+00
    0.00000E+00         0.00000E+00         0.00000E+00
    0.00000E+00         0.00000E+00         0.00000E+00
    0.00000E+00         0.00000E+00         0.00000E+00
    0.00000E+00         0.00000E+00         0.00000E+00
    0.00000E+00         0.00000E+00         0.00000E+00
    0.00000E+00         0.00000E+00         0.00000E+00
    0.00000E+00         0.00000E+00         0.00000E+00
    0.00000E+00         0.00000E+00         0.00000E+00
    0.00000E+00         0.00000E+00         0.00000E+00
    0.00000E+00         0.00000E+00         0.00000E+00
    0.00000E+00         0.00000E+00         0.00000E+00
    0.00000E+00         0.00000E+00         0.00000E+00
    0.00000E+00         0.00000E+00         0.00000E+00
    0.00000E+00         0.00000E+00         0.00000E+00
    0.00000E+00         0.00000E+00         0.00000E+00
    0.00000E+00         0.00000E+00         0.00000E+00
    0.00000E+00         0.00000E+00         0.00000E+00
    0.00000E+00         0.00000E+00         0.00000E+00
    0.00000E+00         0.00000E+00         0.00000E+00
    0.00000E+00         0.00000E+00         0.00000E+00
    0.00000E+00         0.00000E+00         0.00000E+00
    0.00000E+00         0.00000E+00         0.00000E+00
    0.00000E+00         0.00000E+00         0.00000E+00
    0.00000E+00         0.00000E+00         0.00000E+00
    0.00000E+00         0.00000E+00         0.00000E+00
    0.00000E+00         0.00000E+00         0.00000E+00
    0.00000E+00         0.00000E+00         0.00000E+00
    0.00000E+00         0.11705E-04         0.00000E+00
    0.25227E-04         0.96136E-05         0.00000E+00
    0.41233E-04         0.50610E-05         0.00000E+00
    0.54311E-04        -0.51234E-06         0.00000E+00
    0.65403E-04        -0.71964E-05         0.00000E+00
    0.75221E-04        -0.14744E-04         0.00000E+00
    0.84125E-04        -0.23004E-04         0.00000E+00
    0.92341E-04        -0.31809E-04         0.00000E+00
    0.10000E-03        -0.41017E-04         0.00000E+00
    0.10719E-03        -0.50506E-04         0.00000E+00
    0.11396E-03        -0.60180E-04         0.00000E+00
    0.12034E-03        -0.69961E-04         0.00000E+00
    0.12636E-03        -0.79795E-04         0.00000E+00
    0.13202E-03        -0.89641E-04         0.00000E+00
    0.13737E-03        -0.99473E-04         0.00000E+00
    0.14241E-03        -0.10928E-03         0.00000E+00
    0.14716E-03        -0.11904E-03         0.00000E+00
    0.15165E-03        -0.12876E-03         0.00000E+00
    0.15590E-03        -0.13845E-03         0.00000E+00
    0.15993E-03        -0.14811E-03         0.00000E+00
    0.16376E-03        -0.15775E-03         0.00000E+00
    0.16742E-03        -0.16738E-03         0.00000E+00
    0.17092E-03        -0.17700E-03         0.00000E+00
    0.17428E-03        -0.18664E-03         0.00000E+00
    0.17753E-03        -0.19630E-03         0.00000E+00
    0.18067E-03        -0.20598E-03         0.00000E+00
    0.18373E-03        -0.21571E-03         0.00000E+00
    0.18671E-03        -0.22549E-03         0.00000E+00
    0.18963E-03        -0.23533E-03         0.00000E+00
    0.19251E-03        -0.24524E-03         0.00000E+00
    0.19534E-03        -0.25523E-03         0.00000E+00
    0.19814E-03        -0.26530E-03         0.00000E+00
    0.20092E-03        -0.27546E-03         0.00000E+00
    0.20369E-03        -0.28572E-03         0.00000E+00
    0.20644E-03        -0.29609E-03         0.00000E+00
    0.20919E-03        -0.30657E-03         0.00000E+00
    0.21193E-03        -0.31716E-03         0.00000E+00
    0.21467E-03        -0.32787E-03         0.00000E+00
    0.21741E-03        -0.33870E-03         0.00000E+00
    0.22016E-03        -0.34967E-03         0.00000E+00
    0.22292E-03        -0.36076E-03         0.00000E+00
    0.22567E-03        -0.37200E-03         0.00000E+00
    0.22844E-03        -0.38337E-03         0.00000E+00
    0.23121E-03        -0.39489E-03         0.00000E+00
    0.23398E-03        -0.40656E-03         0.00000E+00
    0.23676E-03        -0.41837E-03         0.00000E+00
    0.23954E-03        -0.43034E-03         0.00000E+00
    0.24231E-03        -0.44246E-03         0.00000E+00
    0.24509E-03        -0.45474E-03         0.00000E+00
    0.24785E-03        -0.46718E-03         0.00000E+00
    0.25061E-03        -0.47978E-03         0.00000E+00
    0.25335E-03        -0.49254E-03         0.00000E+00
    0.25608E-03        -0.50547E-03         0.00000E+00
    0.25879E-03        -0.51857E-03         0.00000E+00
    0.26146E-03        -0.53184E-03         0.00000E+00
    0.26411E-03        -0.54528E-03         0.00000E+00
    0.26672E-03        -0.55889E-03         0.00000E+00
    0.26928E-03        -0.57267E-03         0.00000E+00
    0.27180E-03        -0.58663E-03         0.00000E+00
    0.27425E-03        -0.60076E-03         0.00000E+00
    0.27664E-03        -0.61508E-03         0.00000E+00
    0.27895E-03        -0.62957E-03         0.00000E+00
    0.28118E-03        -0.64425E-03         0.00000E+00
    0.28331E-03        -0.65911E-03         0.00000E+00
    0.28533E-03        -0.67415E-03         0.00000E+00
    0.28723E-03        -0.68939E-03         0.00000E+00
    0.28899E-03        -0.70481E-03         0.00000E+00
    0.29061E-03        -0.72043E-03         0.00000E+00
    0.29205E-03        -0.73625E-03         0.00000E+00
    0.29331E-03        -0.75227E-03         0.00000E+00
    0.29437E-03        -0.76850E-03         0.00000E+00
    0.29519E-03        -0.78493E-03         0.00000E+00
    0.29576E-03        -0.80158E-03         0.00000E+00
    0.29605E-03        -0.81846E-03         0.00000E+00
    0.29603E-03        -0.83556E-03         0.00000E+00
    0.29567E-03        -0.85291E-03         0.00000E+00
    0.29493E-03        -0.87050E-03         0.00000E+00
    0.29378E-03        -0.88834E-03         0.00000E+00
    0.29217E-03        -0.90645E-03         0.00000E+00
    0.29007E-03        -0.92484E-03         0.00000E+00
    0.28743E-03        -0.94351E-03         0.00000E+00
    0.28421E-03        -0.96247E-03         0.00000E+00
    0.28036E-03        -0.98172E-03         0.00000E+00
    0.27583E-03        -0.10013E-02         0.00000E+00
    0.27057E-03        -0.10211E-02         0.00000E+00
    0.26454E-03        -0.10413E-02         0.00000E+00
    0.25769E-03        -0.10617E-02         0.00000E+00
    0.24998E-03        -0.10823E-02         0.00000E+00
    0.24138E-03        -0.11031E-02         0.00000E+00
    0.23183E-03        -0.11240E-02         0.00000E+00
    0.22132E-03        -0.11450E-02         0.00000E+00
    0.20978E-03        -0.11657E-02         0.00000E+00
    0.19717E-03        -0.11862E-02         0.00000E+00
    0.18337E-03        -0.12061E-02         0.00000E+00
    0.16823E-03        -0.12252E-02         0.00000E+00
    0.15147E-03        -0.12431E-02         0.00000E+00
    0.13262E-03        -0.12595E-02         0.00000E+00
    0.11092E-03        -0.12740E-02         0.00000E+00
    0.84844E-04        -0.12861E-02         0.00000E+00
    0.52393E-04        -0.12960E-02         0.00000E+00
    0.00000E+00        -0.13005E-02         0.00000E+00
    0.00000E+00         0.20869E-04         0.00000E+00
    0.47965E-04         0.17257E-04         0.00000E+00
    0.80459E-04         0.87626E-05         0.00000E+00
    0.10668E-03        -0.22184E-05         0.00000E+00
    0.12903E-03        -0.15413E-04         0.00000E+00
    0.14879E-03        -0.30412E-04         0.00000E+00
    0.16670E-03        -0.46855E-04         0.00000E+00
    0.18321E-03        -0.64406E-04         0.00000E+00
    0.19859E-03        -0.82772E-04         0.00000E+00
    0.21301E-03        -0.10171E-03         0.00000E+00
    0.22656E-03        -0.12101E-03         0.00000E+00
    0.23931E-03        -0.14054E-03         0.00000E+00
    0.25133E-03        -0.16017E-03         0.00000E+00
    0.26265E-03        -0.17983E-03         0.00000E+00
    0.27331E-03        -0.19946E-03         0.00000E+00
    0.28335E-03        -0.21904E-03         0.00000E+00
    0.29283E-03        -0.23854E-03         0.00000E+00
    0.30177E-03        -0.25797E-03         0.00000E+00
    0.31024E-03        -0.27732E-03         0.00000E+00
    0.31826E-03        -0.29662E-03         0.00000E+00
    0.32589E-03        -0.31588E-03         0.00000E+00
    0.33317E-03        -0.33511E-03         0.00000E+00
    0.34014E-03        -0.35435E-03         0.00000E+00
    0.34683E-03        -0.37361E-03         0.00000E+00
    0.35329E-03        -0.39291E-03         0.00000E+00
    0.35954E-03        -0.41228E-03         0.00000E+00
    0.36562E-03        -0.43173E-03         0.00000E+00
    0.37156E-03        -0.45128E-03         0.00000E+00
    0.37738E-03        -0.47095E-03         0.00000E+00
    0.38309E-03        -0.49077E-03         0.00000E+00
    0.38873E-03        -0.51074E-03         0.00000E+00
    0.39431E-03        -0.53088E-03         0.00000E+00
    0.39985E-03        -0.55120E-03         0.00000E+00
    0.40534E-03        -0.57172E-03         0.00000E+00
    0.41082E-03        -0.59245E-03         0.00000E+00
    0.41628E-03        -0.61340E-03         0.00000E+00
    0.42174E-03        -0.63458E-03         0.00000E+00
    0.42719E-03        -0.65600E-03         0.00000E+00
    0.43266E-03        -0.67767E-03         0.00000E+00
    0.43812E-03        -0.69960E-03         0.00000E+00
    0.44360E-03        -0.72180E-03         0.00000E+00
    0.44909E-03        -0.74427E-03         0.00000E+00
    0.45459E-03        -0.76702E-03         0.00000E+00
    0.46010E-03        -0.79005E-03         0.00000E+00
    0.46562E-03        -0.81339E-03         0.00000E+00
    0.47114E-03        -0.83702E-03         0.00000E+00
    0.47667E-03        -0.86095E-03         0.00000E+00
    0.48220E-03        -0.88519E-03         0.00000E+00
    0.48771E-03        -0.90975E-03         0.00000E+00
    0.49322E-03        -0.93463E-03         0.00000E+00
    0.49870E-03        -0.95983E-03         0.00000E+00
    0.50416E-03        -0.98536E-03         0.00000E+00
    0.50959E-03        -0.10112E-02         0.00000E+00
    0.51497E-03        -0.10374E-02         0.00000E+00
    0.52030E-03        -0.10639E-02         0.00000E+00
    0.52556E-03        -0.10908E-02         0.00000E+00
    0.53075E-03        -0.11180E-02         0.00000E+00
    0.53586E-03        -0.11456E-02         0.00000E+00
    0.54086E-03        -0.11735E-02         0.00000E+00
    0.54574E-03        -0.12018E-02         0.00000E+00
    0.55049E-03        -0.12304E-02         0.00000E+00
    0.55509E-03        -0.12594E-02         0.00000E+00
    0.55952E-03        -0.12887E-02         0.00000E+00
    0.56376E-03        -0.13184E-02         0.00000E+00
    0.56778E-03        -0.13485E-02         0.00000E+00
    0.57156E-03        -0.13790E-02         0.00000E+00
    0.57507E-03        -0.14098E-02         0.00000E+00
    0.57828E-03        -0.14410E-02         0.00000E+00
    0.58116E-03        -0.14726E-02         0.00000E+00
    0.58367E-03        -0.15047E-02         0.00000E+00
    0.58576E-03        -0.15371E-02         0.00000E+00
    0.58740E-03        -0.15699E-02         0.00000E+00
    0.58853E-03        -0.16032E-02         0.00000E+00
    0.58911E-03        -0.16369E-02         0.00000E+00
    0.58906E-03        -0.16711E-02         0.00000E+00
    0.58834E-03        -0.17058E-02         0.00000E+00
    0.58687E-03        -0.17409E-02         0.00000E+00
    0.58457E-03        -0.17765E-02         0.00000E+00
    0.58137E-03        -0.18127E-02         0.00000E+00
    0.57719E-03        -0.18494E-02         0.00000E+00
    0.57194E-03        -0.18867E-02         0.00000E+00
    0.56552E-03        -0.19246E-02         0.00000E+00
    0.55784E-03        -0.19630E-02         0.00000E+00
    0.54880E-03        -0.20021E-02         0.00000E+00
    0.53831E-03        -0.20417E-02         0.00000E+00
    0.52628E-03        -0.20819E-02         0.00000E+00
    0.51261E-03        -0.21226E-02         0.00000E+00
    0.49721E-03        -0.21638E-02         0.00000E+00
    0.48000E-03        -0.22053E-02         0.00000E+00
    0.46091E-03        -0.22471E-02         0.00000E+00
    0.43985E-03        -0.22888E-02         0.00000E+00
    0.41672E-03        -0.23303E-02         0.00000E+00
    0.39140E-03        -0.23711E-02         0.00000E+00
    0.36367E-03        -0.24108E-02         0.00000E+00
    0.33320E-03        -0.24488E-02         0.00000E+00
    0.29944E-03        -0.24844E-02         0.00000E+00
    0.26145E-03        -0.25170E-02         0.00000E+00
    0.21766E-03        -0.25457E-02         0.00000E+00
    0.16537E-03        -0.25695E-02         0.00000E+00
    0.99418E-04        -0.25879E-02         0.00000E+00
    0.00000E+00        -0.25958E-02         0.00000E+00
    0.00000E+00         0.27874E-04         0.00000E+00
    0.68820E-04         0.23056E-04         0.00000E+00
    0.11777E-03         0.11077E-04         0.00000E+00
    0.15723E-03        -0.50904E-05         0.00000E+00
    0.19095E-03        -0.24652E-04         0.00000E+00
    0.22077E-03        -0.46999E-04         0.00000E+00
    0.24778E-03        -0.71550E-04         0.00000E+00
    0.27266E-03        -0.97788E-04         0.00000E+00
    0.29580E-03        -0.12526E-03         0.00000E+00
    0.31746E-03        -0.15360E-03         0.00000E+00
    0.33780E-03        -0.18250E-03         0.00000E+00
    0.35694E-03        -0.21174E-03         0.00000E+00
    0.37494E-03        -0.24113E-03         0.00000E+00
    0.39188E-03        -0.27057E-03         0.00000E+00
    0.40784E-03        -0.29997E-03         0.00000E+00
    0.42286E-03        -0.32929E-03         0.00000E+00
    0.43702E-03        -0.35850E-03         0.00000E+00
    0.45038E-03        -0.38760E-03         0.00000E+00
    0.46302E-03        -0.41660E-03         0.00000E+00
    0.47501E-03        -0.44551E-03         0.00000E+00
    0.48640E-03        -0.47437E-03         0.00000E+00
    0.49726E-03        -0.50320E-03         0.00000E+00
    0.50766E-03        -0.53203E-03         0.00000E+00
    0.51765E-03        -0.56090E-03         0.00000E+00
    0.52729E-03        -0.58984E-03         0.00000E+00
    0.53662E-03        -0.61887E-03         0.00000E+00
    0.54570E-03        -0.64803E-03         0.00000E+00
    0.55455E-03        -0.67735E-03         0.00000E+00
    0.56323E-03        -0.70686E-03         0.00000E+00
    0.57177E-03        -0.73657E-03         0.00000E+00
    0.58018E-03        -0.76652E-03         0.00000E+00
    0.58851E-03        -0.79673E-03         0.00000E+00
    0.59676E-03        -0.82721E-03         0.00000E+00
    0.60497E-03        -0.85799E-03         0.00000E+00
    0.61314E-03        -0.88908E-03         0.00000E+00
    0.62129E-03        -0.92050E-03         0.00000E+00
    0.62943E-03        -0.95227E-03         0.00000E+00
    0.63757E-03        -0.98440E-03         0.00000E+00
    0.64572E-03        -0.10169E-02         0.00000E+00
    0.65388E-03        -0.10498E-02         0.00000E+00
    0.66206E-03        -0.10831E-02         0.00000E+00
    0.67025E-03        -0.11168E-02         0.00000E+00
    0.67846E-03        -0.11509E-02         0.00000E+00
    0.68668E-03        -0.11855E-02         0.00000E+00
    0.69491E-03        -0.12205E-02         0.00000E+00
    0.70316E-03        -0.12559E-02         0.00000E+00
    0.71140E-03        -0.12918E-02         0.00000E+00
    0.71965E-03        -0.13282E-02         0.00000E+00
    0.72788E-03        -0.13650E-02         0.00000E+00
    0.73610E-03        -0.14023E-02         0.00000E+00
    0.74428E-03        -0.14401E-02         0.00000E+00
    0.75243E-03        -0.14784E-02         0.00000E+00
    0.76053E-03        -0.15172E-02         0.00000E+00
    0.76856E-03        -0.15565E-02         0.00000E+00
    0.77651E-03        -0.15963E-02         0.00000E+00
    0.78437E-03        -0.16366E-02         0.00000E+00
    0.79211E-03        -0.16774E-02         0.00000E+00
    0.79972E-03        -0.17187E-02         0.00000E+00
    0.80719E-03        -0.17606E-02         0.00000E+00
    0.81447E-03        -0.18030E-02         0.00000E+00
    0.82156E-03        -0.18459E-02         0.00000E+00
    0.82843E-03        -0.18894E-02         0.00000E+00
    0.83503E-03        -0.19334E-02         0.00000E+00
    0.84136E-03        -0.19779E-02         0.00000E+00
    0.84736E-03        -0.20230E-02         0.00000E+00
    0.85300E-03        -0.20687E-02         0.00000E+00
    0.85824E-03        -0.21149E-02         0.00000E+00
    0.86303E-03        -0.21617E-02         0.00000E+00
    0.86733E-03        -0.22091E-02         0.00000E+00
    0.87107E-03        -0.22571E-02         0.00000E+00
    0.87419E-03        -0.23058E-02         0.00000E+00
    0.87664E-03        -0.23550E-02         0.00000E+00
    0.87833E-03        -0.24049E-02         0.00000E+00
    0.87918E-03        -0.24554E-02         0.00000E+00
    0.87912E-03        -0.25066E-02         0.00000E+00
    0.87804E-03        -0.25585E-02         0.00000E+00
    0.87584E-03        -0.26112E-02         0.00000E+00
    0.87241E-03        -0.26646E-02         0.00000E+00
    0.86764E-03        -0.27188E-02         0.00000E+00
    0.86140E-03        -0.27738E-02         0.00000E+00
    0.85355E-03        -0.28296E-02         0.00000E+00
    0.84395E-03        -0.28863E-02         0.00000E+00
    0.83248E-03        -0.29439E-02         0.00000E+00
    0.81897E-03        -0.30024E-02         0.00000E+00
    0.80328E-03        -0.30617E-02         0.00000E+00
    0.78527E-03        -0.31219E-02         0.00000E+00
    0.76480E-03        -0.31828E-02         0.00000E+00
    0.74173E-03        -0.32445E-02         0.00000E+00
    0.71594E-03        -0.33067E-02         0.00000E+00
    0.68729E-03        -0.33691E-02         0.00000E+00
    0.65566E-03        -0.34316E-02         0.00000E+00
    0.62089E-03        -0.34936E-02         0.00000E+00
    0.58276E-03        -0.35546E-02         0.00000E+00
    0.54097E-03        -0.36140E-02         0.00000E+00
    0.49500E-03        -0.36708E-02         0.00000E+00
    0.44402E-03        -0.37240E-02         0.00000E+00
    0.38664E-03        -0.37725E-02         0.00000E+00
    0.32053E-03        -0.38150E-02         0.00000E+00
    0.24179E-03        -0.38501E-02         0.00000E+00
    0.14238E-03        -0.38761E-02         0.00000E+00
    0.00000E+00        -0.38866E-02         0.00000E+00
    0.00000E+00         0.32987E-04         0.00000E+00
    0.88197E-04         0.27146E-04         0.00000E+00
    0.15334E-03         0.12016E-04         0.00000E+00
    0.20609E-03        -0.91102E-05         0.00000E+00
    0.25125E-03        -0.34904E-04         0.00000E+00
    0.29121E-03        -0.64498E-04         0.00000E+00
    0.32740E-03        -0.97085E-04         0.00000E+00
    0.36070E-03        -0.13195E-03         0.00000E+00
    0.39165E-03        -0.16849E-03         0.00000E+00
    0.42059E-03        -0.20619E-03         0.00000E+00
    0.44773E-03        -0.24464E-03         0.00000E+00
    0.47323E-03        -0.28355E-03         0.00000E+00
    0.49721E-03        -0.32267E-03         0.00000E+00
    0.51976E-03        -0.36185E-03         0.00000E+00
    0.54097E-03        -0.40099E-03         0.00000E+00
    0.56094E-03        -0.44002E-03         0.00000E+00
    0.57975E-03        -0.47891E-03         0.00000E+00
    0.59750E-03        -0.51766E-03         0.00000E+00
    0.61428E-03        -0.55628E-03         0.00000E+00
    0.63018E-03        -0.59479E-03         0.00000E+00
    0.64529E-03        -0.63323E-03         0.00000E+00
    0.65970E-03        -0.67164E-03         0.00000E+00
    0.67350E-03        -0.71005E-03         0.00000E+00
    0.68675E-03        -0.74851E-03         0.00000E+00
    0.69953E-03        -0.78707E-03         0.00000E+00
    0.71191E-03        -0.82576E-03         0.00000E+00
    0.72395E-03        -0.86463E-03         0.00000E+00
    0.73570E-03        -0.90371E-03         0.00000E+00
    0.74721E-03        -0.94304E-03         0.00000E+00
    0.75853E-03        -0.98265E-03         0.00000E+00
    0.76969E-03        -0.10226E-02         0.00000E+00
    0.78073E-03        -0.10628E-02         0.00000E+00
    0.79168E-03        -0.11035E-02         0.00000E+00
    0.80256E-03        -0.11445E-02         0.00000E+00
    0.81340E-03        -0.11860E-02         0.00000E+00
    0.82421E-03        -0.12279E-02         0.00000E+00
    0.83501E-03        -0.12702E-02         0.00000E+00
    0.84581E-03        -0.13131E-02         0.00000E+00
    0.85662E-03        -0.13564E-02         0.00000E+00
    0.86744E-03        -0.14003E-02         0.00000E+00
    0.87828E-03        -0.14447E-02         0.00000E+00
    0.88915E-03        -0.14896E-02         0.00000E+00
    0.90003E-03        -0.15351E-02         0.00000E+00
    0.91094E-03        -0.15812E-02         0.00000E+00
    0.92186E-03        -0.16278E-02         0.00000E+00
    0.93280E-03        -0.16751E-02         0.00000E+00
    0.94374E-03        -0.17230E-02         0.00000E+00
    0.95467E-03        -0.17715E-02         0.00000E+00
    0.96559E-03        -0.18206E-02         0.00000E+00
    0.97649E-03        -0.18703E-02         0.00000E+00
    0.98735E-03        -0.19207E-02         0.00000E+00
    0.99816E-03        -0.19718E-02         0.00000E+00
    0.10089E-02        -0.20235E-02         0.00000E+00
    0.10195E-02        -0.20759E-02         0.00000E+00
    0.10301E-02        -0.21289E-02         0.00000E+00
    0.10405E-02        -0.21826E-02         0.00000E+00
    0.10508E-02        -0.22370E-02         0.00000E+00
    0.10609E-02        -0.22921E-02         0.00000E+00
    0.10708E-02        -0.23479E-02         0.00000E+00
    0.10805E-02        -0.24044E-02         0.00000E+00
    0.10899E-02        -0.24617E-02         0.00000E+00
    0.10990E-02        -0.25196E-02         0.00000E+00
    0.11077E-02        -0.25782E-02         0.00000E+00
    0.11161E-02        -0.26376E-02         0.00000E+00
    0.11241E-02        -0.26977E-02         0.00000E+00
    0.11316E-02        -0.27586E-02         0.00000E+00
    0.11385E-02        -0.28202E-02         0.00000E+00
    0.11449E-02        -0.28826E-02         0.00000E+00
    0.11506E-02        -0.29458E-02         0.00000E+00
    0.11555E-02        -0.30097E-02         0.00000E+00
    0.11597E-02        -0.30745E-02         0.00000E+00
    0.11629E-02        -0.31401E-02         0.00000E+00
    0.11652E-02        -0.32065E-02         0.00000E+00
    0.11663E-02        -0.32739E-02         0.00000E+00
    0.11662E-02        -0.33421E-02         0.00000E+00
    0.11648E-02        -0.34113E-02         0.00000E+00
    0.11619E-02        -0.34814E-02         0.00000E+00
    0.11573E-02        -0.35525E-02         0.00000E+00
    0.11510E-02        -0.36247E-02         0.00000E+00
    0.11427E-02        -0.36979E-02         0.00000E+00
    0.11323E-02        -0.37722E-02         0.00000E+00
    0.11196E-02        -0.38477E-02         0.00000E+00
    0.11043E-02        -0.39243E-02         0.00000E+00
    0.10864E-02        -0.40022E-02         0.00000E+00
    0.10655E-02        -0.40811E-02         0.00000E+00
    0.10416E-02        -0.41612E-02         0.00000E+00
    0.10143E-02        -0.42423E-02         0.00000E+00
    0.98362E-03        -0.43243E-02         0.00000E+00
    0.94925E-03        -0.44071E-02         0.00000E+00
    0.91104E-03        -0.44902E-02         0.00000E+00
    0.86881E-03        -0.45733E-02         0.00000E+00
    0.82235E-03        -0.46557E-02         0.00000E+00
    0.77134E-03        -0.47369E-02         0.00000E+00
    0.71537E-03        -0.48158E-02         0.00000E+00
    0.65375E-03        -0.48912E-02         0.00000E+00
    0.58535E-03        -0.49619E-02         0.00000E+00
    0.50836E-03        -0.50261E-02         0.00000E+00
    0.41975E-03        -0.50821E-02         0.00000E+00
    0.31444E-03        -0.51280E-02         0.00000E+00
    0.18217E-03        -0.51608E-02         0.00000E+00
    0.00000E+00        -0.51735E-02         0.00000E+00
    0.00000E+00         0.36414E-04         0.00000E+00
    0.10638E-03         0.29656E-04         0.00000E+00
    0.18732E-03         0.11617E-04         0.00000E+00
    0.25336E-03        -0.14259E-04         0.00000E+00
    0.31000E-03        -0.46155E-04         0.00000E+00
    0.36018E-03        -0.82902E-04         0.00000E+00
    0.40561E-03        -0.12345E-03         0.00000E+00
    0.44739E-03        -0.16690E-03         0.00000E+00
    0.48618E-03        -0.21245E-03         0.00000E+00
    0.52241E-03        -0.25946E-03         0.00000E+00
    0.55636E-03        -0.30743E-03         0.00000E+00
    0.58823E-03        -0.35597E-03         0.00000E+00
    0.61816E-03        -0.40478E-03         0.00000E+00
    0.64629E-03        -0.45368E-03         0.00000E+00
    0.67273E-03        -0.50252E-03         0.00000E+00
    0.69761E-03        -0.55123E-03         0.00000E+00
    0.72103E-03        -0.59978E-03         0.00000E+00
    0.74312E-03        -0.64815E-03         0.00000E+00
    0.76400E-03        -0.69636E-03         0.00000E+00
    0.78378E-03        -0.74445E-03         0.00000E+00
    0.80258E-03        -0.79245E-03         0.00000E+00
    0.82051E-03        -0.84042E-03         0.00000E+00
    0.83766E-03        -0.88840E-03         0.00000E+00
    0.85413E-03        -0.93644E-03         0.00000E+00
    0.87003E-03        -0.98461E-03         0.00000E+00
    0.88542E-03        -0.10330E-02         0.00000E+00
    0.90038E-03        -0.10815E-02         0.00000E+00
    0.91499E-03        -0.11303E-02         0.00000E+00
    0.92930E-03        -0.11795E-02         0.00000E+00
    0.94337E-03        -0.12290E-02         0.00000E+00
    0.95725E-03        -0.12789E-02         0.00000E+00
    0.97098E-03        -0.13292E-02         0.00000E+00
    0.98459E-03        -0.13800E-02         0.00000E+00
    0.99812E-03        -0.14313E-02         0.00000E+00
    0.10116E-02        -0.14831E-02         0.00000E+00
    0.10250E-02        -0.15355E-02         0.00000E+00
    0.10385E-02        -0.15884E-02         0.00000E+00
    0.10519E-02        -0.16420E-02         0.00000E+00
    0.10653E-02        -0.16962E-02         0.00000E+00
    0.10788E-02        -0.17510E-02         0.00000E+00
    0.10923E-02        -0.18065E-02         0.00000E+00
    0.11058E-02        -0.18627E-02         0.00000E+00
    0.11193E-02        -0.19195E-02         0.00000E+00
    0.11329E-02        -0.19771E-02         0.00000E+00
    0.11465E-02        -0.20355E-02         0.00000E+00
    0.11601E-02        -0.20945E-02         0.00000E+00
    0.11737E-02        -0.21544E-02         0.00000E+00
    0.11873E-02        -0.22150E-02         0.00000E+00
    0.12008E-02        -0.22764E-02         0.00000E+00
    0.12144E-02        -0.23386E-02         0.00000E+00
    0.12279E-02        -0.24015E-02         0.00000E+00
    0.12413E-02        -0.24654E-02         0.00000E+00
    0.12547E-02        -0.25300E-02         0.00000E+00
    0.12679E-02        -0.25954E-02         0.00000E+00
    0.12811E-02        -0.26617E-02         0.00000E+00
    0.12940E-02        -0.27289E-02         0.00000E+00
    0.13068E-02        -0.27969E-02         0.00000E+00
    0.13194E-02        -0.28658E-02         0.00000E+00
    0.13317E-02        -0.29355E-02         0.00000E+00
    0.13437E-02        -0.30061E-02         0.00000E+00
    0.13554E-02        -0.30776E-02         0.00000E+00
    0.13667E-02        -0.31500E-02         0.00000E+00
    0.13776E-02        -0.32233E-02         0.00000E+00
    0.13880E-02        -0.32975E-02         0.00000E+00
    0.13979E-02        -0.33726E-02         0.00000E+00
    0.14072E-02        -0.34487E-02         0.00000E+00
    0.14159E-02        -0.35257E-02         0.00000E+00
    0.14238E-02        -0.36036E-02         0.00000E+00
    0.14309E-02        -0.36825E-02         0.00000E+00
    0.14371E-02        -0.37624E-02         0.00000E+00
    0.14422E-02        -0.38433E-02         0.00000E+00
    0.14463E-02        -0.39253E-02         0.00000E+00
    0.14491E-02        -0.40083E-02         0.00000E+00
    0.14505E-02        -0.40923E-02         0.00000E+00
    0.14504E-02        -0.41775E-02         0.00000E+00
    0.14486E-02        -0.42639E-02         0.00000E+00
    0.14450E-02        -0.43515E-02         0.00000E+00
    0.14393E-02        -0.44403E-02         0.00000E+00
    0.14315E-02        -0.45303E-02         0.00000E+00
    0.14212E-02        -0.46218E-02         0.00000E+00
    0.14082E-02        -0.47145E-02         0.00000E+00
    0.13924E-02        -0.48087E-02         0.00000E+00
    0.13734E-02        -0.49044E-02         0.00000E+00
    0.13510E-02        -0.50014E-02         0.00000E+00
    0.13251E-02        -0.51000E-02         0.00000E+00
    0.12952E-02        -0.51999E-02         0.00000E+00
    0.12612E-02        -0.53011E-02         0.00000E+00
    0.12229E-02        -0.54034E-02         0.00000E+00
    0.11800E-02        -0.55065E-02         0.00000E+00
    0.11322E-02        -0.56102E-02         0.00000E+00
    0.10794E-02        -0.57138E-02         0.00000E+00
    0.10212E-02        -0.58167E-02         0.00000E+00
    0.95722E-03        -0.59179E-02         0.00000E+00
    0.88696E-03        -0.60162E-02         0.00000E+00
    0.80954E-03        -0.61101E-02         0.00000E+00
    0.72357E-03        -0.61980E-02         0.00000E+00
    0.62681E-03        -0.62777E-02         0.00000E+00
    0.51558E-03        -0.63470E-02         0.00000E+00
    0.38371E-03        -0.64031E-02         0.00000E+00
    0.21938E-03        -0.64423E-02         0.00000E+00
    0.00000E+00        -0.64570E-02         0.00000E+00
    0.00000E+00         0.38317E-04         0.00000E+00
    0.12358E-03         0.30706E-04         0.00000E+00
    0.21989E-03         0.99319E-05         0.00000E+00
    0.29913E-03        -0.20513E-04         0.00000E+00
    0.36729E-03        -0.58391E-04         0.00000E+00
    0.42773E-03        -0.10220E-03         0.00000E+00
    0.48246E-03        -0.15065E-03         0.00000E+00
    0.53276E-03        -0.20262E-03         0.00000E+00
    0.57943E-03        -0.25713E-03         0.00000E+00
    0.62297E-03        -0.31342E-03         0.00000E+00
    0.66373E-03        -0.37087E-03         0.00000E+00
    0.70195E-03        -0.42900E-03         0.00000E+00
    0.73782E-03        -0.48747E-03         0.00000E+00
    0.77150E-03        -0.54605E-03         0.00000E+00
    0.80314E-03        -0.60456E-03         0.00000E+00
    0.83289E-03        -0.66292E-03         0.00000E+00
    0.86089E-03        -0.72109E-03         0.00000E+00
    0.88728E-03        -0.77906E-03         0.00000E+00
    0.91222E-03        -0.83685E-03         0.00000E+00
    0.93584E-03        -0.89449E-03         0.00000E+00
    0.95828E-03        -0.95203E-03         0.00000E+00
    0.97968E-03        -0.10095E-02         0.00000E+00
    0.10001E-02        -0.10671E-02         0.00000E+00
    0.10198E-02        -0.11247E-02         0.00000E+00
    0.10388E-02        -0.11825E-02         0.00000E+00
    0.10571E-02        -0.12404E-02         0.00000E+00
    0.10750E-02        -0.12987E-02         0.00000E+00
    0.10924E-02        -0.13573E-02         0.00000E+00
    0.11095E-02        -0.14162E-02         0.00000E+00
    0.11263E-02        -0.14756E-02         0.00000E+00
    0.11429E-02        -0.15355E-02         0.00000E+00
    0.11593E-02        -0.15958E-02         0.00000E+00
    0.11755E-02        -0.16568E-02         0.00000E+00
    0.11917E-02        -0.17183E-02         0.00000E+00
    0.12077E-02        -0.17805E-02         0.00000E+00
    0.12238E-02        -0.18433E-02         0.00000E+00
    0.12398E-02        -0.19069E-02         0.00000E+00
    0.12558E-02        -0.19711E-02         0.00000E+00
    0.12719E-02        -0.20362E-02         0.00000E+00
    0.12879E-02        -0.21019E-02         0.00000E+00
    0.13040E-02        -0.21685E-02         0.00000E+00
    0.13202E-02        -0.22360E-02         0.00000E+00
    0.13363E-02        -0.23042E-02         0.00000E+00
    0.13525E-02        -0.23733E-02         0.00000E+00
    0.13687E-02        -0.24433E-02         0.00000E+00
    0.13850E-02        -0.25142E-02         0.00000E+00
    0.14012E-02        -0.25860E-02         0.00000E+00
    0.14174E-02        -0.26587E-02         0.00000E+00
    0.14336E-02        -0.27324E-02         0.00000E+00
    0.14498E-02        -0.28070E-02         0.00000E+00
    0.14659E-02        -0.28826E-02         0.00000E+00
    0.14820E-02        -0.29592E-02         0.00000E+00
    0.14979E-02        -0.30367E-02         0.00000E+00
    0.15137E-02        -0.31153E-02         0.00000E+00
    0.15294E-02        -0.31948E-02         0.00000E+00
    0.15449E-02        -0.32754E-02         0.00000E+00
    0.15601E-02        -0.33570E-02         0.00000E+00
    0.15751E-02        -0.34396E-02         0.00000E+00
    0.15898E-02        -0.35233E-02         0.00000E+00
    0.16042E-02        -0.36080E-02         0.00000E+00
    0.16181E-02        -0.36938E-02         0.00000E+00
    0.16316E-02        -0.37806E-02         0.00000E+00
    0.16447E-02        -0.38686E-02         0.00000E+00
    0.16571E-02        -0.39576E-02         0.00000E+00
    0.16689E-02        -0.40477E-02         0.00000E+00
    0.16801E-02        -0.41389E-02         0.00000E+00
    0.16904E-02        -0.42312E-02         0.00000E+00
    0.16998E-02        -0.43247E-02         0.00000E+00
    0.17083E-02        -0.44194E-02         0.00000E+00
    0.17157E-02        -0.45152E-02         0.00000E+00
    0.17219E-02        -0.46122E-02         0.00000E+00
    0.17267E-02        -0.47105E-02         0.00000E+00
    0.17300E-02        -0.48100E-02         0.00000E+00
    0.17317E-02        -0.49108E-02         0.00000E+00
    0.17316E-02        -0.50129E-02         0.00000E+00
    0.17295E-02        -0.51165E-02         0.00000E+00
    0.17252E-02        -0.52214E-02         0.00000E+00
    0.17185E-02        -0.53279E-02         0.00000E+00
    0.17091E-02        -0.54358E-02         0.00000E+00
    0.16968E-02        -0.55454E-02         0.00000E+00
    0.16813E-02        -0.56565E-02         0.00000E+00
    0.16624E-02        -0.57694E-02         0.00000E+00
    0.16398E-02        -0.58839E-02         0.00000E+00
    0.16130E-02        -0.60002E-02         0.00000E+00
    0.15820E-02        -0.61182E-02         0.00000E+00
    0.15463E-02        -0.62379E-02         0.00000E+00
    0.15056E-02        -0.63591E-02         0.00000E+00
    0.14597E-02        -0.64816E-02         0.00000E+00
    0.14082E-02        -0.66051E-02         0.00000E+00
    0.13509E-02        -0.67292E-02         0.00000E+00
    0.12874E-02        -0.68533E-02         0.00000E+00
    0.12174E-02        -0.69764E-02         0.00000E+00
    0.11405E-02        -0.70975E-02         0.00000E+00
    0.10558E-02        -0.72151E-02         0.00000E+00
    0.96250E-03        -0.73275E-02         0.00000E+00
    0.85882E-03        -0.74324E-02         0.00000E+00
    0.74215E-03        -0.75275E-02         0.00000E+00
    0.60823E-03        -0.76097E-02         0.00000E+00
    0.44995E-03        -0.76758E-02         0.00000E+00
    0.25448E-03        -0.77209E-02         0.00000E+00
    0.00000E+00        -0.77374E-02         0.00000E+00
    0.00000E+00         0.38831E-04         0.00000E+00
    0.13994E-03         0.30404E-04         0.00000E+00
    0.25120E-03         0.70186E-05         0.00000E+00
    0.34352E-03        -0.27844E-04         0.00000E+00
    0.42319E-03        -0.71592E-04         0.00000E+00
    0.49392E-03        -0.12239E-03         0.00000E+00
    0.55799E-03        -0.17867E-03         0.00000E+00
    0.61686E-03        -0.23911E-03         0.00000E+00
    0.67142E-03        -0.30254E-03         0.00000E+00
    0.72229E-03        -0.36807E-03         0.00000E+00
    0.76986E-03        -0.43495E-03         0.00000E+00
    0.81443E-03        -0.50264E-03         0.00000E+00
    0.85621E-03        -0.57073E-03         0.00000E+00
    0.89541E-03        -0.63895E-03         0.00000E+00
    0.93222E-03        -0.70710E-03         0.00000E+00
    0.96680E-03        -0.77509E-03         0.00000E+00
    0.99933E-03        -0.84286E-03         0.00000E+00
    0.10300E-02        -0.91039E-03         0.00000E+00
    0.10589E-02        -0.97773E-03         0.00000E+00
    0.10864E-02        -0.10449E-02         0.00000E+00
    0.11124E-02        -0.11120E-02         0.00000E+00
    0.11372E-02        -0.11790E-02         0.00000E+00
    0.11610E-02        -0.12461E-02         0.00000E+00
    0.11838E-02        -0.13132E-02         0.00000E+00
    0.12058E-02        -0.13806E-02         0.00000E+00
    0.12271E-02        -0.14482E-02         0.00000E+00
    0.12478E-02        -0.15161E-02         0.00000E+00
    0.12680E-02        -0.15844E-02         0.00000E+00
    0.12879E-02        -0.16532E-02         0.00000E+00
    0.13073E-02        -0.17225E-02         0.00000E+00
    0.13266E-02        -0.17923E-02         0.00000E+00
    0.13456E-02        -0.18627E-02         0.00000E+00
    0.13644E-02        -0.19338E-02         0.00000E+00
    0.13832E-02        -0.20056E-02         0.00000E+00
    0.14018E-02        -0.20781E-02         0.00000E+00
    0.14204E-02        -0.21515E-02         0.00000E+00
    0.14390E-02        -0.22256E-02         0.00000E+00
    0.14576E-02        -0.23006E-02         0.00000E+00
    0.14762E-02        -0.23764E-02         0.00000E+00
    0.14949E-02        -0.24532E-02         0.00000E+00
    0.15136E-02        -0.25308E-02         0.00000E+00
    0.15323E-02        -0.26095E-02         0.00000E+00
    0.15510E-02        -0.26891E-02         0.00000E+00
    0.15698E-02        -0.27698E-02         0.00000E+00
    0.15886E-02        -0.28514E-02         0.00000E+00
    0.16075E-02        -0.29341E-02         0.00000E+00
    0.16263E-02        -0.30179E-02         0.00000E+00
    0.16452E-02        -0.31027E-02         0.00000E+00
    0.16640E-02        -0.31887E-02         0.00000E+00
    0.16828E-02        -0.32757E-02         0.00000E+00
    0.17015E-02        -0.33639E-02         0.00000E+00
    0.17201E-02        -0.34532E-02         0.00000E+00
    0.17386E-02        -0.35437E-02         0.00000E+00
    0.17569E-02        -0.36353E-02         0.00000E+00
    0.17751E-02        -0.37281E-02         0.00000E+00
    0.17931E-02        -0.38221E-02         0.00000E+00
    0.18108E-02        -0.39173E-02         0.00000E+00
    0.18282E-02        -0.40137E-02         0.00000E+00
    0.18452E-02        -0.41113E-02         0.00000E+00
    0.18619E-02        -0.42101E-02         0.00000E+00
    0.18781E-02        -0.43102E-02         0.00000E+00
    0.18938E-02        -0.44115E-02         0.00000E+00
    0.19089E-02        -0.45140E-02         0.00000E+00
    0.19234E-02        -0.46178E-02         0.00000E+00
    0.19371E-02        -0.47229E-02         0.00000E+00
    0.19500E-02        -0.48293E-02         0.00000E+00
    0.19620E-02        -0.49370E-02         0.00000E+00
    0.19730E-02        -0.50460E-02         0.00000E+00
    0.19828E-02        -0.51563E-02         0.00000E+00
    0.19914E-02        -0.52681E-02         0.00000E+00
    0.19986E-02        -0.53812E-02         0.00000E+00
    0.20042E-02        -0.54957E-02         0.00000E+00
    0.20081E-02        -0.56117E-02         0.00000E+00
    0.20101E-02        -0.57292E-02         0.00000E+00
    0.20100E-02        -0.58483E-02         0.00000E+00
    0.20076E-02        -0.59690E-02         0.00000E+00
    0.20026E-02        -0.60913E-02         0.00000E+00
    0.19948E-02        -0.62153E-02         0.00000E+00
    0.19839E-02        -0.63411E-02         0.00000E+00
    0.19697E-02        -0.64687E-02         0.00000E+00
    0.19517E-02        -0.65982E-02         0.00000E+00
    0.19297E-02        -0.67297E-02         0.00000E+00
    0.19034E-02        -0.68631E-02         0.00000E+00
    0.18724E-02        -0.69985E-02         0.00000E+00
    0.18363E-02        -0.71359E-02         0.00000E+00
    0.17948E-02        -0.72752E-02         0.00000E+00
    0.17474E-02        -0.74163E-02         0.00000E+00
    0.16940E-02        -0.75590E-02         0.00000E+00
    0.16340E-02        -0.77028E-02         0.00000E+00
    0.15671E-02        -0.78472E-02         0.00000E+00
    0.14930E-02        -0.79916E-02         0.00000E+00
    0.14112E-02        -0.81349E-02         0.00000E+00
    0.13212E-02        -0.82758E-02         0.00000E+00
    0.12221E-02        -0.84127E-02         0.00000E+00
    0.11127E-02        -0.85433E-02         0.00000E+00
    0.99122E-03        -0.86652E-02         0.00000E+00
    0.85456E-03        -0.87753E-02         0.00000E+00
    0.69794E-03        -0.88703E-02         0.00000E+00
    0.51349E-03        -0.89459E-02         0.00000E+00
    0.28780E-03        -0.89967E-02         0.00000E+00
    0.00000E+00        -0.90150E-02         0.00000E+00
    0.00000E+00         0.38072E-04         0.00000E+00
    0.15560E-03         0.28852E-04         0.00000E+00
    0.28137E-03         0.29402E-05         0.00000E+00
    0.38663E-03        -0.36219E-04         0.00000E+00
    0.47777E-03        -0.85737E-04         0.00000E+00
    0.55882E-03        -0.14344E-03         0.00000E+00
    0.63227E-03        -0.20751E-03         0.00000E+00
    0.69972E-03        -0.27636E-03         0.00000E+00
    0.76221E-03        -0.34868E-03         0.00000E+00
    0.82041E-03        -0.42339E-03         0.00000E+00
    0.87479E-03        -0.49967E-03         0.00000E+00
    0.92568E-03        -0.57688E-03         0.00000E+00
    0.97336E-03        -0.65456E-03         0.00000E+00
    0.10180E-02        -0.73238E-03         0.00000E+00
    0.10600E-02        -0.81015E-03         0.00000E+00
    0.10994E-02        -0.88772E-03         0.00000E+00
    0.11364E-02        -0.96506E-03         0.00000E+00
    0.11712E-02        -0.10421E-02         0.00000E+00
    0.12042E-02        -0.11190E-02         0.00000E+00
    0.12353E-02        -0.11957E-02         0.00000E+00
    0.12649E-02        -0.12722E-02         0.00000E+00
    0.12932E-02        -0.13488E-02         0.00000E+00
    0.13202E-02        -0.14254E-02         0.00000E+00
    0.13461E-02        -0.15021E-02         0.00000E+00
    0.13711E-02        -0.15790E-02         0.00000E+00
    0.13953E-02        -0.16562E-02         0.00000E+00
    0.14188E-02        -0.17338E-02         0.00000E+00
    0.14418E-02        -0.18119E-02         0.00000E+00
    0.14643E-02        -0.18904E-02         0.00000E+00
    0.14865E-02        -0.19696E-02         0.00000E+00
    0.15083E-02        -0.20494E-02         0.00000E+00
    0.15299E-02        -0.21299E-02         0.00000E+00
    0.15513E-02        -0.22111E-02         0.00000E+00
    0.15726E-02        -0.22931E-02         0.00000E+00
    0.15938E-02        -0.23760E-02         0.00000E+00
    0.16150E-02        -0.24598E-02         0.00000E+00
    0.16361E-02        -0.25445E-02         0.00000E+00
    0.16573E-02        -0.26302E-02         0.00000E+00
    0.16784E-02        -0.27169E-02         0.00000E+00
    0.16996E-02        -0.28046E-02         0.00000E+00
    0.17209E-02        -0.28934E-02         0.00000E+00
    0.17421E-02        -0.29833E-02         0.00000E+00
    0.17635E-02        -0.30743E-02         0.00000E+00
    0.17848E-02        -0.31664E-02         0.00000E+00
    0.18062E-02        -0.32598E-02         0.00000E+00
    0.18276E-02        -0.33543E-02         0.00000E+00
    0.18491E-02        -0.34500E-02         0.00000E+00
    0.18705E-02        -0.35470E-02         0.00000E+00
    0.18919E-02        -0.36452E-02         0.00000E+00
    0.19132E-02        -0.37447E-02         0.00000E+00
    0.19345E-02        -0.38455E-02         0.00000E+00
    0.19557E-02        -0.39475E-02         0.00000E+00
    0.19767E-02        -0.40509E-02         0.00000E+00
    0.19976E-02        -0.41556E-02         0.00000E+00
    0.20182E-02        -0.42617E-02         0.00000E+00
    0.20386E-02        -0.43691E-02         0.00000E+00
    0.20588E-02        -0.44778E-02         0.00000E+00
    0.20786E-02        -0.45880E-02         0.00000E+00
    0.20980E-02        -0.46995E-02         0.00000E+00
    0.21169E-02        -0.48124E-02         0.00000E+00
    0.21353E-02        -0.49267E-02         0.00000E+00
    0.21532E-02        -0.50425E-02         0.00000E+00
    0.21704E-02        -0.51596E-02         0.00000E+00
    0.21868E-02        -0.52782E-02         0.00000E+00
    0.22024E-02        -0.53983E-02         0.00000E+00
    0.22171E-02        -0.55198E-02         0.00000E+00
    0.22308E-02        -0.56428E-02         0.00000E+00
    0.22433E-02        -0.57673E-02         0.00000E+00
    0.22545E-02        -0.58934E-02         0.00000E+00
    0.22642E-02        -0.60210E-02         0.00000E+00
    0.22724E-02        -0.61502E-02         0.00000E+00
    0.22788E-02        -0.62810E-02         0.00000E+00
    0.22833E-02        -0.64135E-02         0.00000E+00
    0.22856E-02        -0.65477E-02         0.00000E+00
    0.22855E-02        -0.66836E-02         0.00000E+00
    0.22827E-02        -0.68214E-02         0.00000E+00
    0.22771E-02        -0.69610E-02         0.00000E+00
    0.22683E-02        -0.71026E-02         0.00000E+00
    0.22559E-02        -0.72461E-02         0.00000E+00
    0.22397E-02        -0.73918E-02         0.00000E+00
    0.22194E-02        -0.75396E-02         0.00000E+00
    0.21944E-02        -0.76896E-02         0.00000E+00
    0.21645E-02        -0.78418E-02         0.00000E+00
    0.21292E-02        -0.79963E-02         0.00000E+00
    0.20881E-02        -0.81531E-02         0.00000E+00
    0.20408E-02        -0.83120E-02         0.00000E+00
    0.19868E-02        -0.84729E-02         0.00000E+00
    0.19258E-02        -0.86355E-02         0.00000E+00
    0.18574E-02        -0.87995E-02         0.00000E+00
    0.17810E-02        -0.89642E-02         0.00000E+00
    0.16963E-02        -0.91289E-02         0.00000E+00
    0.16026E-02        -0.92922E-02         0.00000E+00
    0.14995E-02        -0.94529E-02         0.00000E+00
    0.13858E-02        -0.96088E-02         0.00000E+00
    0.12604E-02        -0.97576E-02         0.00000E+00
    0.11209E-02        -0.98963E-02         0.00000E+00
    0.96420E-03        -0.10021E-01         0.00000E+00
    0.78493E-03        -0.10129E-01         0.00000E+00
    0.57462E-03        -0.10214E-01         0.00000E+00
    0.31960E-03        -0.10270E-01         0.00000E+00
    0.00000E+00        -0.10290E-01         0.00000E+00
    0.00000E+00         0.36143E-04         0.00000E+00
    0.17063E-03         0.26141E-04         0.00000E+00
    0.31053E-03        -0.22397E-05         0.00000E+00
    0.42855E-03        -0.45601E-04         0.00000E+00
    0.53113E-03        -0.10081E-03         0.00000E+00
    0.62249E-03        -0.16535E-03         0.00000E+00
    0.70533E-03        -0.23714E-03         0.00000E+00
    0.78140E-03        -0.31437E-03         0.00000E+00
    0.85182E-03        -0.39552E-03         0.00000E+00
    0.91736E-03        -0.47939E-03         0.00000E+00
    0.97853E-03        -0.56503E-03         0.00000E+00
    0.10357E-02        -0.65173E-03         0.00000E+00
    0.10893E-02        -0.73895E-03         0.00000E+00
    0.11394E-02        -0.82635E-03         0.00000E+00
    0.11864E-02        -0.91369E-03         0.00000E+00
    0.12306E-02        -0.10008E-02         0.00000E+00
    0.12720E-02        -0.10877E-02         0.00000E+00
    0.13111E-02        -0.11743E-02         0.00000E+00
    0.13479E-02        -0.12607E-02         0.00000E+00
    0.13828E-02        -0.13468E-02         0.00000E+00
    0.14159E-02        -0.14329E-02         0.00000E+00
    0.14475E-02        -0.15189E-02         0.00000E+00
    0.14777E-02        -0.16050E-02         0.00000E+00
    0.15067E-02        -0.16912E-02         0.00000E+00
    0.15346E-02        -0.17777E-02         0.00000E+00
    0.15617E-02        -0.18646E-02         0.00000E+00
    0.15880E-02        -0.19518E-02         0.00000E+00
    0.16137E-02        -0.20396E-02         0.00000E+00
    0.16389E-02        -0.21279E-02         0.00000E+00
    0.16637E-02        -0.22170E-02         0.00000E+00
    0.16881E-02        -0.23067E-02         0.00000E+00
    0.17123E-02        -0.23972E-02         0.00000E+00
    0.17362E-02        -0.24886E-02         0.00000E+00
    0.17601E-02        -0.25809E-02         0.00000E+00
    0.17838E-02        -0.26741E-02         0.00000E+00
    0.18075E-02        -0.27684E-02         0.00000E+00
    0.18311E-02        -0.28637E-02         0.00000E+00
    0.18548E-02        -0.29601E-02         0.00000E+00
    0.18785E-02        -0.30576E-02         0.00000E+00
    0.19022E-02        -0.31563E-02         0.00000E+00
    0.19259E-02        -0.32562E-02         0.00000E+00
    0.19497E-02        -0.33573E-02         0.00000E+00
    0.19736E-02        -0.34597E-02         0.00000E+00
    0.19975E-02        -0.35633E-02         0.00000E+00
    0.20214E-02        -0.36683E-02         0.00000E+00
    0.20454E-02        -0.37747E-02         0.00000E+00
    0.20694E-02        -0.38824E-02         0.00000E+00
    0.20934E-02        -0.39915E-02         0.00000E+00
    0.21173E-02        -0.41020E-02         0.00000E+00
    0.21412E-02        -0.42139E-02         0.00000E+00
    0.21650E-02        -0.43272E-02         0.00000E+00
    0.21887E-02        -0.44421E-02         0.00000E+00
    0.22122E-02        -0.45584E-02         0.00000E+00
    0.22356E-02        -0.46761E-02         0.00000E+00
    0.22587E-02        -0.47954E-02         0.00000E+00
    0.22816E-02        -0.49162E-02         0.00000E+00
    0.23041E-02        -0.50386E-02         0.00000E+00
    0.23263E-02        -0.51625E-02         0.00000E+00
    0.23480E-02        -0.52879E-02         0.00000E+00
    0.23692E-02        -0.54149E-02         0.00000E+00
    0.23898E-02        -0.55435E-02         0.00000E+00
    0.24098E-02        -0.56736E-02         0.00000E+00
    0.24290E-02        -0.58054E-02         0.00000E+00
    0.24475E-02        -0.59388E-02         0.00000E+00
    0.24649E-02        -0.60738E-02         0.00000E+00
    0.24814E-02        -0.62105E-02         0.00000E+00
    0.24967E-02        -0.63488E-02         0.00000E+00
    0.25107E-02        -0.64888E-02         0.00000E+00
    0.25232E-02        -0.66305E-02         0.00000E+00
    0.25342E-02        -0.67740E-02         0.00000E+00
    0.25433E-02        -0.69193E-02         0.00000E+00
    0.25505E-02        -0.70663E-02         0.00000E+00
    0.25555E-02        -0.72153E-02         0.00000E+00
    0.25581E-02        -0.73661E-02         0.00000E+00
    0.25581E-02        -0.75189E-02         0.00000E+00
    0.25551E-02        -0.76737E-02         0.00000E+00
    0.25488E-02        -0.78306E-02         0.00000E+00
    0.25389E-02        -0.79897E-02         0.00000E+00
    0.25252E-02        -0.81510E-02         0.00000E+00
    0.25071E-02        -0.83146E-02         0.00000E+00
    0.24843E-02        -0.84806E-02         0.00000E+00
    0.24564E-02        -0.86491E-02         0.00000E+00
    0.24229E-02        -0.88201E-02         0.00000E+00
    0.23834E-02        -0.89936E-02         0.00000E+00
    0.23374E-02        -0.91696E-02         0.00000E+00
    0.22843E-02        -0.93480E-02         0.00000E+00
    0.22238E-02        -0.95287E-02         0.00000E+00
    0.21554E-02        -0.97113E-02         0.00000E+00
    0.20785E-02        -0.98953E-02         0.00000E+00
    0.19926E-02        -0.10080E-01         0.00000E+00
    0.18972E-02        -0.10265E-01         0.00000E+00
    0.17917E-02        -0.10448E-01         0.00000E+00
    0.16754E-02        -0.10629E-01         0.00000E+00
    0.15472E-02        -0.10804E-01         0.00000E+00
    0.14055E-02        -0.10970E-01         0.00000E+00
    0.12481E-02        -0.11126E-01         0.00000E+00
    0.10713E-02        -0.11266E-01         0.00000E+00
    0.86941E-03        -0.11385E-01         0.00000E+00
    0.63358E-03        -0.11479E-01         0.00000E+00
    0.35008E-03        -0.11541E-01         0.00000E+00
    0.00000E+00        -0.11563E-01         0.00000E+00
    0.00000E+00         0.33135E-04         0.00000E+00
    0.18513E-03         0.22356E-04         0.00000E+00
    0.33877E-03        -0.84577E-05         0.00000E+00
    0.46937E-03        -0.55951E-04         0.00000E+00
    0.58332E-03        -0.11677E-03         0.00000E+00
    0.68499E-03        -0.18811E-03         0.00000E+00
    0.77724E-03        -0.26757E-03         0.00000E+00
    0.86193E-03        -0.35313E-03         0.00000E+00
    0.94030E-03        -0.44308E-03         0.00000E+00
    0.10132E-02        -0.53607E-03         0.00000E+00
    0.10811E-02        -0.63103E-03         0.00000E+00
    0.11446E-02        -0.72717E-03         0.00000E+00
    0.12040E-02        -0.82390E-03         0.00000E+00
    0.12596E-02        -0.92084E-03         0.00000E+00
    0.13116E-02        -0.10177E-02         0.00000E+00
    0.13605E-02        -0.11144E-02         0.00000E+00
    0.14063E-02        -0.12108E-02         0.00000E+00
    0.14495E-02        -0.13069E-02         0.00000E+00
    0.14902E-02        -0.14027E-02         0.00000E+00
    0.15288E-02        -0.14983E-02         0.00000E+00
    0.15654E-02        -0.15938E-02         0.00000E+00
    0.16002E-02        -0.16893E-02         0.00000E+00
    0.16336E-02        -0.17849E-02         0.00000E+00
    0.16656E-02        -0.18807E-02         0.00000E+00
    0.16965E-02        -0.19767E-02         0.00000E+00
    0.17264E-02        -0.20732E-02         0.00000E+00
    0.17554E-02        -0.21701E-02         0.00000E+00
    0.17838E-02        -0.22676E-02         0.00000E+00
    0.18116E-02        -0.23657E-02         0.00000E+00
    0.18390E-02        -0.24646E-02         0.00000E+00
    0.18660E-02        -0.25643E-02         0.00000E+00
    0.18927E-02        -0.26648E-02         0.00000E+00
    0.19192E-02        -0.27664E-02         0.00000E+00
    0.19455E-02        -0.28689E-02         0.00000E+00
    0.19717E-02        -0.29725E-02         0.00000E+00
    0.19979E-02        -0.30772E-02         0.00000E+00
    0.20240E-02        -0.31831E-02         0.00000E+00
    0.20501E-02        -0.32902E-02         0.00000E+00
    0.20763E-02        -0.33985E-02         0.00000E+00
    0.21025E-02        -0.35082E-02         0.00000E+00
    0.21288E-02        -0.36192E-02         0.00000E+00
    0.21551E-02        -0.37315E-02         0.00000E+00
    0.21815E-02        -0.38453E-02         0.00000E+00
    0.22079E-02        -0.39605E-02         0.00000E+00
    0.22343E-02        -0.40771E-02         0.00000E+00
    0.22608E-02        -0.41953E-02         0.00000E+00
    0.22873E-02        -0.43150E-02         0.00000E+00
    0.23138E-02        -0.44362E-02         0.00000E+00
    0.23403E-02        -0.45589E-02         0.00000E+00
    0.23667E-02        -0.46833E-02         0.00000E+00
    0.23930E-02        -0.48092E-02         0.00000E+00
    0.24192E-02        -0.49368E-02         0.00000E+00
    0.24452E-02        -0.50660E-02         0.00000E+00
    0.24710E-02        -0.51969E-02         0.00000E+00
    0.24966E-02        -0.53294E-02         0.00000E+00
    0.25219E-02        -0.54636E-02         0.00000E+00
    0.25468E-02        -0.55995E-02         0.00000E+00
    0.25713E-02        -0.57372E-02         0.00000E+00
    0.25953E-02        -0.58765E-02         0.00000E+00
    0.26187E-02        -0.60176E-02         0.00000E+00
    0.26415E-02        -0.61604E-02         0.00000E+00
    0.26636E-02        -0.63050E-02         0.00000E+00
    0.26849E-02        -0.64514E-02         0.00000E+00
    0.27053E-02        -0.65995E-02         0.00000E+00
    0.27246E-02        -0.67495E-02         0.00000E+00
    0.27428E-02        -0.69013E-02         0.00000E+00
    0.27597E-02        -0.70549E-02         0.00000E+00
    0.27752E-02        -0.72104E-02         0.00000E+00
    0.27891E-02        -0.73678E-02         0.00000E+00
    0.28012E-02        -0.75271E-02         0.00000E+00
    0.28114E-02        -0.76884E-02         0.00000E+00
    0.28194E-02        -0.78517E-02         0.00000E+00
    0.28250E-02        -0.80170E-02         0.00000E+00
    0.28279E-02        -0.81845E-02         0.00000E+00
    0.28278E-02        -0.83541E-02         0.00000E+00
    0.28246E-02        -0.85259E-02         0.00000E+00
    0.28177E-02        -0.87001E-02         0.00000E+00
    0.28068E-02        -0.88766E-02         0.00000E+00
    0.27917E-02        -0.90556E-02         0.00000E+00
    0.27717E-02        -0.92372E-02         0.00000E+00
    0.27466E-02        -0.94214E-02         0.00000E+00
    0.27158E-02        -0.96083E-02         0.00000E+00
    0.26788E-02        -0.97979E-02         0.00000E+00
    0.26351E-02        -0.99904E-02         0.00000E+00
    0.25842E-02        -0.10186E-01         0.00000E+00
    0.25255E-02        -0.10383E-01         0.00000E+00
    0.24585E-02        -0.10584E-01         0.00000E+00
    0.23826E-02        -0.10786E-01         0.00000E+00
    0.22973E-02        -0.10990E-01         0.00000E+00
    0.22019E-02        -0.11195E-01         0.00000E+00
    0.20959E-02        -0.11400E-01         0.00000E+00
    0.19786E-02        -0.11603E-01         0.00000E+00
    0.18491E-02        -0.11803E-01         0.00000E+00
    0.17062E-02        -0.11997E-01         0.00000E+00
    0.15483E-02        -0.12182E-01         0.00000E+00
    0.13728E-02        -0.12354E-01         0.00000E+00
    0.11759E-02        -0.12508E-01         0.00000E+00
    0.95158E-03        -0.12640E-01         0.00000E+00
    0.69062E-03        -0.12743E-01         0.00000E+00
    0.37942E-03        -0.12810E-01         0.00000E+00
    0.00000E+00        -0.12833E-01         0.00000E+00
    0.00000E+00         0.29133E-04         0.00000E+00
    0.19915E-03         0.17575E-04         0.00000E+00
    0.36619E-03        -0.15652E-04         0.00000E+00
    0.50918E-03        -0.67227E-04         0.00000E+00
    0.63442E-03        -0.13361E-03         0.00000E+00
    0.74638E-03        -0.21168E-03         0.00000E+00
    0.84804E-03        -0.29878E-03         0.00000E+00
    0.94137E-03        -0.39263E-03         0.00000E+00
    0.10277E-02        -0.49134E-03         0.00000E+00
    0.11079E-02        -0.59341E-03         0.00000E+00
    0.11826E-02        -0.69765E-03         0.00000E+00
    0.12524E-02        -0.80320E-03         0.00000E+00
    0.13176E-02        -0.90942E-03         0.00000E+00
    0.13785E-02        -0.10159E-02         0.00000E+00
    0.14356E-02        -0.11222E-02         0.00000E+00
    0.14891E-02        -0.12284E-02         0.00000E+00
    0.15393E-02        -0.13343E-02         0.00000E+00
    0.15865E-02        -0.14398E-02         0.00000E+00
    0.16311E-02        -0.15451E-02         0.00000E+00
    0.16733E-02        -0.16502E-02         0.00000E+00
    0.17133E-02        -0.17551E-02         0.00000E+00
    0.17514E-02        -0.18601E-02         0.00000E+00
    0.17878E-02        -0.19652E-02         0.00000E+00
    0.18228E-02        -0.20704E-02         0.00000E+00
    0.18566E-02        -0.21760E-02         0.00000E+00
    0.18893E-02        -0.22820E-02         0.00000E+00
    0.19211E-02        -0.23886E-02         0.00000E+00
    0.19521E-02        -0.24958E-02         0.00000E+00
    0.19825E-02        -0.26037E-02         0.00000E+00
    0.20124E-02        -0.27124E-02         0.00000E+00
    0.20419E-02        -0.28221E-02         0.00000E+00
    0.20711E-02        -0.29327E-02         0.00000E+00
    0.21001E-02        -0.30443E-02         0.00000E+00
    0.21289E-02        -0.31571E-02         0.00000E+00
    0.21575E-02        -0.32711E-02         0.00000E+00
    0.21862E-02        -0.33862E-02         0.00000E+00
    0.22148E-02        -0.35027E-02         0.00000E+00
    0.22433E-02        -0.36205E-02         0.00000E+00
    0.22720E-02        -0.37397E-02         0.00000E+00
    0.23006E-02        -0.38603E-02         0.00000E+00
    0.23294E-02        -0.39824E-02         0.00000E+00
    0.23582E-02        -0.41060E-02         0.00000E+00
    0.23870E-02        -0.42311E-02         0.00000E+00
    0.24159E-02        -0.43578E-02         0.00000E+00
    0.24449E-02        -0.44862E-02         0.00000E+00
    0.24738E-02        -0.46161E-02         0.00000E+00
    0.25028E-02        -0.47478E-02         0.00000E+00
    0.25318E-02        -0.48811E-02         0.00000E+00
    0.25608E-02        -0.50161E-02         0.00000E+00
    0.25897E-02        -0.51529E-02         0.00000E+00
    0.26185E-02        -0.52914E-02         0.00000E+00
    0.26471E-02        -0.54318E-02         0.00000E+00
    0.26756E-02        -0.55739E-02         0.00000E+00
    0.27039E-02        -0.57178E-02         0.00000E+00
    0.27319E-02        -0.58636E-02         0.00000E+00
    0.27595E-02        -0.60112E-02         0.00000E+00
    0.27868E-02        -0.61607E-02         0.00000E+00
    0.28136E-02        -0.63120E-02         0.00000E+00
    0.28399E-02        -0.64653E-02         0.00000E+00
    0.28655E-02        -0.66204E-02         0.00000E+00
    0.28905E-02        -0.67775E-02         0.00000E+00
    0.29147E-02        -0.69365E-02         0.00000E+00
    0.29380E-02        -0.70975E-02         0.00000E+00
    0.29603E-02        -0.72604E-02         0.00000E+00
    0.29815E-02        -0.74253E-02         0.00000E+00
    0.30014E-02        -0.75922E-02         0.00000E+00
    0.30199E-02        -0.77611E-02         0.00000E+00
    0.30369E-02        -0.79321E-02         0.00000E+00
    0.30521E-02        -0.81051E-02         0.00000E+00
    0.30655E-02        -0.82803E-02         0.00000E+00
    0.30766E-02        -0.84576E-02         0.00000E+00
    0.30854E-02        -0.86371E-02         0.00000E+00
    0.30915E-02        -0.88188E-02         0.00000E+00
    0.30948E-02        -0.90028E-02         0.00000E+00
    0.30948E-02        -0.91892E-02         0.00000E+00
    0.30913E-02        -0.93781E-02         0.00000E+00
    0.30838E-02        -0.95694E-02         0.00000E+00
    0.30720E-02        -0.97634E-02         0.00000E+00
    0.30555E-02        -0.99601E-02         0.00000E+00
    0.30337E-02        -0.10160E-01         0.00000E+00
    0.30063E-02        -0.10362E-01         0.00000E+00
    0.29726E-02        -0.10567E-01         0.00000E+00
    0.29321E-02        -0.10775E-01         0.00000E+00
    0.28844E-02        -0.10987E-01         0.00000E+00
    0.28286E-02        -0.11201E-01         0.00000E+00
    0.27643E-02        -0.11418E-01         0.00000E+00
    0.26909E-02        -0.11638E-01         0.00000E+00
    0.26076E-02        -0.11860E-01         0.00000E+00
    0.25139E-02        -0.12084E-01         0.00000E+00
    0.24091E-02        -0.12309E-01         0.00000E+00
    0.22925E-02        -0.12534E-01         0.00000E+00
    0.21633E-02        -0.12757E-01         0.00000E+00
    0.20206E-02        -0.12976E-01         0.00000E+00
    0.18630E-02        -0.13189E-01         0.00000E+00
    0.16888E-02        -0.13392E-01         0.00000E+00
    0.14952E-02        -0.13580E-01         0.00000E+00
    0.12783E-02        -0.13749E-01         0.00000E+00
    0.10316E-02        -0.13893E-01         0.00000E+00
    0.74592E-03        -0.14005E-01         0.00000E+00
    0.40774E-03        -0.14077E-01         0.00000E+00
    0.00000E+00        -0.14102E-01         0.00000E+00
    0.00000E+00         0.24213E-04         0.00000E+00
    0.21275E-03         0.11873E-04         0.00000E+00
    0.39287E-03        -0.23761E-04         0.00000E+00
    0.54805E-03        -0.79387E-04         0.00000E+00
    0.68451E-03        -0.15129E-03         0.00000E+00
    0.80673E-03        -0.23606E-03         0.00000E+00
    0.91779E-03        -0.33076E-03         0.00000E+00
    0.10198E-02        -0.43286E-03         0.00000E+00
    0.11140E-02        -0.54030E-03         0.00000E+00
    0.12015E-02        -0.65141E-03         0.00000E+00
    0.12830E-02        -0.76490E-03         0.00000E+00
    0.13590E-02        -0.87982E-03         0.00000E+00
    0.14300E-02        -0.99548E-03         0.00000E+00
    0.14963E-02        -0.11114E-02         0.00000E+00
    0.15583E-02        -0.12273E-02         0.00000E+00
    0.16164E-02        -0.13429E-02         0.00000E+00
    0.16709E-02        -0.14582E-02         0.00000E+00
    0.17222E-02        -0.15732E-02         0.00000E+00
    0.17705E-02        -0.16879E-02         0.00000E+00
    0.18162E-02        -0.18024E-02         0.00000E+00
    0.18596E-02        -0.19168E-02         0.00000E+00
    0.19009E-02        -0.20312E-02         0.00000E+00
    0.19405E-02        -0.21457E-02         0.00000E+00
    0.19784E-02        -0.22604E-02         0.00000E+00
    0.20150E-02        -0.23755E-02         0.00000E+00
    0.20504E-02        -0.24911E-02         0.00000E+00
    0.20849E-02        -0.26073E-02         0.00000E+00
    0.21185E-02        -0.27242E-02         0.00000E+00
    0.21515E-02        -0.28419E-02         0.00000E+00
    0.21839E-02        -0.29605E-02         0.00000E+00
    0.22159E-02        -0.30801E-02         0.00000E+00
    0.22476E-02        -0.32007E-02         0.00000E+00
    0.22790E-02        -0.33225E-02         0.00000E+00
    0.23102E-02        -0.34455E-02         0.00000E+00
    0.23413E-02        -0.35698E-02         0.00000E+00
    0.23724E-02        -0.36955E-02         0.00000E+00
    0.24034E-02        -0.38225E-02         0.00000E+00
    0.24344E-02        -0.39510E-02         0.00000E+00
    0.24655E-02        -0.40811E-02         0.00000E+00
    0.24966E-02        -0.42126E-02         0.00000E+00
    0.25277E-02        -0.43458E-02         0.00000E+00
    0.25590E-02        -0.44807E-02         0.00000E+00
    0.25903E-02        -0.46172E-02         0.00000E+00
    0.26216E-02        -0.47554E-02         0.00000E+00
    0.26531E-02        -0.48954E-02         0.00000E+00
    0.26845E-02        -0.50372E-02         0.00000E+00
    0.27160E-02        -0.51808E-02         0.00000E+00
    0.27474E-02        -0.53262E-02         0.00000E+00
    0.27789E-02        -0.54735E-02         0.00000E+00
    0.28102E-02        -0.56227E-02         0.00000E+00
    0.28415E-02        -0.57739E-02         0.00000E+00
    0.28726E-02        -0.59269E-02         0.00000E+00
    0.29035E-02        -0.60820E-02         0.00000E+00
    0.29341E-02        -0.62390E-02         0.00000E+00
    0.29645E-02        -0.63980E-02         0.00000E+00
    0.29945E-02        -0.65590E-02         0.00000E+00
    0.30241E-02        -0.67220E-02         0.00000E+00
    0.30532E-02        -0.68871E-02         0.00000E+00
    0.30817E-02        -0.70543E-02         0.00000E+00
    0.31096E-02        -0.72235E-02         0.00000E+00
    0.31367E-02        -0.73948E-02         0.00000E+00
    0.31630E-02        -0.75682E-02         0.00000E+00
    0.31883E-02        -0.77438E-02         0.00000E+00
    0.32125E-02        -0.79214E-02         0.00000E+00
    0.32355E-02        -0.81012E-02         0.00000E+00
    0.32572E-02        -0.82832E-02         0.00000E+00
    0.32773E-02        -0.84674E-02         0.00000E+00
    0.32958E-02        -0.86539E-02         0.00000E+00
    0.33123E-02        -0.88425E-02         0.00000E+00
    0.33268E-02        -0.90335E-02         0.00000E+00
    0.33390E-02        -0.92268E-02         0.00000E+00
    0.33486E-02        -0.94225E-02         0.00000E+00
    0.33553E-02        -0.96206E-02         0.00000E+00
    0.33589E-02        -0.98212E-02         0.00000E+00
    0.33589E-02        -0.10024E-01         0.00000E+00
    0.33552E-02        -0.10230E-01         0.00000E+00
    0.33471E-02        -0.10439E-01         0.00000E+00
    0.33344E-02        -0.10650E-01         0.00000E+00
    0.33166E-02        -0.10864E-01         0.00000E+00
    0.32930E-02        -0.11082E-01         0.00000E+00
    0.32633E-02        -0.11302E-01         0.00000E+00
    0.32269E-02        -0.11525E-01         0.00000E+00
    0.31830E-02        -0.11752E-01         0.00000E+00
    0.31312E-02        -0.11982E-01         0.00000E+00
    0.30707E-02        -0.12216E-01         0.00000E+00
    0.30009E-02        -0.12452E-01         0.00000E+00
    0.29210E-02        -0.12692E-01         0.00000E+00
    0.28304E-02        -0.12934E-01         0.00000E+00
    0.27284E-02        -0.13177E-01         0.00000E+00
    0.26142E-02        -0.13422E-01         0.00000E+00
    0.24870E-02        -0.13667E-01         0.00000E+00
    0.23460E-02        -0.13910E-01         0.00000E+00
    0.21900E-02        -0.14148E-01         0.00000E+00
    0.20177E-02        -0.14380E-01         0.00000E+00
    0.18272E-02        -0.14600E-01         0.00000E+00
    0.16156E-02        -0.14805E-01         0.00000E+00
    0.13785E-02        -0.14988E-01         0.00000E+00
    0.11097E-02        -0.15144E-01         0.00000E+00
    0.79965E-03        -0.15265E-01         0.00000E+00
    0.43518E-03        -0.15342E-01         0.00000E+00
    0.00000E+00        -0.15369E-01         0.00000E+00
    0.00000E+00         0.18449E-04         0.00000E+00
    0.22598E-03         0.53186E-05         0.00000E+00
    0.41887E-03        -0.32728E-04         0.00000E+00
    0.58608E-03        -0.92390E-04         0.00000E+00
    0.73365E-03        -0.16978E-03         0.00000E+00
    0.86609E-03        -0.26122E-03         0.00000E+00
    0.98654E-03        -0.36349E-03         0.00000E+00
    0.10971E-02        -0.47382E-03         0.00000E+00
    0.11993E-02        -0.58995E-03         0.00000E+00
    0.12942E-02        -0.71006E-03         0.00000E+00
    0.13824E-02        -0.83277E-03         0.00000E+00
    0.14646E-02        -0.95703E-03         0.00000E+00
    0.15413E-02        -0.10821E-02         0.00000E+00
    0.16129E-02        -0.12074E-02         0.00000E+00
    0.16798E-02        -0.13327E-02         0.00000E+00
    0.17425E-02        -0.14578E-02         0.00000E+00
    0.18012E-02        -0.15826E-02         0.00000E+00
    0.18565E-02        -0.17070E-02         0.00000E+00
    0.19085E-02        -0.18311E-02         0.00000E+00
    0.19578E-02        -0.19550E-02         0.00000E+00
    0.20045E-02        -0.20787E-02         0.00000E+00
    0.20489E-02        -0.22026E-02         0.00000E+00
    0.20915E-02        -0.23265E-02         0.00000E+00
    0.21323E-02        -0.24507E-02         0.00000E+00
    0.21717E-02        -0.25754E-02         0.00000E+00
    0.22098E-02        -0.27005E-02         0.00000E+00
    0.22469E-02        -0.28263E-02         0.00000E+00
    0.22831E-02        -0.29529E-02         0.00000E+00
    0.23186E-02        -0.30804E-02         0.00000E+00
    0.23536E-02        -0.32088E-02         0.00000E+00
    0.23880E-02        -0.33383E-02         0.00000E+00
    0.24221E-02        -0.34690E-02         0.00000E+00
    0.24559E-02        -0.36009E-02         0.00000E+00
    0.24895E-02        -0.37342E-02         0.00000E+00
    0.25231E-02        -0.38688E-02         0.00000E+00
    0.25565E-02        -0.40049E-02         0.00000E+00
    0.25899E-02        -0.41426E-02         0.00000E+00
    0.26233E-02        -0.42818E-02         0.00000E+00
    0.26568E-02        -0.44226E-02         0.00000E+00
    0.26903E-02        -0.45652E-02         0.00000E+00
    0.27239E-02        -0.47095E-02         0.00000E+00
    0.27575E-02        -0.48555E-02         0.00000E+00
    0.27912E-02        -0.50034E-02         0.00000E+00
    0.28250E-02        -0.51532E-02         0.00000E+00
    0.28589E-02        -0.53048E-02         0.00000E+00
    0.28928E-02        -0.54584E-02         0.00000E+00
    0.29267E-02        -0.56140E-02         0.00000E+00
    0.29606E-02        -0.57716E-02         0.00000E+00
    0.29945E-02        -0.59311E-02         0.00000E+00
    0.30283E-02        -0.60928E-02         0.00000E+00
    0.30619E-02        -0.62565E-02         0.00000E+00
    0.30955E-02        -0.64223E-02         0.00000E+00
    0.31288E-02        -0.65902E-02         0.00000E+00
    0.31618E-02        -0.67603E-02         0.00000E+00
    0.31946E-02        -0.69325E-02         0.00000E+00
    0.32269E-02        -0.71070E-02         0.00000E+00
    0.32588E-02        -0.72836E-02         0.00000E+00
    0.32902E-02        -0.74624E-02         0.00000E+00
    0.33209E-02        -0.76434E-02         0.00000E+00
    0.33510E-02        -0.78267E-02         0.00000E+00
    0.33802E-02        -0.80123E-02         0.00000E+00
    0.34085E-02        -0.82001E-02         0.00000E+00
    0.34358E-02        -0.83902E-02         0.00000E+00
    0.34620E-02        -0.85826E-02         0.00000E+00
    0.34868E-02        -0.87773E-02         0.00000E+00
    0.35101E-02        -0.89744E-02         0.00000E+00
    0.35319E-02        -0.91739E-02         0.00000E+00
    0.35518E-02        -0.93757E-02         0.00000E+00
    0.35697E-02        -0.95800E-02         0.00000E+00
    0.35853E-02        -0.97868E-02         0.00000E+00
    0.35985E-02        -0.99961E-02         0.00000E+00
    0.36089E-02        -0.10208E-01         0.00000E+00
    0.36162E-02        -0.10422E-01         0.00000E+00
    0.36201E-02        -0.10639E-01         0.00000E+00
    0.36203E-02        -0.10859E-01         0.00000E+00
    0.36163E-02        -0.11082E-01         0.00000E+00
    0.36078E-02        -0.11308E-01         0.00000E+00
    0.35942E-02        -0.11536E-01         0.00000E+00
    0.35750E-02        -0.11768E-01         0.00000E+00
    0.35498E-02        -0.12003E-01         0.00000E+00
    0.35178E-02        -0.12242E-01         0.00000E+00
    0.34786E-02        -0.12484E-01         0.00000E+00
    0.34315E-02        -0.12729E-01         0.00000E+00
    0.33756E-02        -0.12978E-01         0.00000E+00
    0.33105E-02        -0.13230E-01         0.00000E+00
    0.32352E-02        -0.13486E-01         0.00000E+00
    0.31490E-02        -0.13744E-01         0.00000E+00
    0.30512E-02        -0.14006E-01         0.00000E+00
    0.29409E-02        -0.14270E-01         0.00000E+00
    0.28173E-02        -0.14534E-01         0.00000E+00
    0.26796E-02        -0.14799E-01         0.00000E+00
    0.25267E-02        -0.15061E-01         0.00000E+00
    0.23575E-02        -0.15319E-01         0.00000E+00
    0.21705E-02        -0.15569E-01         0.00000E+00
    0.19636E-02        -0.15807E-01         0.00000E+00
    0.17339E-02        -0.16028E-01         0.00000E+00
    0.14769E-02        -0.16226E-01         0.00000E+00
    0.11861E-02        -0.16394E-01         0.00000E+00
    0.85198E-03        -0.16523E-01         0.00000E+00
    0.46184E-03        -0.16606E-01         0.00000E+00
    0.00000E+00        -0.16634E-01         0.00000E+00
    0.00000E+00         0.11908E-04         0.00000E+00
    0.23886E-03        -0.20225E-05         0.00000E+00
    0.44427E-03        -0.42495E-04         0.00000E+00
    0.62331E-03        -0.10619E-03         0.00000E+00
    0.78191E-03        -0.18906E-03         0.00000E+00
    0.92453E-03        -0.28715E-03         0.00000E+00
    0.10544E-02        -0.39696E-03         0.00000E+00
    0.11736E-02        -0.51550E-03         0.00000E+00
    0.12837E-02        -0.64028E-03         0.00000E+00
    0.13858E-02        -0.76937E-03         0.00000E+00
    0.14808E-02        -0.90126E-03         0.00000E+00
    0.15691E-02        -0.10348E-02         0.00000E+00
    0.16515E-02        -0.11692E-02         0.00000E+00
    0.17283E-02        -0.13040E-02         0.00000E+00
    0.18001E-02        -0.14387E-02         0.00000E+00
    0.18673E-02        -0.15732E-02         0.00000E+00
    0.19302E-02        -0.17073E-02         0.00000E+00
    0.19894E-02        -0.18411E-02         0.00000E+00
    0.20451E-02        -0.19746E-02         0.00000E+00
    0.20978E-02        -0.21079E-02         0.00000E+00
    0.21478E-02        -0.22410E-02         0.00000E+00
    0.21954E-02        -0.23742E-02         0.00000E+00
    0.22409E-02        -0.25076E-02         0.00000E+00
    0.22846E-02        -0.26413E-02         0.00000E+00
    0.23267E-02        -0.27754E-02         0.00000E+00
    0.23675E-02        -0.29102E-02         0.00000E+00
    0.24072E-02        -0.30456E-02         0.00000E+00
    0.24459E-02        -0.31819E-02         0.00000E+00
    0.24839E-02        -0.33191E-02         0.00000E+00
    0.25213E-02        -0.34574E-02         0.00000E+00
    0.25582E-02        -0.35968E-02         0.00000E+00
    0.25946E-02        -0.37375E-02         0.00000E+00
    0.26308E-02        -0.38796E-02         0.00000E+00
    0.26669E-02        -0.40231E-02         0.00000E+00
    0.27027E-02        -0.41680E-02         0.00000E+00
    0.27385E-02        -0.43146E-02         0.00000E+00
    0.27743E-02        -0.44628E-02         0.00000E+00
    0.28101E-02        -0.46128E-02         0.00000E+00
    0.28459E-02        -0.47644E-02         0.00000E+00
    0.28818E-02        -0.49179E-02         0.00000E+00
    0.29178E-02        -0.50733E-02         0.00000E+00
    0.29538E-02        -0.52306E-02         0.00000E+00
    0.29899E-02        -0.53899E-02         0.00000E+00
    0.30261E-02        -0.55512E-02         0.00000E+00
    0.30624E-02        -0.57145E-02         0.00000E+00
    0.30987E-02        -0.58799E-02         0.00000E+00
    0.31350E-02        -0.60474E-02         0.00000E+00
    0.31713E-02        -0.62171E-02         0.00000E+00
    0.32076E-02        -0.63889E-02         0.00000E+00
    0.32438E-02        -0.65630E-02         0.00000E+00
    0.32799E-02        -0.67393E-02         0.00000E+00
    0.33158E-02        -0.69179E-02         0.00000E+00
    0.33515E-02        -0.70987E-02         0.00000E+00
    0.33869E-02        -0.72818E-02         0.00000E+00
    0.34220E-02        -0.74673E-02         0.00000E+00
    0.34567E-02        -0.76551E-02         0.00000E+00
    0.34908E-02        -0.78453E-02         0.00000E+00
    0.35245E-02        -0.80378E-02         0.00000E+00
    0.35574E-02        -0.82328E-02         0.00000E+00
    0.35896E-02        -0.84301E-02         0.00000E+00
    0.36210E-02        -0.86299E-02         0.00000E+00
    0.36513E-02        -0.88321E-02         0.00000E+00
    0.36806E-02        -0.90368E-02         0.00000E+00
    0.37086E-02        -0.92439E-02         0.00000E+00
    0.37352E-02        -0.94535E-02         0.00000E+00
    0.37603E-02        -0.96657E-02         0.00000E+00
    0.37836E-02        -0.98804E-02         0.00000E+00
    0.38050E-02        -0.10098E-01         0.00000E+00
    0.38242E-02        -0.10318E-01         0.00000E+00
    0.38410E-02        -0.10540E-01         0.00000E+00
    0.38552E-02        -0.10765E-01         0.00000E+00
    0.38664E-02        -0.10993E-01         0.00000E+00
    0.38743E-02        -0.11224E-01         0.00000E+00
    0.38786E-02        -0.11458E-01         0.00000E+00
    0.38789E-02        -0.11694E-01         0.00000E+00
    0.38747E-02        -0.11934E-01         0.00000E+00
    0.38657E-02        -0.12177E-01         0.00000E+00
    0.38512E-02        -0.12423E-01         0.00000E+00
    0.38308E-02        -0.12672E-01         0.00000E+00
    0.38039E-02        -0.12925E-01         0.00000E+00
    0.37698E-02        -0.13181E-01         0.00000E+00
    0.37279E-02        -0.13441E-01         0.00000E+00
    0.36775E-02        -0.13705E-01         0.00000E+00
    0.36178E-02        -0.13972E-01         0.00000E+00
    0.35480E-02        -0.14244E-01         0.00000E+00
    0.34673E-02        -0.14518E-01         0.00000E+00
    0.33749E-02        -0.14797E-01         0.00000E+00
    0.32699E-02        -0.15078E-01         0.00000E+00
    0.31514E-02        -0.15361E-01         0.00000E+00
    0.30185E-02        -0.15645E-01         0.00000E+00
    0.28703E-02        -0.15929E-01         0.00000E+00
    0.27056E-02        -0.16211E-01         0.00000E+00
    0.25231E-02        -0.16488E-01         0.00000E+00
    0.23214E-02        -0.16757E-01         0.00000E+00
    0.20981E-02        -0.17013E-01         0.00000E+00
    0.18503E-02        -0.17250E-01         0.00000E+00
    0.15734E-02        -0.17462E-01         0.00000E+00
    0.12608E-02        -0.17642E-01         0.00000E+00
    0.90305E-03        -0.17780E-01         0.00000E+00
    0.48779E-03        -0.17868E-01         0.00000E+00
    0.00000E+00        -0.17898E-01         0.00000E+00
    0.00000E+00         0.46546E-05         0.00000E+00
    0.25145E-03        -0.10088E-04         0.00000E+00
    0.46912E-03        -0.53008E-04         0.00000E+00
    0.65983E-03        -0.12075E-03         0.00000E+00
    0.82935E-03        -0.20909E-03         0.00000E+00
    0.98211E-03        -0.31383E-03         0.00000E+00
    0.11213E-02        -0.43116E-03         0.00000E+00
    0.12491E-02        -0.55787E-03         0.00000E+00
    0.13672E-02        -0.69129E-03         0.00000E+00
    0.14765E-02        -0.82932E-03         0.00000E+00
    0.15781E-02        -0.97035E-03         0.00000E+00
    0.16726E-02        -0.11132E-02         0.00000E+00
    0.17606E-02        -0.12569E-02         0.00000E+00
    0.18427E-02        -0.14011E-02         0.00000E+00
    0.19193E-02        -0.15451E-02         0.00000E+00
    0.19909E-02        -0.16890E-02         0.00000E+00
    0.20580E-02        -0.18325E-02         0.00000E+00
    0.21210E-02        -0.19756E-02         0.00000E+00
    0.21803E-02        -0.21185E-02         0.00000E+00
    0.22364E-02        -0.22611E-02         0.00000E+00
    0.22896E-02        -0.24036E-02         0.00000E+00
    0.23402E-02        -0.25462E-02         0.00000E+00
    0.23887E-02        -0.26890E-02         0.00000E+00
    0.24352E-02        -0.28321E-02         0.00000E+00
    0.24800E-02        -0.29758E-02         0.00000E+00
    0.25234E-02        -0.31200E-02         0.00000E+00
    0.25657E-02        -0.32651E-02         0.00000E+00
    0.26069E-02        -0.34110E-02         0.00000E+00
    0.26473E-02        -0.35580E-02         0.00000E+00
    0.26871E-02        -0.37061E-02         0.00000E+00
    0.27264E-02        -0.38555E-02         0.00000E+00
    0.27652E-02        -0.40062E-02         0.00000E+00
    0.28038E-02        -0.41584E-02         0.00000E+00
    0.28421E-02        -0.43121E-02         0.00000E+00
    0.28803E-02        -0.44675E-02         0.00000E+00
    0.29185E-02        -0.46245E-02         0.00000E+00
    0.29566E-02        -0.47833E-02         0.00000E+00
    0.29947E-02        -0.49439E-02         0.00000E+00
    0.30329E-02        -0.51064E-02         0.00000E+00
    0.30711E-02        -0.52709E-02         0.00000E+00
    0.31094E-02        -0.54374E-02         0.00000E+00
    0.31478E-02        -0.56059E-02         0.00000E+00
    0.31863E-02        -0.57766E-02         0.00000E+00
    0.32249E-02        -0.59493E-02         0.00000E+00
    0.32635E-02        -0.61243E-02         0.00000E+00
    0.33022E-02        -0.63016E-02         0.00000E+00
    0.33409E-02        -0.64810E-02         0.00000E+00
    0.33796E-02        -0.66628E-02         0.00000E+00
    0.34183E-02        -0.68469E-02         0.00000E+00
    0.34569E-02        -0.70334E-02         0.00000E+00
    0.34954E-02        -0.72223E-02         0.00000E+00
    0.35336E-02        -0.74136E-02         0.00000E+00
    0.35717E-02        -0.76074E-02         0.00000E+00
    0.36094E-02        -0.78036E-02         0.00000E+00
    0.36468E-02        -0.80022E-02         0.00000E+00
    0.36838E-02        -0.82034E-02         0.00000E+00
    0.37202E-02        -0.84072E-02         0.00000E+00
    0.37561E-02        -0.86134E-02         0.00000E+00
    0.37912E-02        -0.88223E-02         0.00000E+00
    0.38256E-02        -0.90336E-02         0.00000E+00
    0.38590E-02        -0.92476E-02         0.00000E+00
    0.38914E-02        -0.94642E-02         0.00000E+00
    0.39226E-02        -0.96835E-02         0.00000E+00
    0.39525E-02        -0.99053E-02         0.00000E+00
    0.39809E-02        -0.10130E-01         0.00000E+00
    0.40076E-02        -0.10357E-01         0.00000E+00
    0.40325E-02        -0.10587E-01         0.00000E+00
    0.40554E-02        -0.10820E-01         0.00000E+00
    0.40759E-02        -0.11055E-01         0.00000E+00
    0.40939E-02        -0.11294E-01         0.00000E+00
    0.41091E-02        -0.11535E-01         0.00000E+00
    0.41211E-02        -0.11779E-01         0.00000E+00
    0.41296E-02        -0.12026E-01         0.00000E+00
    0.41343E-02        -0.12276E-01         0.00000E+00
    0.41347E-02        -0.12529E-01         0.00000E+00
    0.41304E-02        -0.12786E-01         0.00000E+00
    0.41209E-02        -0.13046E-01         0.00000E+00
    0.41056E-02        -0.13309E-01         0.00000E+00
    0.40840E-02        -0.13576E-01         0.00000E+00
    0.40555E-02        -0.13846E-01         0.00000E+00
    0.40193E-02        -0.14120E-01         0.00000E+00
    0.39748E-02        -0.14399E-01         0.00000E+00
    0.39212E-02        -0.14681E-01         0.00000E+00
    0.38576E-02        -0.14967E-01         0.00000E+00
    0.37833E-02        -0.15257E-01         0.00000E+00
    0.36973E-02        -0.15551E-01         0.00000E+00
    0.35987E-02        -0.15848E-01         0.00000E+00
    0.34866E-02        -0.16148E-01         0.00000E+00
    0.33600E-02        -0.16451E-01         0.00000E+00
    0.32178E-02        -0.16755E-01         0.00000E+00
    0.30591E-02        -0.17059E-01         0.00000E+00
    0.28827E-02        -0.17360E-01         0.00000E+00
    0.26870E-02        -0.17657E-01         0.00000E+00
    0.24705E-02        -0.17944E-01         0.00000E+00
    0.22309E-02        -0.18217E-01         0.00000E+00
    0.19650E-02        -0.18471E-01         0.00000E+00
    0.16683E-02        -0.18697E-01         0.00000E+00
    0.13340E-02        -0.18889E-01         0.00000E+00
    0.95299E-03        -0.19035E-01         0.00000E+00
    0.51311E-03        -0.19129E-01         0.00000E+00
    0.00000E+00        -0.19160E-01         0.00000E+00
    0.00000E+00        -0.32488E-05         0.00000E+00
    0.26377E-03        -0.18817E-04         0.00000E+00
    0.49347E-03        -0.64214E-04         0.00000E+00
    0.69570E-03        -0.13603E-03         0.00000E+00
    0.87605E-03        -0.22985E-03         0.00000E+00
    0.10389E-02        -0.34122E-03         0.00000E+00
    0.11874E-02        -0.46608E-03         0.00000E+00
    0.13238E-02        -0.60094E-03         0.00000E+00
    0.14497E-02        -0.74297E-03         0.00000E+00
    0.15663E-02        -0.88991E-03         0.00000E+00
    0.16746E-02        -0.10400E-02         0.00000E+00
    0.17752E-02        -0.11921E-02         0.00000E+00
    0.18688E-02        -0.13452E-02         0.00000E+00
    0.19559E-02        -0.14986E-02         0.00000E+00
    0.20373E-02        -0.16520E-02         0.00000E+00
    0.21133E-02        -0.18052E-02         0.00000E+00
    0.21844E-02        -0.19581E-02         0.00000E+00
    0.22512E-02        -0.21105E-02         0.00000E+00
    0.23141E-02        -0.22627E-02         0.00000E+00
    0.23736E-02        -0.24147E-02         0.00000E+00
    0.24299E-02        -0.25665E-02         0.00000E+00
    0.24836E-02        -0.27185E-02         0.00000E+00
    0.25349E-02        -0.28707E-02         0.00000E+00
    0.25841E-02        -0.30232E-02         0.00000E+00
    0.26316E-02        -0.31763E-02         0.00000E+00
    0.26776E-02        -0.33301E-02         0.00000E+00
    0.27224E-02        -0.34848E-02         0.00000E+00
    0.27661E-02        -0.36404E-02         0.00000E+00
    0.28089E-02        -0.37971E-02         0.00000E+00
    0.28511E-02        -0.39551E-02         0.00000E+00
    0.28927E-02        -0.41144E-02         0.00000E+00
    0.29338E-02        -0.42751E-02         0.00000E+00
    0.29747E-02        -0.44374E-02         0.00000E+00
    0.30154E-02        -0.46014E-02         0.00000E+00
    0.30559E-02        -0.47671E-02         0.00000E+00
    0.30963E-02        -0.49346E-02         0.00000E+00
    0.31367E-02        -0.51039E-02         0.00000E+00
    0.31772E-02        -0.52753E-02         0.00000E+00
    0.32176E-02        -0.54486E-02         0.00000E+00
    0.32582E-02        -0.56240E-02         0.00000E+00
    0.32988E-02        -0.58016E-02         0.00000E+00
    0.33396E-02        -0.59814E-02         0.00000E+00
    0.33804E-02        -0.61634E-02         0.00000E+00
    0.34213E-02        -0.63477E-02         0.00000E+00
    0.34623E-02        -0.65344E-02         0.00000E+00
    0.35034E-02        -0.67234E-02         0.00000E+00
    0.35445E-02        -0.69148E-02         0.00000E+00
    0.35855E-02        -0.71088E-02         0.00000E+00
    0.36266E-02        -0.73051E-02         0.00000E+00
    0.36675E-02        -0.75041E-02         0.00000E+00
    0.37083E-02        -0.77055E-02         0.00000E+00
    0.37489E-02        -0.79096E-02         0.00000E+00
    0.37893E-02        -0.81162E-02         0.00000E+00
    0.38294E-02        -0.83255E-02         0.00000E+00
    0.38691E-02        -0.85374E-02         0.00000E+00
    0.39083E-02        -0.87520E-02         0.00000E+00
    0.39470E-02        -0.89692E-02         0.00000E+00
    0.39850E-02        -0.91892E-02         0.00000E+00
    0.40223E-02        -0.94119E-02         0.00000E+00
    0.40588E-02        -0.96374E-02         0.00000E+00
    0.40943E-02        -0.98656E-02         0.00000E+00
    0.41287E-02        -0.10097E-01         0.00000E+00
    0.41618E-02        -0.10330E-01         0.00000E+00
    0.41936E-02        -0.10567E-01         0.00000E+00
    0.42238E-02        -0.10806E-01         0.00000E+00
    0.42522E-02        -0.11049E-01         0.00000E+00
    0.42787E-02        -0.11294E-01         0.00000E+00
    0.43030E-02        -0.11542E-01         0.00000E+00
    0.43248E-02        -0.11793E-01         0.00000E+00
    0.43440E-02        -0.12047E-01         0.00000E+00
    0.43602E-02        -0.12304E-01         0.00000E+00
    0.43730E-02        -0.12564E-01         0.00000E+00
    0.43822E-02        -0.12828E-01         0.00000E+00
    0.43872E-02        -0.13094E-01         0.00000E+00
    0.43878E-02        -0.13364E-01         0.00000E+00
    0.43834E-02        -0.13637E-01         0.00000E+00
    0.43734E-02        -0.13914E-01         0.00000E+00
    0.43574E-02        -0.14195E-01         0.00000E+00
    0.43346E-02        -0.14479E-01         0.00000E+00
    0.43045E-02        -0.14767E-01         0.00000E+00
    0.42663E-02        -0.15059E-01         0.00000E+00
    0.42192E-02        -0.15355E-01         0.00000E+00
    0.41625E-02        -0.15656E-01         0.00000E+00
    0.40952E-02        -0.15960E-01         0.00000E+00
    0.40164E-02        -0.16269E-01         0.00000E+00
    0.39252E-02        -0.16582E-01         0.00000E+00
    0.38205E-02        -0.16899E-01         0.00000E+00
    0.37014E-02        -0.17218E-01         0.00000E+00
    0.35667E-02        -0.17541E-01         0.00000E+00
    0.34154E-02        -0.17864E-01         0.00000E+00
    0.32463E-02        -0.18188E-01         0.00000E+00
    0.30581E-02        -0.18508E-01         0.00000E+00
    0.28493E-02        -0.18824E-01         0.00000E+00
    0.26181E-02        -0.19129E-01         0.00000E+00
    0.23621E-02        -0.19420E-01         0.00000E+00
    0.20782E-02        -0.19690E-01         0.00000E+00
    0.17617E-02        -0.19931E-01         0.00000E+00
    0.14059E-02        -0.20134E-01         0.00000E+00
    0.10019E-02        -0.20290E-01         0.00000E+00
    0.53788E-03        -0.20388E-01         0.00000E+00
    0.00000E+00        -0.20422E-01         0.00000E+00
    0.00000E+00        -0.11743E-04         0.00000E+00
    0.27584E-03        -0.28153E-04         0.00000E+00
    0.51737E-03        -0.76061E-04         0.00000E+00
    0.73097E-03        -0.15198E-03         0.00000E+00
    0.92206E-03        -0.25131E-03         0.00000E+00
    0.10949E-02        -0.36932E-03         0.00000E+00
    0.12527E-02        -0.50169E-03         0.00000E+00
    0.13977E-02        -0.64469E-03         0.00000E+00
    0.15315E-02        -0.79530E-03         0.00000E+00
    0.16553E-02        -0.95113E-03         0.00000E+00
    0.17701E-02        -0.11103E-02         0.00000E+00
    0.18767E-02        -0.12716E-02         0.00000E+00
    0.19759E-02        -0.14339E-02         0.00000E+00
    0.20681E-02        -0.15967E-02         0.00000E+00
    0.21541E-02        -0.17594E-02         0.00000E+00
    0.22345E-02        -0.19219E-02         0.00000E+00
    0.23096E-02        -0.20840E-02         0.00000E+00
    0.23802E-02        -0.22458E-02         0.00000E+00
    0.24466E-02        -0.24073E-02         0.00000E+00
    0.25093E-02        -0.25685E-02         0.00000E+00
    0.25688E-02        -0.27297E-02         0.00000E+00
    0.26254E-02        -0.28910E-02         0.00000E+00
    0.26795E-02        -0.30526E-02         0.00000E+00
    0.27314E-02        -0.32146E-02         0.00000E+00
    0.27815E-02        -0.33772E-02         0.00000E+00
    0.28301E-02        -0.35405E-02         0.00000E+00
    0.28773E-02        -0.37047E-02         0.00000E+00
    0.29234E-02        -0.38700E-02         0.00000E+00
    0.29686E-02        -0.40365E-02         0.00000E+00
    0.30131E-02        -0.42043E-02         0.00000E+00
    0.30570E-02        -0.43735E-02         0.00000E+00
    0.31005E-02        -0.45443E-02         0.00000E+00
    0.31437E-02        -0.47167E-02         0.00000E+00
    0.31866E-02        -0.48909E-02         0.00000E+00
    0.32294E-02        -0.50669E-02         0.00000E+00
    0.32721E-02        -0.52448E-02         0.00000E+00
    0.33148E-02        -0.54248E-02         0.00000E+00
    0.33575E-02        -0.56068E-02         0.00000E+00
    0.34002E-02        -0.57910E-02         0.00000E+00
    0.34431E-02        -0.59774E-02         0.00000E+00
    0.34860E-02        -0.61660E-02         0.00000E+00
    0.35291E-02        -0.63571E-02         0.00000E+00
    0.35722E-02        -0.65504E-02         0.00000E+00
    0.36155E-02        -0.67463E-02         0.00000E+00
    0.36588E-02        -0.69446E-02         0.00000E+00
    0.37022E-02        -0.71454E-02         0.00000E+00
    0.37456E-02        -0.73488E-02         0.00000E+00
    0.37890E-02        -0.75549E-02         0.00000E+00
    0.38323E-02        -0.77635E-02         0.00000E+00
    0.38756E-02        -0.79749E-02         0.00000E+00
    0.39188E-02        -0.81889E-02         0.00000E+00
    0.39617E-02        -0.84057E-02         0.00000E+00
    0.40044E-02        -0.86252E-02         0.00000E+00
    0.40467E-02        -0.88475E-02         0.00000E+00
    0.40887E-02        -0.90727E-02         0.00000E+00
    0.41302E-02        -0.93006E-02         0.00000E+00
    0.41711E-02        -0.95315E-02         0.00000E+00
    0.42113E-02        -0.97651E-02         0.00000E+00
    0.42507E-02        -0.10002E-01         0.00000E+00
    0.42893E-02        -0.10241E-01         0.00000E+00
    0.43268E-02        -0.10484E-01         0.00000E+00
    0.43632E-02        -0.10729E-01         0.00000E+00
    0.43983E-02        -0.10977E-01         0.00000E+00
    0.44319E-02        -0.11229E-01         0.00000E+00
    0.44638E-02        -0.11483E-01         0.00000E+00
    0.44939E-02        -0.11740E-01         0.00000E+00
    0.45220E-02        -0.12001E-01         0.00000E+00
    0.45477E-02        -0.12264E-01         0.00000E+00
    0.45709E-02        -0.12531E-01         0.00000E+00
    0.45913E-02        -0.12800E-01         0.00000E+00
    0.46085E-02        -0.13073E-01         0.00000E+00
    0.46222E-02        -0.13350E-01         0.00000E+00
    0.46319E-02        -0.13629E-01         0.00000E+00
    0.46374E-02        -0.13912E-01         0.00000E+00
    0.46382E-02        -0.14199E-01         0.00000E+00
    0.46336E-02        -0.14489E-01         0.00000E+00
    0.46233E-02        -0.14783E-01         0.00000E+00
    0.46065E-02        -0.15081E-01         0.00000E+00
    0.45827E-02        -0.15382E-01         0.00000E+00
    0.45511E-02        -0.15688E-01         0.00000E+00
    0.45109E-02        -0.15998E-01         0.00000E+00
    0.44613E-02        -0.16312E-01         0.00000E+00
    0.44015E-02        -0.16631E-01         0.00000E+00
    0.43306E-02        -0.16954E-01         0.00000E+00
    0.42474E-02        -0.17281E-01         0.00000E+00
    0.41510E-02        -0.17613E-01         0.00000E+00
    0.40404E-02        -0.17949E-01         0.00000E+00
    0.39143E-02        -0.18288E-01         0.00000E+00
    0.37717E-02        -0.18629E-01         0.00000E+00
    0.36113E-02        -0.18972E-01         0.00000E+00
    0.34318E-02        -0.19315E-01         0.00000E+00
    0.32319E-02        -0.19655E-01         0.00000E+00
    0.30100E-02        -0.19989E-01         0.00000E+00
    0.27641E-02        -0.20313E-01         0.00000E+00
    0.24918E-02        -0.20622E-01         0.00000E+00
    0.21899E-02        -0.20908E-01         0.00000E+00
    0.18537E-02        -0.21163E-01         0.00000E+00
    0.14766E-02        -0.21378E-01         0.00000E+00
    0.10499E-02        -0.21542E-01         0.00000E+00
    0.56216E-03        -0.21646E-01         0.00000E+00
    0.00000E+00        -0.21682E-01         0.00000E+00
    0.00000E+00        -0.20771E-04         0.00000E+00
    0.28770E-03        -0.38040E-04         0.00000E+00
    0.54088E-03        -0.88501E-04         0.00000E+00
    0.76570E-03        -0.16856E-03         0.00000E+00
    0.96745E-03        -0.27343E-03         0.00000E+00
    0.11503E-02        -0.39810E-03         0.00000E+00
    0.13173E-02        -0.53798E-03         0.00000E+00
    0.14708E-02        -0.68911E-03         0.00000E+00
    0.16124E-02        -0.84829E-03         0.00000E+00
    0.17434E-02        -0.10130E-02         0.00000E+00
    0.18648E-02        -0.11812E-02         0.00000E+00
    0.19774E-02        -0.13516E-02         0.00000E+00
    0.20820E-02        -0.15232E-02         0.00000E+00
    0.21793E-02        -0.16952E-02         0.00000E+00
    0.22699E-02        -0.18672E-02         0.00000E+00
    0.23545E-02        -0.20390E-02         0.00000E+00
    0.24336E-02        -0.22104E-02         0.00000E+00
    0.25078E-02        -0.23814E-02         0.00000E+00
    0.25777E-02        -0.25522E-02         0.00000E+00
    0.26436E-02        -0.27227E-02         0.00000E+00
    0.27061E-02        -0.28933E-02         0.00000E+00
    0.27656E-02        -0.30639E-02         0.00000E+00
    0.28225E-02        -0.32348E-02         0.00000E+00
    0.28771E-02        -0.34062E-02         0.00000E+00
    0.29298E-02        -0.35782E-02         0.00000E+00
    0.29808E-02        -0.37511E-02         0.00000E+00
    0.30304E-02        -0.39249E-02         0.00000E+00
    0.30789E-02        -0.40998E-02         0.00000E+00
    0.31265E-02        -0.42760E-02         0.00000E+00
    0.31733E-02        -0.44536E-02         0.00000E+00
    0.32195E-02        -0.46328E-02         0.00000E+00
    0.32652E-02        -0.48136E-02         0.00000E+00
    0.33106E-02        -0.49961E-02         0.00000E+00
    0.33558E-02        -0.51805E-02         0.00000E+00
    0.34008E-02        -0.53669E-02         0.00000E+00
    0.34457E-02        -0.55553E-02         0.00000E+00
    0.34907E-02        -0.57458E-02         0.00000E+00
    0.35356E-02        -0.59385E-02         0.00000E+00
    0.35807E-02        -0.61335E-02         0.00000E+00
    0.36258E-02        -0.63309E-02         0.00000E+00
    0.36710E-02        -0.65307E-02         0.00000E+00
    0.37163E-02        -0.67329E-02         0.00000E+00
    0.37617E-02        -0.69377E-02         0.00000E+00
    0.38073E-02        -0.71450E-02         0.00000E+00
    0.38529E-02        -0.73550E-02         0.00000E+00
    0.38986E-02        -0.75676E-02         0.00000E+00
    0.39443E-02        -0.77830E-02         0.00000E+00
    0.39900E-02        -0.80011E-02         0.00000E+00
    0.40357E-02        -0.82221E-02         0.00000E+00
    0.40813E-02        -0.84458E-02         0.00000E+00
    0.41267E-02        -0.86725E-02         0.00000E+00
    0.41719E-02        -0.89020E-02         0.00000E+00
    0.42169E-02        -0.91344E-02         0.00000E+00
    0.42615E-02        -0.93698E-02         0.00000E+00
    0.43057E-02        -0.96081E-02         0.00000E+00
    0.43494E-02        -0.98495E-02         0.00000E+00
    0.43925E-02        -0.10094E-01         0.00000E+00
    0.44349E-02        -0.10341E-01         0.00000E+00
    0.44765E-02        -0.10592E-01         0.00000E+00
    0.45171E-02        -0.10845E-01         0.00000E+00
    0.45567E-02        -0.11102E-01         0.00000E+00
    0.45950E-02        -0.11362E-01         0.00000E+00
    0.46320E-02        -0.11624E-01         0.00000E+00
    0.46674E-02        -0.11890E-01         0.00000E+00
    0.47012E-02        -0.12160E-01         0.00000E+00
    0.47329E-02        -0.12432E-01         0.00000E+00
    0.47625E-02        -0.12708E-01         0.00000E+00
    0.47897E-02        -0.12986E-01         0.00000E+00
    0.48142E-02        -0.13269E-01         0.00000E+00
    0.48358E-02        -0.13554E-01         0.00000E+00
    0.48540E-02        -0.13843E-01         0.00000E+00
    0.48685E-02        -0.14135E-01         0.00000E+00
    0.48790E-02        -0.14431E-01         0.00000E+00
    0.48849E-02        -0.14730E-01         0.00000E+00
    0.48858E-02        -0.15034E-01         0.00000E+00
    0.48813E-02        -0.15341E-01         0.00000E+00
    0.48705E-02        -0.15651E-01         0.00000E+00
    0.48531E-02        -0.15966E-01         0.00000E+00
    0.48282E-02        -0.16285E-01         0.00000E+00
    0.47951E-02        -0.16608E-01         0.00000E+00
    0.47531E-02        -0.16936E-01         0.00000E+00
    0.47011E-02        -0.17268E-01         0.00000E+00
    0.46383E-02        -0.17605E-01         0.00000E+00
    0.45638E-02        -0.17947E-01         0.00000E+00
    0.44763E-02        -0.18293E-01         0.00000E+00
    0.43749E-02        -0.18643E-01         0.00000E+00
    0.42584E-02        -0.18998E-01         0.00000E+00
    0.41255E-02        -0.19356E-01         0.00000E+00
    0.39750E-02        -0.19717E-01         0.00000E+00
    0.38056E-02        -0.20080E-01         0.00000E+00
    0.36159E-02        -0.20442E-01         0.00000E+00
    0.34043E-02        -0.20801E-01         0.00000E+00
    0.31693E-02        -0.21154E-01         0.00000E+00
    0.29087E-02        -0.21496E-01         0.00000E+00
    0.26202E-02        -0.21822E-01         0.00000E+00
    0.23003E-02        -0.22124E-01         0.00000E+00
    0.19445E-02        -0.22394E-01         0.00000E+00
    0.15463E-02        -0.22621E-01         0.00000E+00
    0.10971E-02        -0.22794E-01         0.00000E+00
    0.58600E-03        -0.22904E-01         0.00000E+00
    0.00000E+00        -0.22941E-01         0.00000E+00
    0.00000E+00        -0.30278E-04         0.00000E+00
    0.29937E-03        -0.48425E-04         0.00000E+00
    0.56403E-03        -0.10149E-03         0.00000E+00
    0.79995E-03        -0.18574E-03         0.00000E+00
    0.10123E-02        -0.29618E-03         0.00000E+00
    0.12050E-02        -0.42754E-03         0.00000E+00
    0.13813E-02        -0.57494E-03         0.00000E+00
    0.15433E-02        -0.73419E-03         0.00000E+00
    0.16927E-02        -0.90191E-03         0.00000E+00
    0.18308E-02        -0.10754E-02         0.00000E+00
    0.19586E-02        -0.12527E-02         0.00000E+00
    0.20772E-02        -0.14322E-02         0.00000E+00
    0.21872E-02        -0.16130E-02         0.00000E+00
    0.22894E-02        -0.17942E-02         0.00000E+00
    0.23846E-02        -0.19755E-02         0.00000E+00
    0.24734E-02        -0.21565E-02         0.00000E+00
    0.25564E-02        -0.23371E-02         0.00000E+00
    0.26342E-02        -0.25174E-02         0.00000E+00
    0.27074E-02        -0.26974E-02         0.00000E+00
    0.27765E-02        -0.28773E-02         0.00000E+00
    0.28420E-02        -0.30571E-02         0.00000E+00
    0.29043E-02        -0.32370E-02         0.00000E+00
    0.29639E-02        -0.34173E-02         0.00000E+00
    0.30211E-02        -0.35981E-02         0.00000E+00
    0.30763E-02        -0.37795E-02         0.00000E+00
    0.31298E-02        -0.39619E-02         0.00000E+00
    0.31818E-02        -0.41453E-02         0.00000E+00
    0.32326E-02        -0.43299E-02         0.00000E+00
    0.32825E-02        -0.45158E-02         0.00000E+00
    0.33315E-02        -0.47032E-02         0.00000E+00
    0.33800E-02        -0.48923E-02         0.00000E+00
    0.34279E-02        -0.50831E-02         0.00000E+00
    0.34756E-02        -0.52757E-02         0.00000E+00
    0.35229E-02        -0.54703E-02         0.00000E+00
    0.35702E-02        -0.56670E-02         0.00000E+00
    0.36173E-02        -0.58659E-02         0.00000E+00
    0.36645E-02        -0.60670E-02         0.00000E+00
    0.37116E-02        -0.62704E-02         0.00000E+00
    0.37589E-02        -0.64763E-02         0.00000E+00
    0.38062E-02        -0.66846E-02         0.00000E+00
    0.38537E-02        -0.68954E-02         0.00000E+00
    0.39013E-02        -0.71089E-02         0.00000E+00
    0.39490E-02        -0.73251E-02         0.00000E+00
    0.39968E-02        -0.75439E-02         0.00000E+00
    0.40447E-02        -0.77656E-02         0.00000E+00
    0.40926E-02        -0.79900E-02         0.00000E+00
    0.41406E-02        -0.82174E-02         0.00000E+00
    0.41886E-02        -0.84476E-02         0.00000E+00
    0.42366E-02        -0.86808E-02         0.00000E+00
    0.42844E-02        -0.89170E-02         0.00000E+00
    0.43321E-02        -0.91562E-02         0.00000E+00
    0.43796E-02        -0.93984E-02         0.00000E+00
    0.44268E-02        -0.96438E-02         0.00000E+00
    0.44737E-02        -0.98922E-02         0.00000E+00
    0.45201E-02        -0.10144E-01         0.00000E+00
    0.45660E-02        -0.10398E-01         0.00000E+00
    0.46113E-02        -0.10656E-01         0.00000E+00
    0.46558E-02        -0.10917E-01         0.00000E+00
    0.46995E-02        -0.11182E-01         0.00000E+00
    0.47422E-02        -0.11449E-01         0.00000E+00
    0.47838E-02        -0.11720E-01         0.00000E+00
    0.48241E-02        -0.11994E-01         0.00000E+00
    0.48630E-02        -0.12272E-01         0.00000E+00
    0.49002E-02        -0.12552E-01         0.00000E+00
    0.49357E-02        -0.12836E-01         0.00000E+00
    0.49691E-02        -0.13124E-01         0.00000E+00
    0.50003E-02        -0.13415E-01         0.00000E+00
    0.50289E-02        -0.13709E-01         0.00000E+00
    0.50548E-02        -0.14006E-01         0.00000E+00
    0.50775E-02        -0.14308E-01         0.00000E+00
    0.50967E-02        -0.14612E-01         0.00000E+00
    0.51121E-02        -0.14921E-01         0.00000E+00
    0.51233E-02        -0.15233E-01         0.00000E+00
    0.51297E-02        -0.15549E-01         0.00000E+00
    0.51308E-02        -0.15868E-01         0.00000E+00
    0.51262E-02        -0.16192E-01         0.00000E+00
    0.51152E-02        -0.16520E-01         0.00000E+00
    0.50971E-02        -0.16852E-01         0.00000E+00
    0.50712E-02        -0.17188E-01         0.00000E+00
    0.50368E-02        -0.17529E-01         0.00000E+00
    0.49928E-02        -0.17874E-01         0.00000E+00
    0.49386E-02        -0.18224E-01         0.00000E+00
    0.48729E-02        -0.18579E-01         0.00000E+00
    0.47949E-02        -0.18939E-01         0.00000E+00
    0.47032E-02        -0.19304E-01         0.00000E+00
    0.45969E-02        -0.19673E-01         0.00000E+00
    0.44746E-02        -0.20046E-01         0.00000E+00
    0.43349E-02        -0.20424E-01         0.00000E+00
    0.41767E-02        -0.20804E-01         0.00000E+00
    0.39983E-02        -0.21186E-01         0.00000E+00
    0.37984E-02        -0.21567E-01         0.00000E+00
    0.35753E-02        -0.21946E-01         0.00000E+00
    0.33273E-02        -0.22317E-01         0.00000E+00
    0.30521E-02        -0.22678E-01         0.00000E+00
    0.27473E-02        -0.23021E-01         0.00000E+00
    0.24095E-02        -0.23339E-01         0.00000E+00
    0.20342E-02        -0.23623E-01         0.00000E+00
    0.16150E-02        -0.23862E-01         0.00000E+00
    0.11436E-02        -0.24045E-01         0.00000E+00
    0.60947E-03        -0.24160E-01         0.00000E+00
    0.00000E+00        -0.24199E-01         0.00000E+00
    0.00000E+00        -0.40208E-04         0.00000E+00
    0.31087E-03        -0.59256E-04         0.00000E+00
    0.58686E-03        -0.11497E-03         0.00000E+00
    0.83377E-03        -0.20348E-03         0.00000E+00
    0.10566E-02        -0.31955E-03         0.00000E+00
    0.12592E-02        -0.45762E-03         0.00000E+00
    0.14446E-02        -0.61255E-03         0.00000E+00
    0.16151E-02        -0.77992E-03         0.00000E+00
    0.17722E-02        -0.95617E-03         0.00000E+00
    0.19174E-02        -0.11385E-02         0.00000E+00
    0.20517E-02        -0.13247E-02         0.00000E+00
    0.21761E-02        -0.15134E-02         0.00000E+00
    0.22915E-02        -0.17033E-02         0.00000E+00
    0.23986E-02        -0.18937E-02         0.00000E+00
    0.24983E-02        -0.20842E-02         0.00000E+00
    0.25912E-02        -0.22744E-02         0.00000E+00
    0.26780E-02        -0.24643E-02         0.00000E+00
    0.27593E-02        -0.26538E-02         0.00000E+00
    0.28358E-02        -0.28430E-02         0.00000E+00
    0.29080E-02        -0.30321E-02         0.00000E+00
    0.29764E-02        -0.32211E-02         0.00000E+00
    0.30415E-02        -0.34104E-02         0.00000E+00
    0.31038E-02        -0.36000E-02         0.00000E+00
    0.31635E-02        -0.37901E-02         0.00000E+00
    0.32212E-02        -0.39811E-02         0.00000E+00
    0.32770E-02        -0.41729E-02         0.00000E+00
    0.33314E-02        -0.43659E-02         0.00000E+00
    0.33845E-02        -0.45601E-02         0.00000E+00
    0.34366E-02        -0.47557E-02         0.00000E+00
    0.34879E-02        -0.49530E-02         0.00000E+00
    0.35386E-02        -0.51519E-02         0.00000E+00
    0.35887E-02        -0.53527E-02         0.00000E+00
    0.36385E-02        -0.55555E-02         0.00000E+00
    0.36881E-02        -0.57603E-02         0.00000E+00
    0.37375E-02        -0.59674E-02         0.00000E+00
    0.37868E-02        -0.61767E-02         0.00000E+00
    0.38361E-02        -0.63883E-02         0.00000E+00
    0.38855E-02        -0.66025E-02         0.00000E+00
    0.39350E-02        -0.68192E-02         0.00000E+00
    0.39845E-02        -0.70384E-02         0.00000E+00
    0.40342E-02        -0.72604E-02         0.00000E+00
    0.40840E-02        -0.74851E-02         0.00000E+00
    0.41339E-02        -0.77126E-02         0.00000E+00
    0.41839E-02        -0.79430E-02         0.00000E+00
    0.42341E-02        -0.81763E-02         0.00000E+00
    0.42843E-02        -0.84126E-02         0.00000E+00
    0.43345E-02        -0.86519E-02         0.00000E+00
    0.43848E-02        -0.88942E-02         0.00000E+00
    0.44350E-02        -0.91397E-02         0.00000E+00
    0.44851E-02        -0.93883E-02         0.00000E+00
    0.45351E-02        -0.96401E-02         0.00000E+00
    0.45848E-02        -0.98950E-02         0.00000E+00
    0.46342E-02        -0.10153E-01         0.00000E+00
    0.46833E-02        -0.10415E-01         0.00000E+00
    0.47320E-02        -0.10680E-01         0.00000E+00
    0.47800E-02        -0.10948E-01         0.00000E+00
    0.48274E-02        -0.11219E-01         0.00000E+00
    0.48741E-02        -0.11494E-01         0.00000E+00
    0.49199E-02        -0.11772E-01         0.00000E+00
    0.49646E-02        -0.12054E-01         0.00000E+00
    0.50082E-02        -0.12339E-01         0.00000E+00
    0.50504E-02        -0.12627E-01         0.00000E+00
    0.50912E-02        -0.12919E-01         0.00000E+00
    0.51303E-02        -0.13214E-01         0.00000E+00
    0.51675E-02        -0.13513E-01         0.00000E+00
    0.52025E-02        -0.13816E-01         0.00000E+00
    0.52353E-02        -0.14122E-01         0.00000E+00
    0.52654E-02        -0.14431E-01         0.00000E+00
    0.52925E-02        -0.14744E-01         0.00000E+00
    0.53164E-02        -0.15061E-01         0.00000E+00
    0.53367E-02        -0.15382E-01         0.00000E+00
    0.53530E-02        -0.15706E-01         0.00000E+00
    0.53648E-02        -0.16034E-01         0.00000E+00
    0.53717E-02        -0.16367E-01         0.00000E+00
    0.53731E-02        -0.16703E-01         0.00000E+00
    0.53685E-02        -0.17043E-01         0.00000E+00
    0.53572E-02        -0.17388E-01         0.00000E+00
    0.53386E-02        -0.17737E-01         0.00000E+00
    0.53117E-02        -0.18090E-01         0.00000E+00
    0.52760E-02        -0.18449E-01         0.00000E+00
    0.52303E-02        -0.18812E-01         0.00000E+00
    0.51738E-02        -0.19180E-01         0.00000E+00
    0.51053E-02        -0.19553E-01         0.00000E+00
    0.50239E-02        -0.19931E-01         0.00000E+00
    0.49282E-02        -0.20314E-01         0.00000E+00
    0.48170E-02        -0.20702E-01         0.00000E+00
    0.46890E-02        -0.21094E-01         0.00000E+00
    0.45428E-02        -0.21491E-01         0.00000E+00
    0.43768E-02        -0.21890E-01         0.00000E+00
    0.41897E-02        -0.22291E-01         0.00000E+00
    0.39797E-02        -0.22692E-01         0.00000E+00
    0.37451E-02        -0.23089E-01         0.00000E+00
    0.34841E-02        -0.23480E-01         0.00000E+00
    0.31944E-02        -0.23858E-01         0.00000E+00
    0.28734E-02        -0.24219E-01         0.00000E+00
    0.25177E-02        -0.24554E-01         0.00000E+00
    0.21229E-02        -0.24852E-01         0.00000E+00
    0.16829E-02        -0.25103E-01         0.00000E+00
    0.11895E-02        -0.25295E-01         0.00000E+00
    0.63260E-03        -0.25416E-01         0.00000E+00
    0.00000E+00        -0.25457E-01         0.00000E+00
    0.00000E+00        -0.50511E-04         0.00000E+00
    0.32223E-03        -0.70482E-04         0.00000E+00
    0.60942E-03        -0.12891E-03         0.00000E+00
    0.86722E-03        -0.22174E-03         0.00000E+00
    0.11004E-02        -0.34350E-03         0.00000E+00
    0.13129E-02        -0.48832E-03         0.00000E+00
    0.15075E-02        -0.65079E-03         0.00000E+00
    0.16863E-02        -0.82628E-03         0.00000E+00
    0.18512E-02        -0.10110E-02         0.00000E+00
    0.20033E-02        -0.12021E-02         0.00000E+00
    0.21440E-02        -0.13973E-02         0.00000E+00
    0.22742E-02        -0.15950E-02         0.00000E+00
    0.23949E-02        -0.17941E-02         0.00000E+00
    0.25068E-02        -0.19937E-02         0.00000E+00
    0.26109E-02        -0.21933E-02         0.00000E+00
    0.27078E-02        -0.23927E-02         0.00000E+00
    0.27983E-02        -0.25918E-02         0.00000E+00
    0.28832E-02        -0.27905E-02         0.00000E+00
    0.29629E-02        -0.29889E-02         0.00000E+00
    0.30381E-02        -0.31872E-02         0.00000E+00
    0.31094E-02        -0.33855E-02         0.00000E+00
    0.31772E-02        -0.35840E-02         0.00000E+00
    0.32421E-02        -0.37829E-02         0.00000E+00
    0.33043E-02        -0.39825E-02         0.00000E+00
    0.33644E-02        -0.41828E-02         0.00000E+00
    0.34226E-02        -0.43841E-02         0.00000E+00
    0.34792E-02        -0.45866E-02         0.00000E+00
    0.35346E-02        -0.47905E-02         0.00000E+00
    0.35889E-02        -0.49959E-02         0.00000E+00
    0.36424E-02        -0.52029E-02         0.00000E+00
    0.36952E-02        -0.54118E-02         0.00000E+00
    0.37475E-02        -0.56226E-02         0.00000E+00
    0.37995E-02        -0.58355E-02         0.00000E+00
    0.38512E-02        -0.60505E-02         0.00000E+00
    0.39027E-02        -0.62679E-02         0.00000E+00
    0.39542E-02        -0.64876E-02         0.00000E+00
    0.40057E-02        -0.67099E-02         0.00000E+00
    0.40572E-02        -0.69347E-02         0.00000E+00
    0.41088E-02        -0.71622E-02         0.00000E+00
    0.41605E-02        -0.73925E-02         0.00000E+00
    0.42124E-02        -0.76255E-02         0.00000E+00
    0.42644E-02        -0.78615E-02         0.00000E+00
    0.43165E-02        -0.81004E-02         0.00000E+00
    0.43688E-02        -0.83423E-02         0.00000E+00
    0.44211E-02        -0.85872E-02         0.00000E+00
    0.44735E-02        -0.88353E-02         0.00000E+00
    0.45260E-02        -0.90866E-02         0.00000E+00
    0.45785E-02        -0.93410E-02         0.00000E+00
    0.46310E-02        -0.95987E-02         0.00000E+00
    0.46833E-02        -0.98598E-02         0.00000E+00
    0.47355E-02        -0.10124E-01         0.00000E+00
    0.47874E-02        -0.10392E-01         0.00000E+00
    0.48391E-02        -0.10663E-01         0.00000E+00
    0.48904E-02        -0.10937E-01         0.00000E+00
    0.49412E-02        -0.11215E-01         0.00000E+00
    0.49914E-02        -0.11497E-01         0.00000E+00
    0.50410E-02        -0.11782E-01         0.00000E+00
    0.50897E-02        -0.12070E-01         0.00000E+00
    0.51375E-02        -0.12362E-01         0.00000E+00
    0.51843E-02        -0.12658E-01         0.00000E+00
    0.52299E-02        -0.12957E-01         0.00000E+00
    0.52741E-02        -0.13260E-01         0.00000E+00
    0.53167E-02        -0.13566E-01         0.00000E+00
    0.53576E-02        -0.13877E-01         0.00000E+00
    0.53965E-02        -0.14190E-01         0.00000E+00
    0.54332E-02        -0.14508E-01         0.00000E+00
    0.54675E-02        -0.14829E-01         0.00000E+00
    0.54990E-02        -0.15154E-01         0.00000E+00
    0.55275E-02        -0.15482E-01         0.00000E+00
    0.55526E-02        -0.15815E-01         0.00000E+00
    0.55739E-02        -0.16151E-01         0.00000E+00
    0.55911E-02        -0.16492E-01         0.00000E+00
    0.56036E-02        -0.16836E-01         0.00000E+00
    0.56110E-02        -0.17185E-01         0.00000E+00
    0.56128E-02        -0.17537E-01         0.00000E+00
    0.56082E-02        -0.17894E-01         0.00000E+00
    0.55967E-02        -0.18256E-01         0.00000E+00
    0.55775E-02        -0.18622E-01         0.00000E+00
    0.55498E-02        -0.18993E-01         0.00000E+00
    0.55128E-02        -0.19368E-01         0.00000E+00
    0.54654E-02        -0.19749E-01         0.00000E+00
    0.54067E-02        -0.20135E-01         0.00000E+00
    0.53356E-02        -0.20526E-01         0.00000E+00
    0.52508E-02        -0.20922E-01         0.00000E+00
    0.51512E-02        -0.21324E-01         0.00000E+00
    0.50353E-02        -0.21730E-01         0.00000E+00
    0.49017E-02        -0.22141E-01         0.00000E+00
    0.47490E-02        -0.22557E-01         0.00000E+00
    0.45755E-02        -0.22975E-01         0.00000E+00
    0.43796E-02        -0.23395E-01         0.00000E+00
    0.41597E-02        -0.23815E-01         0.00000E+00
    0.39137E-02        -0.24231E-01         0.00000E+00
    0.36398E-02        -0.24641E-01         0.00000E+00
    0.33356E-02        -0.25038E-01         0.00000E+00
    0.29984E-02        -0.25416E-01         0.00000E+00
    0.26250E-02        -0.25767E-01         0.00000E+00
    0.22108E-02        -0.26080E-01         0.00000E+00
    0.17501E-02        -0.26343E-01         0.00000E+00
    0.12349E-02        -0.26544E-01         0.00000E+00
    0.65545E-03        -0.26671E-01         0.00000E+00
    0.00000E+00        -0.26714E-01         0.00000E+00
    0.00000E+00        -0.61134E-04         0.00000E+00
    0.33346E-03        -0.82054E-04         0.00000E+00
    0.63174E-03        -0.14325E-03         0.00000E+00
    0.90035E-03        -0.24049E-03         0.00000E+00
    0.11439E-02        -0.36800E-03         0.00000E+00
    0.13661E-02        -0.51961E-03         0.00000E+00
    0.15698E-02        -0.68966E-03         0.00000E+00
    0.17570E-02        -0.87327E-03         0.00000E+00
    0.19295E-02        -0.10665E-02         0.00000E+00
    0.20886E-02        -0.12664E-02         0.00000E+00
    0.22356E-02        -0.14705E-02         0.00000E+00
    0.23716E-02        -0.16772E-02         0.00000E+00
    0.24974E-02        -0.18854E-02         0.00000E+00
    0.26141E-02        -0.20941E-02         0.00000E+00
    0.27225E-02        -0.23028E-02         0.00000E+00
    0.28234E-02        -0.25114E-02         0.00000E+00
    0.29176E-02        -0.27196E-02         0.00000E+00
    0.30058E-02        -0.29275E-02         0.00000E+00
    0.30887E-02        -0.31351E-02         0.00000E+00
    0.31668E-02        -0.33426E-02         0.00000E+00
    0.32409E-02        -0.35501E-02         0.00000E+00
    0.33114E-02        -0.37579E-02         0.00000E+00
    0.33788E-02        -0.39661E-02         0.00000E+00
    0.34435E-02        -0.41750E-02         0.00000E+00
    0.35059E-02        -0.43848E-02         0.00000E+00
    0.35664E-02        -0.45956E-02         0.00000E+00
    0.36253E-02        -0.48076E-02         0.00000E+00
    0.36829E-02        -0.50211E-02         0.00000E+00
    0.37394E-02        -0.52362E-02         0.00000E+00
    0.37950E-02        -0.54530E-02         0.00000E+00
    0.38499E-02        -0.56718E-02         0.00000E+00
    0.39044E-02        -0.58926E-02         0.00000E+00
    0.39584E-02        -0.61156E-02         0.00000E+00
    0.40123E-02        -0.63409E-02         0.00000E+00
    0.40659E-02        -0.65686E-02         0.00000E+00
    0.41195E-02        -0.67988E-02         0.00000E+00
    0.41731E-02        -0.70316E-02         0.00000E+00
    0.42268E-02        -0.72671E-02         0.00000E+00
    0.42805E-02        -0.75054E-02         0.00000E+00
    0.43344E-02        -0.77466E-02         0.00000E+00
    0.43884E-02        -0.79908E-02         0.00000E+00
    0.44425E-02        -0.82380E-02         0.00000E+00
    0.44968E-02        -0.84882E-02         0.00000E+00
    0.45513E-02        -0.87417E-02         0.00000E+00
    0.46058E-02        -0.89983E-02         0.00000E+00
    0.46605E-02        -0.92582E-02         0.00000E+00
    0.47151E-02        -0.95214E-02         0.00000E+00
    0.47698E-02        -0.97880E-02         0.00000E+00
    0.48245E-02        -0.10058E-01         0.00000E+00
    0.48790E-02        -0.10331E-01         0.00000E+00
    0.49334E-02        -0.10608E-01         0.00000E+00
    0.49876E-02        -0.10889E-01         0.00000E+00
    0.50414E-02        -0.11173E-01         0.00000E+00
    0.50949E-02        -0.11460E-01         0.00000E+00
    0.51478E-02        -0.11752E-01         0.00000E+00
    0.52002E-02        -0.12046E-01         0.00000E+00
    0.52518E-02        -0.12345E-01         0.00000E+00
    0.53027E-02        -0.12647E-01         0.00000E+00
    0.53526E-02        -0.12953E-01         0.00000E+00
    0.54013E-02        -0.13263E-01         0.00000E+00
    0.54489E-02        -0.13576E-01         0.00000E+00
    0.54950E-02        -0.13893E-01         0.00000E+00
    0.55394E-02        -0.14214E-01         0.00000E+00
    0.55821E-02        -0.14539E-01         0.00000E+00
    0.56227E-02        -0.14867E-01         0.00000E+00
    0.56611E-02        -0.15200E-01         0.00000E+00
    0.56969E-02        -0.15536E-01         0.00000E+00
    0.57299E-02        -0.15876E-01         0.00000E+00
    0.57597E-02        -0.16220E-01         0.00000E+00
    0.57860E-02        -0.16569E-01         0.00000E+00
    0.58084E-02        -0.16921E-01         0.00000E+00
    0.58265E-02        -0.17277E-01         0.00000E+00
    0.58398E-02        -0.17638E-01         0.00000E+00
    0.58477E-02        -0.18003E-01         0.00000E+00
    0.58498E-02        -0.18372E-01         0.00000E+00
    0.58453E-02        -0.18745E-01         0.00000E+00
    0.58336E-02        -0.19124E-01         0.00000E+00
    0.58139E-02        -0.19507E-01         0.00000E+00
    0.57854E-02        -0.19895E-01         0.00000E+00
    0.57472E-02        -0.20288E-01         0.00000E+00
    0.56982E-02        -0.20686E-01         0.00000E+00
    0.56375E-02        -0.21090E-01         0.00000E+00
    0.55637E-02        -0.21499E-01         0.00000E+00
    0.54758E-02        -0.21913E-01         0.00000E+00
    0.53723E-02        -0.22333E-01         0.00000E+00
    0.52518E-02        -0.22758E-01         0.00000E+00
    0.51128E-02        -0.23188E-01         0.00000E+00
    0.49537E-02        -0.23622E-01         0.00000E+00
    0.47728E-02        -0.24060E-01         0.00000E+00
    0.45684E-02        -0.24499E-01         0.00000E+00
    0.43385E-02        -0.24937E-01         0.00000E+00
    0.40813E-02        -0.25373E-01         0.00000E+00
    0.37946E-02        -0.25801E-01         0.00000E+00
    0.34760E-02        -0.26216E-01         0.00000E+00
    0.31227E-02        -0.26611E-01         0.00000E+00
    0.27315E-02        -0.26978E-01         0.00000E+00
    0.22980E-02        -0.27306E-01         0.00000E+00
    0.18166E-02        -0.27582E-01         0.00000E+00
    0.12798E-02        -0.27792E-01         0.00000E+00
    0.67807E-03        -0.27925E-01         0.00000E+00
    0.00000E+00        -0.27970E-01         0.00000E+00
    0.00000E+00        -0.72028E-04         0.00000E+00
    0.34458E-03        -0.93924E-04         0.00000E+00
    0.65386E-03        -0.15797E-03         0.00000E+00
    0.93321E-03        -0.25970E-03         0.00000E+00
    0.11871E-02        -0.39302E-03         0.00000E+00
    0.14190E-02        -0.55149E-03         0.00000E+00
    0.16317E-02        -0.72913E-03         0.00000E+00
    0.18273E-02        -0.92086E-03         0.00000E+00
    0.20073E-02        -0.11226E-02         0.00000E+00
    0.21734E-02        -0.13312E-02         0.00000E+00
    0.23266E-02        -0.15442E-02         0.00000E+00
    0.24682E-02        -0.17599E-02         0.00000E+00
    0.25991E-02        -0.19771E-02         0.00000E+00
    0.27204E-02        -0.21949E-02         0.00000E+00
    0.28331E-02        -0.24128E-02         0.00000E+00
    0.29379E-02        -0.26305E-02         0.00000E+00
    0.30356E-02        -0.28478E-02         0.00000E+00
    0.31271E-02        -0.30649E-02         0.00000E+00
    0.32131E-02        -0.32816E-02         0.00000E+00
    0.32942E-02        -0.34983E-02         0.00000E+00
    0.33710E-02        -0.37150E-02         0.00000E+00
    0.34441E-02        -0.39321E-02         0.00000E+00
    0.35140E-02        -0.41496E-02         0.00000E+00
    0.35811E-02        -0.43678E-02         0.00000E+00
    0.36458E-02        -0.45869E-02         0.00000E+00
    0.37085E-02        -0.48072E-02         0.00000E+00
    0.37696E-02        -0.50288E-02         0.00000E+00
    0.38294E-02        -0.52519E-02         0.00000E+00
    0.38880E-02        -0.54767E-02         0.00000E+00
    0.39457E-02        -0.57033E-02         0.00000E+00
    0.40027E-02        -0.59320E-02         0.00000E+00
    0.40593E-02        -0.61628E-02         0.00000E+00
    0.41154E-02        -0.63959E-02         0.00000E+00
    0.41713E-02        -0.66314E-02         0.00000E+00
    0.42270E-02        -0.68694E-02         0.00000E+00
    0.42827E-02        -0.71100E-02         0.00000E+00
    0.43384E-02        -0.73534E-02         0.00000E+00
    0.43942E-02        -0.75997E-02         0.00000E+00
    0.44500E-02        -0.78488E-02         0.00000E+00
    0.45060E-02        -0.81010E-02         0.00000E+00
    0.45621E-02        -0.83562E-02         0.00000E+00
    0.46184E-02        -0.86146E-02         0.00000E+00
    0.46749E-02        -0.88763E-02         0.00000E+00
    0.47315E-02        -0.91412E-02         0.00000E+00
    0.47882E-02        -0.94095E-02         0.00000E+00
    0.48450E-02        -0.96812E-02         0.00000E+00
    0.49018E-02        -0.99564E-02         0.00000E+00
    0.49587E-02        -0.10235E-01         0.00000E+00
    0.50155E-02        -0.10517E-01         0.00000E+00
    0.50723E-02        -0.10803E-01         0.00000E+00
    0.51288E-02        -0.11093E-01         0.00000E+00
    0.51851E-02        -0.11386E-01         0.00000E+00
    0.52412E-02        -0.11683E-01         0.00000E+00
    0.52968E-02        -0.11983E-01         0.00000E+00
    0.53518E-02        -0.12288E-01         0.00000E+00
    0.54063E-02        -0.12596E-01         0.00000E+00
    0.54601E-02        -0.12908E-01         0.00000E+00
    0.55130E-02        -0.13224E-01         0.00000E+00
    0.55649E-02        -0.13544E-01         0.00000E+00
    0.56157E-02        -0.13867E-01         0.00000E+00
    0.56651E-02        -0.14195E-01         0.00000E+00
    0.57131E-02        -0.14526E-01         0.00000E+00
    0.57595E-02        -0.14862E-01         0.00000E+00
    0.58039E-02        -0.15201E-01         0.00000E+00
    0.58463E-02        -0.15544E-01         0.00000E+00
    0.58862E-02        -0.15892E-01         0.00000E+00
    0.59236E-02        -0.16243E-01         0.00000E+00
    0.59580E-02        -0.16599E-01         0.00000E+00
    0.59892E-02        -0.16959E-01         0.00000E+00
    0.60167E-02        -0.17322E-01         0.00000E+00
    0.60402E-02        -0.17690E-01         0.00000E+00
    0.60592E-02        -0.18063E-01         0.00000E+00
    0.60732E-02        -0.18439E-01         0.00000E+00
    0.60817E-02        -0.18820E-01         0.00000E+00
    0.60841E-02        -0.19206E-01         0.00000E+00
    0.60798E-02        -0.19596E-01         0.00000E+00
    0.60680E-02        -0.19992E-01         0.00000E+00
    0.60479E-02        -0.20392E-01         0.00000E+00
    0.60186E-02        -0.20797E-01         0.00000E+00
    0.59793E-02        -0.21207E-01         0.00000E+00
    0.59288E-02        -0.21623E-01         0.00000E+00
    0.58661E-02        -0.22044E-01         0.00000E+00
    0.57898E-02        -0.22471E-01         0.00000E+00
    0.56988E-02        -0.22904E-01         0.00000E+00
    0.55916E-02        -0.23342E-01         0.00000E+00
    0.54666E-02        -0.23785E-01         0.00000E+00
    0.53223E-02        -0.24234E-01         0.00000E+00
    0.51569E-02        -0.24687E-01         0.00000E+00
    0.49688E-02        -0.25143E-01         0.00000E+00
    0.47559E-02        -0.25601E-01         0.00000E+00
    0.45163E-02        -0.26059E-01         0.00000E+00
    0.42479E-02        -0.26513E-01         0.00000E+00
    0.39485E-02        -0.26960E-01         0.00000E+00
    0.36156E-02        -0.27393E-01         0.00000E+00
    0.32463E-02        -0.27806E-01         0.00000E+00
    0.28374E-02        -0.28189E-01         0.00000E+00
    0.23847E-02        -0.28532E-01         0.00000E+00
    0.18828E-02        -0.28820E-01         0.00000E+00
    0.13244E-02        -0.29040E-01         0.00000E+00
    0.70049E-03        -0.29179E-01         0.00000E+00
    0.00000E+00        -0.29226E-01         0.00000E+00
    0.00000E+00        -0.83142E-04         0.00000E+00
    0.35562E-03        -0.10604E-03         0.00000E+00
    0.67583E-03        -0.17301E-03         0.00000E+00
    0.96584E-03        -0.27932E-03         0.00000E+00
    0.12300E-02        -0.41855E-03         0.00000E+00
    0.14716E-02        -0.58392E-03         0.00000E+00
    0.16933E-02        -0.76918E-03         0.00000E+00
    0.18971E-02        -0.96905E-03         0.00000E+00
    0.20847E-02        -0.11793E-02         0.00000E+00
    0.22575E-02        -0.13966E-02         0.00000E+00
    0.24169E-02        -0.16185E-02         0.00000E+00
    0.25640E-02        -0.18432E-02         0.00000E+00
    0.27000E-02        -0.20694E-02         0.00000E+00
    0.28259E-02        -0.22962E-02         0.00000E+00
    0.29427E-02        -0.25232E-02         0.00000E+00
    0.30513E-02        -0.27499E-02         0.00000E+00
    0.31526E-02        -0.29764E-02         0.00000E+00
    0.32473E-02        -0.32025E-02         0.00000E+00
    0.33363E-02        -0.34284E-02         0.00000E+00
    0.34202E-02        -0.36543E-02         0.00000E+00
    0.34997E-02        -0.38802E-02         0.00000E+00
    0.35753E-02        -0.41064E-02         0.00000E+00
    0.36476E-02        -0.43332E-02         0.00000E+00
    0.37170E-02        -0.45608E-02         0.00000E+00
    0.37840E-02        -0.47893E-02         0.00000E+00
    0.38490E-02        -0.50190E-02         0.00000E+00
    0.39122E-02        -0.52502E-02         0.00000E+00
    0.39740E-02        -0.54829E-02         0.00000E+00
    0.40347E-02        -0.57174E-02         0.00000E+00
    0.40945E-02        -0.59538E-02         0.00000E+00
    0.41536E-02        -0.61924E-02         0.00000E+00
    0.42122E-02        -0.64331E-02         0.00000E+00
    0.42704E-02        -0.66763E-02         0.00000E+00
    0.43283E-02        -0.69220E-02         0.00000E+00
    0.43861E-02        -0.71704E-02         0.00000E+00
    0.44438E-02        -0.74215E-02         0.00000E+00
    0.45016E-02        -0.76754E-02         0.00000E+00
    0.45594E-02        -0.79324E-02         0.00000E+00
    0.46173E-02        -0.81923E-02         0.00000E+00
    0.46754E-02        -0.84555E-02         0.00000E+00
    0.47336E-02        -0.87218E-02         0.00000E+00
    0.47921E-02        -0.89914E-02         0.00000E+00
    0.48506E-02        -0.92645E-02         0.00000E+00
    0.49093E-02        -0.95409E-02         0.00000E+00
    0.49682E-02        -0.98209E-02         0.00000E+00
    0.50271E-02        -0.10104E-01         0.00000E+00
    0.50861E-02        -0.10392E-01         0.00000E+00
    0.51452E-02        -0.10682E-01         0.00000E+00
    0.52041E-02        -0.10977E-01         0.00000E+00
    0.52630E-02        -0.11275E-01         0.00000E+00
    0.53217E-02        -0.11577E-01         0.00000E+00
    0.53802E-02        -0.11883E-01         0.00000E+00
    0.54384E-02        -0.12193E-01         0.00000E+00
    0.54961E-02        -0.12507E-01         0.00000E+00
    0.55533E-02        -0.12824E-01         0.00000E+00
    0.56099E-02        -0.13146E-01         0.00000E+00
    0.56657E-02        -0.13471E-01         0.00000E+00
    0.57206E-02        -0.13801E-01         0.00000E+00
    0.57745E-02        -0.14134E-01         0.00000E+00
    0.58273E-02        -0.14472E-01         0.00000E+00
    0.58787E-02        -0.14814E-01         0.00000E+00
    0.59286E-02        -0.15160E-01         0.00000E+00
    0.59768E-02        -0.15509E-01         0.00000E+00
    0.60230E-02        -0.15864E-01         0.00000E+00
    0.60670E-02        -0.16222E-01         0.00000E+00
    0.61086E-02        -0.16584E-01         0.00000E+00
    0.61475E-02        -0.16951E-01         0.00000E+00
    0.61834E-02        -0.17322E-01         0.00000E+00
    0.62159E-02        -0.17697E-01         0.00000E+00
    0.62446E-02        -0.18076E-01         0.00000E+00
    0.62692E-02        -0.18460E-01         0.00000E+00
    0.62891E-02        -0.18848E-01         0.00000E+00
    0.63040E-02        -0.19241E-01         0.00000E+00
    0.63131E-02        -0.19638E-01         0.00000E+00
    0.63159E-02        -0.20040E-01         0.00000E+00
    0.63117E-02        -0.20447E-01         0.00000E+00
    0.62998E-02        -0.20859E-01         0.00000E+00
    0.62793E-02        -0.21276E-01         0.00000E+00
    0.62494E-02        -0.21699E-01         0.00000E+00
    0.62090E-02        -0.22126E-01         0.00000E+00
    0.61571E-02        -0.22559E-01         0.00000E+00
    0.60925E-02        -0.22998E-01         0.00000E+00
    0.60139E-02        -0.23443E-01         0.00000E+00
    0.59199E-02        -0.23894E-01         0.00000E+00
    0.58090E-02        -0.24350E-01         0.00000E+00
    0.56797E-02        -0.24812E-01         0.00000E+00
    0.55303E-02        -0.25279E-01         0.00000E+00
    0.53588E-02        -0.25751E-01         0.00000E+00
    0.51635E-02        -0.26226E-01         0.00000E+00
    0.49423E-02        -0.26703E-01         0.00000E+00
    0.46931E-02        -0.27179E-01         0.00000E+00
    0.44137E-02        -0.27652E-01         0.00000E+00
    0.41017E-02        -0.28118E-01         0.00000E+00
    0.37546E-02        -0.28569E-01         0.00000E+00
    0.33694E-02        -0.28999E-01         0.00000E+00
    0.29429E-02        -0.29399E-01         0.00000E+00
    0.24710E-02        -0.29756E-01         0.00000E+00
    0.19485E-02        -0.30057E-01         0.00000E+00
    0.13687E-02        -0.30287E-01         0.00000E+00
    0.72277E-03        -0.30432E-01         0.00000E+00
    0.00000E+00        -0.30482E-01         0.00000E+00
    0.00000E+00        -0.94428E-04         0.00000E+00
    0.36659E-03        -0.11837E-03         0.00000E+00
    0.69767E-03        -0.18834E-03         0.00000E+00
    0.99831E-03        -0.29934E-03         0.00000E+00
    0.12727E-02        -0.44456E-03         0.00000E+00
    0.15239E-02        -0.61690E-03         0.00000E+00
    0.17545E-02        -0.80982E-03         0.00000E+00
    0.19665E-02        -0.10178E-02         0.00000E+00
    0.21616E-02        -0.12365E-02         0.00000E+00
    0.23412E-02        -0.14625E-02         0.00000E+00
    0.25066E-02        -0.16932E-02         0.00000E+00
    0.26593E-02        -0.19269E-02         0.00000E+00
    0.28002E-02        -0.21620E-02         0.00000E+00
    0.29305E-02        -0.23979E-02         0.00000E+00
    0.30514E-02        -0.26339E-02         0.00000E+00
    0.31637E-02        -0.28698E-02         0.00000E+00
    0.32684E-02        -0.31053E-02         0.00000E+00
    0.33663E-02        -0.33405E-02         0.00000E+00
    0.34582E-02        -0.35755E-02         0.00000E+00
    0.35448E-02        -0.38105E-02         0.00000E+00
    0.36269E-02        -0.40456E-02         0.00000E+00
    0.37050E-02        -0.42810E-02         0.00000E+00
    0.37796E-02        -0.45171E-02         0.00000E+00
    0.38513E-02        -0.47540E-02         0.00000E+00
    0.39205E-02        -0.49919E-02         0.00000E+00
    0.39876E-02        -0.52310E-02         0.00000E+00
    0.40530E-02        -0.54717E-02         0.00000E+00
    0.41169E-02        -0.57140E-02         0.00000E+00
    0.41797E-02        -0.59582E-02         0.00000E+00
    0.42415E-02        -0.62044E-02         0.00000E+00
    0.43026E-02        -0.64529E-02         0.00000E+00
    0.43632E-02        -0.67036E-02         0.00000E+00
    0.44234E-02        -0.69569E-02         0.00000E+00
    0.44833E-02        -0.72128E-02         0.00000E+00
    0.45431E-02        -0.74715E-02         0.00000E+00
    0.46029E-02        -0.77331E-02         0.00000E+00
    0.46626E-02        -0.79976E-02         0.00000E+00
    0.47225E-02        -0.82652E-02         0.00000E+00
    0.47825E-02        -0.85360E-02         0.00000E+00
    0.48426E-02        -0.88101E-02         0.00000E+00
    0.49029E-02        -0.90875E-02         0.00000E+00
    0.49634E-02        -0.93684E-02         0.00000E+00
    0.50241E-02        -0.96528E-02         0.00000E+00
    0.50849E-02        -0.99408E-02         0.00000E+00
    0.51458E-02        -0.10232E-01         0.00000E+00
    0.52069E-02        -0.10528E-01         0.00000E+00
    0.52680E-02        -0.10827E-01         0.00000E+00
    0.53292E-02        -0.11130E-01         0.00000E+00
    0.53903E-02        -0.11436E-01         0.00000E+00
    0.54513E-02        -0.11747E-01         0.00000E+00
    0.55121E-02        -0.12062E-01         0.00000E+00
    0.55727E-02        -0.12380E-01         0.00000E+00
    0.56330E-02        -0.12703E-01         0.00000E+00
    0.56928E-02        -0.13030E-01         0.00000E+00
    0.57521E-02        -0.13361E-01         0.00000E+00
    0.58108E-02        -0.13696E-01         0.00000E+00
    0.58687E-02        -0.14035E-01         0.00000E+00
    0.59256E-02        -0.14378E-01         0.00000E+00
    0.59815E-02        -0.14725E-01         0.00000E+00
    0.60362E-02        -0.15077E-01         0.00000E+00
    0.60896E-02        -0.15433E-01         0.00000E+00
    0.61413E-02        -0.15793E-01         0.00000E+00
    0.61913E-02        -0.16157E-01         0.00000E+00
    0.62393E-02        -0.16526E-01         0.00000E+00
    0.62851E-02        -0.16899E-01         0.00000E+00
    0.63283E-02        -0.17276E-01         0.00000E+00
    0.63687E-02        -0.17658E-01         0.00000E+00
    0.64060E-02        -0.18044E-01         0.00000E+00
    0.64399E-02        -0.18435E-01         0.00000E+00
    0.64698E-02        -0.18830E-01         0.00000E+00
    0.64955E-02        -0.19229E-01         0.00000E+00
    0.65164E-02        -0.19634E-01         0.00000E+00
    0.65320E-02        -0.20043E-01         0.00000E+00
    0.65418E-02        -0.20456E-01         0.00000E+00
    0.65450E-02        -0.20875E-01         0.00000E+00
    0.65411E-02        -0.21298E-01         0.00000E+00
    0.65291E-02        -0.21727E-01         0.00000E+00
    0.65084E-02        -0.22161E-01         0.00000E+00
    0.64778E-02        -0.22600E-01         0.00000E+00
    0.64365E-02        -0.23045E-01         0.00000E+00
    0.63832E-02        -0.23496E-01         0.00000E+00
    0.63168E-02        -0.23952E-01         0.00000E+00
    0.62359E-02        -0.24415E-01         0.00000E+00
    0.61391E-02        -0.24883E-01         0.00000E+00
    0.60248E-02        -0.25358E-01         0.00000E+00
    0.58913E-02        -0.25838E-01         0.00000E+00
    0.57368E-02        -0.26324E-01         0.00000E+00
    0.55594E-02        -0.26814E-01         0.00000E+00
    0.53571E-02        -0.27308E-01         0.00000E+00
    0.51278E-02        -0.27803E-01         0.00000E+00
    0.48691E-02        -0.28299E-01         0.00000E+00
    0.45788E-02        -0.28791E-01         0.00000E+00
    0.42544E-02        -0.29274E-01         0.00000E+00
    0.38931E-02        -0.29744E-01         0.00000E+00
    0.34920E-02        -0.30192E-01         0.00000E+00
    0.30480E-02        -0.30608E-01         0.00000E+00
    0.25569E-02        -0.30980E-01         0.00000E+00
    0.20140E-02        -0.31294E-01         0.00000E+00
    0.14128E-02        -0.31534E-01         0.00000E+00
    0.74495E-03        -0.31686E-01         0.00000E+00
    0.00000E+00        -0.31738E-01         0.00000E+00
    0.00000E+00        -0.10584E-03         0.00000E+00
    0.37753E-03        -0.13086E-03         0.00000E+00
    0.71943E-03        -0.20393E-03         0.00000E+00
    0.10307E-02        -0.31971E-03         0.00000E+00
    0.13152E-02        -0.47103E-03         0.00000E+00
    0.15761E-02        -0.65040E-03         0.00000E+00
    0.18156E-02        -0.85101E-03         0.00000E+00
    0.20357E-02        -0.10672E-02         0.00000E+00
    0.22382E-02        -0.12943E-02         0.00000E+00
    0.24244E-02        -0.15290E-02         0.00000E+00
    0.25958E-02        -0.17685E-02         0.00000E+00
    0.27538E-02        -0.20111E-02         0.00000E+00
    0.28996E-02        -0.22552E-02         0.00000E+00
    0.30343E-02        -0.25001E-02         0.00000E+00
    0.31592E-02        -0.27451E-02         0.00000E+00
    0.32751E-02        -0.29900E-02         0.00000E+00
    0.33831E-02        -0.32345E-02         0.00000E+00
    0.34840E-02        -0.34788E-02         0.00000E+00
    0.35788E-02        -0.37229E-02         0.00000E+00
    0.36681E-02        -0.39670E-02         0.00000E+00
    0.37527E-02        -0.42112E-02         0.00000E+00
    0.38332E-02        -0.44559E-02         0.00000E+00
    0.39102E-02        -0.47012E-02         0.00000E+00
    0.39841E-02        -0.49474E-02         0.00000E+00
    0.40554E-02        -0.51946E-02         0.00000E+00
    0.41246E-02        -0.54432E-02         0.00000E+00
    0.41920E-02        -0.56934E-02         0.00000E+00
    0.42580E-02        -0.59453E-02         0.00000E+00
    0.43227E-02        -0.61992E-02         0.00000E+00
    0.43865E-02        -0.64552E-02         0.00000E+00
    0.44496E-02        -0.67135E-02         0.00000E+00
    0.45122E-02        -0.69743E-02         0.00000E+00
    0.45743E-02        -0.72377E-02         0.00000E+00
    0.46363E-02        -0.75038E-02         0.00000E+00
    0.46980E-02        -0.77728E-02         0.00000E+00
    0.47598E-02        -0.80448E-02         0.00000E+00
    0.48215E-02        -0.83199E-02         0.00000E+00
    0.48834E-02        -0.85982E-02         0.00000E+00
    0.49454E-02        -0.88798E-02         0.00000E+00
    0.50076E-02        -0.91649E-02         0.00000E+00
    0.50699E-02        -0.94534E-02         0.00000E+00
    0.51325E-02        -0.97455E-02         0.00000E+00
    0.51952E-02        -0.10041E-01         0.00000E+00
    0.52581E-02        -0.10341E-01         0.00000E+00
    0.53211E-02        -0.10644E-01         0.00000E+00
    0.53843E-02        -0.10951E-01         0.00000E+00
    0.54475E-02        -0.11262E-01         0.00000E+00
    0.55108E-02        -0.11577E-01         0.00000E+00
    0.55740E-02        -0.11896E-01         0.00000E+00
    0.56371E-02        -0.12219E-01         0.00000E+00
    0.57001E-02        -0.12547E-01         0.00000E+00
    0.57627E-02        -0.12878E-01         0.00000E+00
    0.58251E-02        -0.13213E-01         0.00000E+00
    0.58870E-02        -0.13553E-01         0.00000E+00
    0.59484E-02        -0.13897E-01         0.00000E+00
    0.60091E-02        -0.14245E-01         0.00000E+00
    0.60690E-02        -0.14598E-01         0.00000E+00
    0.61280E-02        -0.14955E-01         0.00000E+00
    0.61859E-02        -0.15316E-01         0.00000E+00
    0.62425E-02        -0.15682E-01         0.00000E+00
    0.62977E-02        -0.16052E-01         0.00000E+00
    0.63514E-02        -0.16426E-01         0.00000E+00
    0.64032E-02        -0.16805E-01         0.00000E+00
    0.64529E-02        -0.17189E-01         0.00000E+00
    0.65003E-02        -0.17576E-01         0.00000E+00
    0.65452E-02        -0.17969E-01         0.00000E+00
    0.65872E-02        -0.18366E-01         0.00000E+00
    0.66259E-02        -0.18767E-01         0.00000E+00
    0.66611E-02        -0.19173E-01         0.00000E+00
    0.66923E-02        -0.19584E-01         0.00000E+00
    0.67191E-02        -0.19999E-01         0.00000E+00
    0.67410E-02        -0.20419E-01         0.00000E+00
    0.67574E-02        -0.20844E-01         0.00000E+00
    0.67679E-02        -0.21274E-01         0.00000E+00
    0.67716E-02        -0.21709E-01         0.00000E+00
    0.67679E-02        -0.22149E-01         0.00000E+00
    0.67560E-02        -0.22594E-01         0.00000E+00
    0.67349E-02        -0.23045E-01         0.00000E+00
    0.67039E-02        -0.23501E-01         0.00000E+00
    0.66617E-02        -0.23964E-01         0.00000E+00
    0.66072E-02        -0.24432E-01         0.00000E+00
    0.65391E-02        -0.24906E-01         0.00000E+00
    0.64560E-02        -0.25386E-01         0.00000E+00
    0.63565E-02        -0.25872E-01         0.00000E+00
    0.62388E-02        -0.26365E-01         0.00000E+00
    0.61012E-02        -0.26863E-01         0.00000E+00
    0.59419E-02        -0.27367E-01         0.00000E+00
    0.57587E-02        -0.27876E-01         0.00000E+00
    0.55496E-02        -0.28389E-01         0.00000E+00
    0.53123E-02        -0.28903E-01         0.00000E+00
    0.50444E-02        -0.29417E-01         0.00000E+00
    0.47433E-02        -0.29928E-01         0.00000E+00
    0.44066E-02        -0.30430E-01         0.00000E+00
    0.40313E-02        -0.30918E-01         0.00000E+00
    0.36145E-02        -0.31383E-01         0.00000E+00
    0.31529E-02        -0.31816E-01         0.00000E+00
    0.26428E-02        -0.32203E-01         0.00000E+00
    0.20794E-02        -0.32530E-01         0.00000E+00
    0.14569E-02        -0.32781E-01         0.00000E+00
    0.76708E-03        -0.32939E-01         0.00000E+00
    0.00000E+00        -0.32993E-01         0.00000E+00
    0.00000E+00        -0.11732E-03         0.00000E+00
    0.38843E-03        -0.14346E-03         0.00000E+00
    0.74116E-03        -0.21972E-03         0.00000E+00
    0.10630E-02        -0.34042E-03         0.00000E+00
    0.13577E-02        -0.49793E-03         0.00000E+00
    0.16281E-02        -0.68440E-03         0.00000E+00
    0.18765E-02        -0.89275E-03         0.00000E+00
    0.21047E-02        -0.11171E-02         0.00000E+00
    0.23144E-02        -0.13527E-02         0.00000E+00
    0.25072E-02        -0.15960E-02         0.00000E+00
    0.26845E-02        -0.18443E-02         0.00000E+00
    0.28478E-02        -0.20957E-02         0.00000E+00
    0.29983E-02        -0.23488E-02         0.00000E+00
    0.31373E-02        -0.26026E-02         0.00000E+00
    0.32660E-02        -0.28566E-02         0.00000E+00
    0.33855E-02        -0.31105E-02         0.00000E+00
    0.34967E-02        -0.33641E-02         0.00000E+00
    0.36006E-02        -0.36174E-02         0.00000E+00
    0.36982E-02        -0.38706E-02         0.00000E+00
    0.37901E-02        -0.41237E-02         0.00000E+00
    0.38771E-02        -0.43771E-02         0.00000E+00
    0.39599E-02        -0.46309E-02         0.00000E+00
    0.40391E-02        -0.48855E-02         0.00000E+00
    0.41152E-02        -0.51409E-02         0.00000E+00
    0.41887E-02        -0.53976E-02         0.00000E+00
    0.42599E-02        -0.56556E-02         0.00000E+00
    0.43293E-02        -0.59153E-02         0.00000E+00
    0.43972E-02        -0.61768E-02         0.00000E+00
    0.44639E-02        -0.64404E-02         0.00000E+00
    0.45297E-02        -0.67062E-02         0.00000E+00
    0.45947E-02        -0.69743E-02         0.00000E+00
    0.46592E-02        -0.72451E-02         0.00000E+00
    0.47233E-02        -0.75186E-02         0.00000E+00
    0.47872E-02        -0.77949E-02         0.00000E+00
    0.48509E-02        -0.80742E-02         0.00000E+00
    0.49146E-02        -0.83566E-02         0.00000E+00
    0.49783E-02        -0.86423E-02         0.00000E+00
    0.50422E-02        -0.89313E-02         0.00000E+00
    0.51062E-02        -0.92238E-02         0.00000E+00
    0.51703E-02        -0.95198E-02         0.00000E+00
    0.52347E-02        -0.98194E-02         0.00000E+00
    0.52993E-02        -0.10123E-01         0.00000E+00
    0.53640E-02        -0.10430E-01         0.00000E+00
    0.54290E-02        -0.10741E-01         0.00000E+00
    0.54941E-02        -0.11056E-01         0.00000E+00
    0.55593E-02        -0.11375E-01         0.00000E+00
    0.56246E-02        -0.11698E-01         0.00000E+00
    0.56899E-02        -0.12025E-01         0.00000E+00
    0.57552E-02        -0.12356E-01         0.00000E+00
    0.58204E-02        -0.12692E-01         0.00000E+00
    0.58855E-02        -0.13031E-01         0.00000E+00
    0.59502E-02        -0.13375E-01         0.00000E+00
    0.60147E-02        -0.13724E-01         0.00000E+00
    0.60786E-02        -0.14077E-01         0.00000E+00
    0.61420E-02        -0.14434E-01         0.00000E+00
    0.62048E-02        -0.14796E-01         0.00000E+00
    0.62667E-02        -0.15162E-01         0.00000E+00
    0.63277E-02        -0.15532E-01         0.00000E+00
    0.63875E-02        -0.15907E-01         0.00000E+00
    0.64461E-02        -0.16287E-01         0.00000E+00
    0.65032E-02        -0.16671E-01         0.00000E+00
    0.65587E-02        -0.17060E-01         0.00000E+00
    0.66123E-02        -0.17453E-01         0.00000E+00
    0.66638E-02        -0.17851E-01         0.00000E+00
    0.67129E-02        -0.18254E-01         0.00000E+00
    0.67594E-02        -0.18661E-01         0.00000E+00
    0.68029E-02        -0.19073E-01         0.00000E+00
    0.68431E-02        -0.19490E-01         0.00000E+00
    0.68796E-02        -0.19911E-01         0.00000E+00
    0.69121E-02        -0.20338E-01         0.00000E+00
    0.69400E-02        -0.20769E-01         0.00000E+00
    0.69629E-02        -0.21205E-01         0.00000E+00
    0.69802E-02        -0.21646E-01         0.00000E+00
    0.69913E-02        -0.22092E-01         0.00000E+00
    0.69955E-02        -0.22543E-01         0.00000E+00
    0.69921E-02        -0.23000E-01         0.00000E+00
    0.69803E-02        -0.23462E-01         0.00000E+00
    0.69591E-02        -0.23929E-01         0.00000E+00
    0.69276E-02        -0.24403E-01         0.00000E+00
    0.68846E-02        -0.24882E-01         0.00000E+00
    0.68289E-02        -0.25367E-01         0.00000E+00
    0.67593E-02        -0.25859E-01         0.00000E+00
    0.66742E-02        -0.26357E-01         0.00000E+00
    0.65720E-02        -0.26861E-01         0.00000E+00
    0.64511E-02        -0.27372E-01         0.00000E+00
    0.63097E-02        -0.27888E-01         0.00000E+00
    0.61456E-02        -0.28411E-01         0.00000E+00
    0.59569E-02        -0.28938E-01         0.00000E+00
    0.57411E-02        -0.29469E-01         0.00000E+00
    0.54960E-02        -0.30002E-01         0.00000E+00
    0.52189E-02        -0.30535E-01         0.00000E+00
    0.49073E-02        -0.31064E-01         0.00000E+00
    0.45584E-02        -0.31585E-01         0.00000E+00
    0.41692E-02        -0.32090E-01         0.00000E+00
    0.37368E-02        -0.32573E-01         0.00000E+00
    0.32578E-02        -0.33022E-01         0.00000E+00
    0.27286E-02        -0.33425E-01         0.00000E+00
    0.21449E-02        -0.33766E-01         0.00000E+00
    0.15009E-02        -0.34027E-01         0.00000E+00
    0.78920E-03        -0.34192E-01         0.00000E+00
    0.00000E+00        -0.34248E-01         0.00000E+00
    0.00000E+00        -0.12884E-03         0.00000E+00
    0.39934E-03        -0.15613E-03         0.00000E+00
    0.76288E-03        -0.23570E-03         0.00000E+00
    0.10953E-02        -0.36143E-03         0.00000E+00
    0.14001E-02        -0.52525E-03         0.00000E+00
    0.16801E-02        -0.71890E-03         0.00000E+00
    0.19373E-02        -0.93502E-03         0.00000E+00
    0.21735E-02        -0.11675E-02         0.00000E+00
    0.23904E-02        -0.14116E-02         0.00000E+00
    0.25897E-02        -0.16635E-02         0.00000E+00
    0.27728E-02        -0.19206E-02         0.00000E+00
    0.29412E-02        -0.21809E-02         0.00000E+00
    0.30964E-02        -0.24428E-02         0.00000E+00
    0.32396E-02        -0.27056E-02         0.00000E+00
    0.33720E-02        -0.29685E-02         0.00000E+00
    0.34949E-02        -0.32314E-02         0.00000E+00
    0.36092E-02        -0.34939E-02         0.00000E+00
    0.37160E-02        -0.37563E-02         0.00000E+00
    0.38163E-02        -0.40185E-02         0.00000E+00
    0.39107E-02        -0.42807E-02         0.00000E+00
    0.40001E-02        -0.45432E-02         0.00000E+00
    0.40852E-02        -0.48062E-02         0.00000E+00
    0.41666E-02        -0.50700E-02         0.00000E+00
    0.42447E-02        -0.53347E-02         0.00000E+00
    0.43202E-02        -0.56007E-02         0.00000E+00
    0.43935E-02        -0.58681E-02         0.00000E+00
    0.44648E-02        -0.61373E-02         0.00000E+00
    0.45347E-02        -0.64084E-02         0.00000E+00
    0.46033E-02        -0.66817E-02         0.00000E+00
    0.46710E-02        -0.69572E-02         0.00000E+00
    0.47379E-02        -0.72353E-02         0.00000E+00
    0.48043E-02        -0.75160E-02         0.00000E+00
    0.48703E-02        -0.77996E-02         0.00000E+00
    0.49361E-02        -0.80861E-02         0.00000E+00
    0.50017E-02        -0.83757E-02         0.00000E+00
    0.50673E-02        -0.86686E-02         0.00000E+00
    0.51330E-02        -0.89649E-02         0.00000E+00
    0.51988E-02        -0.92646E-02         0.00000E+00
    0.52647E-02        -0.95678E-02         0.00000E+00
    0.53309E-02        -0.98748E-02         0.00000E+00
    0.53972E-02        -0.10185E-01         0.00000E+00
    0.54638E-02        -0.10500E-01         0.00000E+00
    0.55306E-02        -0.10819E-01         0.00000E+00
    0.55975E-02        -0.11141E-01         0.00000E+00
    0.56647E-02        -0.11468E-01         0.00000E+00
    0.57319E-02        -0.11798E-01         0.00000E+00
    0.57993E-02        -0.12133E-01         0.00000E+00
    0.58667E-02        -0.12473E-01         0.00000E+00
    0.59340E-02        -0.12816E-01         0.00000E+00
    0.60013E-02        -0.13164E-01         0.00000E+00
    0.60684E-02        -0.13516E-01         0.00000E+00
    0.61352E-02        -0.13873E-01         0.00000E+00
    0.62017E-02        -0.14235E-01         0.00000E+00
    0.62677E-02        -0.14600E-01         0.00000E+00
    0.63331E-02        -0.14971E-01         0.00000E+00
    0.63979E-02        -0.15346E-01         0.00000E+00
    0.64618E-02        -0.15725E-01         0.00000E+00
    0.65247E-02        -0.16110E-01         0.00000E+00
    0.65865E-02        -0.16499E-01         0.00000E+00
    0.66470E-02        -0.16892E-01         0.00000E+00
    0.67060E-02        -0.17291E-01         0.00000E+00
    0.67633E-02        -0.17694E-01         0.00000E+00
    0.68187E-02        -0.18102E-01         0.00000E+00
    0.68719E-02        -0.18514E-01         0.00000E+00
    0.69227E-02        -0.18932E-01         0.00000E+00
    0.69708E-02        -0.19354E-01         0.00000E+00
    0.70159E-02        -0.19781E-01         0.00000E+00
    0.70575E-02        -0.20213E-01         0.00000E+00
    0.70954E-02        -0.20650E-01         0.00000E+00
    0.71292E-02        -0.21091E-01         0.00000E+00
    0.71582E-02        -0.21538E-01         0.00000E+00
    0.71822E-02        -0.21990E-01         0.00000E+00
    0.72003E-02        -0.22447E-01         0.00000E+00
    0.72122E-02        -0.22909E-01         0.00000E+00
    0.72169E-02        -0.23377E-01         0.00000E+00
    0.72139E-02        -0.23850E-01         0.00000E+00
    0.72022E-02        -0.24329E-01         0.00000E+00
    0.71809E-02        -0.24813E-01         0.00000E+00
    0.71490E-02        -0.25304E-01         0.00000E+00
    0.71053E-02        -0.25800E-01         0.00000E+00
    0.70486E-02        -0.26303E-01         0.00000E+00
    0.69774E-02        -0.26812E-01         0.00000E+00
    0.68904E-02        -0.27327E-01         0.00000E+00
    0.67858E-02        -0.27849E-01         0.00000E+00
    0.66619E-02        -0.28378E-01         0.00000E+00
    0.65167E-02        -0.28913E-01         0.00000E+00
    0.63481E-02        -0.29453E-01         0.00000E+00
    0.61539E-02        -0.29999E-01         0.00000E+00
    0.59317E-02        -0.30549E-01         0.00000E+00
    0.56789E-02        -0.31101E-01         0.00000E+00
    0.53930E-02        -0.31652E-01         0.00000E+00
    0.50710E-02        -0.32199E-01         0.00000E+00
    0.47101E-02        -0.32738E-01         0.00000E+00
    0.43072E-02        -0.33262E-01         0.00000E+00
    0.38592E-02        -0.33762E-01         0.00000E+00
    0.33628E-02        -0.34228E-01         0.00000E+00
    0.28146E-02        -0.34647E-01         0.00000E+00
    0.22104E-02        -0.35001E-01         0.00000E+00
    0.15450E-02        -0.35273E-01         0.00000E+00
    0.81136E-03        -0.35445E-01         0.00000E+00
    0.00000E+00        -0.35504E-01         0.00000E+00
    0.00000E+00        -0.14033E-03         0.00000E+00
    0.41027E-03        -0.16883E-03         0.00000E+00
    0.78465E-03        -0.25182E-03         0.00000E+00
    0.11277E-02        -0.38272E-03         0.00000E+00
    0.14426E-02        -0.55296E-03         0.00000E+00
    0.17321E-02        -0.75387E-03         0.00000E+00
    0.19980E-02        -0.97780E-03         0.00000E+00
    0.22421E-02        -0.12185E-02         0.00000E+00
    0.24662E-02        -0.14710E-02         0.00000E+00
    0.26718E-02        -0.17316E-02         0.00000E+00
    0.28606E-02        -0.19974E-02         0.00000E+00
    0.30341E-02        -0.22664E-02         0.00000E+00
    0.31938E-02        -0.25373E-02         0.00000E+00
    0.33410E-02        -0.28089E-02         0.00000E+00
    0.34771E-02        -0.30808E-02         0.00000E+00
    0.36033E-02        -0.33525E-02         0.00000E+00
    0.37207E-02        -0.36241E-02         0.00000E+00
    0.38303E-02        -0.38954E-02         0.00000E+00
    0.39331E-02        -0.41666E-02         0.00000E+00
    0.40300E-02        -0.44379E-02         0.00000E+00
    0.41217E-02        -0.47095E-02         0.00000E+00
    0.42090E-02        -0.49817E-02         0.00000E+00
    0.42925E-02        -0.52546E-02         0.00000E+00
    0.43727E-02        -0.55286E-02         0.00000E+00
    0.44501E-02        -0.58040E-02         0.00000E+00
    0.45253E-02        -0.60808E-02         0.00000E+00
    0.45986E-02        -0.63595E-02         0.00000E+00
    0.46704E-02        -0.66402E-02         0.00000E+00
    0.47409E-02        -0.69231E-02         0.00000E+00
    0.48104E-02        -0.72084E-02         0.00000E+00
    0.48792E-02        -0.74964E-02         0.00000E+00
    0.49474E-02        -0.77871E-02         0.00000E+00
    0.50153E-02        -0.80807E-02         0.00000E+00
    0.50829E-02        -0.83775E-02         0.00000E+00
    0.51504E-02        -0.86774E-02         0.00000E+00
    0.52180E-02        -0.89807E-02         0.00000E+00
    0.52855E-02        -0.92875E-02         0.00000E+00
    0.53532E-02        -0.95979E-02         0.00000E+00
    0.54211E-02        -0.99120E-02         0.00000E+00
    0.54892E-02        -0.10230E-01         0.00000E+00
    0.55575E-02        -0.10552E-01         0.00000E+00
    0.56260E-02        -0.10878E-01         0.00000E+00
    0.56948E-02        -0.11207E-01         0.00000E+00
    0.57638E-02        -0.11541E-01         0.00000E+00
    0.58329E-02        -0.11880E-01         0.00000E+00
    0.59022E-02        -0.12222E-01         0.00000E+00
    0.59715E-02        -0.12569E-01         0.00000E+00
    0.60410E-02        -0.12920E-01         0.00000E+00
    0.61103E-02        -0.13276E-01         0.00000E+00
    0.61796E-02        -0.13637E-01         0.00000E+00
    0.62488E-02        -0.14002E-01         0.00000E+00
    0.63176E-02        -0.14371E-01         0.00000E+00
    0.63861E-02        -0.14745E-01         0.00000E+00
    0.64541E-02        -0.15124E-01         0.00000E+00
    0.65216E-02        -0.15508E-01         0.00000E+00
    0.65883E-02        -0.15896E-01         0.00000E+00
    0.66542E-02        -0.16289E-01         0.00000E+00
    0.67191E-02        -0.16687E-01         0.00000E+00
    0.67828E-02        -0.17090E-01         0.00000E+00
    0.68452E-02        -0.17498E-01         0.00000E+00
    0.69061E-02        -0.17910E-01         0.00000E+00
    0.69652E-02        -0.18327E-01         0.00000E+00
    0.70224E-02        -0.18750E-01         0.00000E+00
    0.70774E-02        -0.19177E-01         0.00000E+00
    0.71298E-02        -0.19609E-01         0.00000E+00
    0.71795E-02        -0.20046E-01         0.00000E+00
    0.72261E-02        -0.20488E-01         0.00000E+00
    0.72692E-02        -0.20936E-01         0.00000E+00
    0.73085E-02        -0.21388E-01         0.00000E+00
    0.73435E-02        -0.21845E-01         0.00000E+00
    0.73738E-02        -0.22308E-01         0.00000E+00
    0.73987E-02        -0.22776E-01         0.00000E+00
    0.74178E-02        -0.23249E-01         0.00000E+00
    0.74304E-02        -0.23727E-01         0.00000E+00
    0.74358E-02        -0.24211E-01         0.00000E+00
    0.74331E-02        -0.24701E-01         0.00000E+00
    0.74216E-02        -0.25196E-01         0.00000E+00
    0.74003E-02        -0.25697E-01         0.00000E+00
    0.73681E-02        -0.26204E-01         0.00000E+00
    0.73238E-02        -0.26718E-01         0.00000E+00
    0.72661E-02        -0.27238E-01         0.00000E+00
    0.71936E-02        -0.27764E-01         0.00000E+00
    0.71048E-02        -0.28297E-01         0.00000E+00
    0.69979E-02        -0.28837E-01         0.00000E+00
    0.68710E-02        -0.29384E-01         0.00000E+00
    0.67223E-02        -0.29937E-01         0.00000E+00
    0.65493E-02        -0.30495E-01         0.00000E+00
    0.63499E-02        -0.31059E-01         0.00000E+00
    0.61214E-02        -0.31628E-01         0.00000E+00
    0.58613E-02        -0.32198E-01         0.00000E+00
    0.55666E-02        -0.32768E-01         0.00000E+00
    0.52344E-02        -0.33334E-01         0.00000E+00
    0.48617E-02        -0.33891E-01         0.00000E+00
    0.44452E-02        -0.34433E-01         0.00000E+00
    0.39818E-02        -0.34951E-01         0.00000E+00
    0.34682E-02        -0.35433E-01         0.00000E+00
    0.29009E-02        -0.35867E-01         0.00000E+00
    0.22762E-02        -0.36235E-01         0.00000E+00
    0.15893E-02        -0.36518E-01         0.00000E+00
    0.83361E-03        -0.36698E-01         0.00000E+00
    0.00000E+00        -0.36759E-01         0.00000E+00
    0.00000E+00        -0.15176E-03         0.00000E+00
    0.42124E-03        -0.18151E-03         0.00000E+00
    0.80651E-03        -0.26805E-03         0.00000E+00
    0.11601E-02        -0.40428E-03         0.00000E+00
    0.14853E-02        -0.58105E-03         0.00000E+00
    0.17842E-02        -0.78929E-03         0.00000E+00
    0.20588E-02        -0.10211E-02         0.00000E+00
    0.23108E-02        -0.12700E-02         0.00000E+00
    0.25419E-02        -0.15310E-02         0.00000E+00
    0.27537E-02        -0.18001E-02         0.00000E+00
    0.29481E-02        -0.20747E-02         0.00000E+00
    0.31265E-02        -0.23525E-02         0.00000E+00
    0.32906E-02        -0.26321E-02         0.00000E+00
    0.34418E-02        -0.29126E-02         0.00000E+00
    0.35814E-02        -0.31934E-02         0.00000E+00
    0.37108E-02        -0.34741E-02         0.00000E+00
    0.38311E-02        -0.37545E-02         0.00000E+00
    0.39434E-02        -0.40348E-02         0.00000E+00
    0.40488E-02        -0.43151E-02         0.00000E+00
    0.41480E-02        -0.45954E-02         0.00000E+00
    0.42420E-02        -0.48761E-02         0.00000E+00
    0.43313E-02        -0.51574E-02         0.00000E+00
    0.44168E-02        -0.54395E-02         0.00000E+00
    0.44990E-02        -0.57228E-02         0.00000E+00
    0.45784E-02        -0.60074E-02         0.00000E+00
    0.46555E-02        -0.62937E-02         0.00000E+00
    0.47306E-02        -0.65819E-02         0.00000E+00
    0.48042E-02        -0.68721E-02         0.00000E+00
    0.48765E-02        -0.71647E-02         0.00000E+00
    0.49479E-02        -0.74598E-02         0.00000E+00
    0.50185E-02        -0.77576E-02         0.00000E+00
    0.50886E-02        -0.80583E-02         0.00000E+00
    0.51583E-02        -0.83620E-02         0.00000E+00
    0.52277E-02        -0.86689E-02         0.00000E+00
    0.52971E-02        -0.89792E-02         0.00000E+00
    0.53665E-02        -0.92930E-02         0.00000E+00
    0.54359E-02        -0.96103E-02         0.00000E+00
    0.55055E-02        -0.99314E-02         0.00000E+00
    0.55753E-02        -0.10256E-01         0.00000E+00
    0.56453E-02        -0.10585E-01         0.00000E+00
    0.57155E-02        -0.10918E-01         0.00000E+00
    0.57860E-02        -0.11255E-01         0.00000E+00
    0.58567E-02        -0.11596E-01         0.00000E+00
    0.59277E-02        -0.11942E-01         0.00000E+00
    0.59988E-02        -0.12292E-01         0.00000E+00
    0.60700E-02        -0.12646E-01         0.00000E+00
    0.61414E-02        -0.13005E-01         0.00000E+00
    0.62128E-02        -0.13368E-01         0.00000E+00
    0.62842E-02        -0.13737E-01         0.00000E+00
    0.63555E-02        -0.14109E-01         0.00000E+00
    0.64267E-02        -0.14487E-01         0.00000E+00
    0.64975E-02        -0.14869E-01         0.00000E+00
    0.65680E-02        -0.15256E-01         0.00000E+00
    0.66380E-02        -0.15648E-01         0.00000E+00
    0.67075E-02        -0.16045E-01         0.00000E+00
    0.67762E-02        -0.16446E-01         0.00000E+00
    0.68440E-02        -0.16853E-01         0.00000E+00
    0.69109E-02        -0.17265E-01         0.00000E+00
    0.69765E-02        -0.17681E-01         0.00000E+00
    0.70408E-02        -0.18103E-01         0.00000E+00
    0.71035E-02        -0.18530E-01         0.00000E+00
    0.71644E-02        -0.18961E-01         0.00000E+00
    0.72234E-02        -0.19398E-01         0.00000E+00
    0.72801E-02        -0.19840E-01         0.00000E+00
    0.73342E-02        -0.20287E-01         0.00000E+00
    0.73855E-02        -0.20739E-01         0.00000E+00
    0.74336E-02        -0.21196E-01         0.00000E+00
    0.74782E-02        -0.21659E-01         0.00000E+00
    0.75189E-02        -0.22126E-01         0.00000E+00
    0.75552E-02        -0.22599E-01         0.00000E+00
    0.75866E-02        -0.23077E-01         0.00000E+00
    0.76126E-02        -0.23561E-01         0.00000E+00
    0.76327E-02        -0.24050E-01         0.00000E+00
    0.76461E-02        -0.24545E-01         0.00000E+00
    0.76521E-02        -0.25045E-01         0.00000E+00
    0.76499E-02        -0.25551E-01         0.00000E+00
    0.76387E-02        -0.26063E-01         0.00000E+00
    0.76173E-02        -0.26581E-01         0.00000E+00
    0.75849E-02        -0.27105E-01         0.00000E+00
    0.75400E-02        -0.27636E-01         0.00000E+00
    0.74815E-02        -0.28173E-01         0.00000E+00
    0.74078E-02        -0.28717E-01         0.00000E+00
    0.73173E-02        -0.29267E-01         0.00000E+00
    0.72082E-02        -0.29825E-01         0.00000E+00
    0.70787E-02        -0.30389E-01         0.00000E+00
    0.69265E-02        -0.30960E-01         0.00000E+00
    0.67494E-02        -0.31537E-01         0.00000E+00
    0.65449E-02        -0.32119E-01         0.00000E+00
    0.63104E-02        -0.32706E-01         0.00000E+00
    0.60430E-02        -0.33294E-01         0.00000E+00
    0.57398E-02        -0.33883E-01         0.00000E+00
    0.53977E-02        -0.34467E-01         0.00000E+00
    0.50133E-02        -0.35043E-01         0.00000E+00
    0.45835E-02        -0.35603E-01         0.00000E+00
    0.41048E-02        -0.36138E-01         0.00000E+00
    0.35739E-02        -0.36638E-01         0.00000E+00
    0.29877E-02        -0.37087E-01         0.00000E+00
    0.23425E-02        -0.37469E-01         0.00000E+00
    0.16339E-02        -0.37764E-01         0.00000E+00
    0.85601E-03        -0.37951E-01         0.00000E+00
    0.00000E+00        -0.38015E-01         0.00000E+00
    0.00000E+00        -0.16308E-03         0.00000E+00
    0.43228E-03        -0.19415E-03         0.00000E+00
    0.82850E-03        -0.28437E-03         0.00000E+00
    0.11928E-02        -0.42607E-03         0.00000E+00
    0.15281E-02        -0.60950E-03         0.00000E+00
    0.18365E-02        -0.82516E-03         0.00000E+00
    0.21197E-02        -0.10649E-02         0.00000E+00
    0.23795E-02        -0.13220E-02         0.00000E+00
    0.26174E-02        -0.15914E-02         0.00000E+00
    0.28354E-02        -0.18691E-02         0.00000E+00
    0.30352E-02        -0.21524E-02         0.00000E+00
    0.32185E-02        -0.24389E-02         0.00000E+00
    0.33868E-02        -0.27274E-02         0.00000E+00
    0.35418E-02        -0.30167E-02         0.00000E+00
    0.36849E-02        -0.33063E-02         0.00000E+00
    0.38174E-02        -0.35959E-02         0.00000E+00
    0.39405E-02        -0.38853E-02         0.00000E+00
    0.40554E-02        -0.41745E-02         0.00000E+00
    0.41632E-02        -0.44637E-02         0.00000E+00
    0.42647E-02        -0.47531E-02         0.00000E+00
    0.43608E-02        -0.50428E-02         0.00000E+00
    0.44522E-02        -0.53332E-02         0.00000E+00
    0.45397E-02        -0.56245E-02         0.00000E+00
    0.46238E-02        -0.59170E-02         0.00000E+00
    0.47050E-02        -0.62110E-02         0.00000E+00
    0.47839E-02        -0.65067E-02         0.00000E+00
    0.48609E-02        -0.68043E-02         0.00000E+00
    0.49363E-02        -0.71042E-02         0.00000E+00
    0.50104E-02        -0.74064E-02         0.00000E+00
    0.50835E-02        -0.77113E-02         0.00000E+00
    0.51559E-02        -0.80189E-02         0.00000E+00
    0.52277E-02        -0.83296E-02         0.00000E+00
    0.52992E-02        -0.86434E-02         0.00000E+00
    0.53705E-02        -0.89605E-02         0.00000E+00
    0.54417E-02        -0.92811E-02         0.00000E+00
    0.55129E-02        -0.96053E-02         0.00000E+00
    0.55842E-02        -0.99332E-02         0.00000E+00
    0.56557E-02        -0.10265E-01         0.00000E+00
    0.57273E-02        -0.10601E-01         0.00000E+00
    0.57992E-02        -0.10941E-01         0.00000E+00
    0.58713E-02        -0.11285E-01         0.00000E+00
    0.59437E-02        -0.11633E-01         0.00000E+00
    0.60164E-02        -0.11985E-01         0.00000E+00
    0.60892E-02        -0.12342E-01         0.00000E+00
    0.61623E-02        -0.12704E-01         0.00000E+00
    0.62355E-02        -0.13070E-01         0.00000E+00
    0.63089E-02        -0.13441E-01         0.00000E+00
    0.63823E-02        -0.13817E-01         0.00000E+00
    0.64556E-02        -0.14197E-01         0.00000E+00
    0.65289E-02        -0.14582E-01         0.00000E+00
    0.66020E-02        -0.14972E-01         0.00000E+00
    0.66749E-02        -0.15367E-01         0.00000E+00
    0.67474E-02        -0.15767E-01         0.00000E+00
    0.68194E-02        -0.16172E-01         0.00000E+00
    0.68908E-02        -0.16582E-01         0.00000E+00
    0.69615E-02        -0.16997E-01         0.00000E+00
    0.70312E-02        -0.17417E-01         0.00000E+00
    0.71000E-02        -0.17842E-01         0.00000E+00
    0.71675E-02        -0.18273E-01         0.00000E+00
    0.72337E-02        -0.18708E-01         0.00000E+00
    0.72982E-02        -0.19149E-01         0.00000E+00
    0.73610E-02        -0.19595E-01         0.00000E+00
    0.74217E-02        -0.20046E-01         0.00000E+00
    0.74801E-02        -0.20503E-01         0.00000E+00
    0.75359E-02        -0.20965E-01         0.00000E+00
    0.75888E-02        -0.21432E-01         0.00000E+00
    0.76385E-02        -0.21904E-01         0.00000E+00
    0.76845E-02        -0.22382E-01         0.00000E+00
    0.77266E-02        -0.22865E-01         0.00000E+00
    0.77642E-02        -0.23353E-01         0.00000E+00
    0.77968E-02        -0.23847E-01         0.00000E+00
    0.78239E-02        -0.24346E-01         0.00000E+00
    0.78449E-02        -0.24851E-01         0.00000E+00
    0.78591E-02        -0.25362E-01         0.00000E+00
    0.78658E-02        -0.25879E-01         0.00000E+00
    0.78642E-02        -0.26401E-01         0.00000E+00
    0.78532E-02        -0.26930E-01         0.00000E+00
    0.78320E-02        -0.27465E-01         0.00000E+00
    0.77994E-02        -0.28006E-01         0.00000E+00
    0.77541E-02        -0.28553E-01         0.00000E+00
    0.76949E-02        -0.29108E-01         0.00000E+00
    0.76200E-02        -0.29669E-01         0.00000E+00
    0.75280E-02        -0.30237E-01         0.00000E+00
    0.74169E-02        -0.30812E-01         0.00000E+00
    0.72848E-02        -0.31394E-01         0.00000E+00
    0.71294E-02        -0.31983E-01         0.00000E+00
    0.69483E-02        -0.32578E-01         0.00000E+00
    0.67390E-02        -0.33178E-01         0.00000E+00
    0.64987E-02        -0.33783E-01         0.00000E+00
    0.62243E-02        -0.34390E-01         0.00000E+00
    0.59129E-02        -0.34997E-01         0.00000E+00
    0.55609E-02        -0.35600E-01         0.00000E+00
    0.51652E-02        -0.36194E-01         0.00000E+00
    0.47221E-02        -0.36771E-01         0.00000E+00
    0.42283E-02        -0.37325E-01         0.00000E+00
    0.36804E-02        -0.37841E-01         0.00000E+00
    0.30751E-02        -0.38307E-01         0.00000E+00
    0.24092E-02        -0.38703E-01         0.00000E+00
    0.16789E-02        -0.39009E-01         0.00000E+00
    0.87862E-03        -0.39204E-01         0.00000E+00
    0.00000E+00        -0.39272E-01         0.00000E+00
    0.00000E+00        -0.17425E-03         0.00000E+00
    0.44343E-03        -0.20669E-03         0.00000E+00
    0.85070E-03        -0.30074E-03         0.00000E+00
    0.12258E-02        -0.44807E-03         0.00000E+00
    0.15713E-02        -0.63830E-03         0.00000E+00
    0.18891E-02        -0.86146E-03         0.00000E+00
    0.21809E-02        -0.11091E-02         0.00000E+00
    0.24482E-02        -0.13745E-02         0.00000E+00
    0.26930E-02        -0.16523E-02         0.00000E+00
    0.29170E-02        -0.19386E-02         0.00000E+00
    0.31221E-02        -0.22305E-02         0.00000E+00
    0.33100E-02        -0.25258E-02         0.00000E+00
    0.34825E-02        -0.28230E-02         0.00000E+00
    0.36412E-02        -0.31211E-02         0.00000E+00
    0.37875E-02        -0.34196E-02         0.00000E+00
    0.39230E-02        -0.37180E-02         0.00000E+00
    0.40489E-02        -0.40163E-02         0.00000E+00
    0.41663E-02        -0.43144E-02         0.00000E+00
    0.42764E-02        -0.46126E-02         0.00000E+00
    0.43801E-02        -0.49109E-02         0.00000E+00
    0.44782E-02        -0.52097E-02         0.00000E+00
    0.45716E-02        -0.55092E-02         0.00000E+00
    0.46610E-02        -0.58097E-02         0.00000E+00
    0.47469E-02        -0.61115E-02         0.00000E+00
    0.48300E-02        -0.64148E-02         0.00000E+00
    0.49107E-02        -0.67198E-02         0.00000E+00
    0.49894E-02        -0.70269E-02         0.00000E+00
    0.50665E-02        -0.73363E-02         0.00000E+00
    0.51424E-02        -0.76482E-02         0.00000E+00
    0.52172E-02        -0.79628E-02         0.00000E+00
    0.52914E-02        -0.82804E-02         0.00000E+00
    0.53650E-02        -0.86010E-02         0.00000E+00
    0.54382E-02        -0.89249E-02         0.00000E+00
    0.55113E-02        -0.92522E-02         0.00000E+00
    0.55842E-02        -0.95831E-02         0.00000E+00
    0.56572E-02        -0.99177E-02         0.00000E+00
    0.57303E-02        -0.10256E-01         0.00000E+00
    0.58036E-02        -0.10599E-01         0.00000E+00
    0.58771E-02        -0.10945E-01         0.00000E+00
    0.59509E-02        -0.11296E-01         0.00000E+00
    0.60249E-02        -0.11651E-01         0.00000E+00
    0.60991E-02        -0.12011E-01         0.00000E+00
    0.61737E-02        -0.12375E-01         0.00000E+00
    0.62485E-02        -0.12743E-01         0.00000E+00
    0.63235E-02        -0.13116E-01         0.00000E+00
    0.63986E-02        -0.13494E-01         0.00000E+00
    0.64739E-02        -0.13877E-01         0.00000E+00
    0.65493E-02        -0.14265E-01         0.00000E+00
    0.66246E-02        -0.14657E-01         0.00000E+00
    0.66998E-02        -0.15055E-01         0.00000E+00
    0.67749E-02        -0.15457E-01         0.00000E+00
    0.68497E-02        -0.15865E-01         0.00000E+00
    0.69242E-02        -0.16278E-01         0.00000E+00
    0.69982E-02        -0.16696E-01         0.00000E+00
    0.70715E-02        -0.17119E-01         0.00000E+00
    0.71441E-02        -0.17548E-01         0.00000E+00
    0.72158E-02        -0.17981E-01         0.00000E+00
    0.72865E-02        -0.18420E-01         0.00000E+00
    0.73559E-02        -0.18864E-01         0.00000E+00
    0.74239E-02        -0.19314E-01         0.00000E+00
    0.74903E-02        -0.19769E-01         0.00000E+00
    0.75548E-02        -0.20229E-01         0.00000E+00
    0.76172E-02        -0.20695E-01         0.00000E+00
    0.76773E-02        -0.21166E-01         0.00000E+00
    0.77348E-02        -0.21642E-01         0.00000E+00
    0.77893E-02        -0.22124E-01         0.00000E+00
    0.78406E-02        -0.22612E-01         0.00000E+00
    0.78881E-02        -0.23105E-01         0.00000E+00
    0.79316E-02        -0.23603E-01         0.00000E+00
    0.79705E-02        -0.24107E-01         0.00000E+00
    0.80043E-02        -0.24617E-01         0.00000E+00
    0.80325E-02        -0.25132E-01         0.00000E+00
    0.80546E-02        -0.25653E-01         0.00000E+00
    0.80696E-02        -0.26180E-01         0.00000E+00
    0.80771E-02        -0.26713E-01         0.00000E+00
    0.80760E-02        -0.27251E-01         0.00000E+00
    0.80654E-02        -0.27797E-01         0.00000E+00
    0.80444E-02        -0.28348E-01         0.00000E+00
    0.80117E-02        -0.28906E-01         0.00000E+00
    0.79661E-02        -0.29471E-01         0.00000E+00
    0.79062E-02        -0.30042E-01         0.00000E+00
    0.78304E-02        -0.30621E-01         0.00000E+00
    0.77369E-02        -0.31206E-01         0.00000E+00
    0.76240E-02        -0.31799E-01         0.00000E+00
    0.74895E-02        -0.32399E-01         0.00000E+00
    0.73310E-02        -0.33005E-01         0.00000E+00
    0.71462E-02        -0.33618E-01         0.00000E+00
    0.69323E-02        -0.34237E-01         0.00000E+00
    0.66863E-02        -0.34860E-01         0.00000E+00
    0.64053E-02        -0.35485E-01         0.00000E+00
    0.60858E-02        -0.36110E-01         0.00000E+00
    0.57243E-02        -0.36732E-01         0.00000E+00
    0.53174E-02        -0.37344E-01         0.00000E+00
    0.48613E-02        -0.37939E-01         0.00000E+00
    0.43525E-02        -0.38510E-01         0.00000E+00
    0.37876E-02        -0.39044E-01         0.00000E+00
    0.31633E-02        -0.39525E-01         0.00000E+00
    0.24767E-02        -0.39936E-01         0.00000E+00
    0.17245E-02        -0.40255E-01         0.00000E+00
    0.90149E-03        -0.40458E-01         0.00000E+00
    0.00000E+00        -0.40528E-01         0.00000E+00
    0.00000E+00        -0.18521E-03         0.00000E+00
    0.45470E-03        -0.21909E-03         0.00000E+00
    0.87314E-03        -0.31714E-03         0.00000E+00
    0.12591E-02        -0.47029E-03         0.00000E+00
    0.16148E-02        -0.66744E-03         0.00000E+00
    0.19420E-02        -0.89818E-03         0.00000E+00
    0.22423E-02        -0.11538E-02         0.00000E+00
    0.25172E-02        -0.14274E-02         0.00000E+00
    0.27686E-02        -0.17137E-02         0.00000E+00
    0.29985E-02        -0.20086E-02         0.00000E+00
    0.32087E-02        -0.23091E-02         0.00000E+00
    0.34012E-02        -0.26130E-02         0.00000E+00
    0.35776E-02        -0.29190E-02         0.00000E+00
    0.37399E-02        -0.32259E-02         0.00000E+00
    0.38894E-02        -0.35331E-02         0.00000E+00
    0.40278E-02        -0.38404E-02         0.00000E+00
    0.41562E-02        -0.41475E-02         0.00000E+00
    0.42761E-02        -0.44546E-02         0.00000E+00
    0.43884E-02        -0.47617E-02         0.00000E+00
    0.44941E-02        -0.50690E-02         0.00000E+00
    0.45943E-02        -0.53769E-02         0.00000E+00
    0.46896E-02        -0.56854E-02         0.00000E+00
    0.47808E-02        -0.59951E-02         0.00000E+00
    0.48685E-02        -0.63061E-02         0.00000E+00
    0.49533E-02        -0.66186E-02         0.00000E+00
    0.50357E-02        -0.69331E-02         0.00000E+00
    0.51162E-02        -0.72497E-02         0.00000E+00
    0.51950E-02        -0.75686E-02         0.00000E+00
    0.52725E-02        -0.78902E-02         0.00000E+00
    0.53491E-02        -0.82145E-02         0.00000E+00
    0.54249E-02        -0.85419E-02         0.00000E+00
    0.55002E-02        -0.88725E-02         0.00000E+00
    0.55752E-02        -0.92065E-02         0.00000E+00
    0.56500E-02        -0.95440E-02         0.00000E+00
    0.57247E-02        -0.98852E-02         0.00000E+00
    0.57994E-02        -0.10230E-01         0.00000E+00
    0.58743E-02        -0.10579E-01         0.00000E+00
    0.59494E-02        -0.10932E-01         0.00000E+00
    0.60247E-02        -0.11290E-01         0.00000E+00
    0.61003E-02        -0.11652E-01         0.00000E+00
    0.61761E-02        -0.12018E-01         0.00000E+00
    0.62523E-02        -0.12388E-01         0.00000E+00
    0.63287E-02        -0.12764E-01         0.00000E+00
    0.64054E-02        -0.13144E-01         0.00000E+00
    0.64823E-02        -0.13529E-01         0.00000E+00
    0.65593E-02        -0.13919E-01         0.00000E+00
    0.66365E-02        -0.14313E-01         0.00000E+00
    0.67138E-02        -0.14713E-01         0.00000E+00
    0.67911E-02        -0.15118E-01         0.00000E+00
    0.68683E-02        -0.15528E-01         0.00000E+00
    0.69453E-02        -0.15943E-01         0.00000E+00
    0.70221E-02        -0.16363E-01         0.00000E+00
    0.70985E-02        -0.16789E-01         0.00000E+00
    0.71744E-02        -0.17220E-01         0.00000E+00
    0.72496E-02        -0.17656E-01         0.00000E+00
    0.73241E-02        -0.18098E-01         0.00000E+00
    0.73977E-02        -0.18545E-01         0.00000E+00
    0.74703E-02        -0.18998E-01         0.00000E+00
    0.75416E-02        -0.19456E-01         0.00000E+00
    0.76114E-02        -0.19920E-01         0.00000E+00
    0.76796E-02        -0.20389E-01         0.00000E+00
    0.77459E-02        -0.20863E-01         0.00000E+00
    0.78101E-02        -0.21343E-01         0.00000E+00
    0.78719E-02        -0.21829E-01         0.00000E+00
    0.79311E-02        -0.22320E-01         0.00000E+00
    0.79872E-02        -0.22817E-01         0.00000E+00
    0.80399E-02        -0.23320E-01         0.00000E+00
    0.80890E-02        -0.23828E-01         0.00000E+00
    0.81338E-02        -0.24341E-01         0.00000E+00
    0.81741E-02        -0.24861E-01         0.00000E+00
    0.82092E-02        -0.25386E-01         0.00000E+00
    0.82385E-02        -0.25917E-01         0.00000E+00
    0.82616E-02        -0.26454E-01         0.00000E+00
    0.82776E-02        -0.26997E-01         0.00000E+00
    0.82858E-02        -0.27546E-01         0.00000E+00
    0.82853E-02        -0.28102E-01         0.00000E+00
    0.82752E-02        -0.28663E-01         0.00000E+00
    0.82544E-02        -0.29231E-01         0.00000E+00
    0.82217E-02        -0.29806E-01         0.00000E+00
    0.81759E-02        -0.30388E-01         0.00000E+00
    0.81155E-02        -0.30976E-01         0.00000E+00
    0.80388E-02        -0.31572E-01         0.00000E+00
    0.79441E-02        -0.32175E-01         0.00000E+00
    0.78295E-02        -0.32785E-01         0.00000E+00
    0.76927E-02        -0.33403E-01         0.00000E+00
    0.75314E-02        -0.34027E-01         0.00000E+00
    0.73430E-02        -0.34658E-01         0.00000E+00
    0.71247E-02        -0.35295E-01         0.00000E+00
    0.68734E-02        -0.35936E-01         0.00000E+00
    0.65859E-02        -0.36580E-01         0.00000E+00
    0.62586E-02        -0.37223E-01         0.00000E+00
    0.58880E-02        -0.37862E-01         0.00000E+00
    0.54701E-02        -0.38493E-01         0.00000E+00
    0.50013E-02        -0.39106E-01         0.00000E+00
    0.44777E-02        -0.39695E-01         0.00000E+00
    0.38958E-02        -0.40246E-01         0.00000E+00
    0.32526E-02        -0.40744E-01         0.00000E+00
    0.25451E-02        -0.41169E-01         0.00000E+00
    0.17706E-02        -0.41500E-01         0.00000E+00
    0.92469E-03        -0.41713E-01         0.00000E+00
    0.00000E+00        -0.41786E-01         0.00000E+00
    0.00000E+00        -0.19592E-03         0.00000E+00
    0.46614E-03        -0.23132E-03         0.00000E+00
    0.89589E-03        -0.33355E-03         0.00000E+00
    0.12928E-02        -0.49269E-03         0.00000E+00
    0.16588E-02        -0.69690E-03         0.00000E+00
    0.19954E-02        -0.93530E-03         0.00000E+00
    0.23040E-02        -0.11990E-02         0.00000E+00
    0.25864E-02        -0.14808E-02         0.00000E+00
    0.28443E-02        -0.17755E-02         0.00000E+00
    0.30799E-02        -0.20789E-02         0.00000E+00
    0.32951E-02        -0.23880E-02         0.00000E+00
    0.34920E-02        -0.27007E-02         0.00000E+00
    0.36723E-02        -0.30153E-02         0.00000E+00
    0.38380E-02        -0.33310E-02         0.00000E+00
    0.39906E-02        -0.36470E-02         0.00000E+00
    0.41316E-02        -0.39630E-02         0.00000E+00
    0.42626E-02        -0.42790E-02         0.00000E+00
    0.43847E-02        -0.45950E-02         0.00000E+00
    0.44992E-02        -0.49110E-02         0.00000E+00
    0.46069E-02        -0.52273E-02         0.00000E+00
    0.47090E-02        -0.55441E-02         0.00000E+00
    0.48061E-02        -0.58618E-02         0.00000E+00
    0.48991E-02        -0.61806E-02         0.00000E+00
    0.49885E-02        -0.65008E-02         0.00000E+00
    0.50750E-02        -0.68227E-02         0.00000E+00
    0.51591E-02        -0.71465E-02         0.00000E+00
    0.52411E-02        -0.74725E-02         0.00000E+00
    0.53216E-02        -0.78010E-02         0.00000E+00
    0.54008E-02        -0.81322E-02         0.00000E+00
    0.54790E-02        -0.84664E-02         0.00000E+00
    0.55565E-02        -0.88036E-02         0.00000E+00
    0.56335E-02        -0.91441E-02         0.00000E+00
    0.57101E-02        -0.94882E-02         0.00000E+00
    0.57866E-02        -0.98359E-02         0.00000E+00
    0.58631E-02        -0.10187E-01         0.00000E+00
    0.59396E-02        -0.10543E-01         0.00000E+00
    0.60162E-02        -0.10903E-01         0.00000E+00
    0.60930E-02        -0.11266E-01         0.00000E+00
    0.61701E-02        -0.11635E-01         0.00000E+00
    0.62475E-02        -0.12007E-01         0.00000E+00
    0.63252E-02        -0.12384E-01         0.00000E+00
    0.64031E-02        -0.12766E-01         0.00000E+00
    0.64814E-02        -0.13153E-01         0.00000E+00
    0.65599E-02        -0.13545E-01         0.00000E+00
    0.66387E-02        -0.13941E-01         0.00000E+00
    0.67177E-02        -0.14343E-01         0.00000E+00
    0.67968E-02        -0.14750E-01         0.00000E+00
    0.68760E-02        -0.15161E-01         0.00000E+00
    0.69551E-02        -0.15578E-01         0.00000E+00
    0.70343E-02        -0.16001E-01         0.00000E+00
    0.71132E-02        -0.16429E-01         0.00000E+00
    0.71919E-02        -0.16862E-01         0.00000E+00
    0.72702E-02        -0.17300E-01         0.00000E+00
    0.73480E-02        -0.17744E-01         0.00000E+00
    0.74252E-02        -0.18194E-01         0.00000E+00
    0.75016E-02        -0.18649E-01         0.00000E+00
    0.75771E-02        -0.19110E-01         0.00000E+00
    0.76515E-02        -0.19576E-01         0.00000E+00
    0.77246E-02        -0.20048E-01         0.00000E+00
    0.77963E-02        -0.20525E-01         0.00000E+00
    0.78663E-02        -0.21008E-01         0.00000E+00
    0.79344E-02        -0.21497E-01         0.00000E+00
    0.80003E-02        -0.21992E-01         0.00000E+00
    0.80638E-02        -0.22492E-01         0.00000E+00
    0.81246E-02        -0.22998E-01         0.00000E+00
    0.81823E-02        -0.23510E-01         0.00000E+00
    0.82366E-02        -0.24027E-01         0.00000E+00
    0.82871E-02        -0.24551E-01         0.00000E+00
    0.83334E-02        -0.25080E-01         0.00000E+00
    0.83750E-02        -0.25615E-01         0.00000E+00
    0.84114E-02        -0.26156E-01         0.00000E+00
    0.84419E-02        -0.26703E-01         0.00000E+00
    0.84660E-02        -0.27256E-01         0.00000E+00
    0.84830E-02        -0.27815E-01         0.00000E+00
    0.84920E-02        -0.28380E-01         0.00000E+00
    0.84922E-02        -0.28952E-01         0.00000E+00
    0.84826E-02        -0.29530E-01         0.00000E+00
    0.84621E-02        -0.30115E-01         0.00000E+00
    0.84295E-02        -0.30706E-01         0.00000E+00
    0.83836E-02        -0.31305E-01         0.00000E+00
    0.83227E-02        -0.31910E-01         0.00000E+00
    0.82454E-02        -0.32523E-01         0.00000E+00
    0.81496E-02        -0.33144E-01         0.00000E+00
    0.80334E-02        -0.33771E-01         0.00000E+00
    0.78946E-02        -0.34407E-01         0.00000E+00
    0.77307E-02        -0.35049E-01         0.00000E+00
    0.75389E-02        -0.35698E-01         0.00000E+00
    0.73165E-02        -0.36352E-01         0.00000E+00
    0.70601E-02        -0.37011E-01         0.00000E+00
    0.67664E-02        -0.37673E-01         0.00000E+00
    0.64316E-02        -0.38335E-01         0.00000E+00
    0.60519E-02        -0.38992E-01         0.00000E+00
    0.56234E-02        -0.39641E-01         0.00000E+00
    0.51421E-02        -0.40273E-01         0.00000E+00
    0.46039E-02        -0.40879E-01         0.00000E+00
    0.40052E-02        -0.41447E-01         0.00000E+00
    0.33430E-02        -0.41961E-01         0.00000E+00
    0.26146E-02        -0.42402E-01         0.00000E+00
    0.18176E-02        -0.42746E-01         0.00000E+00
    0.94829E-03        -0.42967E-01         0.00000E+00
    0.00000E+00        -0.43044E-01         0.00000E+00
    0.00000E+00        -0.20633E-03         0.00000E+00
    0.47778E-03        -0.24334E-03         0.00000E+00
    0.91903E-03        -0.34994E-03         0.00000E+00
    0.13270E-02        -0.51526E-03         0.00000E+00
    0.17033E-02        -0.72666E-03         0.00000E+00
    0.20493E-02        -0.97281E-03         0.00000E+00
    0.23662E-02        -0.12445E-02         0.00000E+00
    0.26558E-02        -0.15347E-02         0.00000E+00
    0.29202E-02        -0.18378E-02         0.00000E+00
    0.31613E-02        -0.21497E-02         0.00000E+00
    0.33814E-02        -0.24674E-02         0.00000E+00
    0.35825E-02        -0.27887E-02         0.00000E+00
    0.37665E-02        -0.31120E-02         0.00000E+00
    0.39354E-02        -0.34364E-02         0.00000E+00
    0.40910E-02        -0.37611E-02         0.00000E+00
    0.42346E-02        -0.40860E-02         0.00000E+00
    0.43680E-02        -0.44108E-02         0.00000E+00
    0.44923E-02        -0.47355E-02         0.00000E+00
    0.46087E-02        -0.50605E-02         0.00000E+00
    0.47184E-02        -0.53857E-02         0.00000E+00
    0.48223E-02        -0.57116E-02         0.00000E+00
    0.49212E-02        -0.60383E-02         0.00000E+00
    0.50158E-02        -0.63663E-02         0.00000E+00
    0.51069E-02        -0.66956E-02         0.00000E+00
    0.51950E-02        -0.70268E-02         0.00000E+00
    0.52807E-02        -0.73600E-02         0.00000E+00
    0.53644E-02        -0.76955E-02         0.00000E+00
    0.54465E-02        -0.80335E-02         0.00000E+00
    0.55272E-02        -0.83744E-02         0.00000E+00
    0.56071E-02        -0.87183E-02         0.00000E+00
    0.56862E-02        -0.90654E-02         0.00000E+00
    0.57648E-02        -0.94159E-02         0.00000E+00
    0.58431E-02        -0.97700E-02         0.00000E+00
    0.59212E-02        -0.10128E-01         0.00000E+00
    0.59994E-02        -0.10490E-01         0.00000E+00
    0.60776E-02        -0.10856E-01         0.00000E+00
    0.61559E-02        -0.11226E-01         0.00000E+00
    0.62345E-02        -0.11600E-01         0.00000E+00
    0.63133E-02        -0.11979E-01         0.00000E+00
    0.63925E-02        -0.12363E-01         0.00000E+00
    0.64719E-02        -0.12751E-01         0.00000E+00
    0.65517E-02        -0.13144E-01         0.00000E+00
    0.66318E-02        -0.13543E-01         0.00000E+00
    0.67122E-02        -0.13946E-01         0.00000E+00
    0.67928E-02        -0.14354E-01         0.00000E+00
    0.68736E-02        -0.14767E-01         0.00000E+00
    0.69546E-02        -0.15186E-01         0.00000E+00
    0.70357E-02        -0.15610E-01         0.00000E+00
    0.71167E-02        -0.16039E-01         0.00000E+00
    0.71977E-02        -0.16474E-01         0.00000E+00
    0.72786E-02        -0.16914E-01         0.00000E+00
    0.73592E-02        -0.17360E-01         0.00000E+00
    0.74394E-02        -0.17812E-01         0.00000E+00
    0.75191E-02        -0.18269E-01         0.00000E+00
    0.75981E-02        -0.18731E-01         0.00000E+00
    0.76764E-02        -0.19200E-01         0.00000E+00
    0.77538E-02        -0.19674E-01         0.00000E+00
    0.78300E-02        -0.20154E-01         0.00000E+00
    0.79050E-02        -0.20640E-01         0.00000E+00
    0.79785E-02        -0.21131E-01         0.00000E+00
    0.80503E-02        -0.21628E-01         0.00000E+00
    0.81201E-02        -0.22131E-01         0.00000E+00
    0.81878E-02        -0.22640E-01         0.00000E+00
    0.82530E-02        -0.23155E-01         0.00000E+00
    0.83154E-02        -0.23676E-01         0.00000E+00
    0.83747E-02        -0.24203E-01         0.00000E+00
    0.84306E-02        -0.24735E-01         0.00000E+00
    0.84826E-02        -0.25274E-01         0.00000E+00
    0.85303E-02        -0.25818E-01         0.00000E+00
    0.85733E-02        -0.26369E-01         0.00000E+00
    0.86109E-02        -0.26925E-01         0.00000E+00
    0.86427E-02        -0.27488E-01         0.00000E+00
    0.86679E-02        -0.28057E-01         0.00000E+00
    0.86858E-02        -0.28632E-01         0.00000E+00
    0.86957E-02        -0.29214E-01         0.00000E+00
    0.86966E-02        -0.29802E-01         0.00000E+00
    0.86876E-02        -0.30396E-01         0.00000E+00
    0.86675E-02        -0.30998E-01         0.00000E+00
    0.86352E-02        -0.31606E-01         0.00000E+00
    0.85892E-02        -0.32222E-01         0.00000E+00
    0.85280E-02        -0.32844E-01         0.00000E+00
    0.84501E-02        -0.33474E-01         0.00000E+00
    0.83533E-02        -0.34112E-01         0.00000E+00
    0.82358E-02        -0.34757E-01         0.00000E+00
    0.80951E-02        -0.35410E-01         0.00000E+00
    0.79288E-02        -0.36070E-01         0.00000E+00
    0.77339E-02        -0.36737E-01         0.00000E+00
    0.75076E-02        -0.37409E-01         0.00000E+00
    0.72464E-02        -0.38086E-01         0.00000E+00
    0.69467E-02        -0.38766E-01         0.00000E+00
    0.66047E-02        -0.39446E-01         0.00000E+00
    0.62164E-02        -0.40122E-01         0.00000E+00
    0.57776E-02        -0.40788E-01         0.00000E+00
    0.52839E-02        -0.41438E-01         0.00000E+00
    0.47314E-02        -0.42062E-01         0.00000E+00
    0.41161E-02        -0.42647E-01         0.00000E+00
    0.34349E-02        -0.43178E-01         0.00000E+00
    0.26853E-02        -0.43635E-01         0.00000E+00
    0.18655E-02        -0.43992E-01         0.00000E+00
    0.97239E-03        -0.44222E-01         0.00000E+00
    0.00000E+00        -0.44303E-01         0.00000E+00
    0.00000E+00        -0.21640E-03         0.00000E+00
    0.48966E-03        -0.25512E-03         0.00000E+00
    0.94263E-03        -0.36630E-03         0.00000E+00
    0.13618E-02        -0.53801E-03         0.00000E+00
    0.17485E-02        -0.75674E-03         0.00000E+00
    0.21038E-02        -0.10107E-02         0.00000E+00
    0.24289E-02        -0.12905E-02         0.00000E+00
    0.27257E-02        -0.15890E-02         0.00000E+00
    0.29963E-02        -0.19005E-02         0.00000E+00
    0.32428E-02        -0.22209E-02         0.00000E+00
    0.34676E-02        -0.25471E-02         0.00000E+00
    0.36727E-02        -0.28770E-02         0.00000E+00
    0.38603E-02        -0.32090E-02         0.00000E+00
    0.40323E-02        -0.35421E-02         0.00000E+00
    0.41906E-02        -0.38755E-02         0.00000E+00
    0.43368E-02        -0.42091E-02         0.00000E+00
    0.44724E-02        -0.45427E-02         0.00000E+00
    0.45988E-02        -0.48763E-02         0.00000E+00
    0.47172E-02        -0.52101E-02         0.00000E+00
    0.48286E-02        -0.55443E-02         0.00000E+00
    0.49342E-02        -0.58792E-02         0.00000E+00
    0.50348E-02        -0.62150E-02         0.00000E+00
    0.51310E-02        -0.65520E-02         0.00000E+00
    0.52237E-02        -0.68906E-02         0.00000E+00
    0.53134E-02        -0.72311E-02         0.00000E+00
    0.54007E-02        -0.75736E-02         0.00000E+00
    0.54859E-02        -0.79186E-02         0.00000E+00
    0.55695E-02        -0.82662E-02         0.00000E+00
    0.56518E-02        -0.86167E-02         0.00000E+00
    0.57332E-02        -0.89703E-02         0.00000E+00
    0.58139E-02        -0.93272E-02         0.00000E+00
    0.58941E-02        -0.96877E-02         0.00000E+00
    0.59740E-02        -0.10052E-01         0.00000E+00
    0.60538E-02        -0.10420E-01         0.00000E+00
    0.61336E-02        -0.10792E-01         0.00000E+00
    0.62134E-02        -0.11168E-01         0.00000E+00
    0.62935E-02        -0.11549E-01         0.00000E+00
    0.63738E-02        -0.11934E-01         0.00000E+00
    0.64543E-02        -0.12324E-01         0.00000E+00
    0.65352E-02        -0.12719E-01         0.00000E+00
    0.66165E-02        -0.13118E-01         0.00000E+00
    0.66980E-02        -0.13523E-01         0.00000E+00
    0.67799E-02        -0.13932E-01         0.00000E+00
    0.68621E-02        -0.14347E-01         0.00000E+00
    0.69445E-02        -0.14767E-01         0.00000E+00
    0.70272E-02        -0.15192E-01         0.00000E+00
    0.71100E-02        -0.15622E-01         0.00000E+00
    0.71929E-02        -0.16058E-01         0.00000E+00
    0.72759E-02        -0.16500E-01         0.00000E+00
    0.73587E-02        -0.16947E-01         0.00000E+00
    0.74414E-02        -0.17400E-01         0.00000E+00
    0.75239E-02        -0.17859E-01         0.00000E+00
    0.76060E-02        -0.18323E-01         0.00000E+00
    0.76876E-02        -0.18793E-01         0.00000E+00
    0.77685E-02        -0.19269E-01         0.00000E+00
    0.78486E-02        -0.19751E-01         0.00000E+00
    0.79278E-02        -0.20238E-01         0.00000E+00
    0.80059E-02        -0.20732E-01         0.00000E+00
    0.80827E-02        -0.21231E-01         0.00000E+00
    0.81580E-02        -0.21737E-01         0.00000E+00
    0.82316E-02        -0.22248E-01         0.00000E+00
    0.83032E-02        -0.22766E-01         0.00000E+00
    0.83726E-02        -0.23289E-01         0.00000E+00
    0.84395E-02        -0.23819E-01         0.00000E+00
    0.85035E-02        -0.24354E-01         0.00000E+00
    0.85645E-02        -0.24896E-01         0.00000E+00
    0.86219E-02        -0.25443E-01         0.00000E+00
    0.86754E-02        -0.25997E-01         0.00000E+00
    0.87246E-02        -0.26557E-01         0.00000E+00
    0.87689E-02        -0.27123E-01         0.00000E+00
    0.88078E-02        -0.27695E-01         0.00000E+00
    0.88408E-02        -0.28274E-01         0.00000E+00
    0.88671E-02        -0.28858E-01         0.00000E+00
    0.88861E-02        -0.29450E-01         0.00000E+00
    0.88969E-02        -0.30047E-01         0.00000E+00
    0.88986E-02        -0.30652E-01         0.00000E+00
    0.88902E-02        -0.31263E-01         0.00000E+00
    0.88706E-02        -0.31881E-01         0.00000E+00
    0.88386E-02        -0.32506E-01         0.00000E+00
    0.87927E-02        -0.33138E-01         0.00000E+00
    0.87314E-02        -0.33778E-01         0.00000E+00
    0.86529E-02        -0.34425E-01         0.00000E+00
    0.85554E-02        -0.35080E-01         0.00000E+00
    0.84367E-02        -0.35743E-01         0.00000E+00
    0.82943E-02        -0.36413E-01         0.00000E+00
    0.81258E-02        -0.37091E-01         0.00000E+00
    0.79281E-02        -0.37775E-01         0.00000E+00
    0.76981E-02        -0.38465E-01         0.00000E+00
    0.74323E-02        -0.39161E-01         0.00000E+00
    0.71270E-02        -0.39859E-01         0.00000E+00
    0.67782E-02        -0.40556E-01         0.00000E+00
    0.63815E-02        -0.41250E-01         0.00000E+00
    0.59326E-02        -0.41935E-01         0.00000E+00
    0.54270E-02        -0.42602E-01         0.00000E+00
    0.48603E-02        -0.43244E-01         0.00000E+00
    0.42285E-02        -0.43847E-01         0.00000E+00
    0.35283E-02        -0.44395E-01         0.00000E+00
    0.27575E-02        -0.44867E-01         0.00000E+00
    0.19144E-02        -0.45238E-01         0.00000E+00
    0.99706E-03        -0.45478E-01         0.00000E+00
    0.00000E+00        -0.45562E-01         0.00000E+00
    0.00000E+00        -0.22608E-03         0.00000E+00
    0.50183E-03        -0.26661E-03         0.00000E+00
    0.96677E-03        -0.38262E-03         0.00000E+00
    0.13973E-02        -0.56091E-03         0.00000E+00
    0.17945E-02        -0.78710E-03         0.00000E+00
    0.21590E-02        -0.10490E-02         0.00000E+00
    0.24922E-02        -0.13369E-02         0.00000E+00
    0.27961E-02        -0.16436E-02         0.00000E+00
    0.30727E-02        -0.19635E-02         0.00000E+00
    0.33245E-02        -0.22924E-02         0.00000E+00
    0.35537E-02        -0.26272E-02         0.00000E+00
    0.37627E-02        -0.29657E-02         0.00000E+00
    0.39537E-02        -0.33063E-02         0.00000E+00
    0.41287E-02        -0.36480E-02         0.00000E+00
    0.42896E-02        -0.39902E-02         0.00000E+00
    0.44381E-02        -0.43325E-02         0.00000E+00
    0.45758E-02        -0.46749E-02         0.00000E+00
    0.47042E-02        -0.50173E-02         0.00000E+00
    0.48244E-02        -0.53600E-02         0.00000E+00
    0.49376E-02        -0.57031E-02         0.00000E+00
    0.50448E-02        -0.60469E-02         0.00000E+00
    0.51469E-02        -0.63918E-02         0.00000E+00
    0.52448E-02        -0.67379E-02         0.00000E+00
    0.53390E-02        -0.70857E-02         0.00000E+00
    0.54302E-02        -0.74354E-02         0.00000E+00
    0.55189E-02        -0.77873E-02         0.00000E+00
    0.56056E-02        -0.81417E-02         0.00000E+00
    0.56907E-02        -0.84989E-02         0.00000E+00
    0.57746E-02        -0.88590E-02         0.00000E+00
    0.58575E-02        -0.92224E-02         0.00000E+00
    0.59397E-02        -0.95891E-02         0.00000E+00
    0.60215E-02        -0.99596E-02         0.00000E+00
    0.61030E-02        -0.10334E-01         0.00000E+00
    0.61844E-02        -0.10712E-01         0.00000E+00
    0.62657E-02        -0.11095E-01         0.00000E+00
    0.63472E-02        -0.11481E-01         0.00000E+00
    0.64289E-02        -0.11873E-01         0.00000E+00
    0.65109E-02        -0.12269E-01         0.00000E+00
    0.65932E-02        -0.12669E-01         0.00000E+00
    0.66758E-02        -0.13075E-01         0.00000E+00
    0.67587E-02        -0.13485E-01         0.00000E+00
    0.68420E-02        -0.13901E-01         0.00000E+00
    0.69257E-02        -0.14322E-01         0.00000E+00
    0.70096E-02        -0.14748E-01         0.00000E+00
    0.70939E-02        -0.15179E-01         0.00000E+00
    0.71784E-02        -0.15616E-01         0.00000E+00
    0.72630E-02        -0.16059E-01         0.00000E+00
    0.73477E-02        -0.16507E-01         0.00000E+00
    0.74325E-02        -0.16961E-01         0.00000E+00
    0.75172E-02        -0.17420E-01         0.00000E+00
    0.76018E-02        -0.17886E-01         0.00000E+00
    0.76861E-02        -0.18357E-01         0.00000E+00
    0.77701E-02        -0.18834E-01         0.00000E+00
    0.78535E-02        -0.19317E-01         0.00000E+00
    0.79363E-02        -0.19806E-01         0.00000E+00
    0.80183E-02        -0.20302E-01         0.00000E+00
    0.80993E-02        -0.20803E-01         0.00000E+00
    0.81792E-02        -0.21310E-01         0.00000E+00
    0.82578E-02        -0.21823E-01         0.00000E+00
    0.83349E-02        -0.22343E-01         0.00000E+00
    0.84102E-02        -0.22868E-01         0.00000E+00
    0.84836E-02        -0.23400E-01         0.00000E+00
    0.85547E-02        -0.23938E-01         0.00000E+00
    0.86232E-02        -0.24482E-01         0.00000E+00
    0.86890E-02        -0.25032E-01         0.00000E+00
    0.87515E-02        -0.25589E-01         0.00000E+00
    0.88105E-02        -0.26151E-01         0.00000E+00
    0.88655E-02        -0.26720E-01         0.00000E+00
    0.89161E-02        -0.27295E-01         0.00000E+00
    0.89618E-02        -0.27877E-01         0.00000E+00
    0.90021E-02        -0.28465E-01         0.00000E+00
    0.90363E-02        -0.29059E-01         0.00000E+00
    0.90638E-02        -0.29660E-01         0.00000E+00
    0.90838E-02        -0.30267E-01         0.00000E+00
    0.90956E-02        -0.30881E-01         0.00000E+00
    0.90982E-02        -0.31502E-01         0.00000E+00
    0.90905E-02        -0.32129E-01         0.00000E+00
    0.90715E-02        -0.32764E-01         0.00000E+00
    0.90398E-02        -0.33406E-01         0.00000E+00
    0.89941E-02        -0.34055E-01         0.00000E+00
    0.89327E-02        -0.34712E-01         0.00000E+00
    0.88540E-02        -0.35376E-01         0.00000E+00
    0.87558E-02        -0.36048E-01         0.00000E+00
    0.86361E-02        -0.36728E-01         0.00000E+00
    0.84923E-02        -0.37416E-01         0.00000E+00
    0.83217E-02        -0.38111E-01         0.00000E+00
    0.81214E-02        -0.38813E-01         0.00000E+00
    0.78881E-02        -0.39521E-01         0.00000E+00
    0.76180E-02        -0.40234E-01         0.00000E+00
    0.73074E-02        -0.40950E-01         0.00000E+00
    0.69520E-02        -0.41666E-01         0.00000E+00
    0.65473E-02        -0.42378E-01         0.00000E+00
    0.60887E-02        -0.43080E-01         0.00000E+00
    0.55714E-02        -0.43766E-01         0.00000E+00
    0.49909E-02        -0.44425E-01         0.00000E+00
    0.43428E-02        -0.45046E-01         0.00000E+00
    0.36237E-02        -0.45611E-01         0.00000E+00
    0.28314E-02        -0.46099E-01         0.00000E+00
    0.19647E-02        -0.46484E-01         0.00000E+00
    0.10224E-02        -0.46735E-01         0.00000E+00
    0.00000E+00        -0.46823E-01         0.00000E+00
    0.00000E+00        -0.23532E-03         0.00000E+00
    0.51434E-03        -0.27780E-03         0.00000E+00
    0.99155E-03        -0.39887E-03         0.00000E+00
    0.14337E-02        -0.58398E-03         0.00000E+00
    0.18413E-02        -0.81775E-03         0.00000E+00
    0.22150E-02        -0.10876E-02         0.00000E+00
    0.25562E-02        -0.13837E-02         0.00000E+00
    0.28669E-02        -0.16987E-02         0.00000E+00
    0.31495E-02        -0.20270E-02         0.00000E+00
    0.34062E-02        -0.23644E-02         0.00000E+00
    0.36398E-02        -0.27077E-02         0.00000E+00
    0.38525E-02        -0.30547E-02         0.00000E+00
    0.40467E-02        -0.34039E-02         0.00000E+00
    0.42245E-02        -0.37542E-02         0.00000E+00
    0.43879E-02        -0.41051E-02         0.00000E+00
    0.45386E-02        -0.44561E-02         0.00000E+00
    0.46783E-02        -0.48073E-02         0.00000E+00
    0.48085E-02        -0.51585E-02         0.00000E+00
    0.49304E-02        -0.55100E-02         0.00000E+00
    0.50453E-02        -0.58620E-02         0.00000E+00
    0.51540E-02        -0.62148E-02         0.00000E+00
    0.52577E-02        -0.65687E-02         0.00000E+00
    0.53570E-02        -0.69240E-02         0.00000E+00
    0.54526E-02        -0.72809E-02         0.00000E+00
    0.55452E-02        -0.76399E-02         0.00000E+00
    0.56354E-02        -0.80012E-02         0.00000E+00
    0.57236E-02        -0.83650E-02         0.00000E+00
    0.58101E-02        -0.87317E-02         0.00000E+00
    0.58955E-02        -0.91014E-02         0.00000E+00
    0.59799E-02        -0.94745E-02         0.00000E+00
    0.60636E-02        -0.98512E-02         0.00000E+00
    0.61469E-02        -0.10232E-01         0.00000E+00
    0.62299E-02        -0.10616E-01         0.00000E+00
    0.63128E-02        -0.11004E-01         0.00000E+00
    0.63958E-02        -0.11397E-01         0.00000E+00
    0.64789E-02        -0.11794E-01         0.00000E+00
    0.65622E-02        -0.12196E-01         0.00000E+00
    0.66458E-02        -0.12603E-01         0.00000E+00
    0.67298E-02        -0.13014E-01         0.00000E+00
    0.68141E-02        -0.13431E-01         0.00000E+00
    0.68987E-02        -0.13852E-01         0.00000E+00
    0.69837E-02        -0.14279E-01         0.00000E+00
    0.70691E-02        -0.14711E-01         0.00000E+00
    0.71549E-02        -0.15149E-01         0.00000E+00
    0.72409E-02        -0.15592E-01         0.00000E+00
    0.73271E-02        -0.16041E-01         0.00000E+00
    0.74136E-02        -0.16495E-01         0.00000E+00
    0.75001E-02        -0.16956E-01         0.00000E+00
    0.75867E-02        -0.17422E-01         0.00000E+00
    0.76733E-02        -0.17894E-01         0.00000E+00
    0.77597E-02        -0.18372E-01         0.00000E+00
    0.78458E-02        -0.18856E-01         0.00000E+00
    0.79316E-02        -0.19346E-01         0.00000E+00
    0.80168E-02        -0.19842E-01         0.00000E+00
    0.81015E-02        -0.20344E-01         0.00000E+00
    0.81853E-02        -0.20853E-01         0.00000E+00
    0.82681E-02        -0.21367E-01         0.00000E+00
    0.83499E-02        -0.21888E-01         0.00000E+00
    0.84303E-02        -0.22415E-01         0.00000E+00
    0.85091E-02        -0.22949E-01         0.00000E+00
    0.85862E-02        -0.23488E-01         0.00000E+00
    0.86613E-02        -0.24034E-01         0.00000E+00
    0.87341E-02        -0.24587E-01         0.00000E+00
    0.88043E-02        -0.25145E-01         0.00000E+00
    0.88717E-02        -0.25710E-01         0.00000E+00
    0.89358E-02        -0.26282E-01         0.00000E+00
    0.89964E-02        -0.26859E-01         0.00000E+00
    0.90529E-02        -0.27443E-01         0.00000E+00
    0.91050E-02        -0.28034E-01         0.00000E+00
    0.91521E-02        -0.28631E-01         0.00000E+00
    0.91937E-02        -0.29234E-01         0.00000E+00
    0.92292E-02        -0.29844E-01         0.00000E+00
    0.92579E-02        -0.30461E-01         0.00000E+00
    0.92791E-02        -0.31084E-01         0.00000E+00
    0.92918E-02        -0.31714E-01         0.00000E+00
    0.92953E-02        -0.32351E-01         0.00000E+00
    0.92884E-02        -0.32995E-01         0.00000E+00
    0.92700E-02        -0.33647E-01         0.00000E+00
    0.92389E-02        -0.34305E-01         0.00000E+00
    0.91934E-02        -0.34971E-01         0.00000E+00
    0.91322E-02        -0.35645E-01         0.00000E+00
    0.90532E-02        -0.36326E-01         0.00000E+00
    0.89546E-02        -0.37016E-01         0.00000E+00
    0.88340E-02        -0.37713E-01         0.00000E+00
    0.86890E-02        -0.38418E-01         0.00000E+00
    0.85167E-02        -0.39131E-01         0.00000E+00
    0.83140E-02        -0.39851E-01         0.00000E+00
    0.80776E-02        -0.40577E-01         0.00000E+00
    0.78036E-02        -0.41308E-01         0.00000E+00
    0.74880E-02        -0.42041E-01         0.00000E+00
    0.71264E-02        -0.42775E-01         0.00000E+00
    0.67140E-02        -0.43505E-01         0.00000E+00
    0.62460E-02        -0.44226E-01         0.00000E+00
    0.57174E-02        -0.44929E-01         0.00000E+00
    0.51233E-02        -0.45606E-01         0.00000E+00
    0.44591E-02        -0.46244E-01         0.00000E+00
    0.37212E-02        -0.46826E-01         0.00000E+00
    0.29072E-02        -0.47331E-01         0.00000E+00
    0.20165E-02        -0.47731E-01         0.00000E+00
    0.10486E-02        -0.47992E-01         0.00000E+00
    0.00000E+00        -0.48084E-01         0.00000E+00
    0.00000E+00        -0.24408E-03         0.00000E+00
    0.52726E-03        -0.28864E-03         0.00000E+00
    0.10171E-02        -0.41507E-03         0.00000E+00
    0.14710E-02        -0.60719E-03         0.00000E+00
    0.18891E-02        -0.84867E-03         0.00000E+00
    0.22720E-02        -0.11265E-02         0.00000E+00
    0.26210E-02        -0.14308E-02         0.00000E+00
    0.29384E-02        -0.17541E-02         0.00000E+00
    0.32266E-02        -0.20908E-02         0.00000E+00
    0.34883E-02        -0.24366E-02         0.00000E+00
    0.37259E-02        -0.27884E-02         0.00000E+00
    0.39422E-02        -0.31440E-02         0.00000E+00
    0.41394E-02        -0.35018E-02         0.00000E+00
    0.43198E-02        -0.38607E-02         0.00000E+00
    0.44855E-02        -0.42202E-02         0.00000E+00
    0.46383E-02        -0.45800E-02         0.00000E+00
    0.47799E-02        -0.49398E-02         0.00000E+00
    0.49118E-02        -0.52998E-02         0.00000E+00
    0.50353E-02        -0.56602E-02         0.00000E+00
    0.51516E-02        -0.60211E-02         0.00000E+00
    0.52619E-02        -0.63828E-02         0.00000E+00
    0.53669E-02        -0.67457E-02         0.00000E+00
    0.54676E-02        -0.71101E-02         0.00000E+00
    0.55647E-02        -0.74762E-02         0.00000E+00
    0.56587E-02        -0.78445E-02         0.00000E+00
    0.57502E-02        -0.82151E-02         0.00000E+00
    0.58398E-02        -0.85884E-02         0.00000E+00
    0.59278E-02        -0.89646E-02         0.00000E+00
    0.60145E-02        -0.93440E-02         0.00000E+00
    0.61003E-02        -0.97268E-02         0.00000E+00
    0.61855E-02        -0.10113E-01         0.00000E+00
    0.62703E-02        -0.10504E-01         0.00000E+00
    0.63548E-02        -0.10898E-01         0.00000E+00
    0.64393E-02        -0.11297E-01         0.00000E+00
    0.65238E-02        -0.11700E-01         0.00000E+00
    0.66085E-02        -0.12107E-01         0.00000E+00
    0.66934E-02        -0.12520E-01         0.00000E+00
    0.67786E-02        -0.12937E-01         0.00000E+00
    0.68642E-02        -0.13359E-01         0.00000E+00
    0.69501E-02        -0.13787E-01         0.00000E+00
    0.70365E-02        -0.14219E-01         0.00000E+00
    0.71232E-02        -0.14658E-01         0.00000E+00
    0.72103E-02        -0.15101E-01         0.00000E+00
    0.72977E-02        -0.15550E-01         0.00000E+00
    0.73855E-02        -0.16005E-01         0.00000E+00
    0.74735E-02        -0.16466E-01         0.00000E+00
    0.75617E-02        -0.16932E-01         0.00000E+00
    0.76501E-02        -0.17404E-01         0.00000E+00
    0.77385E-02        -0.17883E-01         0.00000E+00
    0.78268E-02        -0.18367E-01         0.00000E+00
    0.79150E-02        -0.18858E-01         0.00000E+00
    0.80030E-02        -0.19354E-01         0.00000E+00
    0.80906E-02        -0.19857E-01         0.00000E+00
    0.81776E-02        -0.20366E-01         0.00000E+00
    0.82641E-02        -0.20882E-01         0.00000E+00
    0.83497E-02        -0.21404E-01         0.00000E+00
    0.84344E-02        -0.21932E-01         0.00000E+00
    0.85179E-02        -0.22466E-01         0.00000E+00
    0.86000E-02        -0.23007E-01         0.00000E+00
    0.86806E-02        -0.23555E-01         0.00000E+00
    0.87595E-02        -0.24108E-01         0.00000E+00
    0.88363E-02        -0.24669E-01         0.00000E+00
    0.89108E-02        -0.25235E-01         0.00000E+00
    0.89827E-02        -0.25809E-01         0.00000E+00
    0.90517E-02        -0.26388E-01         0.00000E+00
    0.91175E-02        -0.26975E-01         0.00000E+00
    0.91796E-02        -0.27567E-01         0.00000E+00
    0.92377E-02        -0.28167E-01         0.00000E+00
    0.92912E-02        -0.28772E-01         0.00000E+00
    0.93398E-02        -0.29385E-01         0.00000E+00
    0.93827E-02        -0.30004E-01         0.00000E+00
    0.94195E-02        -0.30630E-01         0.00000E+00
    0.94495E-02        -0.31262E-01         0.00000E+00
    0.94718E-02        -0.31902E-01         0.00000E+00
    0.94856E-02        -0.32548E-01         0.00000E+00
    0.94900E-02        -0.33201E-01         0.00000E+00
    0.94840E-02        -0.33862E-01         0.00000E+00
    0.94664E-02        -0.34529E-01         0.00000E+00
    0.94358E-02        -0.35205E-01         0.00000E+00
    0.93908E-02        -0.35887E-01         0.00000E+00
    0.93297E-02        -0.36578E-01         0.00000E+00
    0.92507E-02        -0.37277E-01         0.00000E+00
    0.91518E-02        -0.37983E-01         0.00000E+00
    0.90306E-02        -0.38698E-01         0.00000E+00
    0.88845E-02        -0.39420E-01         0.00000E+00
    0.87107E-02        -0.40150E-01         0.00000E+00
    0.85059E-02        -0.40888E-01         0.00000E+00
    0.82667E-02        -0.41632E-01         0.00000E+00
    0.79891E-02        -0.42380E-01         0.00000E+00
    0.76688E-02        -0.43132E-01         0.00000E+00
    0.73013E-02        -0.43884E-01         0.00000E+00
    0.68817E-02        -0.44632E-01         0.00000E+00
    0.64047E-02        -0.45370E-01         0.00000E+00
    0.58652E-02        -0.46091E-01         0.00000E+00
    0.52578E-02        -0.46786E-01         0.00000E+00
    0.45778E-02        -0.47442E-01         0.00000E+00
    0.38211E-02        -0.48041E-01         0.00000E+00
    0.29853E-02        -0.48562E-01         0.00000E+00
    0.20700E-02        -0.48977E-01         0.00000E+00
    0.10757E-02        -0.49251E-01         0.00000E+00
    0.00000E+00        -0.49347E-01         0.00000E+00
    0.00000E+00        -0.25231E-03         0.00000E+00
    0.54066E-03        -0.29913E-03         0.00000E+00
    0.10435E-02        -0.43121E-03         0.00000E+00
    0.15094E-02        -0.63057E-03         0.00000E+00
    0.19381E-02        -0.87987E-03         0.00000E+00
    0.23300E-02        -0.11658E-02         0.00000E+00
    0.26867E-02        -0.14783E-02         0.00000E+00
    0.30106E-02        -0.18099E-02         0.00000E+00
    0.33043E-02        -0.21550E-02         0.00000E+00
    0.35705E-02        -0.25092E-02         0.00000E+00
    0.38121E-02        -0.28695E-02         0.00000E+00
    0.40317E-02        -0.32336E-02         0.00000E+00
    0.42317E-02        -0.35999E-02         0.00000E+00
    0.44146E-02        -0.39674E-02         0.00000E+00
    0.45825E-02        -0.43356E-02         0.00000E+00
    0.47372E-02        -0.47040E-02         0.00000E+00
    0.48805E-02        -0.50725E-02         0.00000E+00
    0.50140E-02        -0.54413E-02         0.00000E+00
    0.51390E-02        -0.58105E-02         0.00000E+00
    0.52568E-02        -0.61803E-02         0.00000E+00
    0.53684E-02        -0.65510E-02         0.00000E+00
    0.54748E-02        -0.69229E-02         0.00000E+00
    0.55768E-02        -0.72963E-02         0.00000E+00
    0.56751E-02        -0.76717E-02         0.00000E+00
    0.57705E-02        -0.80491E-02         0.00000E+00
    0.58633E-02        -0.84291E-02         0.00000E+00
    0.59542E-02        -0.88118E-02         0.00000E+00
    0.60436E-02        -0.91975E-02         0.00000E+00
    0.61317E-02        -0.95865E-02         0.00000E+00
    0.62189E-02        -0.99791E-02         0.00000E+00
    0.63055E-02        -0.10375E-01         0.00000E+00
    0.63917E-02        -0.10776E-01         0.00000E+00
    0.64777E-02        -0.11180E-01         0.00000E+00
    0.65637E-02        -0.11589E-01         0.00000E+00
    0.66497E-02        -0.12002E-01         0.00000E+00
    0.67359E-02        -0.12420E-01         0.00000E+00
    0.68224E-02        -0.12843E-01         0.00000E+00
    0.69092E-02        -0.13271E-01         0.00000E+00
    0.69964E-02        -0.13704E-01         0.00000E+00
    0.70839E-02        -0.14143E-01         0.00000E+00
    0.71719E-02        -0.14587E-01         0.00000E+00
    0.72603E-02        -0.15036E-01         0.00000E+00
    0.73491E-02        -0.15491E-01         0.00000E+00
    0.74383E-02        -0.15952E-01         0.00000E+00
    0.75278E-02        -0.16418E-01         0.00000E+00
    0.76175E-02        -0.16890E-01         0.00000E+00
    0.77075E-02        -0.17369E-01         0.00000E+00
    0.77976E-02        -0.17853E-01         0.00000E+00
    0.78878E-02        -0.18344E-01         0.00000E+00
    0.79779E-02        -0.18841E-01         0.00000E+00
    0.80679E-02        -0.19344E-01         0.00000E+00
    0.81576E-02        -0.19853E-01         0.00000E+00
    0.82470E-02        -0.20369E-01         0.00000E+00
    0.83359E-02        -0.20891E-01         0.00000E+00
    0.84241E-02        -0.21420E-01         0.00000E+00
    0.85115E-02        -0.21955E-01         0.00000E+00
    0.85980E-02        -0.22496E-01         0.00000E+00
    0.86832E-02        -0.23045E-01         0.00000E+00
    0.87672E-02        -0.23599E-01         0.00000E+00
    0.88495E-02        -0.24161E-01         0.00000E+00
    0.89301E-02        -0.24729E-01         0.00000E+00
    0.90086E-02        -0.25303E-01         0.00000E+00
    0.90848E-02        -0.25884E-01         0.00000E+00
    0.91584E-02        -0.26472E-01         0.00000E+00
    0.92290E-02        -0.27066E-01         0.00000E+00
    0.92964E-02        -0.27668E-01         0.00000E+00
    0.93601E-02        -0.28275E-01         0.00000E+00
    0.94197E-02        -0.28890E-01         0.00000E+00
    0.94748E-02        -0.29511E-01         0.00000E+00
    0.95248E-02        -0.30139E-01         0.00000E+00
    0.95691E-02        -0.30774E-01         0.00000E+00
    0.96072E-02        -0.31415E-01         0.00000E+00
    0.96384E-02        -0.32063E-01         0.00000E+00
    0.96619E-02        -0.32719E-01         0.00000E+00
    0.96769E-02        -0.33381E-01         0.00000E+00
    0.96824E-02        -0.34051E-01         0.00000E+00
    0.96773E-02        -0.34728E-01         0.00000E+00
    0.96604E-02        -0.35412E-01         0.00000E+00
    0.96305E-02        -0.36104E-01         0.00000E+00
    0.95860E-02        -0.36804E-01         0.00000E+00
    0.95253E-02        -0.37511E-01         0.00000E+00
    0.94464E-02        -0.38227E-01         0.00000E+00
    0.93474E-02        -0.38950E-01         0.00000E+00
    0.92257E-02        -0.39682E-01         0.00000E+00
    0.90788E-02        -0.40422E-01         0.00000E+00
    0.89037E-02        -0.41170E-01         0.00000E+00
    0.86971E-02        -0.41925E-01         0.00000E+00
    0.84554E-02        -0.42686E-01         0.00000E+00
    0.81745E-02        -0.43453E-01         0.00000E+00
    0.78500E-02        -0.44222E-01         0.00000E+00
    0.74770E-02        -0.44992E-01         0.00000E+00
    0.70505E-02        -0.45757E-01         0.00000E+00
    0.65650E-02        -0.46514E-01         0.00000E+00
    0.60148E-02        -0.47253E-01         0.00000E+00
    0.53946E-02        -0.47966E-01         0.00000E+00
    0.46990E-02        -0.48639E-01         0.00000E+00
    0.39237E-02        -0.49256E-01         0.00000E+00
    0.30659E-02        -0.49794E-01         0.00000E+00
    0.21255E-02        -0.50224E-01         0.00000E+00
    0.11038E-02        -0.50510E-01         0.00000E+00
    0.00000E+00        -0.50611E-01         0.00000E+00
    0.00000E+00        -0.25995E-03         0.00000E+00
    0.55462E-03        -0.30922E-03         0.00000E+00
    0.10709E-02        -0.44729E-03         0.00000E+00
    0.15490E-02        -0.65410E-03         0.00000E+00
    0.19883E-02        -0.91132E-03         0.00000E+00
    0.23892E-02        -0.12053E-02         0.00000E+00
    0.27534E-02        -0.15261E-02         0.00000E+00
    0.30836E-02        -0.18660E-02         0.00000E+00
    0.33825E-02        -0.22194E-02         0.00000E+00
    0.36532E-02        -0.25821E-02         0.00000E+00
    0.38984E-02        -0.29508E-02         0.00000E+00
    0.41211E-02        -0.33234E-02         0.00000E+00
    0.43238E-02        -0.36982E-02         0.00000E+00
    0.45089E-02        -0.40743E-02         0.00000E+00
    0.46788E-02        -0.44511E-02         0.00000E+00
    0.48353E-02        -0.48281E-02         0.00000E+00
    0.49802E-02        -0.52054E-02         0.00000E+00
    0.51151E-02        -0.55829E-02         0.00000E+00
    0.52415E-02        -0.59609E-02         0.00000E+00
    0.53606E-02        -0.63396E-02         0.00000E+00
    0.54735E-02        -0.67192E-02         0.00000E+00
    0.55812E-02        -0.71001E-02         0.00000E+00
    0.56844E-02        -0.74827E-02         0.00000E+00
    0.57840E-02        -0.78671E-02         0.00000E+00
    0.58806E-02        -0.82539E-02         0.00000E+00
    0.59747E-02        -0.86431E-02         0.00000E+00
    0.60669E-02        -0.90353E-02         0.00000E+00
    0.61575E-02        -0.94305E-02         0.00000E+00
    0.62470E-02        -0.98292E-02         0.00000E+00
    0.63356E-02        -0.10231E-01         0.00000E+00
    0.64236E-02        -0.10638E-01         0.00000E+00
    0.65112E-02        -0.11048E-01         0.00000E+00
    0.65986E-02        -0.11462E-01         0.00000E+00
    0.66860E-02        -0.11881E-01         0.00000E+00
    0.67735E-02        -0.12305E-01         0.00000E+00
    0.68612E-02        -0.12734E-01         0.00000E+00
    0.69492E-02        -0.13167E-01         0.00000E+00
    0.70376E-02        -0.13606E-01         0.00000E+00
    0.71263E-02        -0.14050E-01         0.00000E+00
    0.72155E-02        -0.14499E-01         0.00000E+00
    0.73051E-02        -0.14954E-01         0.00000E+00
    0.73952E-02        -0.15414E-01         0.00000E+00
    0.74856E-02        -0.15881E-01         0.00000E+00
    0.75765E-02        -0.16353E-01         0.00000E+00
    0.76677E-02        -0.16831E-01         0.00000E+00
    0.77591E-02        -0.17315E-01         0.00000E+00
    0.78508E-02        -0.17806E-01         0.00000E+00
    0.79427E-02        -0.18302E-01         0.00000E+00
    0.80346E-02        -0.18805E-01         0.00000E+00
    0.81265E-02        -0.19314E-01         0.00000E+00
    0.82182E-02        -0.19830E-01         0.00000E+00
    0.83098E-02        -0.20352E-01         0.00000E+00
    0.84009E-02        -0.20881E-01         0.00000E+00
    0.84915E-02        -0.21416E-01         0.00000E+00
    0.85815E-02        -0.21958E-01         0.00000E+00
    0.86707E-02        -0.22506E-01         0.00000E+00
    0.87589E-02        -0.23061E-01         0.00000E+00
    0.88460E-02        -0.23623E-01         0.00000E+00
    0.89317E-02        -0.24191E-01         0.00000E+00
    0.90158E-02        -0.24767E-01         0.00000E+00
    0.90980E-02        -0.25349E-01         0.00000E+00
    0.91783E-02        -0.25938E-01         0.00000E+00
    0.92562E-02        -0.26533E-01         0.00000E+00
    0.93314E-02        -0.27135E-01         0.00000E+00
    0.94037E-02        -0.27745E-01         0.00000E+00
    0.94727E-02        -0.28361E-01         0.00000E+00
    0.95379E-02        -0.28983E-01         0.00000E+00
    0.95991E-02        -0.29613E-01         0.00000E+00
    0.96556E-02        -0.30249E-01         0.00000E+00
    0.97071E-02        -0.30893E-01         0.00000E+00
    0.97529E-02        -0.31543E-01         0.00000E+00
    0.97924E-02        -0.32200E-01         0.00000E+00
    0.98249E-02        -0.32865E-01         0.00000E+00
    0.98496E-02        -0.33536E-01         0.00000E+00
    0.98657E-02        -0.34215E-01         0.00000E+00
    0.98723E-02        -0.34901E-01         0.00000E+00
    0.98682E-02        -0.35594E-01         0.00000E+00
    0.98522E-02        -0.36295E-01         0.00000E+00
    0.98231E-02        -0.37003E-01         0.00000E+00
    0.97792E-02        -0.37720E-01         0.00000E+00
    0.97190E-02        -0.38444E-01         0.00000E+00
    0.96404E-02        -0.39177E-01         0.00000E+00
    0.95414E-02        -0.39917E-01         0.00000E+00
    0.94195E-02        -0.40666E-01         0.00000E+00
    0.92720E-02        -0.41424E-01         0.00000E+00
    0.90959E-02        -0.42189E-01         0.00000E+00
    0.88878E-02        -0.42961E-01         0.00000E+00
    0.86438E-02        -0.43740E-01         0.00000E+00
    0.83600E-02        -0.44524E-01         0.00000E+00
    0.80315E-02        -0.45312E-01         0.00000E+00
    0.76535E-02        -0.46099E-01         0.00000E+00
    0.72205E-02        -0.46883E-01         0.00000E+00
    0.67269E-02        -0.47657E-01         0.00000E+00
    0.61666E-02        -0.48414E-01         0.00000E+00
    0.55339E-02        -0.49145E-01         0.00000E+00
    0.48230E-02        -0.49835E-01         0.00000E+00
    0.40292E-02        -0.50470E-01         0.00000E+00
    0.31494E-02        -0.51025E-01         0.00000E+00
    0.21833E-02        -0.51471E-01         0.00000E+00
    0.11333E-02        -0.51770E-01         0.00000E+00
    0.00000E+00        -0.51876E-01         0.00000E+00
    0.00000E+00        -0.26696E-03         0.00000E+00
    0.56925E-03        -0.31892E-03         0.00000E+00
    0.10995E-02        -0.46333E-03         0.00000E+00
    0.15901E-02        -0.67780E-03         0.00000E+00
    0.20399E-02        -0.94302E-03         0.00000E+00
    0.24496E-02        -0.12452E-02         0.00000E+00
    0.28212E-02        -0.15742E-02         0.00000E+00
    0.31574E-02        -0.19224E-02         0.00000E+00
    0.34614E-02        -0.22842E-02         0.00000E+00
    0.37362E-02        -0.26552E-02         0.00000E+00
    0.39849E-02        -0.30324E-02         0.00000E+00
    0.42104E-02        -0.34134E-02         0.00000E+00
    0.44156E-02        -0.37968E-02         0.00000E+00
    0.46028E-02        -0.41814E-02         0.00000E+00
    0.47745E-02        -0.45668E-02         0.00000E+00
    0.49326E-02        -0.49525E-02         0.00000E+00
    0.50789E-02        -0.53384E-02         0.00000E+00
    0.52152E-02        -0.57247E-02         0.00000E+00
    0.53429E-02        -0.61115E-02         0.00000E+00
    0.54632E-02        -0.64990E-02         0.00000E+00
    0.55773E-02        -0.68875E-02         0.00000E+00
    0.56861E-02        -0.72775E-02         0.00000E+00
    0.57905E-02        -0.76691E-02         0.00000E+00
    0.58913E-02        -0.80627E-02         0.00000E+00
    0.59891E-02        -0.84587E-02         0.00000E+00
    0.60844E-02        -0.88573E-02         0.00000E+00
    0.61778E-02        -0.92588E-02         0.00000E+00
    0.62697E-02        -0.96636E-02         0.00000E+00
    0.63604E-02        -0.10072E-01         0.00000E+00
    0.64503E-02        -0.10484E-01         0.00000E+00
    0.65396E-02        -0.10900E-01         0.00000E+00
    0.66286E-02        -0.11320E-01         0.00000E+00
    0.67174E-02        -0.11745E-01         0.00000E+00
    0.68063E-02        -0.12174E-01         0.00000E+00
    0.68952E-02        -0.12608E-01         0.00000E+00
    0.69844E-02        -0.13047E-01         0.00000E+00
    0.70739E-02        -0.13491E-01         0.00000E+00
    0.71638E-02        -0.13940E-01         0.00000E+00
    0.72541E-02        -0.14395E-01         0.00000E+00
    0.73449E-02        -0.14855E-01         0.00000E+00
    0.74361E-02        -0.15321E-01         0.00000E+00
    0.75278E-02        -0.15793E-01         0.00000E+00
    0.76198E-02        -0.16271E-01         0.00000E+00
    0.77123E-02        -0.16754E-01         0.00000E+00
    0.78052E-02        -0.17244E-01         0.00000E+00
    0.78984E-02        -0.17740E-01         0.00000E+00
    0.79918E-02        -0.18242E-01         0.00000E+00
    0.80853E-02        -0.18751E-01         0.00000E+00
    0.81790E-02        -0.19266E-01         0.00000E+00
    0.82726E-02        -0.19788E-01         0.00000E+00
    0.83661E-02        -0.20316E-01         0.00000E+00
    0.84593E-02        -0.20851E-01         0.00000E+00
    0.85523E-02        -0.21392E-01         0.00000E+00
    0.86446E-02        -0.21940E-01         0.00000E+00
    0.87364E-02        -0.22495E-01         0.00000E+00
    0.88273E-02        -0.23057E-01         0.00000E+00
    0.89173E-02        -0.23626E-01         0.00000E+00
    0.90061E-02        -0.24201E-01         0.00000E+00
    0.90935E-02        -0.24784E-01         0.00000E+00
    0.91793E-02        -0.25373E-01         0.00000E+00
    0.92633E-02        -0.25969E-01         0.00000E+00
    0.93453E-02        -0.26572E-01         0.00000E+00
    0.94248E-02        -0.27182E-01         0.00000E+00
    0.95017E-02        -0.27799E-01         0.00000E+00
    0.95756E-02        -0.28423E-01         0.00000E+00
    0.96462E-02        -0.29054E-01         0.00000E+00
    0.97131E-02        -0.29691E-01         0.00000E+00
    0.97758E-02        -0.30336E-01         0.00000E+00
    0.98339E-02        -0.30988E-01         0.00000E+00
    0.98868E-02        -0.31647E-01         0.00000E+00
    0.99340E-02        -0.32313E-01         0.00000E+00
    0.99749E-02        -0.32986E-01         0.00000E+00
    0.10009E-01        -0.33666E-01         0.00000E+00
    0.10035E-01        -0.34353E-01         0.00000E+00
    0.10052E-01        -0.35048E-01         0.00000E+00
    0.10060E-01        -0.35750E-01         0.00000E+00
    0.10057E-01        -0.36460E-01         0.00000E+00
    0.10042E-01        -0.37177E-01         0.00000E+00
    0.10014E-01        -0.37902E-01         0.00000E+00
    0.99705E-02        -0.38636E-01         0.00000E+00
    0.99108E-02        -0.39377E-01         0.00000E+00
    0.98327E-02        -0.40126E-01         0.00000E+00
    0.97339E-02        -0.40884E-01         0.00000E+00
    0.96119E-02        -0.41651E-01         0.00000E+00
    0.94640E-02        -0.42425E-01         0.00000E+00
    0.92872E-02        -0.43208E-01         0.00000E+00
    0.90778E-02        -0.43998E-01         0.00000E+00
    0.88320E-02        -0.44794E-01         0.00000E+00
    0.85455E-02        -0.45596E-01         0.00000E+00
    0.82136E-02        -0.46401E-01         0.00000E+00
    0.78309E-02        -0.47206E-01         0.00000E+00
    0.73919E-02        -0.48008E-01         0.00000E+00
    0.68906E-02        -0.48800E-01         0.00000E+00
    0.63207E-02        -0.49575E-01         0.00000E+00
    0.56758E-02        -0.50323E-01         0.00000E+00
    0.49501E-02        -0.51031E-01         0.00000E+00
    0.41381E-02        -0.51683E-01         0.00000E+00
    0.32362E-02        -0.52256E-01         0.00000E+00
    0.22438E-02        -0.52719E-01         0.00000E+00
    0.11643E-02        -0.53031E-01         0.00000E+00
    0.00000E+00        -0.53143E-01         0.00000E+00
    0.00000E+00        -0.27329E-03         0.00000E+00
    0.58468E-03        -0.32821E-03         0.00000E+00
    0.11295E-02        -0.47935E-03         0.00000E+00
    0.16327E-02        -0.70166E-03         0.00000E+00
    0.20931E-02        -0.97495E-03         0.00000E+00
    0.25115E-02        -0.12853E-02         0.00000E+00
    0.28902E-02        -0.16225E-02         0.00000E+00
    0.32322E-02        -0.19791E-02         0.00000E+00
    0.35409E-02        -0.23492E-02         0.00000E+00
    0.38196E-02        -0.27286E-02         0.00000E+00
    0.40715E-02        -0.31142E-02         0.00000E+00
    0.42997E-02        -0.35037E-02         0.00000E+00
    0.45071E-02        -0.38955E-02         0.00000E+00
    0.46963E-02        -0.42887E-02         0.00000E+00
    0.48696E-02        -0.46826E-02         0.00000E+00
    0.50291E-02        -0.50769E-02         0.00000E+00
    0.51768E-02        -0.54715E-02         0.00000E+00
    0.53143E-02        -0.58665E-02         0.00000E+00
    0.54431E-02        -0.62621E-02         0.00000E+00
    0.55645E-02        -0.66585E-02         0.00000E+00
    0.56797E-02        -0.70560E-02         0.00000E+00
    0.57896E-02        -0.74549E-02         0.00000E+00
    0.58951E-02        -0.78556E-02         0.00000E+00
    0.59970E-02        -0.82583E-02         0.00000E+00
    0.60959E-02        -0.86635E-02         0.00000E+00
    0.61924E-02        -0.90715E-02         0.00000E+00
    0.62870E-02        -0.94825E-02         0.00000E+00
    0.63801E-02        -0.98968E-02         0.00000E+00
    0.64720E-02        -0.10315E-01         0.00000E+00
    0.65632E-02        -0.10736E-01         0.00000E+00
    0.66538E-02        -0.11162E-01         0.00000E+00
    0.67441E-02        -0.11592E-01         0.00000E+00
    0.68343E-02        -0.12027E-01         0.00000E+00
    0.69245E-02        -0.12466E-01         0.00000E+00
    0.70148E-02        -0.12911E-01         0.00000E+00
    0.71055E-02        -0.13360E-01         0.00000E+00
    0.71965E-02        -0.13815E-01         0.00000E+00
    0.72878E-02        -0.14275E-01         0.00000E+00
    0.73797E-02        -0.14740E-01         0.00000E+00
    0.74720E-02        -0.15211E-01         0.00000E+00
    0.75648E-02        -0.15688E-01         0.00000E+00
    0.76580E-02        -0.16171E-01         0.00000E+00
    0.77517E-02        -0.16660E-01         0.00000E+00
    0.78459E-02        -0.17156E-01         0.00000E+00
    0.79404E-02        -0.17657E-01         0.00000E+00
    0.80352E-02        -0.18165E-01         0.00000E+00
    0.81303E-02        -0.18679E-01         0.00000E+00
    0.82255E-02        -0.19200E-01         0.00000E+00
    0.83209E-02        -0.19727E-01         0.00000E+00
    0.84162E-02        -0.20261E-01         0.00000E+00
    0.85114E-02        -0.20802E-01         0.00000E+00
    0.86064E-02        -0.21350E-01         0.00000E+00
    0.87010E-02        -0.21904E-01         0.00000E+00
    0.87952E-02        -0.22465E-01         0.00000E+00
    0.88887E-02        -0.23033E-01         0.00000E+00
    0.89813E-02        -0.23608E-01         0.00000E+00
    0.90730E-02        -0.24191E-01         0.00000E+00
    0.91636E-02        -0.24780E-01         0.00000E+00
    0.92527E-02        -0.25376E-01         0.00000E+00
    0.93402E-02        -0.25979E-01         0.00000E+00
    0.94259E-02        -0.26589E-01         0.00000E+00
    0.95096E-02        -0.27207E-01         0.00000E+00
    0.95908E-02        -0.27831E-01         0.00000E+00
    0.96694E-02        -0.28462E-01         0.00000E+00
    0.97449E-02        -0.29101E-01         0.00000E+00
    0.98171E-02        -0.29747E-01         0.00000E+00
    0.98856E-02        -0.30400E-01         0.00000E+00
    0.99498E-02        -0.31059E-01         0.00000E+00
    0.10009E-01        -0.31727E-01         0.00000E+00
    0.10064E-01        -0.32401E-01         0.00000E+00
    0.10113E-01        -0.33082E-01         0.00000E+00
    0.10155E-01        -0.33771E-01         0.00000E+00
    0.10190E-01        -0.34467E-01         0.00000E+00
    0.10217E-01        -0.35171E-01         0.00000E+00
    0.10236E-01        -0.35881E-01         0.00000E+00
    0.10245E-01        -0.36600E-01         0.00000E+00
    0.10243E-01        -0.37326E-01         0.00000E+00
    0.10229E-01        -0.38060E-01         0.00000E+00
    0.10202E-01        -0.38802E-01         0.00000E+00
    0.10160E-01        -0.39551E-01         0.00000E+00
    0.10101E-01        -0.40310E-01         0.00000E+00
    0.10023E-01        -0.41076E-01         0.00000E+00
    0.99248E-02        -0.41851E-01         0.00000E+00
    0.98030E-02        -0.42634E-01         0.00000E+00
    0.96550E-02        -0.43426E-01         0.00000E+00
    0.94776E-02        -0.44226E-01         0.00000E+00
    0.92673E-02        -0.45034E-01         0.00000E+00
    0.90200E-02        -0.45848E-01         0.00000E+00
    0.87313E-02        -0.46667E-01         0.00000E+00
    0.83962E-02        -0.47490E-01         0.00000E+00
    0.80094E-02        -0.48313E-01         0.00000E+00
    0.75648E-02        -0.49132E-01         0.00000E+00
    0.70563E-02        -0.49942E-01         0.00000E+00
    0.64772E-02        -0.50735E-01         0.00000E+00
    0.58208E-02        -0.51501E-01         0.00000E+00
    0.50805E-02        -0.52227E-01         0.00000E+00
    0.42506E-02        -0.52896E-01         0.00000E+00
    0.33266E-02        -0.53486E-01         0.00000E+00
    0.23074E-02        -0.53966E-01         0.00000E+00
    0.11971E-02        -0.54292E-01         0.00000E+00
    0.00000E+00        -0.54411E-01         0.00000E+00
    0.00000E+00        -0.27887E-03         0.00000E+00
    0.60106E-03        -0.33710E-03         0.00000E+00
    0.11610E-02        -0.49539E-03         0.00000E+00
    0.16772E-02        -0.72568E-03         0.00000E+00
    0.21480E-02        -0.10071E-02         0.00000E+00
    0.25748E-02        -0.13257E-02         0.00000E+00
    0.29604E-02        -0.16712E-02         0.00000E+00
    0.33080E-02        -0.20360E-02         0.00000E+00
    0.36212E-02        -0.24144E-02         0.00000E+00
    0.39035E-02        -0.28022E-02         0.00000E+00
    0.41584E-02        -0.31962E-02         0.00000E+00
    0.43891E-02        -0.35941E-02         0.00000E+00
    0.45984E-02        -0.39944E-02         0.00000E+00
    0.47893E-02        -0.43961E-02         0.00000E+00
    0.49640E-02        -0.47986E-02         0.00000E+00
    0.51249E-02        -0.52015E-02         0.00000E+00
    0.52737E-02        -0.56048E-02         0.00000E+00
    0.54123E-02        -0.60085E-02         0.00000E+00
    0.55422E-02        -0.64128E-02         0.00000E+00
    0.56646E-02        -0.68181E-02         0.00000E+00
    0.57808E-02        -0.72244E-02         0.00000E+00
    0.58917E-02        -0.76323E-02         0.00000E+00
    0.59982E-02        -0.80421E-02         0.00000E+00
    0.61011E-02        -0.84540E-02         0.00000E+00
    0.62011E-02        -0.88685E-02         0.00000E+00
    0.62986E-02        -0.92857E-02         0.00000E+00
    0.63943E-02        -0.97061E-02         0.00000E+00
    0.64886E-02        -0.10130E-01         0.00000E+00
    0.65817E-02        -0.10557E-01         0.00000E+00
    0.66741E-02        -0.10989E-01         0.00000E+00
    0.67660E-02        -0.11425E-01         0.00000E+00
    0.68576E-02        -0.11865E-01         0.00000E+00
    0.69491E-02        -0.12309E-01         0.00000E+00
    0.70406E-02        -0.12759E-01         0.00000E+00
    0.71324E-02        -0.13214E-01         0.00000E+00
    0.72244E-02        -0.13673E-01         0.00000E+00
    0.73169E-02        -0.14138E-01         0.00000E+00
    0.74097E-02        -0.14609E-01         0.00000E+00
    0.75030E-02        -0.15086E-01         0.00000E+00
    0.75969E-02        -0.15568E-01         0.00000E+00
    0.76912E-02        -0.16056E-01         0.00000E+00
    0.77860E-02        -0.16550E-01         0.00000E+00
    0.78813E-02        -0.17050E-01         0.00000E+00
    0.79770E-02        -0.17557E-01         0.00000E+00
    0.80731E-02        -0.18070E-01         0.00000E+00
    0.81696E-02        -0.18590E-01         0.00000E+00
    0.82663E-02        -0.19116E-01         0.00000E+00
    0.83633E-02        -0.19649E-01         0.00000E+00
    0.84603E-02        -0.20189E-01         0.00000E+00
    0.85573E-02        -0.20735E-01         0.00000E+00
    0.86542E-02        -0.21288E-01         0.00000E+00
    0.87509E-02        -0.21848E-01         0.00000E+00
    0.88473E-02        -0.22416E-01         0.00000E+00
    0.89431E-02        -0.22990E-01         0.00000E+00
    0.90384E-02        -0.23571E-01         0.00000E+00
    0.91328E-02        -0.24160E-01         0.00000E+00
    0.92262E-02        -0.24755E-01         0.00000E+00
    0.93184E-02        -0.25358E-01         0.00000E+00
    0.94092E-02        -0.25968E-01         0.00000E+00
    0.94985E-02        -0.26585E-01         0.00000E+00
    0.95859E-02        -0.27209E-01         0.00000E+00
    0.96712E-02        -0.27841E-01         0.00000E+00
    0.97541E-02        -0.28480E-01         0.00000E+00
    0.98343E-02        -0.29126E-01         0.00000E+00
    0.99115E-02        -0.29779E-01         0.00000E+00
    0.99853E-02        -0.30440E-01         0.00000E+00
    0.10055E-01        -0.31108E-01         0.00000E+00
    0.10121E-01        -0.31783E-01         0.00000E+00
    0.10182E-01        -0.32465E-01         0.00000E+00
    0.10238E-01        -0.33155E-01         0.00000E+00
    0.10288E-01        -0.33852E-01         0.00000E+00
    0.10332E-01        -0.34556E-01         0.00000E+00
    0.10369E-01        -0.35268E-01         0.00000E+00
    0.10398E-01        -0.35988E-01         0.00000E+00
    0.10418E-01        -0.36715E-01         0.00000E+00
    0.10428E-01        -0.37449E-01         0.00000E+00
    0.10427E-01        -0.38192E-01         0.00000E+00
    0.10414E-01        -0.38942E-01         0.00000E+00
    0.10388E-01        -0.39701E-01         0.00000E+00
    0.10347E-01        -0.40467E-01         0.00000E+00
    0.10289E-01        -0.41242E-01         0.00000E+00
    0.10212E-01        -0.42026E-01         0.00000E+00
    0.10114E-01        -0.42818E-01         0.00000E+00
    0.99928E-02        -0.43618E-01         0.00000E+00
    0.98449E-02        -0.44427E-01         0.00000E+00
    0.96673E-02        -0.45244E-01         0.00000E+00
    0.94563E-02        -0.46069E-01         0.00000E+00
    0.92078E-02        -0.46901E-01         0.00000E+00
    0.89173E-02        -0.47738E-01         0.00000E+00
    0.85795E-02        -0.48578E-01         0.00000E+00
    0.81889E-02        -0.49419E-01         0.00000E+00
    0.77393E-02        -0.50256E-01         0.00000E+00
    0.72241E-02        -0.51083E-01         0.00000E+00
    0.66364E-02        -0.51894E-01         0.00000E+00
    0.59689E-02        -0.52678E-01         0.00000E+00
    0.52146E-02        -0.53422E-01         0.00000E+00
    0.43670E-02        -0.54109E-01         0.00000E+00
    0.34210E-02        -0.54716E-01         0.00000E+00
    0.23746E-02        -0.55213E-01         0.00000E+00
    0.12320E-02        -0.55555E-01         0.00000E+00
    0.00000E+00        -0.55681E-01         0.00000E+00
    0.00000E+00        -0.28365E-03         0.00000E+00
    0.61861E-03        -0.34561E-03         0.00000E+00
    0.11945E-02        -0.51146E-03         0.00000E+00
    0.17236E-02        -0.74987E-03         0.00000E+00
    0.22048E-02        -0.10395E-02         0.00000E+00
    0.26399E-02        -0.13662E-02         0.00000E+00
    0.30320E-02        -0.17200E-02         0.00000E+00
    0.33849E-02        -0.20931E-02         0.00000E+00
    0.37023E-02        -0.24799E-02         0.00000E+00
    0.39880E-02        -0.28760E-02         0.00000E+00
    0.42456E-02        -0.32784E-02         0.00000E+00
    0.44784E-02        -0.36847E-02         0.00000E+00
    0.46896E-02        -0.40935E-02         0.00000E+00
    0.48819E-02        -0.45037E-02         0.00000E+00
    0.50579E-02        -0.49147E-02         0.00000E+00
    0.52199E-02        -0.53262E-02         0.00000E+00
    0.53698E-02        -0.57381E-02         0.00000E+00
    0.55093E-02        -0.61506E-02         0.00000E+00
    0.56401E-02        -0.65637E-02         0.00000E+00
    0.57634E-02        -0.69777E-02         0.00000E+00
    0.58805E-02        -0.73930E-02         0.00000E+00
    0.59923E-02        -0.78099E-02         0.00000E+00
    0.60997E-02        -0.82287E-02         0.00000E+00
    0.62036E-02        -0.86498E-02         0.00000E+00
    0.63046E-02        -0.90734E-02         0.00000E+00
    0.64032E-02        -0.95000E-02         0.00000E+00
    0.64999E-02        -0.99298E-02         0.00000E+00
    0.65953E-02        -0.10363E-01         0.00000E+00
    0.66896E-02        -0.10800E-01         0.00000E+00
    0.67831E-02        -0.11241E-01         0.00000E+00
    0.68762E-02        -0.11687E-01         0.00000E+00
    0.69691E-02        -0.12137E-01         0.00000E+00
    0.70618E-02        -0.12592E-01         0.00000E+00
    0.71547E-02        -0.13052E-01         0.00000E+00
    0.72478E-02        -0.13516E-01         0.00000E+00
    0.73413E-02        -0.13987E-01         0.00000E+00
    0.74351E-02        -0.14462E-01         0.00000E+00
    0.75294E-02        -0.14944E-01         0.00000E+00
    0.76242E-02        -0.15431E-01         0.00000E+00
    0.77195E-02        -0.15924E-01         0.00000E+00
    0.78153E-02        -0.16423E-01         0.00000E+00
    0.79117E-02        -0.16929E-01         0.00000E+00
    0.80085E-02        -0.17440E-01         0.00000E+00
    0.81058E-02        -0.17959E-01         0.00000E+00
    0.82036E-02        -0.18483E-01         0.00000E+00
    0.83016E-02        -0.19015E-01         0.00000E+00
    0.84000E-02        -0.19553E-01         0.00000E+00
    0.84986E-02        -0.20098E-01         0.00000E+00
    0.85973E-02        -0.20650E-01         0.00000E+00
    0.86960E-02        -0.21209E-01         0.00000E+00
    0.87946E-02        -0.21774E-01         0.00000E+00
    0.88930E-02        -0.22347E-01         0.00000E+00
    0.89910E-02        -0.22927E-01         0.00000E+00
    0.90885E-02        -0.23515E-01         0.00000E+00
    0.91855E-02        -0.24109E-01         0.00000E+00
    0.92816E-02        -0.24711E-01         0.00000E+00
    0.93767E-02        -0.25320E-01         0.00000E+00
    0.94706E-02        -0.25936E-01         0.00000E+00
    0.95631E-02        -0.26560E-01         0.00000E+00
    0.96541E-02        -0.27191E-01         0.00000E+00
    0.97432E-02        -0.27830E-01         0.00000E+00
    0.98301E-02        -0.28476E-01         0.00000E+00
    0.99147E-02        -0.29129E-01         0.00000E+00
    0.99966E-02        -0.29789E-01         0.00000E+00
    0.10075E-01        -0.30458E-01         0.00000E+00
    0.10151E-01        -0.31133E-01         0.00000E+00
    0.10222E-01        -0.31816E-01         0.00000E+00
    0.10290E-01        -0.32506E-01         0.00000E+00
    0.10353E-01        -0.33204E-01         0.00000E+00
    0.10410E-01        -0.33909E-01         0.00000E+00
    0.10462E-01        -0.34622E-01         0.00000E+00
    0.10507E-01        -0.35342E-01         0.00000E+00
    0.10545E-01        -0.36070E-01         0.00000E+00
    0.10575E-01        -0.36805E-01         0.00000E+00
    0.10597E-01        -0.37548E-01         0.00000E+00
    0.10608E-01        -0.38299E-01         0.00000E+00
    0.10609E-01        -0.39058E-01         0.00000E+00
    0.10597E-01        -0.39825E-01         0.00000E+00
    0.10572E-01        -0.40600E-01         0.00000E+00
    0.10532E-01        -0.41383E-01         0.00000E+00
    0.10475E-01        -0.42175E-01         0.00000E+00
    0.10399E-01        -0.42975E-01         0.00000E+00
    0.10302E-01        -0.43784E-01         0.00000E+00
    0.10181E-01        -0.44602E-01         0.00000E+00
    0.10034E-01        -0.45428E-01         0.00000E+00
    0.98562E-02        -0.46263E-01         0.00000E+00
    0.96449E-02        -0.47105E-01         0.00000E+00
    0.93956E-02        -0.47954E-01         0.00000E+00
    0.91036E-02        -0.48808E-01         0.00000E+00
    0.87635E-02        -0.49666E-01         0.00000E+00
    0.83697E-02        -0.50525E-01         0.00000E+00
    0.79156E-02        -0.51379E-01         0.00000E+00
    0.73943E-02        -0.52225E-01         0.00000E+00
    0.67985E-02        -0.53053E-01         0.00000E+00
    0.61205E-02        -0.53855E-01         0.00000E+00
    0.53526E-02        -0.54616E-01         0.00000E+00
    0.44878E-02        -0.55321E-01         0.00000E+00
    0.35200E-02        -0.55946E-01         0.00000E+00
    0.24459E-02        -0.56461E-01         0.00000E+00
    0.12694E-02        -0.56819E-01         0.00000E+00
    0.00000E+00        -0.56953E-01         0.00000E+00
    0.00000E+00        -0.28757E-03         0.00000E+00
    0.63758E-03        -0.35380E-03         0.00000E+00
    0.12300E-02        -0.52762E-03         0.00000E+00
    0.17722E-02        -0.77421E-03         0.00000E+00
    0.22636E-02        -0.10720E-02         0.00000E+00
    0.27067E-02        -0.14070E-02         0.00000E+00
    0.31052E-02        -0.17690E-02         0.00000E+00
    0.34630E-02        -0.21504E-02         0.00000E+00
    0.37843E-02        -0.25455E-02         0.00000E+00
    0.40730E-02        -0.29500E-02         0.00000E+00
    0.43330E-02        -0.33607E-02         0.00000E+00
    0.45678E-02        -0.37755E-02         0.00000E+00
    0.47805E-02        -0.41927E-02         0.00000E+00
    0.49742E-02        -0.46114E-02         0.00000E+00
    0.51513E-02        -0.50309E-02         0.00000E+00
    0.53142E-02        -0.54510E-02         0.00000E+00
    0.54649E-02        -0.58716E-02         0.00000E+00
    0.56053E-02        -0.62927E-02         0.00000E+00
    0.57368E-02        -0.67145E-02         0.00000E+00
    0.58609E-02        -0.71374E-02         0.00000E+00
    0.59788E-02        -0.75616E-02         0.00000E+00
    0.60914E-02        -0.79875E-02         0.00000E+00
    0.61997E-02        -0.84153E-02         0.00000E+00
    0.63045E-02        -0.88455E-02         0.00000E+00
    0.64064E-02        -0.92784E-02         0.00000E+00
    0.65060E-02        -0.97143E-02         0.00000E+00
    0.66038E-02        -0.10154E-01         0.00000E+00
    0.67002E-02        -0.10596E-01         0.00000E+00
    0.67956E-02        -0.11043E-01         0.00000E+00
    0.68902E-02        -0.11494E-01         0.00000E+00
    0.69845E-02        -0.11949E-01         0.00000E+00
    0.70786E-02        -0.12409E-01         0.00000E+00
    0.71726E-02        -0.12874E-01         0.00000E+00
    0.72667E-02        -0.13344E-01         0.00000E+00
    0.73612E-02        -0.13819E-01         0.00000E+00
    0.74559E-02        -0.14300E-01         0.00000E+00
    0.75512E-02        -0.14786E-01         0.00000E+00
    0.76469E-02        -0.15278E-01         0.00000E+00
    0.77431E-02        -0.15776E-01         0.00000E+00
    0.78399E-02        -0.16280E-01         0.00000E+00
    0.79372E-02        -0.16791E-01         0.00000E+00
    0.80351E-02        -0.17307E-01         0.00000E+00
    0.81334E-02        -0.17830E-01         0.00000E+00
    0.82323E-02        -0.18360E-01         0.00000E+00
    0.83316E-02        -0.18897E-01         0.00000E+00
    0.84313E-02        -0.19440E-01         0.00000E+00
    0.85312E-02        -0.19990E-01         0.00000E+00
    0.86314E-02        -0.20547E-01         0.00000E+00
    0.87318E-02        -0.21111E-01         0.00000E+00
    0.88321E-02        -0.21682E-01         0.00000E+00
    0.89324E-02        -0.22261E-01         0.00000E+00
    0.90324E-02        -0.22846E-01         0.00000E+00
    0.91321E-02        -0.23439E-01         0.00000E+00
    0.92314E-02        -0.24040E-01         0.00000E+00
    0.93300E-02        -0.24647E-01         0.00000E+00
    0.94278E-02        -0.25262E-01         0.00000E+00
    0.95246E-02        -0.25885E-01         0.00000E+00
    0.96202E-02        -0.26515E-01         0.00000E+00
    0.97144E-02        -0.27152E-01         0.00000E+00
    0.98070E-02        -0.27798E-01         0.00000E+00
    0.98978E-02        -0.28450E-01         0.00000E+00
    0.99864E-02        -0.29110E-01         0.00000E+00
    0.10073E-01        -0.29778E-01         0.00000E+00
    0.10156E-01        -0.30453E-01         0.00000E+00
    0.10237E-01        -0.31136E-01         0.00000E+00
    0.10314E-01        -0.31826E-01         0.00000E+00
    0.10387E-01        -0.32524E-01         0.00000E+00
    0.10456E-01        -0.33229E-01         0.00000E+00
    0.10520E-01        -0.33942E-01         0.00000E+00
    0.10579E-01        -0.34663E-01         0.00000E+00
    0.10632E-01        -0.35391E-01         0.00000E+00
    0.10679E-01        -0.36127E-01         0.00000E+00
    0.10719E-01        -0.36871E-01         0.00000E+00
    0.10750E-01        -0.37622E-01         0.00000E+00
    0.10773E-01        -0.38381E-01         0.00000E+00
    0.10786E-01        -0.39148E-01         0.00000E+00
    0.10788E-01        -0.39924E-01         0.00000E+00
    0.10778E-01        -0.40707E-01         0.00000E+00
    0.10754E-01        -0.41499E-01         0.00000E+00
    0.10715E-01        -0.42299E-01         0.00000E+00
    0.10659E-01        -0.43107E-01         0.00000E+00
    0.10585E-01        -0.43924E-01         0.00000E+00
    0.10488E-01        -0.44750E-01         0.00000E+00
    0.10368E-01        -0.45585E-01         0.00000E+00
    0.10221E-01        -0.46429E-01         0.00000E+00
    0.10044E-01        -0.47281E-01         0.00000E+00
    0.98330E-02        -0.48140E-01         0.00000E+00
    0.95832E-02        -0.49007E-01         0.00000E+00
    0.92902E-02        -0.49879E-01         0.00000E+00
    0.89484E-02        -0.50754E-01         0.00000E+00
    0.85518E-02        -0.51630E-01         0.00000E+00
    0.80937E-02        -0.52503E-01         0.00000E+00
    0.75669E-02        -0.53366E-01         0.00000E+00
    0.69635E-02        -0.54212E-01         0.00000E+00
    0.62756E-02        -0.55031E-01         0.00000E+00
    0.54949E-02        -0.55810E-01         0.00000E+00
    0.46133E-02        -0.56533E-01         0.00000E+00
    0.36239E-02        -0.57176E-01         0.00000E+00
    0.25220E-02        -0.57708E-01         0.00000E+00
    0.13100E-02        -0.58083E-01         0.00000E+00
    0.00000E+00        -0.58226E-01         0.00000E+00
    0.00000E+00        -0.29054E-03         0.00000E+00
    0.65833E-03        -0.36175E-03         0.00000E+00
    0.12681E-02        -0.54389E-03         0.00000E+00
    0.18233E-02        -0.79868E-03         0.00000E+00
    0.23247E-02        -0.11047E-02         0.00000E+00
    0.27755E-02        -0.14480E-02         0.00000E+00
    0.31799E-02        -0.18182E-02         0.00000E+00
    0.35424E-02        -0.22079E-02         0.00000E+00
    0.38672E-02        -0.26113E-02         0.00000E+00
    0.41587E-02        -0.30241E-02         0.00000E+00
    0.44209E-02        -0.34432E-02         0.00000E+00
    0.46573E-02        -0.38663E-02         0.00000E+00
    0.48713E-02        -0.42920E-02         0.00000E+00
    0.50660E-02        -0.47191E-02         0.00000E+00
    0.52440E-02        -0.51472E-02         0.00000E+00
    0.54077E-02        -0.55759E-02         0.00000E+00
    0.55591E-02        -0.60051E-02         0.00000E+00
    0.57002E-02        -0.64349E-02         0.00000E+00
    0.58324E-02        -0.68655E-02         0.00000E+00
    0.59572E-02        -0.72972E-02         0.00000E+00
    0.60757E-02        -0.77303E-02         0.00000E+00
    0.61891E-02        -0.81651E-02         0.00000E+00
    0.62982E-02        -0.86020E-02         0.00000E+00
    0.64038E-02        -0.90414E-02         0.00000E+00
    0.65066E-02        -0.94835E-02         0.00000E+00
    0.66071E-02        -0.99287E-02         0.00000E+00
    0.67058E-02        -0.10377E-01         0.00000E+00
    0.68032E-02        -0.10830E-01         0.00000E+00
    0.68996E-02        -0.11286E-01         0.00000E+00
    0.69954E-02        -0.11747E-01         0.00000E+00
    0.70908E-02        -0.12212E-01         0.00000E+00
    0.71861E-02        -0.12682E-01         0.00000E+00
    0.72813E-02        -0.13157E-01         0.00000E+00
    0.73767E-02        -0.13637E-01         0.00000E+00
    0.74724E-02        -0.14122E-01         0.00000E+00
    0.75685E-02        -0.14613E-01         0.00000E+00
    0.76651E-02        -0.15110E-01         0.00000E+00
    0.77621E-02        -0.15613E-01         0.00000E+00
    0.78598E-02        -0.16122E-01         0.00000E+00
    0.79580E-02        -0.16637E-01         0.00000E+00
    0.80568E-02        -0.17158E-01         0.00000E+00
    0.81561E-02        -0.17686E-01         0.00000E+00
    0.82560E-02        -0.18221E-01         0.00000E+00
    0.83564E-02        -0.18762E-01         0.00000E+00
    0.84573E-02        -0.19310E-01         0.00000E+00
    0.85585E-02        -0.19865E-01         0.00000E+00
    0.86601E-02        -0.20427E-01         0.00000E+00
    0.87619E-02        -0.20996E-01         0.00000E+00
    0.88638E-02        -0.21572E-01         0.00000E+00
    0.89658E-02        -0.22156E-01         0.00000E+00
    0.90677E-02        -0.22747E-01         0.00000E+00
    0.91694E-02        -0.23345E-01         0.00000E+00
    0.92708E-02        -0.23951E-01         0.00000E+00
    0.93716E-02        -0.24564E-01         0.00000E+00
    0.94719E-02        -0.25185E-01         0.00000E+00
    0.95714E-02        -0.25814E-01         0.00000E+00
    0.96698E-02        -0.26450E-01         0.00000E+00
    0.97671E-02        -0.27093E-01         0.00000E+00
    0.98630E-02        -0.27745E-01         0.00000E+00
    0.99573E-02        -0.28404E-01         0.00000E+00
    0.10050E-01        -0.29070E-01         0.00000E+00
    0.10140E-01        -0.29745E-01         0.00000E+00
    0.10228E-01        -0.30427E-01         0.00000E+00
    0.10313E-01        -0.31117E-01         0.00000E+00
    0.10395E-01        -0.31814E-01         0.00000E+00
    0.10474E-01        -0.32519E-01         0.00000E+00
    0.10549E-01        -0.33232E-01         0.00000E+00
    0.10619E-01        -0.33953E-01         0.00000E+00
    0.10685E-01        -0.34681E-01         0.00000E+00
    0.10746E-01        -0.35417E-01         0.00000E+00
    0.10800E-01        -0.36161E-01         0.00000E+00
    0.10849E-01        -0.36912E-01         0.00000E+00
    0.10890E-01        -0.37672E-01         0.00000E+00
    0.10923E-01        -0.38439E-01         0.00000E+00
    0.10947E-01        -0.39215E-01         0.00000E+00
    0.10962E-01        -0.39998E-01         0.00000E+00
    0.10965E-01        -0.40789E-01         0.00000E+00
    0.10956E-01        -0.41589E-01         0.00000E+00
    0.10934E-01        -0.42397E-01         0.00000E+00
    0.10896E-01        -0.43214E-01         0.00000E+00
    0.10842E-01        -0.44040E-01         0.00000E+00
    0.10768E-01        -0.44874E-01         0.00000E+00
    0.10673E-01        -0.45717E-01         0.00000E+00
    0.10554E-01        -0.46569E-01         0.00000E+00
    0.10408E-01        -0.47429E-01         0.00000E+00
    0.10232E-01        -0.48298E-01         0.00000E+00
    0.10021E-01        -0.49175E-01         0.00000E+00
    0.97709E-02        -0.50059E-01         0.00000E+00
    0.94772E-02        -0.50949E-01         0.00000E+00
    0.91341E-02        -0.51842E-01         0.00000E+00
    0.87353E-02        -0.52736E-01         0.00000E+00
    0.82738E-02        -0.53625E-01         0.00000E+00
    0.77420E-02        -0.54506E-01         0.00000E+00
    0.71319E-02        -0.55370E-01         0.00000E+00
    0.64347E-02        -0.56207E-01         0.00000E+00
    0.56417E-02        -0.57004E-01         0.00000E+00
    0.47439E-02        -0.57745E-01         0.00000E+00
    0.37334E-02        -0.58405E-01         0.00000E+00
    0.26036E-02        -0.58955E-01         0.00000E+00
    0.13546E-02        -0.59348E-01         0.00000E+00
    0.00000E+00        -0.59502E-01         0.00000E+00
    0.00000E+00        -0.29250E-03         0.00000E+00
    0.68137E-03        -0.36959E-03         0.00000E+00
    0.13090E-02        -0.56028E-03         0.00000E+00
    0.18771E-02        -0.82326E-03         0.00000E+00
    0.23881E-02        -0.11375E-02         0.00000E+00
    0.28463E-02        -0.14890E-02         0.00000E+00
    0.32564E-02        -0.18675E-02         0.00000E+00
    0.36231E-02        -0.22655E-02         0.00000E+00
    0.39512E-02        -0.26772E-02         0.00000E+00
    0.42451E-02        -0.30983E-02         0.00000E+00
    0.45091E-02        -0.35257E-02         0.00000E+00
    0.47469E-02        -0.39573E-02         0.00000E+00
    0.49620E-02        -0.43914E-02         0.00000E+00
    0.51575E-02        -0.48270E-02         0.00000E+00
    0.53362E-02        -0.52636E-02         0.00000E+00
    0.55005E-02        -0.57008E-02         0.00000E+00
    0.56525E-02        -0.61386E-02         0.00000E+00
    0.57940E-02        -0.65771E-02         0.00000E+00
    0.59268E-02        -0.70165E-02         0.00000E+00
    0.60522E-02        -0.74570E-02         0.00000E+00
    0.61713E-02        -0.78990E-02         0.00000E+00
    0.62854E-02        -0.83428E-02         0.00000E+00
    0.63951E-02        -0.87887E-02         0.00000E+00
    0.65015E-02        -0.92372E-02         0.00000E+00
    0.66050E-02        -0.96885E-02         0.00000E+00
    0.67064E-02        -0.10143E-01         0.00000E+00
    0.68061E-02        -0.10601E-01         0.00000E+00
    0.69044E-02        -0.11063E-01         0.00000E+00
    0.70019E-02        -0.11529E-01         0.00000E+00
    0.70987E-02        -0.11999E-01         0.00000E+00
    0.71952E-02        -0.12474E-01         0.00000E+00
    0.72915E-02        -0.12954E-01         0.00000E+00
    0.73880E-02        -0.13439E-01         0.00000E+00
    0.74846E-02        -0.13929E-01         0.00000E+00
    0.75815E-02        -0.14425E-01         0.00000E+00
    0.76789E-02        -0.14927E-01         0.00000E+00
    0.77768E-02        -0.15434E-01         0.00000E+00
    0.78752E-02        -0.15947E-01         0.00000E+00
    0.79743E-02        -0.16467E-01         0.00000E+00
    0.80739E-02        -0.16993E-01         0.00000E+00
    0.81741E-02        -0.17526E-01         0.00000E+00
    0.82749E-02        -0.18065E-01         0.00000E+00
    0.83763E-02        -0.18611E-01         0.00000E+00
    0.84782E-02        -0.19163E-01         0.00000E+00
    0.85806E-02        -0.19723E-01         0.00000E+00
    0.86833E-02        -0.20290E-01         0.00000E+00
    0.87865E-02        -0.20864E-01         0.00000E+00
    0.88898E-02        -0.21445E-01         0.00000E+00
    0.89934E-02        -0.22034E-01         0.00000E+00
    0.90969E-02        -0.22630E-01         0.00000E+00
    0.92005E-02        -0.23233E-01         0.00000E+00
    0.93038E-02        -0.23844E-01         0.00000E+00
    0.94068E-02        -0.24463E-01         0.00000E+00
    0.95093E-02        -0.25089E-01         0.00000E+00
    0.96112E-02        -0.25723E-01         0.00000E+00
    0.97124E-02        -0.26365E-01         0.00000E+00
    0.98125E-02        -0.27015E-01         0.00000E+00
    0.99114E-02        -0.27672E-01         0.00000E+00
    0.10009E-01        -0.28337E-01         0.00000E+00
    0.10105E-01        -0.29010E-01         0.00000E+00
    0.10199E-01        -0.29691E-01         0.00000E+00
    0.10291E-01        -0.30379E-01         0.00000E+00
    0.10380E-01        -0.31076E-01         0.00000E+00
    0.10467E-01        -0.31780E-01         0.00000E+00
    0.10551E-01        -0.32492E-01         0.00000E+00
    0.10631E-01        -0.33212E-01         0.00000E+00
    0.10708E-01        -0.33940E-01         0.00000E+00
    0.10780E-01        -0.34676E-01         0.00000E+00
    0.10847E-01        -0.35420E-01         0.00000E+00
    0.10910E-01        -0.36171E-01         0.00000E+00
    0.10966E-01        -0.36930E-01         0.00000E+00
    0.11016E-01        -0.37698E-01         0.00000E+00
    0.11058E-01        -0.38473E-01         0.00000E+00
    0.11093E-01        -0.39256E-01         0.00000E+00
    0.11119E-01        -0.40048E-01         0.00000E+00
    0.11135E-01        -0.40847E-01         0.00000E+00
    0.11140E-01        -0.41655E-01         0.00000E+00
    0.11133E-01        -0.42472E-01         0.00000E+00
    0.11112E-01        -0.43296E-01         0.00000E+00
    0.11076E-01        -0.44130E-01         0.00000E+00
    0.11023E-01        -0.44972E-01         0.00000E+00
    0.10950E-01        -0.45823E-01         0.00000E+00
    0.10857E-01        -0.46683E-01         0.00000E+00
    0.10739E-01        -0.47552E-01         0.00000E+00
    0.10594E-01        -0.48430E-01         0.00000E+00
    0.10418E-01        -0.49316E-01         0.00000E+00
    0.10208E-01        -0.50210E-01         0.00000E+00
    0.99586E-02        -0.51112E-01         0.00000E+00
    0.96647E-02        -0.52019E-01         0.00000E+00
    0.93208E-02        -0.52929E-01         0.00000E+00
    0.89202E-02        -0.53841E-01         0.00000E+00
    0.84559E-02        -0.54748E-01         0.00000E+00
    0.79199E-02        -0.55647E-01         0.00000E+00
    0.73036E-02        -0.56528E-01         0.00000E+00
    0.65979E-02        -0.57383E-01         0.00000E+00
    0.57933E-02        -0.58198E-01         0.00000E+00
    0.48800E-02        -0.58956E-01         0.00000E+00
    0.38489E-02        -0.59634E-01         0.00000E+00
    0.26915E-02        -0.60202E-01         0.00000E+00
    0.14041E-02        -0.60613E-01         0.00000E+00
    0.00000E+00        -0.60780E-01         0.00000E+00
    0.00000E+00        -0.29337E-03         0.00000E+00
    0.70742E-03        -0.37751E-03         0.00000E+00
    0.13531E-02        -0.57677E-03         0.00000E+00
    0.19338E-02        -0.84792E-03         0.00000E+00
    0.24542E-02        -0.11704E-02         0.00000E+00
    0.29194E-02        -0.15302E-02         0.00000E+00
    0.33346E-02        -0.19170E-02         0.00000E+00
    0.37052E-02        -0.23232E-02         0.00000E+00
    0.40362E-02        -0.27431E-02         0.00000E+00
    0.43322E-02        -0.31726E-02         0.00000E+00
    0.45977E-02        -0.36084E-02         0.00000E+00
    0.48366E-02        -0.40483E-02         0.00000E+00
    0.50525E-02        -0.44908E-02         0.00000E+00
    0.52487E-02        -0.49349E-02         0.00000E+00
    0.54278E-02        -0.53800E-02         0.00000E+00
    0.55925E-02        -0.58257E-02         0.00000E+00
    0.57449E-02        -0.62722E-02         0.00000E+00
    0.58869E-02        -0.67194E-02         0.00000E+00
    0.60200E-02        -0.71675E-02         0.00000E+00
    0.61459E-02        -0.76168E-02         0.00000E+00
    0.62655E-02        -0.80677E-02         0.00000E+00
    0.63801E-02        -0.85204E-02         0.00000E+00
    0.64905E-02        -0.89754E-02         0.00000E+00
    0.65976E-02        -0.94331E-02         0.00000E+00
    0.67019E-02        -0.98936E-02         0.00000E+00
    0.68040E-02        -0.10357E-01         0.00000E+00
    0.69045E-02        -0.10825E-01         0.00000E+00
    0.70038E-02        -0.11296E-01         0.00000E+00
    0.71022E-02        -0.11772E-01         0.00000E+00
    0.72000E-02        -0.12252E-01         0.00000E+00
    0.72976E-02        -0.12737E-01         0.00000E+00
    0.73950E-02        -0.13227E-01         0.00000E+00
    0.74926E-02        -0.13722E-01         0.00000E+00
    0.75904E-02        -0.14222E-01         0.00000E+00
    0.76886E-02        -0.14728E-01         0.00000E+00
    0.77872E-02        -0.15240E-01         0.00000E+00
    0.78864E-02        -0.15758E-01         0.00000E+00
    0.79861E-02        -0.16282E-01         0.00000E+00
    0.80865E-02        -0.16813E-01         0.00000E+00
    0.81875E-02        -0.17349E-01         0.00000E+00
    0.82891E-02        -0.17893E-01         0.00000E+00
    0.83914E-02        -0.18443E-01         0.00000E+00
    0.84942E-02        -0.19001E-01         0.00000E+00
    0.85976E-02        -0.19565E-01         0.00000E+00
    0.87015E-02        -0.20136E-01         0.00000E+00
    0.88058E-02        -0.20715E-01         0.00000E+00
    0.89104E-02        -0.21301E-01         0.00000E+00
    0.90154E-02        -0.21894E-01         0.00000E+00
    0.91205E-02        -0.22495E-01         0.00000E+00
    0.92256E-02        -0.23103E-01         0.00000E+00
    0.93307E-02        -0.23720E-01         0.00000E+00
    0.94357E-02        -0.24343E-01         0.00000E+00
    0.95403E-02        -0.24975E-01         0.00000E+00
    0.96445E-02        -0.25614E-01         0.00000E+00
    0.97480E-02        -0.26261E-01         0.00000E+00
    0.98508E-02        -0.26916E-01         0.00000E+00
    0.99525E-02        -0.27579E-01         0.00000E+00
    0.10053E-01        -0.28250E-01         0.00000E+00
    0.10152E-01        -0.28929E-01         0.00000E+00
    0.10250E-01        -0.29616E-01         0.00000E+00
    0.10346E-01        -0.30311E-01         0.00000E+00
    0.10439E-01        -0.31014E-01         0.00000E+00
    0.10530E-01        -0.31725E-01         0.00000E+00
    0.10619E-01        -0.32444E-01         0.00000E+00
    0.10704E-01        -0.33171E-01         0.00000E+00
    0.10786E-01        -0.33906E-01         0.00000E+00
    0.10864E-01        -0.34648E-01         0.00000E+00
    0.10938E-01        -0.35399E-01         0.00000E+00
    0.11007E-01        -0.36158E-01         0.00000E+00
    0.11071E-01        -0.36925E-01         0.00000E+00
    0.11129E-01        -0.37700E-01         0.00000E+00
    0.11180E-01        -0.38483E-01         0.00000E+00
    0.11224E-01        -0.39274E-01         0.00000E+00
    0.11261E-01        -0.40074E-01         0.00000E+00
    0.11288E-01        -0.40881E-01         0.00000E+00
    0.11306E-01        -0.41697E-01         0.00000E+00
    0.11312E-01        -0.42521E-01         0.00000E+00
    0.11307E-01        -0.43354E-01         0.00000E+00
    0.11287E-01        -0.44195E-01         0.00000E+00
    0.11253E-01        -0.45045E-01         0.00000E+00
    0.11201E-01        -0.45904E-01         0.00000E+00
    0.11131E-01        -0.46772E-01         0.00000E+00
    0.11039E-01        -0.47649E-01         0.00000E+00
    0.10922E-01        -0.48535E-01         0.00000E+00
    0.10779E-01        -0.49430E-01         0.00000E+00
    0.10604E-01        -0.50334E-01         0.00000E+00
    0.10395E-01        -0.51246E-01         0.00000E+00
    0.10146E-01        -0.52164E-01         0.00000E+00
    0.98527E-02        -0.53089E-01         0.00000E+00
    0.95085E-02        -0.54017E-01         0.00000E+00
    0.91068E-02        -0.54946E-01         0.00000E+00
    0.86403E-02        -0.55871E-01         0.00000E+00
    0.81007E-02        -0.56787E-01         0.00000E+00
    0.74790E-02        -0.57686E-01         0.00000E+00
    0.67655E-02        -0.58559E-01         0.00000E+00
    0.59501E-02        -0.59391E-01         0.00000E+00
    0.50221E-02        -0.60167E-01         0.00000E+00
    0.39709E-02        -0.60863E-01         0.00000E+00
    0.27866E-02        -0.61449E-01         0.00000E+00
    0.14601E-02        -0.61878E-01         0.00000E+00
    0.00000E+00        -0.62060E-01         0.00000E+00
    0.00000E+00        -0.29306E-03         0.00000E+00
    0.73758E-03        -0.38581E-03         0.00000E+00
    0.14008E-02        -0.59322E-03         0.00000E+00
    0.19937E-02        -0.87265E-03         0.00000E+00
    0.25230E-02        -0.12034E-02         0.00000E+00
    0.29947E-02        -0.15714E-02         0.00000E+00
    0.34148E-02        -0.19664E-02         0.00000E+00
    0.37889E-02        -0.23809E-02         0.00000E+00
    0.41223E-02        -0.28091E-02         0.00000E+00
    0.44201E-02        -0.32469E-02         0.00000E+00
    0.46868E-02        -0.36910E-02         0.00000E+00
    0.49265E-02        -0.41393E-02         0.00000E+00
    0.51429E-02        -0.45902E-02         0.00000E+00
    0.53394E-02        -0.50428E-02         0.00000E+00
    0.55189E-02        -0.54964E-02         0.00000E+00
    0.56838E-02        -0.59507E-02         0.00000E+00
    0.58364E-02        -0.64058E-02         0.00000E+00
    0.59786E-02        -0.68616E-02         0.00000E+00
    0.61121E-02        -0.73185E-02         0.00000E+00
    0.62383E-02        -0.77766E-02         0.00000E+00
    0.63584E-02        -0.82364E-02         0.00000E+00
    0.64734E-02        -0.86981E-02         0.00000E+00
    0.65844E-02        -0.91622E-02         0.00000E+00
    0.66920E-02        -0.96289E-02         0.00000E+00
    0.67970E-02        -0.10099E-01         0.00000E+00
    0.68999E-02        -0.10572E-01         0.00000E+00
    0.70012E-02        -0.11049E-01         0.00000E+00
    0.71013E-02        -0.11530E-01         0.00000E+00
    0.72006E-02        -0.12015E-01         0.00000E+00
    0.72994E-02        -0.12505E-01         0.00000E+00
    0.73980E-02        -0.12999E-01         0.00000E+00
    0.74965E-02        -0.13499E-01         0.00000E+00
    0.75952E-02        -0.14004E-01         0.00000E+00
    0.76941E-02        -0.14515E-01         0.00000E+00
    0.77935E-02        -0.15031E-01         0.00000E+00
    0.78934E-02        -0.15554E-01         0.00000E+00
    0.79938E-02        -0.16082E-01         0.00000E+00
    0.80948E-02        -0.16617E-01         0.00000E+00
    0.81965E-02        -0.17158E-01         0.00000E+00
    0.82989E-02        -0.17706E-01         0.00000E+00
    0.84019E-02        -0.18261E-01         0.00000E+00
    0.85056E-02        -0.18822E-01         0.00000E+00
    0.86098E-02        -0.19391E-01         0.00000E+00
    0.87147E-02        -0.19966E-01         0.00000E+00
    0.88200E-02        -0.20549E-01         0.00000E+00
    0.89258E-02        -0.21140E-01         0.00000E+00
    0.90320E-02        -0.21738E-01         0.00000E+00
    0.91384E-02        -0.22343E-01         0.00000E+00
    0.92451E-02        -0.22956E-01         0.00000E+00
    0.93518E-02        -0.23577E-01         0.00000E+00
    0.94585E-02        -0.24206E-01         0.00000E+00
    0.95650E-02        -0.24842E-01         0.00000E+00
    0.96713E-02        -0.25487E-01         0.00000E+00
    0.97770E-02        -0.26139E-01         0.00000E+00
    0.98822E-02        -0.26799E-01         0.00000E+00
    0.99865E-02        -0.27468E-01         0.00000E+00
    0.10090E-01        -0.28144E-01         0.00000E+00
    0.10192E-01        -0.28829E-01         0.00000E+00
    0.10293E-01        -0.29522E-01         0.00000E+00
    0.10392E-01        -0.30222E-01         0.00000E+00
    0.10490E-01        -0.30931E-01         0.00000E+00
    0.10585E-01        -0.31649E-01         0.00000E+00
    0.10678E-01        -0.32374E-01         0.00000E+00
    0.10768E-01        -0.33107E-01         0.00000E+00
    0.10855E-01        -0.33849E-01         0.00000E+00
    0.10938E-01        -0.34599E-01         0.00000E+00
    0.11018E-01        -0.35357E-01         0.00000E+00
    0.11093E-01        -0.36123E-01         0.00000E+00
    0.11164E-01        -0.36897E-01         0.00000E+00
    0.11229E-01        -0.37679E-01         0.00000E+00
    0.11289E-01        -0.38470E-01         0.00000E+00
    0.11342E-01        -0.39268E-01         0.00000E+00
    0.11388E-01        -0.40075E-01         0.00000E+00
    0.11426E-01        -0.40891E-01         0.00000E+00
    0.11455E-01        -0.41714E-01         0.00000E+00
    0.11474E-01        -0.42546E-01         0.00000E+00
    0.11482E-01        -0.43387E-01         0.00000E+00
    0.11478E-01        -0.44236E-01         0.00000E+00
    0.11461E-01        -0.45094E-01         0.00000E+00
    0.11428E-01        -0.45961E-01         0.00000E+00
    0.11378E-01        -0.46837E-01         0.00000E+00
    0.11310E-01        -0.47721E-01         0.00000E+00
    0.11219E-01        -0.48615E-01         0.00000E+00
    0.11105E-01        -0.49519E-01         0.00000E+00
    0.10963E-01        -0.50431E-01         0.00000E+00
    0.10790E-01        -0.51352E-01         0.00000E+00
    0.10582E-01        -0.52281E-01         0.00000E+00
    0.10334E-01        -0.53217E-01         0.00000E+00
    0.10041E-01        -0.54159E-01         0.00000E+00
    0.96972E-02        -0.55104E-01         0.00000E+00
    0.92950E-02        -0.56051E-01         0.00000E+00
    0.88270E-02        -0.56993E-01         0.00000E+00
    0.82845E-02        -0.57927E-01         0.00000E+00
    0.76581E-02        -0.58844E-01         0.00000E+00
    0.69377E-02        -0.59734E-01         0.00000E+00
    0.61123E-02        -0.60585E-01         0.00000E+00
    0.51704E-02        -0.61378E-01         0.00000E+00
    0.41001E-02        -0.62092E-01         0.00000E+00
    0.28894E-02        -0.62695E-01         0.00000E+00
    0.15251E-02        -0.63143E-01         0.00000E+00
    0.00000E+00        -0.63342E-01         0.00000E+00
CELL_DATA       5000
VECTORS vDarcy double 
    0.96252E-08         0.14447E-12         0.00000E+00
    0.96242E-08         0.32974E-12         0.00000E+00
    0.96261E-08         0.39212E-12         0.00000E+00
    0.96317E-08         0.41818E-12         0.00000E+00
    0.96416E-08         0.41753E-12         0.00000E+00
    0.96562E-08         0.40068E-12         0.00000E+00
    0.96757E-08         0.37327E-12         0.00000E+00
    0.97003E-08         0.33968E-12         0.00000E+00
    0.97302E-08         0.30295E-12         0.00000E+00
    0.97654E-08         0.26527E-12         0.00000E+00
    0.98059E-08         0.22809E-12         0.00000E+00
    0.98517E-08         0.19236E-12         0.00000E+00
    0.99028E-08         0.15864E-12         0.00000E+00
    0.99591E-08         0.12721E-12         0.00000E+00
    0.10021E-07         0.98173E-13         0.00000E+00
    0.10087E-07         0.71480E-13         0.00000E+00
    0.10159E-07         0.47022E-13         0.00000E+00
    0.10235E-07         0.24636E-13         0.00000E+00
    0.10316E-07         0.41380E-14         0.00000E+00
    0.10402E-07        -0.14664E-13         0.00000E+00
    0.10493E-07        -0.31957E-13         0.00000E+00
    0.10588E-07        -0.47918E-13         0.00000E+00
    0.10688E-07        -0.62712E-13         0.00000E+00
    0.10792E-07        -0.76484E-13         0.00000E+00
    0.10900E-07        -0.89368E-13         0.00000E+00
    0.11013E-07        -0.10148E-12         0.00000E+00
    0.11130E-07        -0.11292E-12         0.00000E+00
    0.11250E-07        -0.12377E-12         0.00000E+00
    0.11375E-07        -0.13411E-12         0.00000E+00
    0.11503E-07        -0.14400E-12         0.00000E+00
    0.11635E-07        -0.15350E-12         0.00000E+00
    0.11771E-07        -0.16266E-12         0.00000E+00
    0.11910E-07        -0.17150E-12         0.00000E+00
    0.12052E-07        -0.18007E-12         0.00000E+00
    0.12198E-07        -0.18838E-12         0.00000E+00
    0.12347E-07        -0.19646E-12         0.00000E+00
    0.12499E-07        -0.20432E-12         0.00000E+00
    0.12654E-07        -0.21198E-12         0.00000E+00
    0.12812E-07        -0.21943E-12         0.00000E+00
    0.12972E-07        -0.22669E-12         0.00000E+00
    0.13135E-07        -0.23376E-12         0.00000E+00
    0.13300E-07        -0.24063E-12         0.00000E+00
    0.13467E-07        -0.24731E-12         0.00000E+00
    0.13637E-07        -0.25378E-12         0.00000E+00
    0.13808E-07        -0.26004E-12         0.00000E+00
    0.13982E-07        -0.26607E-12         0.00000E+00
    0.14157E-07        -0.27188E-12         0.00000E+00
    0.14333E-07        -0.27744E-12         0.00000E+00
    0.14511E-07        -0.28273E-12         0.00000E+00
    0.14690E-07        -0.28775E-12         0.00000E+00
    0.14869E-07        -0.29247E-12         0.00000E+00
    0.15050E-07        -0.29688E-12         0.00000E+00
    0.15231E-07        -0.30095E-12         0.00000E+00
    0.15413E-07        -0.30466E-12         0.00000E+00
    0.15595E-07        -0.30799E-12         0.00000E+00
    0.15777E-07        -0.31092E-12         0.00000E+00
    0.15959E-07        -0.31341E-12         0.00000E+00
    0.16140E-07        -0.31543E-12         0.00000E+00
    0.16322E-07        -0.31697E-12         0.00000E+00
    0.16502E-07        -0.31799E-12         0.00000E+00
    0.16681E-07        -0.31845E-12         0.00000E+00
    0.16860E-07        -0.31832E-12         0.00000E+00
    0.17037E-07        -0.31757E-12         0.00000E+00
    0.17212E-07        -0.31616E-12         0.00000E+00
    0.17386E-07        -0.31404E-12         0.00000E+00
    0.17558E-07        -0.31118E-12         0.00000E+00
    0.17727E-07        -0.30752E-12         0.00000E+00
    0.17895E-07        -0.30301E-12         0.00000E+00
    0.18059E-07        -0.29759E-12         0.00000E+00
    0.18221E-07        -0.29122E-12         0.00000E+00
    0.18380E-07        -0.28380E-12         0.00000E+00
    0.18535E-07        -0.27528E-12         0.00000E+00
    0.18687E-07        -0.26557E-12         0.00000E+00
    0.18836E-07        -0.25457E-12         0.00000E+00
    0.18980E-07        -0.24218E-12         0.00000E+00
    0.19121E-07        -0.22827E-12         0.00000E+00
    0.19257E-07        -0.21272E-12         0.00000E+00
    0.19389E-07        -0.19538E-12         0.00000E+00
    0.19516E-07        -0.17607E-12         0.00000E+00
    0.19637E-07        -0.15462E-12         0.00000E+00
    0.19754E-07        -0.13082E-12         0.00000E+00
    0.19866E-07        -0.10445E-12         0.00000E+00
    0.19971E-07        -0.75295E-13         0.00000E+00
    0.20072E-07        -0.43126E-13         0.00000E+00
    0.20166E-07        -0.77306E-14         0.00000E+00
    0.20254E-07         0.31069E-13         0.00000E+00
    0.20335E-07         0.73385E-13         0.00000E+00
    0.20410E-07         0.11922E-12         0.00000E+00
    0.20479E-07         0.16841E-12         0.00000E+00
    0.20540E-07         0.22052E-12         0.00000E+00
    0.20595E-07         0.27478E-12         0.00000E+00
    0.20643E-07         0.32989E-12         0.00000E+00
    0.20684E-07         0.38389E-12         0.00000E+00
    0.20718E-07         0.43391E-12         0.00000E+00
    0.20745E-07         0.47595E-12         0.00000E+00
    0.20766E-07         0.50433E-12         0.00000E+00
    0.20780E-07         0.51182E-12         0.00000E+00
    0.20789E-07         0.48498E-12         0.00000E+00
    0.20792E-07         0.41191E-12         0.00000E+00
    0.20792E-07         0.18162E-12         0.00000E+00
    0.96253E-08         0.41134E-12         0.00000E+00
    0.96242E-08         0.95550E-12         0.00000E+00
    0.96261E-08         0.11534E-11         0.00000E+00
    0.96317E-08         0.12341E-11         0.00000E+00
    0.96416E-08         0.12352E-11         0.00000E+00
    0.96562E-08         0.11865E-11         0.00000E+00
    0.96757E-08         0.11059E-11         0.00000E+00
    0.97003E-08         0.10065E-11         0.00000E+00
    0.97302E-08         0.89758E-12         0.00000E+00
    0.97654E-08         0.78569E-12         0.00000E+00
    0.98059E-08         0.67527E-12         0.00000E+00
    0.98517E-08         0.56918E-12         0.00000E+00
    0.99028E-08         0.46907E-12         0.00000E+00
    0.99591E-08         0.37582E-12         0.00000E+00
    0.10021E-07         0.28969E-12         0.00000E+00
    0.10087E-07         0.21056E-12         0.00000E+00
    0.10159E-07         0.13810E-12         0.00000E+00
    0.10235E-07         0.71819E-13         0.00000E+00
    0.10316E-07         0.11154E-13         0.00000E+00
    0.10402E-07        -0.44464E-13         0.00000E+00
    0.10493E-07        -0.95599E-13         0.00000E+00
    0.10588E-07        -0.14278E-12         0.00000E+00
    0.10688E-07        -0.18650E-12         0.00000E+00
    0.10792E-07        -0.22719E-12         0.00000E+00
    0.10900E-07        -0.26525E-12         0.00000E+00
    0.11013E-07        -0.30102E-12         0.00000E+00
    0.11130E-07        -0.33480E-12         0.00000E+00
    0.11250E-07        -0.36686E-12         0.00000E+00
    0.11375E-07        -0.39740E-12         0.00000E+00
    0.11503E-07        -0.42663E-12         0.00000E+00
    0.11635E-07        -0.45471E-12         0.00000E+00
    0.11771E-07        -0.48176E-12         0.00000E+00
    0.11910E-07        -0.50790E-12         0.00000E+00
    0.12052E-07        -0.53321E-12         0.00000E+00
    0.12198E-07        -0.55779E-12         0.00000E+00
    0.12347E-07        -0.58168E-12         0.00000E+00
    0.12499E-07        -0.60492E-12         0.00000E+00
    0.12654E-07        -0.62756E-12         0.00000E+00
    0.12812E-07        -0.64961E-12         0.00000E+00
    0.12972E-07        -0.67109E-12         0.00000E+00
    0.13135E-07        -0.69200E-12         0.00000E+00
    0.13300E-07        -0.71233E-12         0.00000E+00
    0.13467E-07        -0.73209E-12         0.00000E+00
    0.13637E-07        -0.75124E-12         0.00000E+00
    0.13808E-07        -0.76977E-12         0.00000E+00
    0.13982E-07        -0.78764E-12         0.00000E+00
    0.14157E-07        -0.80483E-12         0.00000E+00
    0.14333E-07        -0.82129E-12         0.00000E+00
    0.14511E-07        -0.83698E-12         0.00000E+00
    0.14690E-07        -0.85184E-12         0.00000E+00
    0.14869E-07        -0.86584E-12         0.00000E+00
    0.15050E-07        -0.87890E-12         0.00000E+00
    0.15231E-07        -0.89096E-12         0.00000E+00
    0.15413E-07        -0.90197E-12         0.00000E+00
    0.15595E-07        -0.91184E-12         0.00000E+00
    0.15777E-07        -0.92052E-12         0.00000E+00
    0.15959E-07        -0.92791E-12         0.00000E+00
    0.16140E-07        -0.93394E-12         0.00000E+00
    0.16322E-07        -0.93852E-12         0.00000E+00
    0.16502E-07        -0.94156E-12         0.00000E+00
    0.16681E-07        -0.94296E-12         0.00000E+00
    0.16860E-07        -0.94263E-12         0.00000E+00
    0.17037E-07        -0.94045E-12         0.00000E+00
    0.17212E-07        -0.93631E-12         0.00000E+00
    0.17386E-07        -0.93009E-12         0.00000E+00
    0.17558E-07        -0.92166E-12         0.00000E+00
    0.17727E-07        -0.91087E-12         0.00000E+00
    0.17895E-07        -0.89759E-12         0.00000E+00
    0.18059E-07        -0.88163E-12         0.00000E+00
    0.18221E-07        -0.86282E-12         0.00000E+00
    0.18380E-07        -0.84095E-12         0.00000E+00
    0.18535E-07        -0.81581E-12         0.00000E+00
    0.18687E-07        -0.78715E-12         0.00000E+00
    0.18836E-07        -0.75468E-12         0.00000E+00
    0.18980E-07        -0.71808E-12         0.00000E+00
    0.19121E-07        -0.67702E-12         0.00000E+00
    0.19257E-07        -0.63108E-12         0.00000E+00
    0.19389E-07        -0.57982E-12         0.00000E+00
    0.19516E-07        -0.52275E-12         0.00000E+00
    0.19637E-07        -0.45931E-12         0.00000E+00
    0.19754E-07        -0.38890E-12         0.00000E+00
    0.19866E-07        -0.31087E-12         0.00000E+00
    0.19971E-07        -0.22456E-12         0.00000E+00
    0.20072E-07        -0.12928E-12         0.00000E+00
    0.20166E-07        -0.24382E-13         0.00000E+00
    0.20254E-07         0.90656E-13         0.00000E+00
    0.20335E-07         0.21618E-12         0.00000E+00
    0.20410E-07         0.35221E-12         0.00000E+00
    0.20479E-07         0.49824E-12         0.00000E+00
    0.20540E-07         0.65301E-12         0.00000E+00
    0.20595E-07         0.81415E-12         0.00000E+00
    0.20643E-07         0.97780E-12         0.00000E+00
    0.20684E-07         0.11380E-11         0.00000E+00
    0.20718E-07         0.12861E-11         0.00000E+00
    0.20745E-07         0.14099E-11         0.00000E+00
    0.20766E-07         0.14924E-11         0.00000E+00
    0.20780E-07         0.15107E-11         0.00000E+00
    0.20789E-07         0.14268E-11         0.00000E+00
    0.20792E-07         0.11933E-11         0.00000E+00
    0.20792E-07         0.51675E-12         0.00000E+00
    0.96255E-08         0.63934E-12         0.00000E+00
    0.96243E-08         0.15184E-11         0.00000E+00
    0.96261E-08         0.18689E-11         0.00000E+00
    0.96317E-08         0.20096E-11         0.00000E+00
    0.96416E-08         0.20179E-11         0.00000E+00
    0.96562E-08         0.19412E-11         0.00000E+00
    0.96757E-08         0.18106E-11         0.00000E+00
    0.97003E-08         0.16481E-11         0.00000E+00
    0.97302E-08         0.14695E-11         0.00000E+00
    0.97653E-08         0.12857E-11         0.00000E+00
    0.98058E-08         0.11044E-11         0.00000E+00
    0.98516E-08         0.93008E-12         0.00000E+00
    0.99027E-08         0.76574E-12         0.00000E+00
    0.99590E-08         0.61273E-12         0.00000E+00
    0.10021E-07         0.47150E-12         0.00000E+00
    0.10087E-07         0.34187E-12         0.00000E+00
    0.10159E-07         0.22325E-12         0.00000E+00
    0.10235E-07         0.11483E-12         0.00000E+00
    0.10316E-07         0.15661E-13         0.00000E+00
    0.10402E-07        -0.75197E-13         0.00000E+00
    0.10493E-07        -0.15868E-12         0.00000E+00
    0.10588E-07        -0.23568E-12         0.00000E+00
    0.10688E-07        -0.30699E-12         0.00000E+00
    0.10792E-07        -0.37335E-12         0.00000E+00
    0.10900E-07        -0.43540E-12         0.00000E+00
    0.11013E-07        -0.49371E-12         0.00000E+00
    0.11129E-07        -0.54879E-12         0.00000E+00
    0.11250E-07        -0.60104E-12         0.00000E+00
    0.11375E-07        -0.65084E-12         0.00000E+00
    0.11503E-07        -0.69850E-12         0.00000E+00
    0.11635E-07        -0.74429E-12         0.00000E+00
    0.11771E-07        -0.78841E-12         0.00000E+00
    0.11910E-07        -0.83105E-12         0.00000E+00
    0.12052E-07        -0.87236E-12         0.00000E+00
    0.12198E-07        -0.91247E-12         0.00000E+00
    0.12347E-07        -0.95146E-12         0.00000E+00
    0.12499E-07        -0.98942E-12         0.00000E+00
    0.12654E-07        -0.10264E-11         0.00000E+00
    0.12812E-07        -0.10624E-11         0.00000E+00
    0.12972E-07        -0.10975E-11         0.00000E+00
    0.13135E-07        -0.11317E-11         0.00000E+00
    0.13300E-07        -0.11649E-11         0.00000E+00
    0.13467E-07        -0.11972E-11         0.00000E+00
    0.13637E-07        -0.12285E-11         0.00000E+00
    0.13808E-07        -0.12588E-11         0.00000E+00
    0.13982E-07        -0.12880E-11         0.00000E+00
    0.14157E-07        -0.13162E-11         0.00000E+00
    0.14333E-07        -0.13431E-11         0.00000E+00
    0.14511E-07        -0.13688E-11         0.00000E+00
    0.14690E-07        -0.13931E-11         0.00000E+00
    0.14869E-07        -0.14160E-11         0.00000E+00
    0.15050E-07        -0.14374E-11         0.00000E+00
    0.15231E-07        -0.14572E-11         0.00000E+00
    0.15413E-07        -0.14752E-11         0.00000E+00
    0.15595E-07        -0.14914E-11         0.00000E+00
    0.15777E-07        -0.15056E-11         0.00000E+00
    0.15959E-07        -0.15178E-11         0.00000E+00
    0.16140E-07        -0.15277E-11         0.00000E+00
    0.16322E-07        -0.15353E-11         0.00000E+00
    0.16502E-07        -0.15403E-11         0.00000E+00
    0.16681E-07        -0.15427E-11         0.00000E+00
    0.16860E-07        -0.15422E-11         0.00000E+00
    0.17037E-07        -0.15388E-11         0.00000E+00
    0.17212E-07        -0.15321E-11         0.00000E+00
    0.17386E-07        -0.15220E-11         0.00000E+00
    0.17558E-07        -0.15084E-11         0.00000E+00
    0.17727E-07        -0.14909E-11         0.00000E+00
    0.17895E-07        -0.14693E-11         0.00000E+00
    0.18059E-07        -0.14433E-11         0.00000E+00
    0.18221E-07        -0.14127E-11         0.00000E+00
    0.18380E-07        -0.13772E-11         0.00000E+00
    0.18535E-07        -0.13362E-11         0.00000E+00
    0.18687E-07        -0.12896E-11         0.00000E+00
    0.18836E-07        -0.12367E-11         0.00000E+00
    0.18980E-07        -0.11770E-11         0.00000E+00
    0.19121E-07        -0.11101E-11         0.00000E+00
    0.19257E-07        -0.10352E-11         0.00000E+00
    0.19389E-07        -0.95159E-12         0.00000E+00
    0.19516E-07        -0.85845E-12         0.00000E+00
    0.19637E-07        -0.75488E-12         0.00000E+00
    0.19754E-07        -0.63986E-12         0.00000E+00
    0.19866E-07        -0.51233E-12         0.00000E+00
    0.19971E-07        -0.37116E-12         0.00000E+00
    0.20072E-07        -0.21522E-12         0.00000E+00
    0.20166E-07        -0.43434E-13         0.00000E+00
    0.20254E-07         0.14510E-12         0.00000E+00
    0.20335E-07         0.35097E-12         0.00000E+00
    0.20410E-07         0.57420E-12         0.00000E+00
    0.20479E-07         0.81399E-12         0.00000E+00
    0.20541E-07         0.10682E-11         0.00000E+00
    0.20595E-07         0.13330E-11         0.00000E+00
    0.20643E-07         0.16018E-11         0.00000E+00
    0.20684E-07         0.18646E-11         0.00000E+00
    0.20718E-07         0.21068E-11         0.00000E+00
    0.20745E-07         0.23079E-11         0.00000E+00
    0.20766E-07         0.24393E-11         0.00000E+00
    0.20780E-07         0.24609E-11         0.00000E+00
    0.20789E-07         0.23122E-11         0.00000E+00
    0.20792E-07         0.18955E-11         0.00000E+00
    0.20792E-07         0.80242E-12         0.00000E+00
    0.96258E-08         0.83743E-12         0.00000E+00
    0.96244E-08         0.20269E-11         0.00000E+00
    0.96262E-08         0.25390E-11         0.00000E+00
    0.96317E-08         0.27457E-11         0.00000E+00
    0.96416E-08         0.27657E-11         0.00000E+00
    0.96561E-08         0.26646E-11         0.00000E+00
    0.96756E-08         0.24871E-11         0.00000E+00
    0.97002E-08         0.22642E-11         0.00000E+00
    0.97301E-08         0.20184E-11         0.00000E+00
    0.97653E-08         0.17652E-11         0.00000E+00
    0.98058E-08         0.15151E-11         0.00000E+00
    0.98516E-08         0.12749E-11         0.00000E+00
    0.99027E-08         0.10485E-11         0.00000E+00
    0.99590E-08         0.83784E-12         0.00000E+00
    0.10020E-07         0.64356E-12         0.00000E+00
    0.10087E-07         0.46538E-12         0.00000E+00
    0.10159E-07         0.30247E-12         0.00000E+00
    0.10235E-07         0.15367E-12         0.00000E+00
    0.10316E-07         0.17680E-13         0.00000E+00
    0.10402E-07        -0.10683E-12         0.00000E+00
    0.10493E-07        -0.22117E-12         0.00000E+00
    0.10588E-07        -0.32657E-12         0.00000E+00
    0.10688E-07        -0.42414E-12         0.00000E+00
    0.10792E-07        -0.51492E-12         0.00000E+00
    0.10900E-07        -0.59978E-12         0.00000E+00
    0.11013E-07        -0.67952E-12         0.00000E+00
    0.11129E-07        -0.75483E-12         0.00000E+00
    0.11250E-07        -0.82628E-12         0.00000E+00
    0.11375E-07        -0.89439E-12         0.00000E+00
    0.11503E-07        -0.95958E-12         0.00000E+00
    0.11635E-07        -0.10222E-11         0.00000E+00
    0.11771E-07        -0.10826E-11         0.00000E+00
    0.11910E-07        -0.11409E-11         0.00000E+00
    0.12052E-07        -0.11975E-11         0.00000E+00
    0.12198E-07        -0.12524E-11         0.00000E+00
    0.12347E-07        -0.13058E-11         0.00000E+00
    0.12499E-07        -0.13578E-11         0.00000E+00
    0.12654E-07        -0.14084E-11         0.00000E+00
    0.12812E-07        -0.14578E-11         0.00000E+00
    0.12972E-07        -0.15059E-11         0.00000E+00
    0.13135E-07        -0.15527E-11         0.00000E+00
    0.13300E-07        -0.15983E-11         0.00000E+00
    0.13467E-07        -0.16426E-11         0.00000E+00
    0.13637E-07        -0.16856E-11         0.00000E+00
    0.13808E-07        -0.17271E-11         0.00000E+00
    0.13982E-07        -0.17673E-11         0.00000E+00
    0.14157E-07        -0.18058E-11         0.00000E+00
    0.14333E-07        -0.18428E-11         0.00000E+00
    0.14511E-07        -0.18781E-11         0.00000E+00
    0.14690E-07        -0.19115E-11         0.00000E+00
    0.14869E-07        -0.19430E-11         0.00000E+00
    0.15050E-07        -0.19724E-11         0.00000E+00
    0.15231E-07        -0.19995E-11         0.00000E+00
    0.15413E-07        -0.20243E-11         0.00000E+00
    0.15595E-07        -0.20466E-11         0.00000E+00
    0.15777E-07        -0.20662E-11         0.00000E+00
    0.15959E-07        -0.20830E-11         0.00000E+00
    0.16140E-07        -0.20967E-11         0.00000E+00
    0.16322E-07        -0.21072E-11         0.00000E+00
    0.16502E-07        -0.21142E-11         0.00000E+00
    0.16681E-07        -0.21176E-11         0.00000E+00
    0.16860E-07        -0.21171E-11         0.00000E+00
    0.17037E-07        -0.21124E-11         0.00000E+00
    0.17212E-07        -0.21034E-11         0.00000E+00
    0.17386E-07        -0.20898E-11         0.00000E+00
    0.17558E-07        -0.20712E-11         0.00000E+00
    0.17727E-07        -0.20474E-11         0.00000E+00
    0.17895E-07        -0.20180E-11         0.00000E+00
    0.18059E-07        -0.19826E-11         0.00000E+00
    0.18221E-07        -0.19409E-11         0.00000E+00
    0.18380E-07        -0.18923E-11         0.00000E+00
    0.18535E-07        -0.18365E-11         0.00000E+00
    0.18687E-07        -0.17727E-11         0.00000E+00
    0.18836E-07        -0.17004E-11         0.00000E+00
    0.18980E-07        -0.16190E-11         0.00000E+00
    0.19121E-07        -0.15274E-11         0.00000E+00
    0.19257E-07        -0.14250E-11         0.00000E+00
    0.19389E-07        -0.13106E-11         0.00000E+00
    0.19516E-07        -0.11831E-11         0.00000E+00
    0.19638E-07        -0.10412E-11         0.00000E+00
    0.19754E-07        -0.88363E-12         0.00000E+00
    0.19866E-07        -0.70877E-12         0.00000E+00
    0.19972E-07        -0.51507E-12         0.00000E+00
    0.20072E-07        -0.30095E-12         0.00000E+00
    0.20166E-07        -0.64914E-13         0.00000E+00
    0.20254E-07         0.19433E-12         0.00000E+00
    0.20335E-07         0.47762E-12         0.00000E+00
    0.20410E-07         0.78501E-12         0.00000E+00
    0.20479E-07         0.11154E-11         0.00000E+00
    0.20541E-07         0.14659E-11         0.00000E+00
    0.20595E-07         0.18309E-11         0.00000E+00
    0.20643E-07         0.22013E-11         0.00000E+00
    0.20684E-07         0.25631E-11         0.00000E+00
    0.20718E-07         0.28957E-11         0.00000E+00
    0.20745E-07         0.31698E-11         0.00000E+00
    0.20766E-07         0.33447E-11         0.00000E+00
    0.20780E-07         0.33634E-11         0.00000E+00
    0.20789E-07         0.31418E-11         0.00000E+00
    0.20792E-07         0.25294E-11         0.00000E+00
    0.20791E-07         0.10502E-11         0.00000E+00
    0.96262E-08         0.10120E-11         0.00000E+00
    0.96246E-08         0.24884E-11         0.00000E+00
    0.96263E-08         0.31653E-11         0.00000E+00
    0.96318E-08         0.34433E-11         0.00000E+00
    0.96416E-08         0.34787E-11         0.00000E+00
    0.96561E-08         0.33567E-11         0.00000E+00
    0.96756E-08         0.31350E-11         0.00000E+00
    0.97002E-08         0.28544E-11         0.00000E+00
    0.97301E-08         0.25439E-11         0.00000E+00
    0.97652E-08         0.22237E-11         0.00000E+00
    0.98057E-08         0.19073E-11         0.00000E+00
    0.98516E-08         0.16035E-11         0.00000E+00
    0.99026E-08         0.13172E-11         0.00000E+00
    0.99590E-08         0.10511E-11         0.00000E+00
    0.10020E-07         0.80581E-12         0.00000E+00
    0.10087E-07         0.58106E-12         0.00000E+00
    0.10159E-07         0.37574E-12         0.00000E+00
    0.10235E-07         0.18836E-12         0.00000E+00
    0.10316E-07         0.17240E-13         0.00000E+00
    0.10402E-07        -0.13933E-12         0.00000E+00
    0.10493E-07        -0.28302E-12         0.00000E+00
    0.10588E-07        -0.41540E-12         0.00000E+00
    0.10688E-07        -0.53791E-12         0.00000E+00
    0.10792E-07        -0.65185E-12         0.00000E+00
    0.10900E-07        -0.75834E-12         0.00000E+00
    0.11013E-07        -0.85840E-12         0.00000E+00
    0.11129E-07        -0.95289E-12         0.00000E+00
    0.11250E-07        -0.10425E-11         0.00000E+00
    0.11375E-07        -0.11280E-11         0.00000E+00
    0.11503E-07        -0.12098E-11         0.00000E+00
    0.11635E-07        -0.12884E-11         0.00000E+00
    0.11771E-07        -0.13642E-11         0.00000E+00
    0.11910E-07        -0.14375E-11         0.00000E+00
    0.12052E-07        -0.15086E-11         0.00000E+00
    0.12198E-07        -0.15776E-11         0.00000E+00
    0.12347E-07        -0.16447E-11         0.00000E+00
    0.12499E-07        -0.17100E-11         0.00000E+00
    0.12654E-07        -0.17737E-11         0.00000E+00
    0.12812E-07        -0.18358E-11         0.00000E+00
    0.12972E-07        -0.18963E-11         0.00000E+00
    0.13135E-07        -0.19552E-11         0.00000E+00
    0.13300E-07        -0.20126E-11         0.00000E+00
    0.13467E-07        -0.20683E-11         0.00000E+00
    0.13637E-07        -0.21224E-11         0.00000E+00
    0.13808E-07        -0.21747E-11         0.00000E+00
    0.13982E-07        -0.22252E-11         0.00000E+00
    0.14157E-07        -0.22739E-11         0.00000E+00
    0.14333E-07        -0.23204E-11         0.00000E+00
    0.14511E-07        -0.23649E-11         0.00000E+00
    0.14690E-07        -0.24070E-11         0.00000E+00
    0.14869E-07        -0.24467E-11         0.00000E+00
    0.15050E-07        -0.24837E-11         0.00000E+00
    0.15231E-07        -0.25180E-11         0.00000E+00
    0.15413E-07        -0.25494E-11         0.00000E+00
    0.15595E-07        -0.25775E-11         0.00000E+00
    0.15777E-07        -0.26023E-11         0.00000E+00
    0.15959E-07        -0.26235E-11         0.00000E+00
    0.16140E-07        -0.26409E-11         0.00000E+00
    0.16322E-07        -0.26542E-11         0.00000E+00
    0.16502E-07        -0.26632E-11         0.00000E+00
    0.16681E-07        -0.26676E-11         0.00000E+00
    0.16860E-07        -0.26671E-11         0.00000E+00
    0.17037E-07        -0.26615E-11         0.00000E+00
    0.17212E-07        -0.26503E-11         0.00000E+00
    0.17386E-07        -0.26334E-11         0.00000E+00
    0.17558E-07        -0.26102E-11         0.00000E+00
    0.17727E-07        -0.25804E-11         0.00000E+00
    0.17895E-07        -0.25437E-11         0.00000E+00
    0.18059E-07        -0.24994E-11         0.00000E+00
    0.18221E-07        -0.24472E-11         0.00000E+00
    0.18380E-07        -0.23864E-11         0.00000E+00
    0.18535E-07        -0.23164E-11         0.00000E+00
    0.18688E-07        -0.22365E-11         0.00000E+00
    0.18836E-07        -0.21459E-11         0.00000E+00
    0.18981E-07        -0.20437E-11         0.00000E+00
    0.19121E-07        -0.19289E-11         0.00000E+00
    0.19257E-07        -0.18004E-11         0.00000E+00
    0.19389E-07        -0.16567E-11         0.00000E+00
    0.19516E-07        -0.14966E-11         0.00000E+00
    0.19638E-07        -0.13183E-11         0.00000E+00
    0.19754E-07        -0.11201E-11         0.00000E+00
    0.19866E-07        -0.90012E-12         0.00000E+00
    0.19972E-07        -0.65624E-12         0.00000E+00
    0.20072E-07        -0.38646E-12         0.00000E+00
    0.20166E-07        -0.88842E-13         0.00000E+00
    0.20254E-07         0.23829E-12         0.00000E+00
    0.20335E-07         0.59602E-12         0.00000E+00
    0.20410E-07         0.98447E-12         0.00000E+00
    0.20479E-07         0.14022E-11         0.00000E+00
    0.20541E-07         0.18456E-11         0.00000E+00
    0.20595E-07         0.23075E-11         0.00000E+00
    0.20643E-07         0.27761E-11         0.00000E+00
    0.20684E-07         0.32333E-11         0.00000E+00
    0.20718E-07         0.36523E-11         0.00000E+00
    0.20745E-07         0.39952E-11         0.00000E+00
    0.20766E-07         0.42090E-11         0.00000E+00
    0.20780E-07         0.42193E-11         0.00000E+00
    0.20789E-07         0.39175E-11         0.00000E+00
    0.20792E-07         0.31043E-11         0.00000E+00
    0.20791E-07         0.12682E-11         0.00000E+00
    0.96266E-08         0.11676E-11         0.00000E+00
    0.96248E-08         0.29091E-11         0.00000E+00
    0.96264E-08         0.37499E-11         0.00000E+00
    0.96318E-08         0.41031E-11         0.00000E+00
    0.96416E-08         0.41573E-11         0.00000E+00
    0.96561E-08         0.40173E-11         0.00000E+00
    0.96755E-08         0.37543E-11         0.00000E+00
    0.97001E-08         0.34186E-11         0.00000E+00
    0.97300E-08         0.30458E-11         0.00000E+00
    0.97652E-08         0.26610E-11         0.00000E+00
    0.98057E-08         0.22807E-11         0.00000E+00
    0.98515E-08         0.19156E-11         0.00000E+00
    0.99026E-08         0.15718E-11         0.00000E+00
    0.99589E-08         0.12523E-11         0.00000E+00
    0.10020E-07         0.95821E-12         0.00000E+00
    0.10087E-07         0.68890E-12         0.00000E+00
    0.10158E-07         0.44308E-12         0.00000E+00
    0.10235E-07         0.21892E-12         0.00000E+00
    0.10316E-07         0.14381E-13         0.00000E+00
    0.10402E-07        -0.17264E-12         0.00000E+00
    0.10493E-07        -0.34417E-12         0.00000E+00
    0.10588E-07        -0.50213E-12         0.00000E+00
    0.10688E-07        -0.64824E-12         0.00000E+00
    0.10792E-07        -0.78409E-12         0.00000E+00
    0.10900E-07        -0.91104E-12         0.00000E+00
    0.11013E-07        -0.10303E-11         0.00000E+00
    0.11129E-07        -0.11429E-11         0.00000E+00
    0.11250E-07        -0.12498E-11         0.00000E+00
    0.11375E-07        -0.13517E-11         0.00000E+00
    0.11503E-07        -0.14492E-11         0.00000E+00
    0.11635E-07        -0.15430E-11         0.00000E+00
    0.11771E-07        -0.16334E-11         0.00000E+00
    0.11910E-07        -0.17208E-11         0.00000E+00
    0.12052E-07        -0.18056E-11         0.00000E+00
    0.12198E-07        -0.18879E-11         0.00000E+00
    0.12347E-07        -0.19680E-11         0.00000E+00
    0.12499E-07        -0.20461E-11         0.00000E+00
    0.12654E-07        -0.21221E-11         0.00000E+00
    0.12812E-07        -0.21963E-11         0.00000E+00
    0.12972E-07        -0.22686E-11         0.00000E+00
    0.13135E-07        -0.23390E-11         0.00000E+00
    0.13300E-07        -0.24076E-11         0.00000E+00
    0.13467E-07        -0.24743E-11         0.00000E+00
    0.13637E-07        -0.25389E-11         0.00000E+00
    0.13808E-07        -0.26015E-11         0.00000E+00
    0.13982E-07        -0.26620E-11         0.00000E+00
    0.14157E-07        -0.27202E-11         0.00000E+00
    0.14333E-07        -0.27759E-11         0.00000E+00
    0.14511E-07        -0.28291E-11         0.00000E+00
    0.14690E-07        -0.28796E-11         0.00000E+00
    0.14869E-07        -0.29271E-11         0.00000E+00
    0.15050E-07        -0.29715E-11         0.00000E+00
    0.15231E-07        -0.30126E-11         0.00000E+00
    0.15413E-07        -0.30502E-11         0.00000E+00
    0.15595E-07        -0.30840E-11         0.00000E+00
    0.15777E-07        -0.31138E-11         0.00000E+00
    0.15959E-07        -0.31392E-11         0.00000E+00
    0.16140E-07        -0.31602E-11         0.00000E+00
    0.16322E-07        -0.31762E-11         0.00000E+00
    0.16502E-07        -0.31872E-11         0.00000E+00
    0.16681E-07        -0.31926E-11         0.00000E+00
    0.16860E-07        -0.31923E-11         0.00000E+00
    0.17037E-07        -0.31857E-11         0.00000E+00
    0.17212E-07        -0.31727E-11         0.00000E+00
    0.17386E-07        -0.31526E-11         0.00000E+00
    0.17558E-07        -0.31252E-11         0.00000E+00
    0.17727E-07        -0.30899E-11         0.00000E+00
    0.17895E-07        -0.30463E-11         0.00000E+00
    0.18059E-07        -0.29937E-11         0.00000E+00
    0.18221E-07        -0.29316E-11         0.00000E+00
    0.18380E-07        -0.28593E-11         0.00000E+00
    0.18535E-07        -0.27760E-11         0.00000E+00
    0.18688E-07        -0.26809E-11         0.00000E+00
    0.18836E-07        -0.25730E-11         0.00000E+00
    0.18981E-07        -0.24513E-11         0.00000E+00
    0.19121E-07        -0.23145E-11         0.00000E+00
    0.19257E-07        -0.21612E-11         0.00000E+00
    0.19389E-07        -0.19899E-11         0.00000E+00
    0.19516E-07        -0.17989E-11         0.00000E+00
    0.19638E-07        -0.15860E-11         0.00000E+00
    0.19754E-07        -0.13493E-11         0.00000E+00
    0.19866E-07        -0.10863E-11         0.00000E+00
    0.19972E-07        -0.79462E-12         0.00000E+00
    0.20072E-07        -0.47172E-12         0.00000E+00
    0.20166E-07        -0.11522E-12         0.00000E+00
    0.20254E-07         0.27692E-12         0.00000E+00
    0.20335E-07         0.70608E-12         0.00000E+00
    0.20411E-07         0.11724E-11         0.00000E+00
    0.20479E-07         0.16743E-11         0.00000E+00
    0.20541E-07         0.22071E-11         0.00000E+00
    0.20596E-07         0.27624E-11         0.00000E+00
    0.20643E-07         0.33256E-11         0.00000E+00
    0.20684E-07         0.38745E-11         0.00000E+00
    0.20718E-07         0.43763E-11         0.00000E+00
    0.20745E-07         0.47840E-11         0.00000E+00
    0.20766E-07         0.50323E-11         0.00000E+00
    0.20780E-07         0.50296E-11         0.00000E+00
    0.20788E-07         0.46418E-11         0.00000E+00
    0.20792E-07         0.36282E-11         0.00000E+00
    0.20790E-07         0.14625E-11         0.00000E+00
    0.96271E-08         0.13078E-11         0.00000E+00
    0.96250E-08         0.32940E-11         0.00000E+00
    0.96265E-08         0.42954E-11         0.00000E+00
    0.96318E-08         0.47261E-11         0.00000E+00
    0.96416E-08         0.48018E-11         0.00000E+00
    0.96560E-08         0.46465E-11         0.00000E+00
    0.96755E-08         0.43447E-11         0.00000E+00
    0.97001E-08         0.39563E-11         0.00000E+00
    0.97299E-08         0.35239E-11         0.00000E+00
    0.97651E-08         0.30769E-11         0.00000E+00
    0.98056E-08         0.26351E-11         0.00000E+00
    0.98514E-08         0.22111E-11         0.00000E+00
    0.99025E-08         0.18121E-11         0.00000E+00
    0.99588E-08         0.14416E-11         0.00000E+00
    0.10020E-07         0.11007E-11         0.00000E+00
    0.10087E-07         0.78889E-12         0.00000E+00
    0.10158E-07         0.50451E-12         0.00000E+00
    0.10235E-07         0.24540E-12         0.00000E+00
    0.10316E-07         0.91484E-14         0.00000E+00
    0.10402E-07        -0.20671E-12         0.00000E+00
    0.10493E-07        -0.40457E-12         0.00000E+00
    0.10588E-07        -0.58668E-12         0.00000E+00
    0.10688E-07        -0.75507E-12         0.00000E+00
    0.10792E-07        -0.91158E-12         0.00000E+00
    0.10900E-07        -0.10578E-11         0.00000E+00
    0.11013E-07        -0.11952E-11         0.00000E+00
    0.11129E-07        -0.13249E-11         0.00000E+00
    0.11250E-07        -0.14480E-11         0.00000E+00
    0.11375E-07        -0.15653E-11         0.00000E+00
    0.11503E-07        -0.16777E-11         0.00000E+00
    0.11635E-07        -0.17857E-11         0.00000E+00
    0.11771E-07        -0.18899E-11         0.00000E+00
    0.11910E-07        -0.19907E-11         0.00000E+00
    0.12052E-07        -0.20885E-11         0.00000E+00
    0.12198E-07        -0.21834E-11         0.00000E+00
    0.12347E-07        -0.22759E-11         0.00000E+00
    0.12499E-07        -0.23659E-11         0.00000E+00
    0.12654E-07        -0.24537E-11         0.00000E+00
    0.12812E-07        -0.25394E-11         0.00000E+00
    0.12972E-07        -0.26229E-11         0.00000E+00
    0.13135E-07        -0.27042E-11         0.00000E+00
    0.13300E-07        -0.27834E-11         0.00000E+00
    0.13467E-07        -0.28604E-11         0.00000E+00
    0.13637E-07        -0.29352E-11         0.00000E+00
    0.13808E-07        -0.30076E-11         0.00000E+00
    0.13982E-07        -0.30775E-11         0.00000E+00
    0.14157E-07        -0.31447E-11         0.00000E+00
    0.14333E-07        -0.32092E-11         0.00000E+00
    0.14511E-07        -0.32708E-11         0.00000E+00
    0.14690E-07        -0.33292E-11         0.00000E+00
    0.14869E-07        -0.33842E-11         0.00000E+00
    0.15050E-07        -0.34357E-11         0.00000E+00
    0.15231E-07        -0.34833E-11         0.00000E+00
    0.15413E-07        -0.35268E-11         0.00000E+00
    0.15595E-07        -0.35660E-11         0.00000E+00
    0.15777E-07        -0.36006E-11         0.00000E+00
    0.15959E-07        -0.36302E-11         0.00000E+00
    0.16140E-07        -0.36546E-11         0.00000E+00
    0.16322E-07        -0.36733E-11         0.00000E+00
    0.16502E-07        -0.36862E-11         0.00000E+00
    0.16681E-07        -0.36927E-11         0.00000E+00
    0.16860E-07        -0.36925E-11         0.00000E+00
    0.17037E-07        -0.36852E-11         0.00000E+00
    0.17212E-07        -0.36704E-11         0.00000E+00
    0.17386E-07        -0.36475E-11         0.00000E+00
    0.17558E-07        -0.36162E-11         0.00000E+00
    0.17727E-07        -0.35757E-11         0.00000E+00
    0.17895E-07        -0.35257E-11         0.00000E+00
    0.18059E-07        -0.34653E-11         0.00000E+00
    0.18221E-07        -0.33940E-11         0.00000E+00
    0.18380E-07        -0.33108E-11         0.00000E+00
    0.18535E-07        -0.32151E-11         0.00000E+00
    0.18688E-07        -0.31057E-11         0.00000E+00
    0.18836E-07        -0.29816E-11         0.00000E+00
    0.18981E-07        -0.28415E-11         0.00000E+00
    0.19121E-07        -0.26840E-11         0.00000E+00
    0.19257E-07        -0.25074E-11         0.00000E+00
    0.19389E-07        -0.23100E-11         0.00000E+00
    0.19516E-07        -0.20897E-11         0.00000E+00
    0.19638E-07        -0.18442E-11         0.00000E+00
    0.19754E-07        -0.15710E-11         0.00000E+00
    0.19866E-07        -0.12673E-11         0.00000E+00
    0.19972E-07        -0.93014E-12         0.00000E+00
    0.20072E-07        -0.55668E-12         0.00000E+00
    0.20166E-07        -0.14405E-12         0.00000E+00
    0.20254E-07         0.31020E-12         0.00000E+00
    0.20336E-07         0.80770E-12         0.00000E+00
    0.20411E-07         0.13487E-11         0.00000E+00
    0.20479E-07         0.19313E-11         0.00000E+00
    0.20541E-07         0.25502E-11         0.00000E+00
    0.20596E-07         0.31953E-11         0.00000E+00
    0.20644E-07         0.38496E-11         0.00000E+00
    0.20684E-07         0.44866E-11         0.00000E+00
    0.20718E-07         0.50674E-11         0.00000E+00
    0.20745E-07         0.55362E-11         0.00000E+00
    0.20766E-07         0.58152E-11         0.00000E+00
    0.20780E-07         0.57954E-11         0.00000E+00
    0.20788E-07         0.53179E-11         0.00000E+00
    0.20791E-07         0.41078E-11         0.00000E+00
    0.20790E-07         0.16373E-11         0.00000E+00
    0.96276E-08         0.14350E-11         0.00000E+00
    0.96253E-08         0.36476E-11         0.00000E+00
    0.96266E-08         0.48040E-11         0.00000E+00
    0.96319E-08         0.53134E-11         0.00000E+00
    0.96416E-08         0.54125E-11         0.00000E+00
    0.96560E-08         0.52442E-11         0.00000E+00
    0.96754E-08         0.49061E-11         0.00000E+00
    0.97000E-08         0.44675E-11         0.00000E+00
    0.97298E-08         0.39778E-11         0.00000E+00
    0.97650E-08         0.34712E-11         0.00000E+00
    0.98055E-08         0.29704E-11         0.00000E+00
    0.98513E-08         0.24899E-11         0.00000E+00
    0.99024E-08         0.20380E-11         0.00000E+00
    0.99588E-08         0.16187E-11         0.00000E+00
    0.10020E-07         0.12333E-11         0.00000E+00
    0.10087E-07         0.88104E-12         0.00000E+00
    0.10158E-07         0.56004E-12         0.00000E+00
    0.10235E-07         0.26783E-12         0.00000E+00
    0.10316E-07         0.15965E-14         0.00000E+00
    0.10402E-07        -0.24148E-12         0.00000E+00
    0.10493E-07        -0.46416E-12         0.00000E+00
    0.10588E-07        -0.66900E-12         0.00000E+00
    0.10688E-07        -0.85834E-12         0.00000E+00
    0.10792E-07        -0.10343E-11         0.00000E+00
    0.10900E-07        -0.11986E-11         0.00000E+00
    0.11013E-07        -0.13529E-11         0.00000E+00
    0.11129E-07        -0.14987E-11         0.00000E+00
    0.11250E-07        -0.16370E-11         0.00000E+00
    0.11375E-07        -0.17689E-11         0.00000E+00
    0.11503E-07        -0.18952E-11         0.00000E+00
    0.11635E-07        -0.20167E-11         0.00000E+00
    0.11771E-07        -0.21339E-11         0.00000E+00
    0.11910E-07        -0.22472E-11         0.00000E+00
    0.12052E-07        -0.23572E-11         0.00000E+00
    0.12198E-07        -0.24641E-11         0.00000E+00
    0.12347E-07        -0.25682E-11         0.00000E+00
    0.12499E-07        -0.26696E-11         0.00000E+00
    0.12654E-07        -0.27685E-11         0.00000E+00
    0.12812E-07        -0.28649E-11         0.00000E+00
    0.12972E-07        -0.29590E-11         0.00000E+00
    0.13135E-07        -0.30507E-11         0.00000E+00
    0.13300E-07        -0.31400E-11         0.00000E+00
    0.13467E-07        -0.32268E-11         0.00000E+00
    0.13637E-07        -0.33111E-11         0.00000E+00
    0.13808E-07        -0.33928E-11         0.00000E+00
    0.13982E-07        -0.34717E-11         0.00000E+00
    0.14157E-07        -0.35476E-11         0.00000E+00
    0.14333E-07        -0.36204E-11         0.00000E+00
    0.14511E-07        -0.36899E-11         0.00000E+00
    0.14689E-07        -0.37558E-11         0.00000E+00
    0.14869E-07        -0.38180E-11         0.00000E+00
    0.15050E-07        -0.38761E-11         0.00000E+00
    0.15231E-07        -0.39300E-11         0.00000E+00
    0.15413E-07        -0.39792E-11         0.00000E+00
    0.15595E-07        -0.40236E-11         0.00000E+00
    0.15777E-07        -0.40627E-11         0.00000E+00
    0.15959E-07        -0.40963E-11         0.00000E+00
    0.16140E-07        -0.41240E-11         0.00000E+00
    0.16322E-07        -0.41454E-11         0.00000E+00
    0.16502E-07        -0.41601E-11         0.00000E+00
    0.16681E-07        -0.41677E-11         0.00000E+00
    0.16860E-07        -0.41678E-11         0.00000E+00
    0.17037E-07        -0.41598E-11         0.00000E+00
    0.17212E-07        -0.41434E-11         0.00000E+00
    0.17386E-07        -0.41180E-11         0.00000E+00
    0.17558E-07        -0.40830E-11         0.00000E+00
    0.17727E-07        -0.40378E-11         0.00000E+00
    0.17895E-07        -0.39818E-11         0.00000E+00
    0.18059E-07        -0.39142E-11         0.00000E+00
    0.18221E-07        -0.38342E-11         0.00000E+00
    0.18380E-07        -0.37410E-11         0.00000E+00
    0.18535E-07        -0.36336E-11         0.00000E+00
    0.18688E-07        -0.35109E-11         0.00000E+00
    0.18836E-07        -0.33716E-11         0.00000E+00
    0.18981E-07        -0.32142E-11         0.00000E+00
    0.19121E-07        -0.30373E-11         0.00000E+00
    0.19257E-07        -0.28389E-11         0.00000E+00
    0.19389E-07        -0.26170E-11         0.00000E+00
    0.19516E-07        -0.23691E-11         0.00000E+00
    0.19638E-07        -0.20928E-11         0.00000E+00
    0.19754E-07        -0.17851E-11         0.00000E+00
    0.19866E-07        -0.14429E-11         0.00000E+00
    0.19972E-07        -0.10627E-11         0.00000E+00
    0.20072E-07        -0.64129E-12         0.00000E+00
    0.20166E-07        -0.17529E-12         0.00000E+00
    0.20254E-07         0.33810E-12         0.00000E+00
    0.20336E-07         0.90081E-12         0.00000E+00
    0.20411E-07         0.15132E-11         0.00000E+00
    0.20479E-07         0.21731E-11         0.00000E+00
    0.20541E-07         0.28746E-11         0.00000E+00
    0.20596E-07         0.36059E-11         0.00000E+00
    0.20644E-07         0.43476E-11         0.00000E+00
    0.20685E-07         0.50692E-11         0.00000E+00
    0.20718E-07         0.57254E-11         0.00000E+00
    0.20746E-07         0.62518E-11         0.00000E+00
    0.20766E-07         0.65579E-11         0.00000E+00
    0.20780E-07         0.65180E-11         0.00000E+00
    0.20788E-07         0.59488E-11         0.00000E+00
    0.20791E-07         0.45484E-11         0.00000E+00
    0.20789E-07         0.17961E-11         0.00000E+00
    0.96282E-08         0.15512E-11         0.00000E+00
    0.96257E-08         0.39735E-11         0.00000E+00
    0.96268E-08         0.52782E-11         0.00000E+00
    0.96319E-08         0.58659E-11         0.00000E+00
    0.96415E-08         0.59899E-11         0.00000E+00
    0.96559E-08         0.58106E-11         0.00000E+00
    0.96753E-08         0.54382E-11         0.00000E+00
    0.96999E-08         0.49518E-11         0.00000E+00
    0.97297E-08         0.44074E-11         0.00000E+00
    0.97649E-08         0.38436E-11         0.00000E+00
    0.98054E-08         0.32863E-11         0.00000E+00
    0.98512E-08         0.27518E-11         0.00000E+00
    0.99023E-08         0.22494E-11         0.00000E+00
    0.99587E-08         0.17837E-11         0.00000E+00
    0.10020E-07         0.13560E-11         0.00000E+00
    0.10087E-07         0.96536E-12         0.00000E+00
    0.10158E-07         0.60973E-12         0.00000E+00
    0.10235E-07         0.28626E-12         0.00000E+00
    0.10316E-07        -0.82106E-14         0.00000E+00
    0.10402E-07        -0.27689E-12         0.00000E+00
    0.10493E-07        -0.52286E-12         0.00000E+00
    0.10588E-07        -0.74901E-12         0.00000E+00
    0.10688E-07        -0.95796E-12         0.00000E+00
    0.10792E-07        -0.11520E-11         0.00000E+00
    0.10900E-07        -0.13333E-11         0.00000E+00
    0.11013E-07        -0.15036E-11         0.00000E+00
    0.11129E-07        -0.16643E-11         0.00000E+00
    0.11250E-07        -0.18169E-11         0.00000E+00
    0.11375E-07        -0.19624E-11         0.00000E+00
    0.11503E-07        -0.21018E-11         0.00000E+00
    0.11635E-07        -0.22358E-11         0.00000E+00
    0.11771E-07        -0.23651E-11         0.00000E+00
    0.11910E-07        -0.24903E-11         0.00000E+00
    0.12052E-07        -0.26118E-11         0.00000E+00
    0.12198E-07        -0.27299E-11         0.00000E+00
    0.12347E-07        -0.28449E-11         0.00000E+00
    0.12499E-07        -0.29570E-11         0.00000E+00
    0.12654E-07        -0.30663E-11         0.00000E+00
    0.12811E-07        -0.31730E-11         0.00000E+00
    0.12972E-07        -0.32770E-11         0.00000E+00
    0.13135E-07        -0.33785E-11         0.00000E+00
    0.13300E-07        -0.34773E-11         0.00000E+00
    0.13467E-07        -0.35734E-11         0.00000E+00
    0.13637E-07        -0.36668E-11         0.00000E+00
    0.13808E-07        -0.37572E-11         0.00000E+00
    0.13982E-07        -0.38445E-11         0.00000E+00
    0.14157E-07        -0.39286E-11         0.00000E+00
    0.14333E-07        -0.40093E-11         0.00000E+00
    0.14511E-07        -0.40863E-11         0.00000E+00
    0.14689E-07        -0.41594E-11         0.00000E+00
    0.14869E-07        -0.42284E-11         0.00000E+00
    0.15050E-07        -0.42929E-11         0.00000E+00
    0.15231E-07        -0.43526E-11         0.00000E+00
    0.15413E-07        -0.44073E-11         0.00000E+00
    0.15595E-07        -0.44566E-11         0.00000E+00
    0.15777E-07        -0.45001E-11         0.00000E+00
    0.15959E-07        -0.45375E-11         0.00000E+00
    0.16140E-07        -0.45684E-11         0.00000E+00
    0.16322E-07        -0.45923E-11         0.00000E+00
    0.16502E-07        -0.46089E-11         0.00000E+00
    0.16681E-07        -0.46176E-11         0.00000E+00
    0.16860E-07        -0.46180E-11         0.00000E+00
    0.17037E-07        -0.46095E-11         0.00000E+00
    0.17212E-07        -0.45917E-11         0.00000E+00
    0.17386E-07        -0.45640E-11         0.00000E+00
    0.17558E-07        -0.45256E-11         0.00000E+00
    0.17727E-07        -0.44761E-11         0.00000E+00
    0.17895E-07        -0.44145E-11         0.00000E+00
    0.18059E-07        -0.43402E-11         0.00000E+00
    0.18221E-07        -0.42523E-11         0.00000E+00
    0.18380E-07        -0.41497E-11         0.00000E+00
    0.18535E-07        -0.40315E-11         0.00000E+00
    0.18688E-07        -0.38963E-11         0.00000E+00
    0.18836E-07        -0.37428E-11         0.00000E+00
    0.18981E-07        -0.35694E-11         0.00000E+00
    0.19121E-07        -0.33743E-11         0.00000E+00
    0.19257E-07        -0.31554E-11         0.00000E+00
    0.19389E-07        -0.29105E-11         0.00000E+00
    0.19516E-07        -0.26369E-11         0.00000E+00
    0.19638E-07        -0.23317E-11         0.00000E+00
    0.19755E-07        -0.19916E-11         0.00000E+00
    0.19866E-07        -0.16130E-11         0.00000E+00
    0.19972E-07        -0.11923E-11         0.00000E+00
    0.20072E-07        -0.72547E-12         0.00000E+00
    0.20166E-07        -0.20892E-12         0.00000E+00
    0.20254E-07         0.36062E-12         0.00000E+00
    0.20336E-07         0.98537E-12         0.00000E+00
    0.20411E-07         0.16658E-11         0.00000E+00
    0.20479E-07         0.23996E-11         0.00000E+00
    0.20541E-07         0.31799E-11         0.00000E+00
    0.20596E-07         0.39939E-11         0.00000E+00
    0.20644E-07         0.48193E-11         0.00000E+00
    0.20685E-07         0.56218E-11         0.00000E+00
    0.20719E-07         0.63501E-11         0.00000E+00
    0.20746E-07         0.69307E-11         0.00000E+00
    0.20766E-07         0.72611E-11         0.00000E+00
    0.20780E-07         0.71985E-11         0.00000E+00
    0.20788E-07         0.65376E-11         0.00000E+00
    0.20791E-07         0.49547E-11         0.00000E+00
    0.20788E-07         0.19412E-11         0.00000E+00
    0.96289E-08         0.16580E-11         0.00000E+00
    0.96260E-08         0.42746E-11         0.00000E+00
    0.96270E-08         0.57202E-11         0.00000E+00
    0.96320E-08         0.63848E-11         0.00000E+00
    0.96415E-08         0.65346E-11         0.00000E+00
    0.96559E-08         0.63457E-11         0.00000E+00
    0.96752E-08         0.59411E-11         0.00000E+00
    0.96998E-08         0.54092E-11         0.00000E+00
    0.97296E-08         0.48123E-11         0.00000E+00
    0.97648E-08         0.41939E-11         0.00000E+00
    0.98053E-08         0.35827E-11         0.00000E+00
    0.98511E-08         0.29967E-11         0.00000E+00
    0.99022E-08         0.24464E-11         0.00000E+00
    0.99586E-08         0.19366E-11         0.00000E+00
    0.10020E-07         0.14687E-11         0.00000E+00
    0.10087E-07         0.10419E-11         0.00000E+00
    0.10158E-07         0.65362E-12         0.00000E+00
    0.10235E-07         0.30076E-12         0.00000E+00
    0.10316E-07        -0.20200E-13         0.00000E+00
    0.10402E-07        -0.31284E-12         0.00000E+00
    0.10493E-07        -0.58058E-12         0.00000E+00
    0.10588E-07        -0.82663E-12         0.00000E+00
    0.10688E-07        -0.10539E-11         0.00000E+00
    0.10792E-07        -0.12649E-11         0.00000E+00
    0.10900E-07        -0.14619E-11         0.00000E+00
    0.11013E-07        -0.16469E-11         0.00000E+00
    0.11129E-07        -0.18217E-11         0.00000E+00
    0.11250E-07        -0.19875E-11         0.00000E+00
    0.11375E-07        -0.21457E-11         0.00000E+00
    0.11503E-07        -0.22972E-11         0.00000E+00
    0.11635E-07        -0.24430E-11         0.00000E+00
    0.11771E-07        -0.25837E-11         0.00000E+00
    0.11910E-07        -0.27200E-11         0.00000E+00
    0.12052E-07        -0.28522E-11         0.00000E+00
    0.12198E-07        -0.29808E-11         0.00000E+00
    0.12347E-07        -0.31060E-11         0.00000E+00
    0.12499E-07        -0.32281E-11         0.00000E+00
    0.12654E-07        -0.33472E-11         0.00000E+00
    0.12811E-07        -0.34635E-11         0.00000E+00
    0.12972E-07        -0.35769E-11         0.00000E+00
    0.13135E-07        -0.36875E-11         0.00000E+00
    0.13300E-07        -0.37953E-11         0.00000E+00
    0.13467E-07        -0.39002E-11         0.00000E+00
    0.13637E-07        -0.40020E-11         0.00000E+00
    0.13808E-07        -0.41007E-11         0.00000E+00
    0.13982E-07        -0.41960E-11         0.00000E+00
    0.14156E-07        -0.42879E-11         0.00000E+00
    0.14333E-07        -0.43760E-11         0.00000E+00
    0.14511E-07        -0.44601E-11         0.00000E+00
    0.14689E-07        -0.45400E-11         0.00000E+00
    0.14869E-07        -0.46153E-11         0.00000E+00
    0.15050E-07        -0.46859E-11         0.00000E+00
    0.15231E-07        -0.47512E-11         0.00000E+00
    0.15413E-07        -0.48111E-11         0.00000E+00
    0.15595E-07        -0.48651E-11         0.00000E+00
    0.15777E-07        -0.49128E-11         0.00000E+00
    0.15959E-07        -0.49538E-11         0.00000E+00
    0.16140E-07        -0.49878E-11         0.00000E+00
    0.16322E-07        -0.50141E-11         0.00000E+00
    0.16502E-07        -0.50325E-11         0.00000E+00
    0.16681E-07        -0.50423E-11         0.00000E+00
    0.16860E-07        -0.50431E-11         0.00000E+00
    0.17037E-07        -0.50343E-11         0.00000E+00
    0.17212E-07        -0.50152E-11         0.00000E+00
    0.17386E-07        -0.49854E-11         0.00000E+00
    0.17558E-07        -0.49440E-11         0.00000E+00
    0.17727E-07        -0.48904E-11         0.00000E+00
    0.17895E-07        -0.48238E-11         0.00000E+00
    0.18059E-07        -0.47433E-11         0.00000E+00
    0.18221E-07        -0.46480E-11         0.00000E+00
    0.18380E-07        -0.45368E-11         0.00000E+00
    0.18536E-07        -0.44085E-11         0.00000E+00
    0.18688E-07        -0.42618E-11         0.00000E+00
    0.18836E-07        -0.40951E-11         0.00000E+00
    0.18981E-07        -0.39068E-11         0.00000E+00
    0.19121E-07        -0.36948E-11         0.00000E+00
    0.19257E-07        -0.34569E-11         0.00000E+00
    0.19389E-07        -0.31906E-11         0.00000E+00
    0.19516E-07        -0.28929E-11         0.00000E+00
    0.19638E-07        -0.25606E-11         0.00000E+00
    0.19755E-07        -0.21902E-11         0.00000E+00
    0.19866E-07        -0.17776E-11         0.00000E+00
    0.19972E-07        -0.13186E-11         0.00000E+00
    0.20072E-07        -0.80914E-12         0.00000E+00
    0.20166E-07        -0.24488E-12         0.00000E+00
    0.20254E-07         0.37777E-12         0.00000E+00
    0.20336E-07         0.10613E-11         0.00000E+00
    0.20411E-07         0.18064E-11         0.00000E+00
    0.20480E-07         0.26104E-11         0.00000E+00
    0.20541E-07         0.34661E-11         0.00000E+00
    0.20596E-07         0.43589E-11         0.00000E+00
    0.20644E-07         0.52645E-11         0.00000E+00
    0.20685E-07         0.61443E-11         0.00000E+00
    0.20719E-07         0.69412E-11         0.00000E+00
    0.20746E-07         0.75731E-11         0.00000E+00
    0.20766E-07         0.79252E-11         0.00000E+00
    0.20780E-07         0.78385E-11         0.00000E+00
    0.20788E-07         0.70870E-11         0.00000E+00
    0.20790E-07         0.53305E-11         0.00000E+00
    0.20787E-07         0.20747E-11         0.00000E+00
    0.96296E-08         0.17565E-11         0.00000E+00
    0.96264E-08         0.45534E-11         0.00000E+00
    0.96272E-08         0.61321E-11         0.00000E+00
    0.96321E-08         0.68712E-11         0.00000E+00
    0.96415E-08         0.70468E-11         0.00000E+00
    0.96558E-08         0.68496E-11         0.00000E+00
    0.96751E-08         0.64147E-11         0.00000E+00
    0.96996E-08         0.58393E-11         0.00000E+00
    0.97295E-08         0.51925E-11         0.00000E+00
    0.97646E-08         0.45220E-11         0.00000E+00
    0.98051E-08         0.38595E-11         0.00000E+00
    0.98510E-08         0.32246E-11         0.00000E+00
    0.99021E-08         0.26287E-11         0.00000E+00
    0.99585E-08         0.20772E-11         0.00000E+00
    0.10020E-07         0.15716E-11         0.00000E+00
    0.10087E-07         0.11106E-11         0.00000E+00
    0.10158E-07         0.69176E-12         0.00000E+00
    0.10235E-07         0.31141E-12         0.00000E+00
    0.10316E-07        -0.34289E-13         0.00000E+00
    0.10402E-07        -0.34925E-12         0.00000E+00
    0.10493E-07        -0.63725E-12         0.00000E+00
    0.10588E-07        -0.90176E-12         0.00000E+00
    0.10688E-07        -0.11460E-11         0.00000E+00
    0.10792E-07        -0.13726E-11         0.00000E+00
    0.10900E-07        -0.15843E-11         0.00000E+00
    0.11013E-07        -0.17830E-11         0.00000E+00
    0.11129E-07        -0.19707E-11         0.00000E+00
    0.11250E-07        -0.21488E-11         0.00000E+00
    0.11375E-07        -0.23188E-11         0.00000E+00
    0.11503E-07        -0.24816E-11         0.00000E+00
    0.11635E-07        -0.26383E-11         0.00000E+00
    0.11771E-07        -0.27896E-11         0.00000E+00
    0.11910E-07        -0.29361E-11         0.00000E+00
    0.12052E-07        -0.30783E-11         0.00000E+00
    0.12198E-07        -0.32166E-11         0.00000E+00
    0.12347E-07        -0.33514E-11         0.00000E+00
    0.12499E-07        -0.34829E-11         0.00000E+00
    0.12654E-07        -0.36112E-11         0.00000E+00
    0.12811E-07        -0.37364E-11         0.00000E+00
    0.12972E-07        -0.38586E-11         0.00000E+00
    0.13135E-07        -0.39778E-11         0.00000E+00
    0.13300E-07        -0.40940E-11         0.00000E+00
    0.13467E-07        -0.42070E-11         0.00000E+00
    0.13637E-07        -0.43169E-11         0.00000E+00
    0.13808E-07        -0.44233E-11         0.00000E+00
    0.13982E-07        -0.45262E-11         0.00000E+00
    0.14156E-07        -0.46253E-11         0.00000E+00
    0.14333E-07        -0.47203E-11         0.00000E+00
    0.14511E-07        -0.48112E-11         0.00000E+00
    0.14689E-07        -0.48974E-11         0.00000E+00
    0.14869E-07        -0.49788E-11         0.00000E+00
    0.15050E-07        -0.50551E-11         0.00000E+00
    0.15231E-07        -0.51257E-11         0.00000E+00
    0.15413E-07        -0.51905E-11         0.00000E+00
    0.15595E-07        -0.52489E-11         0.00000E+00
    0.15777E-07        -0.53006E-11         0.00000E+00
    0.15959E-07        -0.53451E-11         0.00000E+00
    0.16140E-07        -0.53820E-11         0.00000E+00
    0.16322E-07        -0.54107E-11         0.00000E+00
    0.16502E-07        -0.54309E-11         0.00000E+00
    0.16681E-07        -0.54418E-11         0.00000E+00
    0.16860E-07        -0.54430E-11         0.00000E+00
    0.17037E-07        -0.54339E-11         0.00000E+00
    0.17212E-07        -0.54138E-11         0.00000E+00
    0.17386E-07        -0.53821E-11         0.00000E+00
    0.17558E-07        -0.53380E-11         0.00000E+00
    0.17727E-07        -0.52808E-11         0.00000E+00
    0.17895E-07        -0.52096E-11         0.00000E+00
    0.18059E-07        -0.51234E-11         0.00000E+00
    0.18221E-07        -0.50214E-11         0.00000E+00
    0.18380E-07        -0.49022E-11         0.00000E+00
    0.18536E-07        -0.47647E-11         0.00000E+00
    0.18688E-07        -0.46073E-11         0.00000E+00
    0.18836E-07        -0.44285E-11         0.00000E+00
    0.18981E-07        -0.42263E-11         0.00000E+00
    0.19121E-07        -0.39987E-11         0.00000E+00
    0.19257E-07        -0.37432E-11         0.00000E+00
    0.19389E-07        -0.34570E-11         0.00000E+00
    0.19516E-07        -0.31370E-11         0.00000E+00
    0.19638E-07        -0.27795E-11         0.00000E+00
    0.19755E-07        -0.23808E-11         0.00000E+00
    0.19866E-07        -0.19364E-11         0.00000E+00
    0.19972E-07        -0.14418E-11         0.00000E+00
    0.20072E-07        -0.89219E-12         0.00000E+00
    0.20166E-07        -0.28309E-12         0.00000E+00
    0.20254E-07         0.38957E-12         0.00000E+00
    0.20336E-07         0.11287E-11         0.00000E+00
    0.20411E-07         0.19349E-11         0.00000E+00
    0.20480E-07         0.28056E-11         0.00000E+00
    0.20542E-07         0.37328E-11         0.00000E+00
    0.20596E-07         0.47008E-11         0.00000E+00
    0.20644E-07         0.56827E-11         0.00000E+00
    0.20685E-07         0.66363E-11         0.00000E+00
    0.20719E-07         0.74986E-11         0.00000E+00
    0.20746E-07         0.81789E-11         0.00000E+00
    0.20766E-07         0.85508E-11         0.00000E+00
    0.20780E-07         0.84393E-11         0.00000E+00
    0.20788E-07         0.75996E-11         0.00000E+00
    0.20790E-07         0.56790E-11         0.00000E+00
    0.20787E-07         0.21981E-11         0.00000E+00
    0.96303E-08         0.18478E-11         0.00000E+00
    0.96269E-08         0.48121E-11         0.00000E+00
    0.96274E-08         0.65157E-11         0.00000E+00
    0.96322E-08         0.73261E-11         0.00000E+00
    0.96415E-08         0.75271E-11         0.00000E+00
    0.96557E-08         0.73224E-11         0.00000E+00
    0.96750E-08         0.68587E-11         0.00000E+00
    0.96995E-08         0.62420E-11         0.00000E+00
    0.97293E-08         0.55477E-11         0.00000E+00
    0.97645E-08         0.48277E-11         0.00000E+00
    0.98050E-08         0.41164E-11         0.00000E+00
    0.98509E-08         0.34352E-11         0.00000E+00
    0.99020E-08         0.27963E-11         0.00000E+00
    0.99584E-08         0.22056E-11         0.00000E+00
    0.10020E-07         0.16645E-11         0.00000E+00
    0.10086E-07         0.11717E-11         0.00000E+00
    0.10158E-07         0.72422E-12         0.00000E+00
    0.10235E-07         0.31828E-12         0.00000E+00
    0.10316E-07        -0.50386E-13         0.00000E+00
    0.10402E-07        -0.38603E-12         0.00000E+00
    0.10493E-07        -0.69275E-12         0.00000E+00
    0.10588E-07        -0.97431E-12         0.00000E+00
    0.10688E-07        -0.12341E-11         0.00000E+00
    0.10792E-07        -0.14753E-11         0.00000E+00
    0.10900E-07        -0.17004E-11         0.00000E+00
    0.11013E-07        -0.19117E-11         0.00000E+00
    0.11129E-07        -0.21113E-11         0.00000E+00
    0.11250E-07        -0.23008E-11         0.00000E+00
    0.11374E-07        -0.24816E-11         0.00000E+00
    0.11503E-07        -0.26549E-11         0.00000E+00
    0.11635E-07        -0.28216E-11         0.00000E+00
    0.11771E-07        -0.29826E-11         0.00000E+00
    0.11910E-07        -0.31386E-11         0.00000E+00
    0.12052E-07        -0.32901E-11         0.00000E+00
    0.12198E-07        -0.34375E-11         0.00000E+00
    0.12347E-07        -0.35812E-11         0.00000E+00
    0.12499E-07        -0.37213E-11         0.00000E+00
    0.12654E-07        -0.38581E-11         0.00000E+00
    0.12811E-07        -0.39917E-11         0.00000E+00
    0.12972E-07        -0.41221E-11         0.00000E+00
    0.13135E-07        -0.42493E-11         0.00000E+00
    0.13300E-07        -0.43733E-11         0.00000E+00
    0.13467E-07        -0.44940E-11         0.00000E+00
    0.13637E-07        -0.46113E-11         0.00000E+00
    0.13808E-07        -0.47250E-11         0.00000E+00
    0.13982E-07        -0.48349E-11         0.00000E+00
    0.14156E-07        -0.49408E-11         0.00000E+00
    0.14333E-07        -0.50424E-11         0.00000E+00
    0.14511E-07        -0.51395E-11         0.00000E+00
    0.14689E-07        -0.52318E-11         0.00000E+00
    0.14869E-07        -0.53189E-11         0.00000E+00
    0.15050E-07        -0.54004E-11         0.00000E+00
    0.15231E-07        -0.54761E-11         0.00000E+00
    0.15413E-07        -0.55455E-11         0.00000E+00
    0.15595E-07        -0.56081E-11         0.00000E+00
    0.15777E-07        -0.56635E-11         0.00000E+00
    0.15959E-07        -0.57114E-11         0.00000E+00
    0.16140E-07        -0.57510E-11         0.00000E+00
    0.16322E-07        -0.57821E-11         0.00000E+00
    0.16502E-07        -0.58039E-11         0.00000E+00
    0.16681E-07        -0.58160E-11         0.00000E+00
    0.16860E-07        -0.58177E-11         0.00000E+00
    0.17037E-07        -0.58084E-11         0.00000E+00
    0.17212E-07        -0.57874E-11         0.00000E+00
    0.17386E-07        -0.57540E-11         0.00000E+00
    0.17558E-07        -0.57075E-11         0.00000E+00
    0.17727E-07        -0.56470E-11         0.00000E+00
    0.17895E-07        -0.55716E-11         0.00000E+00
    0.18059E-07        -0.54804E-11         0.00000E+00
    0.18221E-07        -0.53721E-11         0.00000E+00
    0.18380E-07        -0.52457E-11         0.00000E+00
    0.18536E-07        -0.50997E-11         0.00000E+00
    0.18688E-07        -0.49326E-11         0.00000E+00
    0.18836E-07        -0.47427E-11         0.00000E+00
    0.18981E-07        -0.45279E-11         0.00000E+00
    0.19121E-07        -0.42859E-11         0.00000E+00
    0.19257E-07        -0.40141E-11         0.00000E+00
    0.19389E-07        -0.37096E-11         0.00000E+00
    0.19516E-07        -0.33689E-11         0.00000E+00
    0.19638E-07        -0.29882E-11         0.00000E+00
    0.19755E-07        -0.25632E-11         0.00000E+00
    0.19866E-07        -0.20893E-11         0.00000E+00
    0.19972E-07        -0.15615E-11         0.00000E+00
    0.20072E-07        -0.97452E-12         0.00000E+00
    0.20166E-07        -0.32348E-12         0.00000E+00
    0.20255E-07         0.39609E-12         0.00000E+00
    0.20336E-07         0.11874E-11         0.00000E+00
    0.20411E-07         0.20513E-11         0.00000E+00
    0.20480E-07         0.29850E-11         0.00000E+00
    0.20542E-07         0.39799E-11         0.00000E+00
    0.20597E-07         0.50192E-11         0.00000E+00
    0.20644E-07         0.60737E-11         0.00000E+00
    0.20685E-07         0.70976E-11         0.00000E+00
    0.20719E-07         0.80221E-11         0.00000E+00
    0.20746E-07         0.87484E-11         0.00000E+00
    0.20766E-07         0.91384E-11         0.00000E+00
    0.20780E-07         0.90021E-11         0.00000E+00
    0.20787E-07         0.80778E-11         0.00000E+00
    0.20789E-07         0.60030E-11         0.00000E+00
    0.20786E-07         0.23127E-11         0.00000E+00
    0.96310E-08         0.19326E-11         0.00000E+00
    0.96273E-08         0.50523E-11         0.00000E+00
    0.96276E-08         0.68727E-11         0.00000E+00
    0.96323E-08         0.77506E-11         0.00000E+00
    0.96415E-08         0.79760E-11         0.00000E+00
    0.96556E-08         0.77643E-11         0.00000E+00
    0.96749E-08         0.72732E-11         0.00000E+00
    0.96994E-08         0.66172E-11         0.00000E+00
    0.97292E-08         0.58777E-11         0.00000E+00
    0.97643E-08         0.51108E-11         0.00000E+00
    0.98049E-08         0.43534E-11         0.00000E+00
    0.98507E-08         0.36285E-11         0.00000E+00
    0.99019E-08         0.29493E-11         0.00000E+00
    0.99583E-08         0.23218E-11         0.00000E+00
    0.10020E-07         0.17476E-11         0.00000E+00
    0.10086E-07         0.12251E-11         0.00000E+00
    0.10158E-07         0.75109E-12         0.00000E+00
    0.10234E-07         0.32147E-12         0.00000E+00
    0.10316E-07        -0.68387E-13         0.00000E+00
    0.10402E-07        -0.42307E-12         0.00000E+00
    0.10493E-07        -0.74698E-12         0.00000E+00
    0.10588E-07        -0.10442E-11         0.00000E+00
    0.10688E-07        -0.13183E-11         0.00000E+00
    0.10792E-07        -0.15727E-11         0.00000E+00
    0.10900E-07        -0.18101E-11         0.00000E+00
    0.11013E-07        -0.20330E-11         0.00000E+00
    0.11129E-07        -0.22435E-11         0.00000E+00
    0.11250E-07        -0.24433E-11         0.00000E+00
    0.11374E-07        -0.26340E-11         0.00000E+00
    0.11503E-07        -0.28169E-11         0.00000E+00
    0.11635E-07        -0.29929E-11         0.00000E+00
    0.11770E-07        -0.31629E-11         0.00000E+00
    0.11910E-07        -0.33276E-11         0.00000E+00
    0.12052E-07        -0.34876E-11         0.00000E+00
    0.12198E-07        -0.36434E-11         0.00000E+00
    0.12347E-07        -0.37952E-11         0.00000E+00
    0.12499E-07        -0.39434E-11         0.00000E+00
    0.12654E-07        -0.40880E-11         0.00000E+00
    0.12811E-07        -0.42293E-11         0.00000E+00
    0.12972E-07        -0.43673E-11         0.00000E+00
    0.13135E-07        -0.45020E-11         0.00000E+00
    0.13300E-07        -0.46332E-11         0.00000E+00
    0.13467E-07        -0.47610E-11         0.00000E+00
    0.13637E-07        -0.48852E-11         0.00000E+00
    0.13808E-07        -0.50057E-11         0.00000E+00
    0.13982E-07        -0.51221E-11         0.00000E+00
    0.14156E-07        -0.52343E-11         0.00000E+00
    0.14333E-07        -0.53421E-11         0.00000E+00
    0.14511E-07        -0.54451E-11         0.00000E+00
    0.14689E-07        -0.55429E-11         0.00000E+00
    0.14869E-07        -0.56353E-11         0.00000E+00
    0.15050E-07        -0.57219E-11         0.00000E+00
    0.15231E-07        -0.58023E-11         0.00000E+00
    0.15413E-07        -0.58760E-11         0.00000E+00
    0.15595E-07        -0.59425E-11         0.00000E+00
    0.15777E-07        -0.60016E-11         0.00000E+00
    0.15959E-07        -0.60525E-11         0.00000E+00
    0.16140E-07        -0.60948E-11         0.00000E+00
    0.16322E-07        -0.61280E-11         0.00000E+00
    0.16502E-07        -0.61516E-11         0.00000E+00
    0.16681E-07        -0.61647E-11         0.00000E+00
    0.16860E-07        -0.61670E-11         0.00000E+00
    0.17037E-07        -0.61576E-11         0.00000E+00
    0.17212E-07        -0.61359E-11         0.00000E+00
    0.17386E-07        -0.61012E-11         0.00000E+00
    0.17558E-07        -0.60525E-11         0.00000E+00
    0.17727E-07        -0.59891E-11         0.00000E+00
    0.17895E-07        -0.59099E-11         0.00000E+00
    0.18059E-07        -0.58141E-11         0.00000E+00
    0.18221E-07        -0.57002E-11         0.00000E+00
    0.18380E-07        -0.55672E-11         0.00000E+00
    0.18536E-07        -0.54136E-11         0.00000E+00
    0.18688E-07        -0.52376E-11         0.00000E+00
    0.18836E-07        -0.50375E-11         0.00000E+00
    0.18981E-07        -0.48112E-11         0.00000E+00
    0.19121E-07        -0.45561E-11         0.00000E+00
    0.19257E-07        -0.42695E-11         0.00000E+00
    0.19389E-07        -0.39482E-11         0.00000E+00
    0.19516E-07        -0.35885E-11         0.00000E+00
    0.19638E-07        -0.31865E-11         0.00000E+00
    0.19755E-07        -0.27373E-11         0.00000E+00
    0.19866E-07        -0.22362E-11         0.00000E+00
    0.19972E-07        -0.16776E-11         0.00000E+00
    0.20072E-07        -0.10560E-11         0.00000E+00
    0.20167E-07        -0.36593E-12         0.00000E+00
    0.20255E-07         0.39739E-12         0.00000E+00
    0.20336E-07         0.12375E-11         0.00000E+00
    0.20412E-07         0.21555E-11         0.00000E+00
    0.20480E-07         0.31484E-11         0.00000E+00
    0.20542E-07         0.42073E-11         0.00000E+00
    0.20597E-07         0.53140E-11         0.00000E+00
    0.20645E-07         0.64373E-11         0.00000E+00
    0.20685E-07         0.75279E-11         0.00000E+00
    0.20719E-07         0.85116E-11         0.00000E+00
    0.20746E-07         0.92815E-11         0.00000E+00
    0.20766E-07         0.96885E-11         0.00000E+00
    0.20780E-07         0.95283E-11         0.00000E+00
    0.20787E-07         0.85237E-11         0.00000E+00
    0.20789E-07         0.63045E-11         0.00000E+00
    0.20785E-07         0.24193E-11         0.00000E+00
    0.96318E-08         0.20116E-11         0.00000E+00
    0.96278E-08         0.52757E-11         0.00000E+00
    0.96279E-08         0.72044E-11         0.00000E+00
    0.96324E-08         0.81456E-11         0.00000E+00
    0.96415E-08         0.83938E-11         0.00000E+00
    0.96556E-08         0.81753E-11         0.00000E+00
    0.96748E-08         0.76580E-11         0.00000E+00
    0.96992E-08         0.69647E-11         0.00000E+00
    0.97290E-08         0.61823E-11         0.00000E+00
    0.97642E-08         0.53711E-11         0.00000E+00
    0.98047E-08         0.45703E-11         0.00000E+00
    0.98506E-08         0.38045E-11         0.00000E+00
    0.99017E-08         0.30876E-11         0.00000E+00
    0.99581E-08         0.24258E-11         0.00000E+00
    0.10020E-07         0.18208E-11         0.00000E+00
    0.10086E-07         0.12709E-11         0.00000E+00
    0.10158E-07         0.77246E-12         0.00000E+00
    0.10234E-07         0.32108E-12         0.00000E+00
    0.10316E-07        -0.88181E-13         0.00000E+00
    0.10402E-07        -0.46025E-12         0.00000E+00
    0.10493E-07        -0.79983E-12         0.00000E+00
    0.10588E-07        -0.11113E-11         0.00000E+00
    0.10687E-07        -0.13984E-11         0.00000E+00
    0.10792E-07        -0.16648E-11         0.00000E+00
    0.10900E-07        -0.19133E-11         0.00000E+00
    0.11013E-07        -0.21467E-11         0.00000E+00
    0.11129E-07        -0.23671E-11         0.00000E+00
    0.11250E-07        -0.25763E-11         0.00000E+00
    0.11374E-07        -0.27761E-11         0.00000E+00
    0.11503E-07        -0.29676E-11         0.00000E+00
    0.11635E-07        -0.31520E-11         0.00000E+00
    0.11770E-07        -0.33302E-11         0.00000E+00
    0.11910E-07        -0.35029E-11         0.00000E+00
    0.12052E-07        -0.36707E-11         0.00000E+00
    0.12198E-07        -0.38341E-11         0.00000E+00
    0.12347E-07        -0.39935E-11         0.00000E+00
    0.12499E-07        -0.41490E-11         0.00000E+00
    0.12654E-07        -0.43009E-11         0.00000E+00
    0.12811E-07        -0.44493E-11         0.00000E+00
    0.12972E-07        -0.45943E-11         0.00000E+00
    0.13134E-07        -0.47357E-11         0.00000E+00
    0.13300E-07        -0.48737E-11         0.00000E+00
    0.13467E-07        -0.50081E-11         0.00000E+00
    0.13637E-07        -0.51387E-11         0.00000E+00
    0.13808E-07        -0.52654E-11         0.00000E+00
    0.13981E-07        -0.53879E-11         0.00000E+00
    0.14156E-07        -0.55060E-11         0.00000E+00
    0.14333E-07        -0.56194E-11         0.00000E+00
    0.14511E-07        -0.57278E-11         0.00000E+00
    0.14689E-07        -0.58309E-11         0.00000E+00
    0.14869E-07        -0.59282E-11         0.00000E+00
    0.15050E-07        -0.60195E-11         0.00000E+00
    0.15231E-07        -0.61042E-11         0.00000E+00
    0.15413E-07        -0.61819E-11         0.00000E+00
    0.15595E-07        -0.62522E-11         0.00000E+00
    0.15777E-07        -0.63146E-11         0.00000E+00
    0.15959E-07        -0.63685E-11         0.00000E+00
    0.16140E-07        -0.64133E-11         0.00000E+00
    0.16322E-07        -0.64486E-11         0.00000E+00
    0.16502E-07        -0.64738E-11         0.00000E+00
    0.16681E-07        -0.64881E-11         0.00000E+00
    0.16860E-07        -0.64909E-11         0.00000E+00
    0.17037E-07        -0.64816E-11         0.00000E+00
    0.17212E-07        -0.64593E-11         0.00000E+00
    0.17386E-07        -0.64233E-11         0.00000E+00
    0.17558E-07        -0.63728E-11         0.00000E+00
    0.17727E-07        -0.63068E-11         0.00000E+00
    0.17895E-07        -0.62244E-11         0.00000E+00
    0.18059E-07        -0.61243E-11         0.00000E+00
    0.18221E-07        -0.60056E-11         0.00000E+00
    0.18380E-07        -0.58666E-11         0.00000E+00
    0.18536E-07        -0.57061E-11         0.00000E+00
    0.18688E-07        -0.55222E-11         0.00000E+00
    0.18836E-07        -0.53129E-11         0.00000E+00
    0.18981E-07        -0.50761E-11         0.00000E+00
    0.19121E-07        -0.48092E-11         0.00000E+00
    0.19258E-07        -0.45091E-11         0.00000E+00
    0.19389E-07        -0.41726E-11         0.00000E+00
    0.19516E-07        -0.37957E-11         0.00000E+00
    0.19638E-07        -0.33741E-11         0.00000E+00
    0.19755E-07        -0.29029E-11         0.00000E+00
    0.19866E-07        -0.23768E-11         0.00000E+00
    0.19972E-07        -0.17899E-11         0.00000E+00
    0.20073E-07        -0.11364E-11         0.00000E+00
    0.20167E-07        -0.41031E-12         0.00000E+00
    0.20255E-07         0.39356E-12         0.00000E+00
    0.20337E-07         0.12790E-11         0.00000E+00
    0.20412E-07         0.22474E-11         0.00000E+00
    0.20480E-07         0.32958E-11         0.00000E+00
    0.20542E-07         0.44147E-11         0.00000E+00
    0.20597E-07         0.55849E-11         0.00000E+00
    0.20645E-07         0.67733E-11         0.00000E+00
    0.20686E-07         0.79270E-11         0.00000E+00
    0.20719E-07         0.89669E-11         0.00000E+00
    0.20746E-07         0.97785E-11         0.00000E+00
    0.20766E-07         0.10202E-10         0.00000E+00
    0.20780E-07         0.10019E-10         0.00000E+00
    0.20787E-07         0.89391E-11         0.00000E+00
    0.20788E-07         0.65855E-11         0.00000E+00
    0.20784E-07         0.25189E-11         0.00000E+00
    0.96326E-08         0.20852E-11         0.00000E+00
    0.96283E-08         0.54833E-11         0.00000E+00
    0.96282E-08         0.75122E-11         0.00000E+00
    0.96325E-08         0.85119E-11         0.00000E+00
    0.96415E-08         0.87810E-11         0.00000E+00
    0.96555E-08         0.85556E-11         0.00000E+00
    0.96746E-08         0.80132E-11         0.00000E+00
    0.96991E-08         0.72843E-11         0.00000E+00
    0.97288E-08         0.64615E-11         0.00000E+00
    0.97640E-08         0.56085E-11         0.00000E+00
    0.98046E-08         0.47671E-11         0.00000E+00
    0.98504E-08         0.39632E-11         0.00000E+00
    0.99016E-08         0.32111E-11         0.00000E+00
    0.99580E-08         0.25177E-11         0.00000E+00
    0.10020E-07         0.18844E-11         0.00000E+00
    0.10086E-07         0.13092E-11         0.00000E+00
    0.10158E-07         0.78844E-12         0.00000E+00
    0.10234E-07         0.31724E-12         0.00000E+00
    0.10316E-07        -0.10964E-12         0.00000E+00
    0.10402E-07        -0.49746E-12         0.00000E+00
    0.10492E-07        -0.85118E-12         0.00000E+00
    0.10588E-07        -0.11754E-11         0.00000E+00
    0.10687E-07        -0.14743E-11         0.00000E+00
    0.10792E-07        -0.17514E-11         0.00000E+00
    0.10900E-07        -0.20100E-11         0.00000E+00
    0.11012E-07        -0.22528E-11         0.00000E+00
    0.11129E-07        -0.24820E-11         0.00000E+00
    0.11250E-07        -0.26997E-11         0.00000E+00
    0.11374E-07        -0.29076E-11         0.00000E+00
    0.11503E-07        -0.31070E-11         0.00000E+00
    0.11635E-07        -0.32990E-11         0.00000E+00
    0.11770E-07        -0.34846E-11         0.00000E+00
    0.11910E-07        -0.36645E-11         0.00000E+00
    0.12052E-07        -0.38394E-11         0.00000E+00
    0.12198E-07        -0.40098E-11         0.00000E+00
    0.12347E-07        -0.41759E-11         0.00000E+00
    0.12499E-07        -0.43382E-11         0.00000E+00
    0.12654E-07        -0.44967E-11         0.00000E+00
    0.12811E-07        -0.46516E-11         0.00000E+00
    0.12972E-07        -0.48029E-11         0.00000E+00
    0.13134E-07        -0.49506E-11         0.00000E+00
    0.13300E-07        -0.50948E-11         0.00000E+00
    0.13467E-07        -0.52352E-11         0.00000E+00
    0.13637E-07        -0.53716E-11         0.00000E+00
    0.13808E-07        -0.55040E-11         0.00000E+00
    0.13981E-07        -0.56321E-11         0.00000E+00
    0.14156E-07        -0.57556E-11         0.00000E+00
    0.14333E-07        -0.58743E-11         0.00000E+00
    0.14511E-07        -0.59877E-11         0.00000E+00
    0.14689E-07        -0.60956E-11         0.00000E+00
    0.14869E-07        -0.61975E-11         0.00000E+00
    0.15050E-07        -0.62931E-11         0.00000E+00
    0.15231E-07        -0.63818E-11         0.00000E+00
    0.15413E-07        -0.64633E-11         0.00000E+00
    0.15595E-07        -0.65371E-11         0.00000E+00
    0.15777E-07        -0.66025E-11         0.00000E+00
    0.15959E-07        -0.66592E-11         0.00000E+00
    0.16140E-07        -0.67065E-11         0.00000E+00
    0.16321E-07        -0.67438E-11         0.00000E+00
    0.16502E-07        -0.67704E-11         0.00000E+00
    0.16681E-07        -0.67858E-11         0.00000E+00
    0.16860E-07        -0.67893E-11         0.00000E+00
    0.17037E-07        -0.67801E-11         0.00000E+00
    0.17212E-07        -0.67574E-11         0.00000E+00
    0.17386E-07        -0.67205E-11         0.00000E+00
    0.17558E-07        -0.66684E-11         0.00000E+00
    0.17727E-07        -0.66001E-11         0.00000E+00
    0.17895E-07        -0.65148E-11         0.00000E+00
    0.18059E-07        -0.64111E-11         0.00000E+00
    0.18221E-07        -0.62879E-11         0.00000E+00
    0.18380E-07        -0.61438E-11         0.00000E+00
    0.18536E-07        -0.59771E-11         0.00000E+00
    0.18688E-07        -0.57861E-11         0.00000E+00
    0.18836E-07        -0.55687E-11         0.00000E+00
    0.18981E-07        -0.53225E-11         0.00000E+00
    0.19121E-07        -0.50450E-11         0.00000E+00
    0.19258E-07        -0.47328E-11         0.00000E+00
    0.19389E-07        -0.43826E-11         0.00000E+00
    0.19516E-07        -0.39902E-11         0.00000E+00
    0.19638E-07        -0.35509E-11         0.00000E+00
    0.19755E-07        -0.30598E-11         0.00000E+00
    0.19867E-07        -0.25109E-11         0.00000E+00
    0.19973E-07        -0.18983E-11         0.00000E+00
    0.20073E-07        -0.12156E-11         0.00000E+00
    0.20167E-07        -0.45647E-12         0.00000E+00
    0.20255E-07         0.38470E-12         0.00000E+00
    0.20337E-07         0.13121E-11         0.00000E+00
    0.20412E-07         0.23272E-11         0.00000E+00
    0.20481E-07         0.34271E-11         0.00000E+00
    0.20542E-07         0.46020E-11         0.00000E+00
    0.20597E-07         0.58317E-11         0.00000E+00
    0.20645E-07         0.70812E-11         0.00000E+00
    0.20686E-07         0.82947E-11         0.00000E+00
    0.20720E-07         0.93880E-11         0.00000E+00
    0.20746E-07         0.10239E-10         0.00000E+00
    0.20766E-07         0.10678E-10         0.00000E+00
    0.20779E-07         0.10475E-10         0.00000E+00
    0.20786E-07         0.93255E-11         0.00000E+00
    0.20787E-07         0.68476E-11         0.00000E+00
    0.20783E-07         0.26120E-11         0.00000E+00
    0.96335E-08         0.21538E-11         0.00000E+00
    0.96289E-08         0.56763E-11         0.00000E+00
    0.96285E-08         0.77972E-11         0.00000E+00
    0.96326E-08         0.88502E-11         0.00000E+00
    0.96415E-08         0.91379E-11         0.00000E+00
    0.96554E-08         0.89051E-11         0.00000E+00
    0.96745E-08         0.83386E-11         0.00000E+00
    0.96989E-08         0.75759E-11         0.00000E+00
    0.97287E-08         0.67150E-11         0.00000E+00
    0.97638E-08         0.58229E-11         0.00000E+00
    0.98044E-08         0.49437E-11         0.00000E+00
    0.98503E-08         0.41044E-11         0.00000E+00
    0.99015E-08         0.33200E-11         0.00000E+00
    0.99579E-08         0.25975E-11         0.00000E+00
    0.10019E-07         0.19382E-11         0.00000E+00
    0.10086E-07         0.13401E-11         0.00000E+00
    0.10158E-07         0.79915E-12         0.00000E+00
    0.10234E-07         0.31007E-12         0.00000E+00
    0.10316E-07        -0.13264E-12         0.00000E+00
    0.10402E-07        -0.53454E-12         0.00000E+00
    0.10492E-07        -0.90089E-12         0.00000E+00
    0.10588E-07        -0.12365E-11         0.00000E+00
    0.10687E-07        -0.15458E-11         0.00000E+00
    0.10791E-07        -0.18325E-11         0.00000E+00
    0.10900E-07        -0.21000E-11         0.00000E+00
    0.11012E-07        -0.23511E-11         0.00000E+00
    0.11129E-07        -0.25882E-11         0.00000E+00
    0.11250E-07        -0.28135E-11         0.00000E+00
    0.11374E-07        -0.30286E-11         0.00000E+00
    0.11503E-07        -0.32349E-11         0.00000E+00
    0.11635E-07        -0.34337E-11         0.00000E+00
    0.11770E-07        -0.36260E-11         0.00000E+00
    0.11910E-07        -0.38124E-11         0.00000E+00
    0.12052E-07        -0.39937E-11         0.00000E+00
    0.12198E-07        -0.41703E-11         0.00000E+00
    0.12347E-07        -0.43426E-11         0.00000E+00
    0.12499E-07        -0.45108E-11         0.00000E+00
    0.12654E-07        -0.46753E-11         0.00000E+00
    0.12811E-07        -0.48361E-11         0.00000E+00
    0.12972E-07        -0.49932E-11         0.00000E+00
    0.13134E-07        -0.51466E-11         0.00000E+00
    0.13300E-07        -0.52963E-11         0.00000E+00
    0.13467E-07        -0.54422E-11         0.00000E+00
    0.13637E-07        -0.55840E-11         0.00000E+00
    0.13808E-07        -0.57216E-11         0.00000E+00
    0.13981E-07        -0.58548E-11         0.00000E+00
    0.14156E-07        -0.59833E-11         0.00000E+00
    0.14333E-07        -0.61067E-11         0.00000E+00
    0.14510E-07        -0.62247E-11         0.00000E+00
    0.14689E-07        -0.63370E-11         0.00000E+00
    0.14869E-07        -0.64431E-11         0.00000E+00
    0.15050E-07        -0.65426E-11         0.00000E+00
    0.15231E-07        -0.66351E-11         0.00000E+00
    0.15413E-07        -0.67201E-11         0.00000E+00
    0.15595E-07        -0.67971E-11         0.00000E+00
    0.15777E-07        -0.68654E-11         0.00000E+00
    0.15959E-07        -0.69247E-11         0.00000E+00
    0.16140E-07        -0.69742E-11         0.00000E+00
    0.16321E-07        -0.70133E-11         0.00000E+00
    0.16502E-07        -0.70415E-11         0.00000E+00
    0.16681E-07        -0.70580E-11         0.00000E+00
    0.16860E-07        -0.70621E-11         0.00000E+00
    0.17037E-07        -0.70531E-11         0.00000E+00
    0.17212E-07        -0.70302E-11         0.00000E+00
    0.17386E-07        -0.69925E-11         0.00000E+00
    0.17558E-07        -0.69390E-11         0.00000E+00
    0.17727E-07        -0.68689E-11         0.00000E+00
    0.17895E-07        -0.67811E-11         0.00000E+00
    0.18059E-07        -0.66743E-11         0.00000E+00
    0.18221E-07        -0.65472E-11         0.00000E+00
    0.18380E-07        -0.63985E-11         0.00000E+00
    0.18536E-07        -0.62265E-11         0.00000E+00
    0.18688E-07        -0.60292E-11         0.00000E+00
    0.18836E-07        -0.58046E-11         0.00000E+00
    0.18981E-07        -0.55502E-11         0.00000E+00
    0.19121E-07        -0.52632E-11         0.00000E+00
    0.19258E-07        -0.49404E-11         0.00000E+00
    0.19389E-07        -0.45780E-11         0.00000E+00
    0.19516E-07        -0.41717E-11         0.00000E+00
    0.19638E-07        -0.37167E-11         0.00000E+00
    0.19755E-07        -0.32076E-11         0.00000E+00
    0.19867E-07        -0.26384E-11         0.00000E+00
    0.19973E-07        -0.20026E-11         0.00000E+00
    0.20073E-07        -0.12934E-11         0.00000E+00
    0.20167E-07        -0.50426E-12         0.00000E+00
    0.20255E-07         0.37095E-12         0.00000E+00
    0.20337E-07         0.13367E-11         0.00000E+00
    0.20412E-07         0.23948E-11         0.00000E+00
    0.20481E-07         0.35424E-11         0.00000E+00
    0.20543E-07         0.47692E-11         0.00000E+00
    0.20598E-07         0.60543E-11         0.00000E+00
    0.20645E-07         0.73611E-11         0.00000E+00
    0.20686E-07         0.86307E-11         0.00000E+00
    0.20720E-07         0.97745E-11         0.00000E+00
    0.20746E-07         0.10664E-10         0.00000E+00
    0.20766E-07         0.11119E-10         0.00000E+00
    0.20779E-07         0.10898E-10         0.00000E+00
    0.20786E-07         0.96844E-11         0.00000E+00
    0.20787E-07         0.70920E-11         0.00000E+00
    0.20782E-07         0.26993E-11         0.00000E+00
    0.96344E-08         0.22179E-11         0.00000E+00
    0.96294E-08         0.58554E-11         0.00000E+00
    0.96288E-08         0.80602E-11         0.00000E+00
    0.96327E-08         0.91612E-11         0.00000E+00
    0.96415E-08         0.94648E-11         0.00000E+00
    0.96553E-08         0.92240E-11         0.00000E+00
    0.96743E-08         0.86340E-11         0.00000E+00
    0.96987E-08         0.78394E-11         0.00000E+00
    0.97285E-08         0.69427E-11         0.00000E+00
    0.97637E-08         0.60143E-11         0.00000E+00
    0.98042E-08         0.51000E-11         0.00000E+00
    0.98501E-08         0.42282E-11         0.00000E+00
    0.99013E-08         0.34142E-11         0.00000E+00
    0.99577E-08         0.26652E-11         0.00000E+00
    0.10019E-07         0.19825E-11         0.00000E+00
    0.10086E-07         0.13638E-11         0.00000E+00
    0.10158E-07         0.80472E-12         0.00000E+00
    0.10234E-07         0.29972E-12         0.00000E+00
    0.10315E-07        -0.15703E-12         0.00000E+00
    0.10402E-07        -0.57137E-12         0.00000E+00
    0.10492E-07        -0.94883E-12         0.00000E+00
    0.10588E-07        -0.12945E-11         0.00000E+00
    0.10687E-07        -0.16128E-11         0.00000E+00
    0.10791E-07        -0.19079E-11         0.00000E+00
    0.10900E-07        -0.21832E-11         0.00000E+00
    0.11012E-07        -0.24416E-11         0.00000E+00
    0.11129E-07        -0.26856E-11         0.00000E+00
    0.11250E-07        -0.29175E-11         0.00000E+00
    0.11374E-07        -0.31389E-11         0.00000E+00
    0.11503E-07        -0.33514E-11         0.00000E+00
    0.11635E-07        -0.35562E-11         0.00000E+00
    0.11770E-07        -0.37543E-11         0.00000E+00
    0.11909E-07        -0.39465E-11         0.00000E+00
    0.12052E-07        -0.41334E-11         0.00000E+00
    0.12198E-07        -0.43155E-11         0.00000E+00
    0.12347E-07        -0.44933E-11         0.00000E+00
    0.12499E-07        -0.46670E-11         0.00000E+00
    0.12654E-07        -0.48368E-11         0.00000E+00
    0.12811E-07        -0.50028E-11         0.00000E+00
    0.12972E-07        -0.51651E-11         0.00000E+00
    0.13134E-07        -0.53236E-11         0.00000E+00
    0.13300E-07        -0.54783E-11         0.00000E+00
    0.13467E-07        -0.56291E-11         0.00000E+00
    0.13637E-07        -0.57758E-11         0.00000E+00
    0.13808E-07        -0.59181E-11         0.00000E+00
    0.13981E-07        -0.60559E-11         0.00000E+00
    0.14156E-07        -0.61888E-11         0.00000E+00
    0.14333E-07        -0.63166E-11         0.00000E+00
    0.14510E-07        -0.64388E-11         0.00000E+00
    0.14689E-07        -0.65550E-11         0.00000E+00
    0.14869E-07        -0.66650E-11         0.00000E+00
    0.15050E-07        -0.67682E-11         0.00000E+00
    0.15231E-07        -0.68641E-11         0.00000E+00
    0.15413E-07        -0.69522E-11         0.00000E+00
    0.15595E-07        -0.70321E-11         0.00000E+00
    0.15777E-07        -0.71031E-11         0.00000E+00
    0.15959E-07        -0.71647E-11         0.00000E+00
    0.16140E-07        -0.72163E-11         0.00000E+00
    0.16321E-07        -0.72573E-11         0.00000E+00
    0.16502E-07        -0.72869E-11         0.00000E+00
    0.16681E-07        -0.73045E-11         0.00000E+00
    0.16860E-07        -0.73093E-11         0.00000E+00
    0.17037E-07        -0.73006E-11         0.00000E+00
    0.17212E-07        -0.72775E-11         0.00000E+00
    0.17386E-07        -0.72392E-11         0.00000E+00
    0.17558E-07        -0.71847E-11         0.00000E+00
    0.17727E-07        -0.71130E-11         0.00000E+00
    0.17895E-07        -0.70231E-11         0.00000E+00
    0.18059E-07        -0.69136E-11         0.00000E+00
    0.18221E-07        -0.67833E-11         0.00000E+00
    0.18380E-07        -0.66307E-11         0.00000E+00
    0.18536E-07        -0.64540E-11         0.00000E+00
    0.18688E-07        -0.62514E-11         0.00000E+00
    0.18836E-07        -0.60205E-11         0.00000E+00
    0.18981E-07        -0.57590E-11         0.00000E+00
    0.19122E-07        -0.54638E-11         0.00000E+00
    0.19258E-07        -0.51316E-11         0.00000E+00
    0.19389E-07        -0.47585E-11         0.00000E+00
    0.19516E-07        -0.43401E-11         0.00000E+00
    0.19638E-07        -0.38712E-11         0.00000E+00
    0.19755E-07        -0.33463E-11         0.00000E+00
    0.19867E-07        -0.27590E-11         0.00000E+00
    0.19973E-07        -0.21025E-11         0.00000E+00
    0.20073E-07        -0.13696E-11         0.00000E+00
    0.20167E-07        -0.55347E-12         0.00000E+00
    0.20255E-07         0.35248E-12         0.00000E+00
    0.20337E-07         0.13531E-11         0.00000E+00
    0.20412E-07         0.24504E-11         0.00000E+00
    0.20481E-07         0.36415E-11         0.00000E+00
    0.20543E-07         0.49162E-11         0.00000E+00
    0.20598E-07         0.62526E-11         0.00000E+00
    0.20646E-07         0.76126E-11         0.00000E+00
    0.20686E-07         0.89349E-11         0.00000E+00
    0.20720E-07         0.10126E-10         0.00000E+00
    0.20747E-07         0.11052E-10         0.00000E+00
    0.20766E-07         0.11524E-10         0.00000E+00
    0.20779E-07         0.11288E-10         0.00000E+00
    0.20786E-07         0.10017E-10         0.00000E+00
    0.20786E-07         0.73198E-11         0.00000E+00
    0.20781E-07         0.27811E-11         0.00000E+00
    0.96353E-08         0.22777E-11         0.00000E+00
    0.96300E-08         0.60214E-11         0.00000E+00
    0.96291E-08         0.83021E-11         0.00000E+00
    0.96328E-08         0.94455E-11         0.00000E+00
    0.96415E-08         0.97619E-11         0.00000E+00
    0.96552E-08         0.95122E-11         0.00000E+00
    0.96742E-08         0.88995E-11         0.00000E+00
    0.96986E-08         0.80746E-11         0.00000E+00
    0.97283E-08         0.71445E-11         0.00000E+00
    0.97635E-08         0.61824E-11         0.00000E+00
    0.98040E-08         0.52361E-11         0.00000E+00
    0.98499E-08         0.43345E-11         0.00000E+00
    0.99011E-08         0.34938E-11         0.00000E+00
    0.99576E-08         0.27211E-11         0.00000E+00
    0.10019E-07         0.20174E-11         0.00000E+00
    0.10086E-07         0.13804E-11         0.00000E+00
    0.10157E-07         0.80530E-12         0.00000E+00
    0.10234E-07         0.28635E-12         0.00000E+00
    0.10315E-07        -0.18264E-12         0.00000E+00
    0.10401E-07        -0.60778E-12         0.00000E+00
    0.10492E-07        -0.99484E-12         0.00000E+00
    0.10588E-07        -0.13491E-11         0.00000E+00
    0.10687E-07        -0.16753E-11         0.00000E+00
    0.10791E-07        -0.19775E-11         0.00000E+00
    0.10900E-07        -0.22594E-11         0.00000E+00
    0.11012E-07        -0.25241E-11         0.00000E+00
    0.11129E-07        -0.27741E-11         0.00000E+00
    0.11250E-07        -0.30116E-11         0.00000E+00
    0.11374E-07        -0.32385E-11         0.00000E+00
    0.11503E-07        -0.34564E-11         0.00000E+00
    0.11635E-07        -0.36663E-11         0.00000E+00
    0.11770E-07        -0.38695E-11         0.00000E+00
    0.11909E-07        -0.40666E-11         0.00000E+00
    0.12052E-07        -0.42585E-11         0.00000E+00
    0.12198E-07        -0.44455E-11         0.00000E+00
    0.12347E-07        -0.46281E-11         0.00000E+00
    0.12499E-07        -0.48065E-11         0.00000E+00
    0.12654E-07        -0.49810E-11         0.00000E+00
    0.12811E-07        -0.51517E-11         0.00000E+00
    0.12972E-07        -0.53186E-11         0.00000E+00
    0.13134E-07        -0.54816E-11         0.00000E+00
    0.13300E-07        -0.56408E-11         0.00000E+00
    0.13467E-07        -0.57960E-11         0.00000E+00
    0.13637E-07        -0.59469E-11         0.00000E+00
    0.13808E-07        -0.60935E-11         0.00000E+00
    0.13981E-07        -0.62354E-11         0.00000E+00
    0.14156E-07        -0.63723E-11         0.00000E+00
    0.14333E-07        -0.65039E-11         0.00000E+00
    0.14510E-07        -0.66298E-11         0.00000E+00
    0.14689E-07        -0.67497E-11         0.00000E+00
    0.14869E-07        -0.68631E-11         0.00000E+00
    0.15050E-07        -0.69695E-11         0.00000E+00
    0.15231E-07        -0.70685E-11         0.00000E+00
    0.15413E-07        -0.71596E-11         0.00000E+00
    0.15595E-07        -0.72421E-11         0.00000E+00
    0.15777E-07        -0.73156E-11         0.00000E+00
    0.15959E-07        -0.73794E-11         0.00000E+00
    0.16140E-07        -0.74330E-11         0.00000E+00
    0.16321E-07        -0.74756E-11         0.00000E+00
    0.16502E-07        -0.75065E-11         0.00000E+00
    0.16681E-07        -0.75252E-11         0.00000E+00
    0.16860E-07        -0.75307E-11         0.00000E+00
    0.17037E-07        -0.75224E-11         0.00000E+00
    0.17212E-07        -0.74993E-11         0.00000E+00
    0.17386E-07        -0.74606E-11         0.00000E+00
    0.17558E-07        -0.74053E-11         0.00000E+00
    0.17727E-07        -0.73324E-11         0.00000E+00
    0.17895E-07        -0.72407E-11         0.00000E+00
    0.18059E-07        -0.71291E-11         0.00000E+00
    0.18221E-07        -0.69961E-11         0.00000E+00
    0.18380E-07        -0.68401E-11         0.00000E+00
    0.18536E-07        -0.66596E-11         0.00000E+00
    0.18688E-07        -0.64524E-11         0.00000E+00
    0.18836E-07        -0.62163E-11         0.00000E+00
    0.18981E-07        -0.59486E-11         0.00000E+00
    0.19122E-07        -0.56464E-11         0.00000E+00
    0.19258E-07        -0.53062E-11         0.00000E+00
    0.19390E-07        -0.49240E-11         0.00000E+00
    0.19516E-07        -0.44951E-11         0.00000E+00
    0.19639E-07        -0.40142E-11         0.00000E+00
    0.19755E-07        -0.34755E-11         0.00000E+00
    0.19867E-07        -0.28723E-11         0.00000E+00
    0.19973E-07        -0.21977E-11         0.00000E+00
    0.20073E-07        -0.14440E-11         0.00000E+00
    0.20167E-07        -0.60389E-12         0.00000E+00
    0.20256E-07         0.32945E-12         0.00000E+00
    0.20337E-07         0.13613E-11         0.00000E+00
    0.20413E-07         0.24939E-11         0.00000E+00
    0.20481E-07         0.37246E-11         0.00000E+00
    0.20543E-07         0.50428E-11         0.00000E+00
    0.20598E-07         0.64263E-11         0.00000E+00
    0.20646E-07         0.78356E-11         0.00000E+00
    0.20687E-07         0.92070E-11         0.00000E+00
    0.20720E-07         0.10444E-10         0.00000E+00
    0.20747E-07         0.11405E-10         0.00000E+00
    0.20766E-07         0.11893E-10         0.00000E+00
    0.20779E-07         0.11645E-10         0.00000E+00
    0.20785E-07         0.10324E-10         0.00000E+00
    0.20785E-07         0.75318E-11         0.00000E+00
    0.20779E-07         0.28577E-11         0.00000E+00
    0.96362E-08         0.23334E-11         0.00000E+00
    0.96306E-08         0.61747E-11         0.00000E+00
    0.96294E-08         0.85233E-11         0.00000E+00
    0.96330E-08         0.97033E-11         0.00000E+00
    0.96415E-08         0.10029E-10         0.00000E+00
    0.96551E-08         0.97697E-11         0.00000E+00
    0.96740E-08         0.91349E-11         0.00000E+00
    0.96984E-08         0.82814E-11         0.00000E+00
    0.97281E-08         0.73203E-11         0.00000E+00
    0.97633E-08         0.63273E-11         0.00000E+00
    0.98038E-08         0.53518E-11         0.00000E+00
    0.98498E-08         0.44235E-11         0.00000E+00
    0.99010E-08         0.35589E-11         0.00000E+00
    0.99574E-08         0.27650E-11         0.00000E+00
    0.10019E-07         0.20430E-11         0.00000E+00
    0.10086E-07         0.13900E-11         0.00000E+00
    0.10157E-07         0.80106E-12         0.00000E+00
    0.10234E-07         0.27011E-12         0.00000E+00
    0.10315E-07        -0.20932E-12         0.00000E+00
    0.10401E-07        -0.64361E-12         0.00000E+00
    0.10492E-07        -0.10388E-11         0.00000E+00
    0.10587E-07        -0.14002E-11         0.00000E+00
    0.10687E-07        -0.17330E-11         0.00000E+00
    0.10791E-07        -0.20412E-11         0.00000E+00
    0.10900E-07        -0.23287E-11         0.00000E+00
    0.11012E-07        -0.25986E-11         0.00000E+00
    0.11129E-07        -0.28535E-11         0.00000E+00
    0.11250E-07        -0.30958E-11         0.00000E+00
    0.11374E-07        -0.33273E-11         0.00000E+00
    0.11503E-07        -0.35496E-11         0.00000E+00
    0.11635E-07        -0.37640E-11         0.00000E+00
    0.11770E-07        -0.39715E-11         0.00000E+00
    0.11909E-07        -0.41729E-11         0.00000E+00
    0.12052E-07        -0.43690E-11         0.00000E+00
    0.12198E-07        -0.45602E-11         0.00000E+00
    0.12347E-07        -0.47469E-11         0.00000E+00
    0.12499E-07        -0.49294E-11         0.00000E+00
    0.12654E-07        -0.51080E-11         0.00000E+00
    0.12811E-07        -0.52827E-11         0.00000E+00
    0.12972E-07        -0.54536E-11         0.00000E+00
    0.13134E-07        -0.56206E-11         0.00000E+00
    0.13300E-07        -0.57837E-11         0.00000E+00
    0.13467E-07        -0.59427E-11         0.00000E+00
    0.13637E-07        -0.60974E-11         0.00000E+00
    0.13808E-07        -0.62477E-11         0.00000E+00
    0.13981E-07        -0.63932E-11         0.00000E+00
    0.14156E-07        -0.65336E-11         0.00000E+00
    0.14333E-07        -0.66686E-11         0.00000E+00
    0.14510E-07        -0.67979E-11         0.00000E+00
    0.14689E-07        -0.69210E-11         0.00000E+00
    0.14869E-07        -0.70374E-11         0.00000E+00
    0.15050E-07        -0.71468E-11         0.00000E+00
    0.15231E-07        -0.72485E-11         0.00000E+00
    0.15413E-07        -0.73421E-11         0.00000E+00
    0.15595E-07        -0.74271E-11         0.00000E+00
    0.15777E-07        -0.75028E-11         0.00000E+00
    0.15959E-07        -0.75686E-11         0.00000E+00
    0.16140E-07        -0.76239E-11         0.00000E+00
    0.16321E-07        -0.76681E-11         0.00000E+00
    0.16502E-07        -0.77003E-11         0.00000E+00
    0.16681E-07        -0.77200E-11         0.00000E+00
    0.16860E-07        -0.77263E-11         0.00000E+00
    0.17037E-07        -0.77183E-11         0.00000E+00
    0.17212E-07        -0.76954E-11         0.00000E+00
    0.17386E-07        -0.76565E-11         0.00000E+00
    0.17558E-07        -0.76007E-11         0.00000E+00
    0.17727E-07        -0.75268E-11         0.00000E+00
    0.17895E-07        -0.74339E-11         0.00000E+00
    0.18059E-07        -0.73205E-11         0.00000E+00
    0.18221E-07        -0.71853E-11         0.00000E+00
    0.18380E-07        -0.70267E-11         0.00000E+00
    0.18536E-07        -0.68430E-11         0.00000E+00
    0.18688E-07        -0.66320E-11         0.00000E+00
    0.18836E-07        -0.63916E-11         0.00000E+00
    0.18981E-07        -0.61189E-11         0.00000E+00
    0.19122E-07        -0.58109E-11         0.00000E+00
    0.19258E-07        -0.54640E-11         0.00000E+00
    0.19390E-07        -0.50741E-11         0.00000E+00
    0.19517E-07        -0.46364E-11         0.00000E+00
    0.19639E-07        -0.41454E-11         0.00000E+00
    0.19756E-07        -0.35949E-11         0.00000E+00
    0.19867E-07        -0.29783E-11         0.00000E+00
    0.19973E-07        -0.22880E-11         0.00000E+00
    0.20073E-07        -0.15163E-11         0.00000E+00
    0.20168E-07        -0.65529E-12         0.00000E+00
    0.20256E-07         0.30209E-12         0.00000E+00
    0.20338E-07         0.13615E-11         0.00000E+00
    0.20413E-07         0.25255E-11         0.00000E+00
    0.20482E-07         0.37916E-11         0.00000E+00
    0.20543E-07         0.51491E-11         0.00000E+00
    0.20598E-07         0.65754E-11         0.00000E+00
    0.20646E-07         0.80299E-11         0.00000E+00
    0.20687E-07         0.94468E-11         0.00000E+00
    0.20720E-07         0.10726E-10         0.00000E+00
    0.20747E-07         0.11721E-10         0.00000E+00
    0.20766E-07         0.12227E-10         0.00000E+00
    0.20779E-07         0.11971E-10         0.00000E+00
    0.20785E-07         0.10606E-10         0.00000E+00
    0.20785E-07         0.77287E-11         0.00000E+00
    0.20778E-07         0.29295E-11         0.00000E+00
    0.96371E-08         0.23851E-11         0.00000E+00
    0.96312E-08         0.63159E-11         0.00000E+00
    0.96298E-08         0.87244E-11         0.00000E+00
    0.96331E-08         0.99350E-11         0.00000E+00
    0.96415E-08         0.10267E-10         0.00000E+00
    0.96550E-08         0.99965E-11         0.00000E+00
    0.96739E-08         0.93401E-11         0.00000E+00
    0.96982E-08         0.84596E-11         0.00000E+00
    0.97279E-08         0.74699E-11         0.00000E+00
    0.97631E-08         0.64489E-11         0.00000E+00
    0.98036E-08         0.54472E-11         0.00000E+00
    0.98496E-08         0.44952E-11         0.00000E+00
    0.99008E-08         0.36095E-11         0.00000E+00
    0.99573E-08         0.27973E-11         0.00000E+00
    0.10019E-07         0.20594E-11         0.00000E+00
    0.10086E-07         0.13928E-11         0.00000E+00
    0.10157E-07         0.79218E-12         0.00000E+00
    0.10234E-07         0.25120E-12         0.00000E+00
    0.10315E-07        -0.23688E-12         0.00000E+00
    0.10401E-07        -0.67868E-12         0.00000E+00
    0.10492E-07        -0.10804E-11         0.00000E+00
    0.10587E-07        -0.14478E-11         0.00000E+00
    0.10687E-07        -0.17858E-11         0.00000E+00
    0.10791E-07        -0.20988E-11         0.00000E+00
    0.10900E-07        -0.23908E-11         0.00000E+00
    0.11012E-07        -0.26649E-11         0.00000E+00
    0.11129E-07        -0.29238E-11         0.00000E+00
    0.11250E-07        -0.31700E-11         0.00000E+00
    0.11374E-07        -0.34053E-11         0.00000E+00
    0.11503E-07        -0.36312E-11         0.00000E+00
    0.11635E-07        -0.38492E-11         0.00000E+00
    0.11770E-07        -0.40602E-11         0.00000E+00
    0.11909E-07        -0.42652E-11         0.00000E+00
    0.12052E-07        -0.44648E-11         0.00000E+00
    0.12198E-07        -0.46595E-11         0.00000E+00
    0.12347E-07        -0.48497E-11         0.00000E+00
    0.12499E-07        -0.50357E-11         0.00000E+00
    0.12653E-07        -0.52177E-11         0.00000E+00
    0.12811E-07        -0.53958E-11         0.00000E+00
    0.12971E-07        -0.55701E-11         0.00000E+00
    0.13134E-07        -0.57405E-11         0.00000E+00
    0.13300E-07        -0.59069E-11         0.00000E+00
    0.13467E-07        -0.60692E-11         0.00000E+00
    0.13637E-07        -0.62272E-11         0.00000E+00
    0.13808E-07        -0.63806E-11         0.00000E+00
    0.13981E-07        -0.65292E-11         0.00000E+00
    0.14156E-07        -0.66727E-11         0.00000E+00
    0.14333E-07        -0.68107E-11         0.00000E+00
    0.14510E-07        -0.69429E-11         0.00000E+00
    0.14689E-07        -0.70687E-11         0.00000E+00
    0.14869E-07        -0.71878E-11         0.00000E+00
    0.15050E-07        -0.72997E-11         0.00000E+00
    0.15231E-07        -0.74039E-11         0.00000E+00
    0.15413E-07        -0.74998E-11         0.00000E+00
    0.15595E-07        -0.75869E-11         0.00000E+00
    0.15777E-07        -0.76646E-11         0.00000E+00
    0.15959E-07        -0.77322E-11         0.00000E+00
    0.16140E-07        -0.77891E-11         0.00000E+00
    0.16321E-07        -0.78347E-11         0.00000E+00
    0.16502E-07        -0.78682E-11         0.00000E+00
    0.16681E-07        -0.78888E-11         0.00000E+00
    0.16860E-07        -0.78958E-11         0.00000E+00
    0.17037E-07        -0.78884E-11         0.00000E+00
    0.17212E-07        -0.78657E-11         0.00000E+00
    0.17386E-07        -0.78268E-11         0.00000E+00
    0.17558E-07        -0.77707E-11         0.00000E+00
    0.17728E-07        -0.76962E-11         0.00000E+00
    0.17895E-07        -0.76023E-11         0.00000E+00
    0.18059E-07        -0.74876E-11         0.00000E+00
    0.18221E-07        -0.73508E-11         0.00000E+00
    0.18380E-07        -0.71902E-11         0.00000E+00
    0.18536E-07        -0.70040E-11         0.00000E+00
    0.18688E-07        -0.67902E-11         0.00000E+00
    0.18837E-07        -0.65463E-11         0.00000E+00
    0.18981E-07        -0.62696E-11         0.00000E+00
    0.19122E-07        -0.59570E-11         0.00000E+00
    0.19258E-07        -0.56048E-11         0.00000E+00
    0.19390E-07        -0.52087E-11         0.00000E+00
    0.19517E-07        -0.47638E-11         0.00000E+00
    0.19639E-07        -0.42644E-11         0.00000E+00
    0.19756E-07        -0.37044E-11         0.00000E+00
    0.19867E-07        -0.30765E-11         0.00000E+00
    0.19973E-07        -0.23731E-11         0.00000E+00
    0.20073E-07        -0.15861E-11         0.00000E+00
    0.20168E-07        -0.70740E-12         0.00000E+00
    0.20256E-07         0.27061E-12         0.00000E+00
    0.20338E-07         0.13539E-11         0.00000E+00
    0.20413E-07         0.25453E-11         0.00000E+00
    0.20482E-07         0.38426E-11         0.00000E+00
    0.20544E-07         0.52352E-11         0.00000E+00
    0.20599E-07         0.66999E-11         0.00000E+00
    0.20646E-07         0.81954E-11         0.00000E+00
    0.20687E-07         0.96541E-11         0.00000E+00
    0.20721E-07         0.10973E-10         0.00000E+00
    0.20747E-07         0.12000E-10         0.00000E+00
    0.20766E-07         0.12526E-10         0.00000E+00
    0.20779E-07         0.12265E-10         0.00000E+00
    0.20784E-07         0.10864E-10         0.00000E+00
    0.20784E-07         0.79110E-11         0.00000E+00
    0.20777E-07         0.29967E-11         0.00000E+00
    0.96381E-08         0.24331E-11         0.00000E+00
    0.96318E-08         0.64451E-11         0.00000E+00
    0.96301E-08         0.89056E-11         0.00000E+00
    0.96332E-08         0.10141E-10         0.00000E+00
    0.96415E-08         0.10476E-10         0.00000E+00
    0.96549E-08         0.10192E-10         0.00000E+00
    0.96737E-08         0.95148E-11         0.00000E+00
    0.96980E-08         0.86092E-11         0.00000E+00
    0.97277E-08         0.75933E-11         0.00000E+00
    0.97629E-08         0.65472E-11         0.00000E+00
    0.98034E-08         0.55223E-11         0.00000E+00
    0.98494E-08         0.45496E-11         0.00000E+00
    0.99006E-08         0.36459E-11         0.00000E+00
    0.99571E-08         0.28181E-11         0.00000E+00
    0.10019E-07         0.20669E-11         0.00000E+00
    0.10085E-07         0.13890E-11         0.00000E+00
    0.10157E-07         0.77885E-12         0.00000E+00
    0.10234E-07         0.22981E-12         0.00000E+00
    0.10315E-07        -0.26513E-12         0.00000E+00
    0.10401E-07        -0.71281E-12         0.00000E+00
    0.10492E-07        -0.11197E-11         0.00000E+00
    0.10587E-07        -0.14915E-11         0.00000E+00
    0.10687E-07        -0.18335E-11         0.00000E+00
    0.10791E-07        -0.21503E-11         0.00000E+00
    0.10900E-07        -0.24456E-11         0.00000E+00
    0.11012E-07        -0.27229E-11         0.00000E+00
    0.11129E-07        -0.29849E-11         0.00000E+00
    0.11250E-07        -0.32340E-11         0.00000E+00
    0.11374E-07        -0.34722E-11         0.00000E+00
    0.11502E-07        -0.37010E-11         0.00000E+00
    0.11635E-07        -0.39218E-11         0.00000E+00
    0.11770E-07        -0.41357E-11         0.00000E+00
    0.11909E-07        -0.43435E-11         0.00000E+00
    0.12052E-07        -0.45458E-11         0.00000E+00
    0.12198E-07        -0.47433E-11         0.00000E+00
    0.12347E-07        -0.49364E-11         0.00000E+00
    0.12499E-07        -0.51252E-11         0.00000E+00
    0.12653E-07        -0.53101E-11         0.00000E+00
    0.12811E-07        -0.54910E-11         0.00000E+00
    0.12971E-07        -0.56681E-11         0.00000E+00
    0.13134E-07        -0.58412E-11         0.00000E+00
    0.13299E-07        -0.60104E-11         0.00000E+00
    0.13467E-07        -0.61755E-11         0.00000E+00
    0.13636E-07        -0.63362E-11         0.00000E+00
    0.13808E-07        -0.64923E-11         0.00000E+00
    0.13981E-07        -0.66435E-11         0.00000E+00
    0.14156E-07        -0.67896E-11         0.00000E+00
    0.14333E-07        -0.69301E-11         0.00000E+00
    0.14510E-07        -0.70647E-11         0.00000E+00
    0.14689E-07        -0.71930E-11         0.00000E+00
    0.14869E-07        -0.73144E-11         0.00000E+00
    0.15050E-07        -0.74285E-11         0.00000E+00
    0.15231E-07        -0.75347E-11         0.00000E+00
    0.15413E-07        -0.76326E-11         0.00000E+00
    0.15595E-07        -0.77216E-11         0.00000E+00
    0.15777E-07        -0.78010E-11         0.00000E+00
    0.15959E-07        -0.78702E-11         0.00000E+00
    0.16140E-07        -0.79286E-11         0.00000E+00
    0.16321E-07        -0.79754E-11         0.00000E+00
    0.16502E-07        -0.80100E-11         0.00000E+00
    0.16681E-07        -0.80316E-11         0.00000E+00
    0.16860E-07        -0.80394E-11         0.00000E+00
    0.17037E-07        -0.80326E-11         0.00000E+00
    0.17212E-07        -0.80102E-11         0.00000E+00
    0.17386E-07        -0.79714E-11         0.00000E+00
    0.17558E-07        -0.79152E-11         0.00000E+00
    0.17728E-07        -0.78404E-11         0.00000E+00
    0.17895E-07        -0.77459E-11         0.00000E+00
    0.18060E-07        -0.76304E-11         0.00000E+00
    0.18221E-07        -0.74925E-11         0.00000E+00
    0.18380E-07        -0.73305E-11         0.00000E+00
    0.18536E-07        -0.71425E-11         0.00000E+00
    0.18688E-07        -0.69266E-11         0.00000E+00
    0.18837E-07        -0.66802E-11         0.00000E+00
    0.18981E-07        -0.64006E-11         0.00000E+00
    0.19122E-07        -0.60845E-11         0.00000E+00
    0.19258E-07        -0.57282E-11         0.00000E+00
    0.19390E-07        -0.53274E-11         0.00000E+00
    0.19517E-07        -0.48769E-11         0.00000E+00
    0.19639E-07        -0.43711E-11         0.00000E+00
    0.19756E-07        -0.38035E-11         0.00000E+00
    0.19867E-07        -0.31666E-11         0.00000E+00
    0.19973E-07        -0.24527E-11         0.00000E+00
    0.20074E-07        -0.16533E-11         0.00000E+00
    0.20168E-07        -0.75993E-12         0.00000E+00
    0.20256E-07         0.23530E-12         0.00000E+00
    0.20338E-07         0.13387E-11         0.00000E+00
    0.20413E-07         0.25536E-11         0.00000E+00
    0.20482E-07         0.38778E-11         0.00000E+00
    0.20544E-07         0.53009E-11         0.00000E+00
    0.20599E-07         0.67996E-11         0.00000E+00
    0.20647E-07         0.83318E-11         0.00000E+00
    0.20687E-07         0.98287E-11         0.00000E+00
    0.20721E-07         0.11184E-10         0.00000E+00
    0.20747E-07         0.12244E-10         0.00000E+00
    0.20766E-07         0.12789E-10         0.00000E+00
    0.20779E-07         0.12528E-10         0.00000E+00
    0.20784E-07         0.11098E-10         0.00000E+00
    0.20783E-07         0.80792E-11         0.00000E+00
    0.20776E-07         0.30593E-11         0.00000E+00
    0.96391E-08         0.24773E-11         0.00000E+00
    0.96325E-08         0.65627E-11         0.00000E+00
    0.96305E-08         0.90671E-11         0.00000E+00
    0.96334E-08         0.10320E-10         0.00000E+00
    0.96414E-08         0.10654E-10         0.00000E+00
    0.96548E-08         0.10357E-10         0.00000E+00
    0.96736E-08         0.96590E-11         0.00000E+00
    0.96978E-08         0.87299E-11         0.00000E+00
    0.97275E-08         0.76905E-11         0.00000E+00
    0.97627E-08         0.66221E-11         0.00000E+00
    0.98032E-08         0.55771E-11         0.00000E+00
    0.98492E-08         0.45869E-11         0.00000E+00
    0.99005E-08         0.36680E-11         0.00000E+00
    0.99570E-08         0.28275E-11         0.00000E+00
    0.10019E-07         0.20656E-11         0.00000E+00
    0.10085E-07         0.13788E-11         0.00000E+00
    0.10157E-07         0.76129E-12         0.00000E+00
    0.10234E-07         0.20615E-12         0.00000E+00
    0.10315E-07        -0.29386E-12         0.00000E+00
    0.10401E-07        -0.74581E-12         0.00000E+00
    0.10492E-07        -0.11563E-11         0.00000E+00
    0.10587E-07        -0.15313E-11         0.00000E+00
    0.10687E-07        -0.18761E-11         0.00000E+00
    0.10791E-07        -0.21953E-11         0.00000E+00
    0.10900E-07        -0.24930E-11         0.00000E+00
    0.11012E-07        -0.27725E-11         0.00000E+00
    0.11129E-07        -0.30366E-11         0.00000E+00
    0.11249E-07        -0.32878E-11         0.00000E+00
    0.11374E-07        -0.35280E-11         0.00000E+00
    0.11502E-07        -0.37589E-11         0.00000E+00
    0.11634E-07        -0.39818E-11         0.00000E+00
    0.11770E-07        -0.41977E-11         0.00000E+00
    0.11909E-07        -0.44076E-11         0.00000E+00
    0.12052E-07        -0.46121E-11         0.00000E+00
    0.12198E-07        -0.48118E-11         0.00000E+00
    0.12347E-07        -0.50070E-11         0.00000E+00
    0.12499E-07        -0.51980E-11         0.00000E+00
    0.12653E-07        -0.53850E-11         0.00000E+00
    0.12811E-07        -0.55682E-11         0.00000E+00
    0.12971E-07        -0.57475E-11         0.00000E+00
    0.13134E-07        -0.59228E-11         0.00000E+00
    0.13299E-07        -0.60942E-11         0.00000E+00
    0.13467E-07        -0.62615E-11         0.00000E+00
    0.13636E-07        -0.64244E-11         0.00000E+00
    0.13808E-07        -0.65826E-11         0.00000E+00
    0.13981E-07        -0.67360E-11         0.00000E+00
    0.14156E-07        -0.68842E-11         0.00000E+00
    0.14333E-07        -0.70268E-11         0.00000E+00
    0.14510E-07        -0.71634E-11         0.00000E+00
    0.14689E-07        -0.72936E-11         0.00000E+00
    0.14869E-07        -0.74169E-11         0.00000E+00
    0.15050E-07        -0.75328E-11         0.00000E+00
    0.15231E-07        -0.76409E-11         0.00000E+00
    0.15413E-07        -0.77404E-11         0.00000E+00
    0.15595E-07        -0.78310E-11         0.00000E+00
    0.15777E-07        -0.79119E-11         0.00000E+00
    0.15959E-07        -0.79825E-11         0.00000E+00
    0.16140E-07        -0.80421E-11         0.00000E+00
    0.16321E-07        -0.80901E-11         0.00000E+00
    0.16502E-07        -0.81257E-11         0.00000E+00
    0.16681E-07        -0.81482E-11         0.00000E+00
    0.16860E-07        -0.81568E-11         0.00000E+00
    0.17037E-07        -0.81506E-11         0.00000E+00
    0.17212E-07        -0.81287E-11         0.00000E+00
    0.17386E-07        -0.80902E-11         0.00000E+00
    0.17558E-07        -0.80341E-11         0.00000E+00
    0.17728E-07        -0.79593E-11         0.00000E+00
    0.17895E-07        -0.78646E-11         0.00000E+00
    0.18060E-07        -0.77487E-11         0.00000E+00
    0.18221E-07        -0.76102E-11         0.00000E+00
    0.18380E-07        -0.74473E-11         0.00000E+00
    0.18536E-07        -0.72583E-11         0.00000E+00
    0.18688E-07        -0.70410E-11         0.00000E+00
    0.18837E-07        -0.67930E-11         0.00000E+00
    0.18981E-07        -0.65115E-11         0.00000E+00
    0.19122E-07        -0.61931E-11         0.00000E+00
    0.19258E-07        -0.58341E-11         0.00000E+00
    0.19390E-07        -0.54299E-11         0.00000E+00
    0.19517E-07        -0.49756E-11         0.00000E+00
    0.19639E-07        -0.44651E-11         0.00000E+00
    0.19756E-07        -0.38919E-11         0.00000E+00
    0.19867E-07        -0.32484E-11         0.00000E+00
    0.19974E-07        -0.25265E-11         0.00000E+00
    0.20074E-07        -0.17175E-11         0.00000E+00
    0.20168E-07        -0.81258E-12         0.00000E+00
    0.20256E-07         0.19643E-12         0.00000E+00
    0.20338E-07         0.13162E-11         0.00000E+00
    0.20414E-07         0.25504E-11         0.00000E+00
    0.20482E-07         0.38973E-11         0.00000E+00
    0.20544E-07         0.53464E-11         0.00000E+00
    0.20599E-07         0.68746E-11         0.00000E+00
    0.20647E-07         0.84392E-11         0.00000E+00
    0.20688E-07         0.99703E-11         0.00000E+00
    0.20721E-07         0.11360E-10         0.00000E+00
    0.20747E-07         0.12450E-10         0.00000E+00
    0.20766E-07         0.13016E-10         0.00000E+00
    0.20778E-07         0.12760E-10         0.00000E+00
    0.20784E-07         0.11308E-10         0.00000E+00
    0.20782E-07         0.82333E-11         0.00000E+00
    0.20775E-07         0.31175E-11         0.00000E+00
    0.96401E-08         0.25179E-11         0.00000E+00
    0.96331E-08         0.66686E-11         0.00000E+00
    0.96308E-08         0.92089E-11         0.00000E+00
    0.96335E-08         0.10474E-10         0.00000E+00
    0.96414E-08         0.10803E-10         0.00000E+00
    0.96547E-08         0.10491E-10         0.00000E+00
    0.96734E-08         0.97724E-11         0.00000E+00
    0.96976E-08         0.88217E-11         0.00000E+00
    0.97273E-08         0.77612E-11         0.00000E+00
    0.97624E-08         0.66737E-11         0.00000E+00
    0.98030E-08         0.56118E-11         0.00000E+00
    0.98490E-08         0.46071E-11         0.00000E+00
    0.99003E-08         0.36762E-11         0.00000E+00
    0.99568E-08         0.28257E-11         0.00000E+00
    0.10018E-07         0.20557E-11         0.00000E+00
    0.10085E-07         0.13624E-11         0.00000E+00
    0.10157E-07         0.73972E-12         0.00000E+00
    0.10234E-07         0.18044E-12         0.00000E+00
    0.10315E-07        -0.32286E-12         0.00000E+00
    0.10401E-07        -0.77745E-12         0.00000E+00
    0.10492E-07        -0.11901E-11         0.00000E+00
    0.10587E-07        -0.15669E-11         0.00000E+00
    0.10687E-07        -0.19132E-11         0.00000E+00
    0.10791E-07        -0.22339E-11         0.00000E+00
    0.10899E-07        -0.25328E-11         0.00000E+00
    0.11012E-07        -0.28135E-11         0.00000E+00
    0.11129E-07        -0.30789E-11         0.00000E+00
    0.11249E-07        -0.33313E-11         0.00000E+00
    0.11374E-07        -0.35727E-11         0.00000E+00
    0.11502E-07        -0.38049E-11         0.00000E+00
    0.11634E-07        -0.40290E-11         0.00000E+00
    0.11770E-07        -0.42463E-11         0.00000E+00
    0.11909E-07        -0.44576E-11         0.00000E+00
    0.12052E-07        -0.46635E-11         0.00000E+00
    0.12198E-07        -0.48646E-11         0.00000E+00
    0.12347E-07        -0.50614E-11         0.00000E+00
    0.12499E-07        -0.52539E-11         0.00000E+00
    0.12653E-07        -0.54425E-11         0.00000E+00
    0.12811E-07        -0.56273E-11         0.00000E+00
    0.12971E-07        -0.58082E-11         0.00000E+00
    0.13134E-07        -0.59853E-11         0.00000E+00
    0.13299E-07        -0.61583E-11         0.00000E+00
    0.13467E-07        -0.63272E-11         0.00000E+00
    0.13636E-07        -0.64917E-11         0.00000E+00
    0.13808E-07        -0.66517E-11         0.00000E+00
    0.13981E-07        -0.68067E-11         0.00000E+00
    0.14156E-07        -0.69565E-11         0.00000E+00
    0.14333E-07        -0.71007E-11         0.00000E+00
    0.14510E-07        -0.72389E-11         0.00000E+00
    0.14689E-07        -0.73706E-11         0.00000E+00
    0.14869E-07        -0.74954E-11         0.00000E+00
    0.15050E-07        -0.76128E-11         0.00000E+00
    0.15231E-07        -0.77223E-11         0.00000E+00
    0.15413E-07        -0.78232E-11         0.00000E+00
    0.15595E-07        -0.79150E-11         0.00000E+00
    0.15777E-07        -0.79972E-11         0.00000E+00
    0.15959E-07        -0.80689E-11         0.00000E+00
    0.16140E-07        -0.81297E-11         0.00000E+00
    0.16321E-07        -0.81787E-11         0.00000E+00
    0.16502E-07        -0.82153E-11         0.00000E+00
    0.16681E-07        -0.82386E-11         0.00000E+00
    0.16860E-07        -0.82479E-11         0.00000E+00
    0.17037E-07        -0.82424E-11         0.00000E+00
    0.17212E-07        -0.82211E-11         0.00000E+00
    0.17386E-07        -0.81831E-11         0.00000E+00
    0.17558E-07        -0.81273E-11         0.00000E+00
    0.17728E-07        -0.80528E-11         0.00000E+00
    0.17895E-07        -0.79582E-11         0.00000E+00
    0.18060E-07        -0.78423E-11         0.00000E+00
    0.18221E-07        -0.77036E-11         0.00000E+00
    0.18380E-07        -0.75405E-11         0.00000E+00
    0.18536E-07        -0.73511E-11         0.00000E+00
    0.18688E-07        -0.71333E-11         0.00000E+00
    0.18837E-07        -0.68846E-11         0.00000E+00
    0.18981E-07        -0.66021E-11         0.00000E+00
    0.19122E-07        -0.62825E-11         0.00000E+00
    0.19258E-07        -0.59220E-11         0.00000E+00
    0.19390E-07        -0.55161E-11         0.00000E+00
    0.19517E-07        -0.50594E-11         0.00000E+00
    0.19639E-07        -0.45461E-11         0.00000E+00
    0.19756E-07        -0.39694E-11         0.00000E+00
    0.19868E-07        -0.33215E-11         0.00000E+00
    0.19974E-07        -0.25941E-11         0.00000E+00
    0.20074E-07        -0.17783E-11         0.00000E+00
    0.20168E-07        -0.86499E-12         0.00000E+00
    0.20257E-07         0.15434E-12         0.00000E+00
    0.20339E-07         0.12867E-11         0.00000E+00
    0.20414E-07         0.25362E-11         0.00000E+00
    0.20483E-07         0.39012E-11         0.00000E+00
    0.20545E-07         0.53719E-11         0.00000E+00
    0.20600E-07         0.69248E-11         0.00000E+00
    0.20647E-07         0.85174E-11         0.00000E+00
    0.20688E-07         0.10079E-10         0.00000E+00
    0.20721E-07         0.11500E-10         0.00000E+00
    0.20748E-07         0.12619E-10         0.00000E+00
    0.20767E-07         0.13208E-10         0.00000E+00
    0.20778E-07         0.12961E-10         0.00000E+00
    0.20783E-07         0.11494E-10         0.00000E+00
    0.20781E-07         0.83734E-11         0.00000E+00
    0.20773E-07         0.31714E-11         0.00000E+00
    0.96411E-08         0.25548E-11         0.00000E+00
    0.96338E-08         0.67629E-11         0.00000E+00
    0.96312E-08         0.93309E-11         0.00000E+00
    0.96337E-08         0.10602E-10         0.00000E+00
    0.96414E-08         0.10922E-10         0.00000E+00
    0.96546E-08         0.10593E-10         0.00000E+00
    0.96732E-08         0.98549E-11         0.00000E+00
    0.96974E-08         0.88843E-11         0.00000E+00
    0.97271E-08         0.78056E-11         0.00000E+00
    0.97622E-08         0.67020E-11         0.00000E+00
    0.98028E-08         0.56265E-11         0.00000E+00
    0.98488E-08         0.46105E-11         0.00000E+00
    0.99001E-08         0.36705E-11         0.00000E+00
    0.99566E-08         0.28129E-11         0.00000E+00
    0.10018E-07         0.20375E-11         0.00000E+00
    0.10085E-07         0.13401E-11         0.00000E+00
    0.10157E-07         0.71438E-12         0.00000E+00
    0.10233E-07         0.15294E-12         0.00000E+00
    0.10315E-07        -0.35189E-12         0.00000E+00
    0.10401E-07        -0.80753E-12         0.00000E+00
    0.10492E-07        -0.12209E-11         0.00000E+00
    0.10587E-07        -0.15982E-11         0.00000E+00
    0.10687E-07        -0.19449E-11         0.00000E+00
    0.10791E-07        -0.22658E-11         0.00000E+00
    0.10899E-07        -0.25649E-11         0.00000E+00
    0.11012E-07        -0.28459E-11         0.00000E+00
    0.11129E-07        -0.31115E-11         0.00000E+00
    0.11249E-07        -0.33643E-11         0.00000E+00
    0.11374E-07        -0.36061E-11         0.00000E+00
    0.11502E-07        -0.38387E-11         0.00000E+00
    0.11634E-07        -0.40635E-11         0.00000E+00
    0.11770E-07        -0.42814E-11         0.00000E+00
    0.11909E-07        -0.44933E-11         0.00000E+00
    0.12052E-07        -0.47000E-11         0.00000E+00
    0.12198E-07        -0.49020E-11         0.00000E+00
    0.12346E-07        -0.50995E-11         0.00000E+00
    0.12498E-07        -0.52930E-11         0.00000E+00
    0.12653E-07        -0.54826E-11         0.00000E+00
    0.12811E-07        -0.56684E-11         0.00000E+00
    0.12971E-07        -0.58503E-11         0.00000E+00
    0.13134E-07        -0.60284E-11         0.00000E+00
    0.13299E-07        -0.62026E-11         0.00000E+00
    0.13467E-07        -0.63726E-11         0.00000E+00
    0.13636E-07        -0.65382E-11         0.00000E+00
    0.13808E-07        -0.66993E-11         0.00000E+00
    0.13981E-07        -0.68555E-11         0.00000E+00
    0.14156E-07        -0.70064E-11         0.00000E+00
    0.14333E-07        -0.71518E-11         0.00000E+00
    0.14510E-07        -0.72911E-11         0.00000E+00
    0.14689E-07        -0.74239E-11         0.00000E+00
    0.14869E-07        -0.75499E-11         0.00000E+00
    0.15050E-07        -0.76683E-11         0.00000E+00
    0.15231E-07        -0.77789E-11         0.00000E+00
    0.15413E-07        -0.78808E-11         0.00000E+00
    0.15595E-07        -0.79737E-11         0.00000E+00
    0.15777E-07        -0.80568E-11         0.00000E+00
    0.15959E-07        -0.81296E-11         0.00000E+00
    0.16140E-07        -0.81912E-11         0.00000E+00
    0.16321E-07        -0.82411E-11         0.00000E+00
    0.16502E-07        -0.82785E-11         0.00000E+00
    0.16681E-07        -0.83027E-11         0.00000E+00
    0.16860E-07        -0.83127E-11         0.00000E+00
    0.17037E-07        -0.83079E-11         0.00000E+00
    0.17212E-07        -0.82872E-11         0.00000E+00
    0.17386E-07        -0.82498E-11         0.00000E+00
    0.17558E-07        -0.81946E-11         0.00000E+00
    0.17728E-07        -0.81206E-11         0.00000E+00
    0.17895E-07        -0.80265E-11         0.00000E+00
    0.18060E-07        -0.79110E-11         0.00000E+00
    0.18221E-07        -0.77727E-11         0.00000E+00
    0.18380E-07        -0.76100E-11         0.00000E+00
    0.18536E-07        -0.74208E-11         0.00000E+00
    0.18688E-07        -0.72032E-11         0.00000E+00
    0.18837E-07        -0.69546E-11         0.00000E+00
    0.18981E-07        -0.66722E-11         0.00000E+00
    0.19122E-07        -0.63526E-11         0.00000E+00
    0.19258E-07        -0.59918E-11         0.00000E+00
    0.19390E-07        -0.55854E-11         0.00000E+00
    0.19517E-07        -0.51281E-11         0.00000E+00
    0.19639E-07        -0.46138E-11         0.00000E+00
    0.19756E-07        -0.40355E-11         0.00000E+00
    0.19868E-07        -0.33855E-11         0.00000E+00
    0.19974E-07        -0.26551E-11         0.00000E+00
    0.20074E-07        -0.18353E-11         0.00000E+00
    0.20169E-07        -0.91681E-12         0.00000E+00
    0.20257E-07         0.10936E-12         0.00000E+00
    0.20339E-07         0.12505E-11         0.00000E+00
    0.20414E-07         0.25111E-11         0.00000E+00
    0.20483E-07         0.38899E-11         0.00000E+00
    0.20545E-07         0.53773E-11         0.00000E+00
    0.20600E-07         0.69503E-11         0.00000E+00
    0.20648E-07         0.85663E-11         0.00000E+00
    0.20688E-07         0.10154E-10         0.00000E+00
    0.20722E-07         0.11603E-10         0.00000E+00
    0.20748E-07         0.12750E-10         0.00000E+00
    0.20767E-07         0.13363E-10         0.00000E+00
    0.20778E-07         0.13130E-10         0.00000E+00
    0.20783E-07         0.11657E-10         0.00000E+00
    0.20781E-07         0.84996E-11         0.00000E+00
    0.20772E-07         0.32210E-11         0.00000E+00
    0.96421E-08         0.25880E-11         0.00000E+00
    0.96344E-08         0.68454E-11         0.00000E+00
    0.96316E-08         0.94330E-11         0.00000E+00
    0.96338E-08         0.10703E-10         0.00000E+00
    0.96414E-08         0.11010E-10         0.00000E+00
    0.96545E-08         0.10663E-10         0.00000E+00
    0.96730E-08         0.99061E-11         0.00000E+00
    0.96972E-08         0.89178E-11         0.00000E+00
    0.97268E-08         0.78235E-11         0.00000E+00
    0.97620E-08         0.67070E-11         0.00000E+00
    0.98026E-08         0.56211E-11         0.00000E+00
    0.98486E-08         0.45972E-11         0.00000E+00
    0.98999E-08         0.36513E-11         0.00000E+00
    0.99565E-08         0.27895E-11         0.00000E+00
    0.10018E-07         0.20112E-11         0.00000E+00
    0.10085E-07         0.13121E-11         0.00000E+00
    0.10157E-07         0.68555E-12         0.00000E+00
    0.10233E-07         0.12389E-12         0.00000E+00
    0.10315E-07        -0.38071E-12         0.00000E+00
    0.10401E-07        -0.83582E-12         0.00000E+00
    0.10492E-07        -0.12484E-11         0.00000E+00
    0.10587E-07        -0.16249E-11         0.00000E+00
    0.10687E-07        -0.19707E-11         0.00000E+00
    0.10791E-07        -0.22908E-11         0.00000E+00
    0.10899E-07        -0.25892E-11         0.00000E+00
    0.11012E-07        -0.28695E-11         0.00000E+00
    0.11129E-07        -0.31345E-11         0.00000E+00
    0.11249E-07        -0.33867E-11         0.00000E+00
    0.11374E-07        -0.36282E-11         0.00000E+00
    0.11502E-07        -0.38605E-11         0.00000E+00
    0.11634E-07        -0.40850E-11         0.00000E+00
    0.11770E-07        -0.43028E-11         0.00000E+00
    0.11909E-07        -0.45148E-11         0.00000E+00
    0.12052E-07        -0.47215E-11         0.00000E+00
    0.12198E-07        -0.49236E-11         0.00000E+00
    0.12346E-07        -0.51214E-11         0.00000E+00
    0.12498E-07        -0.53152E-11         0.00000E+00
    0.12653E-07        -0.55051E-11         0.00000E+00
    0.12811E-07        -0.56913E-11         0.00000E+00
    0.12971E-07        -0.58737E-11         0.00000E+00
    0.13134E-07        -0.60523E-11         0.00000E+00
    0.13299E-07        -0.62270E-11         0.00000E+00
    0.13467E-07        -0.63975E-11         0.00000E+00
    0.13636E-07        -0.65638E-11         0.00000E+00
    0.13808E-07        -0.67255E-11         0.00000E+00
    0.13981E-07        -0.68823E-11         0.00000E+00
    0.14156E-07        -0.70339E-11         0.00000E+00
    0.14333E-07        -0.71799E-11         0.00000E+00
    0.14510E-07        -0.73199E-11         0.00000E+00
    0.14689E-07        -0.74535E-11         0.00000E+00
    0.14869E-07        -0.75802E-11         0.00000E+00
    0.15050E-07        -0.76994E-11         0.00000E+00
    0.15231E-07        -0.78106E-11         0.00000E+00
    0.15413E-07        -0.79133E-11         0.00000E+00
    0.15595E-07        -0.80069E-11         0.00000E+00
    0.15777E-07        -0.80908E-11         0.00000E+00
    0.15959E-07        -0.81642E-11         0.00000E+00
    0.16140E-07        -0.82266E-11         0.00000E+00
    0.16321E-07        -0.82772E-11         0.00000E+00
    0.16502E-07        -0.83154E-11         0.00000E+00
    0.16681E-07        -0.83402E-11         0.00000E+00
    0.16860E-07        -0.83510E-11         0.00000E+00
    0.17037E-07        -0.83469E-11         0.00000E+00
    0.17212E-07        -0.83270E-11         0.00000E+00
    0.17386E-07        -0.82903E-11         0.00000E+00
    0.17558E-07        -0.82359E-11         0.00000E+00
    0.17728E-07        -0.81627E-11         0.00000E+00
    0.17895E-07        -0.80694E-11         0.00000E+00
    0.18060E-07        -0.79547E-11         0.00000E+00
    0.18222E-07        -0.78173E-11         0.00000E+00
    0.18380E-07        -0.76554E-11         0.00000E+00
    0.18536E-07        -0.74672E-11         0.00000E+00
    0.18688E-07        -0.72505E-11         0.00000E+00
    0.18837E-07        -0.70029E-11         0.00000E+00
    0.18981E-07        -0.67215E-11         0.00000E+00
    0.19122E-07        -0.64029E-11         0.00000E+00
    0.19258E-07        -0.60432E-11         0.00000E+00
    0.19390E-07        -0.56378E-11         0.00000E+00
    0.19517E-07        -0.51813E-11         0.00000E+00
    0.19639E-07        -0.46677E-11         0.00000E+00
    0.19756E-07        -0.40899E-11         0.00000E+00
    0.19868E-07        -0.34400E-11         0.00000E+00
    0.19974E-07        -0.27092E-11         0.00000E+00
    0.20074E-07        -0.18883E-11         0.00000E+00
    0.20169E-07        -0.96763E-12         0.00000E+00
    0.20257E-07         0.61889E-13         0.00000E+00
    0.20339E-07         0.12080E-11         0.00000E+00
    0.20414E-07         0.24754E-11         0.00000E+00
    0.20483E-07         0.38635E-11         0.00000E+00
    0.20545E-07         0.53630E-11         0.00000E+00
    0.20600E-07         0.69512E-11         0.00000E+00
    0.20648E-07         0.85858E-11         0.00000E+00
    0.20689E-07         0.10196E-10         0.00000E+00
    0.20722E-07         0.11670E-10         0.00000E+00
    0.20748E-07         0.12844E-10         0.00000E+00
    0.20767E-07         0.13482E-10         0.00000E+00
    0.20778E-07         0.13266E-10         0.00000E+00
    0.20782E-07         0.11795E-10         0.00000E+00
    0.20780E-07         0.86116E-11         0.00000E+00
    0.20771E-07         0.32661E-11         0.00000E+00
    0.96432E-08         0.26174E-11         0.00000E+00
    0.96351E-08         0.69159E-11         0.00000E+00
    0.96319E-08         0.95146E-11         0.00000E+00
    0.96340E-08         0.10777E-10         0.00000E+00
    0.96414E-08         0.11067E-10         0.00000E+00
    0.96543E-08         0.10701E-10         0.00000E+00
    0.96728E-08         0.99259E-11         0.00000E+00
    0.96969E-08         0.89219E-11         0.00000E+00
    0.97266E-08         0.78150E-11         0.00000E+00
    0.97618E-08         0.66888E-11         0.00000E+00
    0.98024E-08         0.55960E-11         0.00000E+00
    0.98484E-08         0.45674E-11         0.00000E+00
    0.98997E-08         0.36187E-11         0.00000E+00
    0.99563E-08         0.27556E-11         0.00000E+00
    0.10018E-07         0.19772E-11         0.00000E+00
    0.10085E-07         0.12788E-11         0.00000E+00
    0.10157E-07         0.65350E-12         0.00000E+00
    0.10233E-07         0.93558E-13         0.00000E+00
    0.10315E-07        -0.40907E-12         0.00000E+00
    0.10401E-07        -0.86207E-12         0.00000E+00
    0.10492E-07        -0.12725E-11         0.00000E+00
    0.10587E-07        -0.16469E-11         0.00000E+00
    0.10687E-07        -0.19907E-11         0.00000E+00
    0.10791E-07        -0.23088E-11         0.00000E+00
    0.10899E-07        -0.26055E-11         0.00000E+00
    0.11012E-07        -0.28841E-11         0.00000E+00
    0.11129E-07        -0.31476E-11         0.00000E+00
    0.11249E-07        -0.33985E-11         0.00000E+00
    0.11374E-07        -0.36387E-11         0.00000E+00
    0.11502E-07        -0.38700E-11         0.00000E+00
    0.11634E-07        -0.40936E-11         0.00000E+00
    0.11770E-07        -0.43106E-11         0.00000E+00
    0.11909E-07        -0.45218E-11         0.00000E+00
    0.12052E-07        -0.47280E-11         0.00000E+00
    0.12197E-07        -0.49296E-11         0.00000E+00
    0.12346E-07        -0.51270E-11         0.00000E+00
    0.12498E-07        -0.53204E-11         0.00000E+00
    0.12653E-07        -0.55101E-11         0.00000E+00
    0.12811E-07        -0.56960E-11         0.00000E+00
    0.12971E-07        -0.58783E-11         0.00000E+00
    0.13134E-07        -0.60568E-11         0.00000E+00
    0.13299E-07        -0.62315E-11         0.00000E+00
    0.13467E-07        -0.64021E-11         0.00000E+00
    0.13636E-07        -0.65684E-11         0.00000E+00
    0.13808E-07        -0.67302E-11         0.00000E+00
    0.13981E-07        -0.68872E-11         0.00000E+00
    0.14156E-07        -0.70390E-11         0.00000E+00
    0.14332E-07        -0.71852E-11         0.00000E+00
    0.14510E-07        -0.73255E-11         0.00000E+00
    0.14689E-07        -0.74593E-11         0.00000E+00
    0.14869E-07        -0.75863E-11         0.00000E+00
    0.15050E-07        -0.77058E-11         0.00000E+00
    0.15231E-07        -0.78174E-11         0.00000E+00
    0.15413E-07        -0.79205E-11         0.00000E+00
    0.15595E-07        -0.80146E-11         0.00000E+00
    0.15777E-07        -0.80989E-11         0.00000E+00
    0.15959E-07        -0.81728E-11         0.00000E+00
    0.16140E-07        -0.82358E-11         0.00000E+00
    0.16321E-07        -0.82870E-11         0.00000E+00
    0.16502E-07        -0.83257E-11         0.00000E+00
    0.16681E-07        -0.83513E-11         0.00000E+00
    0.16860E-07        -0.83628E-11         0.00000E+00
    0.17037E-07        -0.83594E-11         0.00000E+00
    0.17212E-07        -0.83403E-11         0.00000E+00
    0.17386E-07        -0.83045E-11         0.00000E+00
    0.17558E-07        -0.82511E-11         0.00000E+00
    0.17728E-07        -0.81788E-11         0.00000E+00
    0.17895E-07        -0.80867E-11         0.00000E+00
    0.18060E-07        -0.79732E-11         0.00000E+00
    0.18222E-07        -0.78371E-11         0.00000E+00
    0.18380E-07        -0.76766E-11         0.00000E+00
    0.18536E-07        -0.74900E-11         0.00000E+00
    0.18688E-07        -0.72750E-11         0.00000E+00
    0.18837E-07        -0.70292E-11         0.00000E+00
    0.18982E-07        -0.67498E-11         0.00000E+00
    0.19122E-07        -0.64333E-11         0.00000E+00
    0.19258E-07        -0.60758E-11         0.00000E+00
    0.19390E-07        -0.56727E-11         0.00000E+00
    0.19517E-07        -0.52187E-11         0.00000E+00
    0.19639E-07        -0.47076E-11         0.00000E+00
    0.19756E-07        -0.41322E-11         0.00000E+00
    0.19868E-07        -0.34846E-11         0.00000E+00
    0.19974E-07        -0.27559E-11         0.00000E+00
    0.20075E-07        -0.19366E-11         0.00000E+00
    0.20169E-07        -0.10170E-11         0.00000E+00
    0.20257E-07         0.12337E-13         0.00000E+00
    0.20339E-07         0.11595E-11         0.00000E+00
    0.20415E-07         0.24295E-11         0.00000E+00
    0.20484E-07         0.38223E-11         0.00000E+00
    0.20546E-07         0.53290E-11         0.00000E+00
    0.20601E-07         0.69275E-11         0.00000E+00
    0.20648E-07         0.85760E-11         0.00000E+00
    0.20689E-07         0.10204E-10         0.00000E+00
    0.20722E-07         0.11700E-10         0.00000E+00
    0.20748E-07         0.12899E-10         0.00000E+00
    0.20767E-07         0.13563E-10         0.00000E+00
    0.20778E-07         0.13370E-10         0.00000E+00
    0.20782E-07         0.11909E-10         0.00000E+00
    0.20779E-07         0.87091E-11         0.00000E+00
    0.20769E-07         0.33067E-11         0.00000E+00
    0.96442E-08         0.26430E-11         0.00000E+00
    0.96358E-08         0.69740E-11         0.00000E+00
    0.96323E-08         0.95752E-11         0.00000E+00
    0.96341E-08         0.10823E-10         0.00000E+00
    0.96414E-08         0.11093E-10         0.00000E+00
    0.96542E-08         0.10707E-10         0.00000E+00
    0.96727E-08         0.99139E-11         0.00000E+00
    0.96967E-08         0.88965E-11         0.00000E+00
    0.97264E-08         0.77800E-11         0.00000E+00
    0.97615E-08         0.66476E-11         0.00000E+00
    0.98022E-08         0.55513E-11         0.00000E+00
    0.98482E-08         0.45214E-11         0.00000E+00
    0.98996E-08         0.35731E-11         0.00000E+00
    0.99561E-08         0.27116E-11         0.00000E+00
    0.10018E-07         0.19356E-11         0.00000E+00
    0.10085E-07         0.12403E-11         0.00000E+00
    0.10156E-07         0.61854E-12         0.00000E+00
    0.10233E-07         0.62238E-13         0.00000E+00
    0.10315E-07        -0.43669E-12         0.00000E+00
    0.10401E-07        -0.88603E-12         0.00000E+00
    0.10492E-07        -0.12930E-11         0.00000E+00
    0.10587E-07        -0.16639E-11         0.00000E+00
    0.10687E-07        -0.20045E-11         0.00000E+00
    0.10791E-07        -0.23197E-11         0.00000E+00
    0.10899E-07        -0.26135E-11         0.00000E+00
    0.11012E-07        -0.28896E-11         0.00000E+00
    0.11129E-07        -0.31507E-11         0.00000E+00
    0.11249E-07        -0.33995E-11         0.00000E+00
    0.11374E-07        -0.36377E-11         0.00000E+00
    0.11502E-07        -0.38672E-11         0.00000E+00
    0.11634E-07        -0.40891E-11         0.00000E+00
    0.11770E-07        -0.43046E-11         0.00000E+00
    0.11909E-07        -0.45144E-11         0.00000E+00
    0.12052E-07        -0.47193E-11         0.00000E+00
    0.12197E-07        -0.49198E-11         0.00000E+00
    0.12346E-07        -0.51161E-11         0.00000E+00
    0.12498E-07        -0.53086E-11         0.00000E+00
    0.12653E-07        -0.54974E-11         0.00000E+00
    0.12811E-07        -0.56826E-11         0.00000E+00
    0.12971E-07        -0.58641E-11         0.00000E+00
    0.13134E-07        -0.60420E-11         0.00000E+00
    0.13299E-07        -0.62161E-11         0.00000E+00
    0.13467E-07        -0.63861E-11         0.00000E+00
    0.13636E-07        -0.65520E-11         0.00000E+00
    0.13808E-07        -0.67134E-11         0.00000E+00
    0.13981E-07        -0.68700E-11         0.00000E+00
    0.14156E-07        -0.70215E-11         0.00000E+00
    0.14332E-07        -0.71675E-11         0.00000E+00
    0.14510E-07        -0.73075E-11         0.00000E+00
    0.14689E-07        -0.74412E-11         0.00000E+00
    0.14869E-07        -0.75681E-11         0.00000E+00
    0.15050E-07        -0.76876E-11         0.00000E+00
    0.15231E-07        -0.77993E-11         0.00000E+00
    0.15413E-07        -0.79024E-11         0.00000E+00
    0.15595E-07        -0.79966E-11         0.00000E+00
    0.15777E-07        -0.80811E-11         0.00000E+00
    0.15959E-07        -0.81554E-11         0.00000E+00
    0.16140E-07        -0.82186E-11         0.00000E+00
    0.16321E-07        -0.82703E-11         0.00000E+00
    0.16502E-07        -0.83095E-11         0.00000E+00
    0.16681E-07        -0.83356E-11         0.00000E+00
    0.16860E-07        -0.83478E-11         0.00000E+00
    0.17037E-07        -0.83452E-11         0.00000E+00
    0.17212E-07        -0.83270E-11         0.00000E+00
    0.17386E-07        -0.82922E-11         0.00000E+00
    0.17558E-07        -0.82399E-11         0.00000E+00
    0.17728E-07        -0.81689E-11         0.00000E+00
    0.17895E-07        -0.80782E-11         0.00000E+00
    0.18060E-07        -0.79663E-11         0.00000E+00
    0.18222E-07        -0.78320E-11         0.00000E+00
    0.18380E-07        -0.76735E-11         0.00000E+00
    0.18536E-07        -0.74890E-11         0.00000E+00
    0.18688E-07        -0.72764E-11         0.00000E+00
    0.18837E-07        -0.70332E-11         0.00000E+00
    0.18982E-07        -0.67567E-11         0.00000E+00
    0.19122E-07        -0.64434E-11         0.00000E+00
    0.19258E-07        -0.60893E-11         0.00000E+00
    0.19390E-07        -0.56900E-11         0.00000E+00
    0.19517E-07        -0.52399E-11         0.00000E+00
    0.19639E-07        -0.47330E-11         0.00000E+00
    0.19756E-07        -0.41620E-11         0.00000E+00
    0.19868E-07        -0.35189E-11         0.00000E+00
    0.19974E-07        -0.27948E-11         0.00000E+00
    0.20075E-07        -0.19800E-11         0.00000E+00
    0.20169E-07        -0.10645E-11         0.00000E+00
    0.20257E-07        -0.38845E-13         0.00000E+00
    0.20339E-07         0.11055E-11         0.00000E+00
    0.20415E-07         0.23739E-11         0.00000E+00
    0.20484E-07         0.37667E-11         0.00000E+00
    0.20546E-07         0.52757E-11         0.00000E+00
    0.20601E-07         0.68795E-11         0.00000E+00
    0.20649E-07         0.85368E-11         0.00000E+00
    0.20689E-07         0.10178E-10         0.00000E+00
    0.20723E-07         0.11692E-10         0.00000E+00
    0.20748E-07         0.12914E-10         0.00000E+00
    0.20767E-07         0.13606E-10         0.00000E+00
    0.20778E-07         0.13439E-10         0.00000E+00
    0.20781E-07         0.11996E-10         0.00000E+00
    0.20778E-07         0.87915E-11         0.00000E+00
    0.20768E-07         0.33426E-11         0.00000E+00
    0.96453E-08         0.26645E-11         0.00000E+00
    0.96364E-08         0.70194E-11         0.00000E+00
    0.96327E-08         0.96142E-11         0.00000E+00
    0.96342E-08         0.10841E-10         0.00000E+00
    0.96413E-08         0.11087E-10         0.00000E+00
    0.96541E-08         0.10679E-10         0.00000E+00
    0.96725E-08         0.98699E-11         0.00000E+00
    0.96965E-08         0.88415E-11         0.00000E+00
    0.97261E-08         0.77187E-11         0.00000E+00
    0.97613E-08         0.65835E-11         0.00000E+00
    0.98020E-08         0.54873E-11         0.00000E+00
    0.98480E-08         0.44595E-11         0.00000E+00
    0.98994E-08         0.35147E-11         0.00000E+00
    0.99560E-08         0.26577E-11         0.00000E+00
    0.10018E-07         0.18870E-11         0.00000E+00
    0.10085E-07         0.11972E-11         0.00000E+00
    0.10156E-07         0.58097E-12         0.00000E+00
    0.10233E-07         0.30230E-13         0.00000E+00
    0.10314E-07        -0.46328E-12         0.00000E+00
    0.10401E-07        -0.90744E-12         0.00000E+00
    0.10491E-07        -0.13094E-11         0.00000E+00
    0.10587E-07        -0.16758E-11         0.00000E+00
    0.10687E-07        -0.20120E-11         0.00000E+00
    0.10791E-07        -0.23232E-11         0.00000E+00
    0.10899E-07        -0.26133E-11         0.00000E+00
    0.11012E-07        -0.28858E-11         0.00000E+00
    0.11128E-07        -0.31438E-11         0.00000E+00
    0.11249E-07        -0.33895E-11         0.00000E+00
    0.11374E-07        -0.36250E-11         0.00000E+00
    0.11502E-07        -0.38519E-11         0.00000E+00
    0.11634E-07        -0.40715E-11         0.00000E+00
    0.11770E-07        -0.42847E-11         0.00000E+00
    0.11909E-07        -0.44925E-11         0.00000E+00
    0.12052E-07        -0.46955E-11         0.00000E+00
    0.12197E-07        -0.48942E-11         0.00000E+00
    0.12346E-07        -0.50888E-11         0.00000E+00
    0.12498E-07        -0.52797E-11         0.00000E+00
    0.12653E-07        -0.54671E-11         0.00000E+00
    0.12811E-07        -0.56508E-11         0.00000E+00
    0.12971E-07        -0.58311E-11         0.00000E+00
    0.13134E-07        -0.60077E-11         0.00000E+00
    0.13299E-07        -0.61807E-11         0.00000E+00
    0.13467E-07        -0.63497E-11         0.00000E+00
    0.13636E-07        -0.65145E-11         0.00000E+00
    0.13808E-07        -0.66750E-11         0.00000E+00
    0.13981E-07        -0.68307E-11         0.00000E+00
    0.14156E-07        -0.69814E-11         0.00000E+00
    0.14332E-07        -0.71267E-11         0.00000E+00
    0.14510E-07        -0.72661E-11         0.00000E+00
    0.14689E-07        -0.73992E-11         0.00000E+00
    0.14869E-07        -0.75256E-11         0.00000E+00
    0.15050E-07        -0.76447E-11         0.00000E+00
    0.15231E-07        -0.77560E-11         0.00000E+00
    0.15413E-07        -0.78590E-11         0.00000E+00
    0.15595E-07        -0.79530E-11         0.00000E+00
    0.15777E-07        -0.80374E-11         0.00000E+00
    0.15959E-07        -0.81117E-11         0.00000E+00
    0.16140E-07        -0.81751E-11         0.00000E+00
    0.16321E-07        -0.82270E-11         0.00000E+00
    0.16502E-07        -0.82666E-11         0.00000E+00
    0.16681E-07        -0.82932E-11         0.00000E+00
    0.16860E-07        -0.83060E-11         0.00000E+00
    0.17037E-07        -0.83042E-11         0.00000E+00
    0.17212E-07        -0.82869E-11         0.00000E+00
    0.17386E-07        -0.82533E-11         0.00000E+00
    0.17558E-07        -0.82022E-11         0.00000E+00
    0.17728E-07        -0.81328E-11         0.00000E+00
    0.17895E-07        -0.80437E-11         0.00000E+00
    0.18060E-07        -0.79338E-11         0.00000E+00
    0.18222E-07        -0.78017E-11         0.00000E+00
    0.18381E-07        -0.76457E-11         0.00000E+00
    0.18536E-07        -0.74639E-11         0.00000E+00
    0.18688E-07        -0.72545E-11         0.00000E+00
    0.18837E-07        -0.70148E-11         0.00000E+00
    0.18982E-07        -0.67420E-11         0.00000E+00
    0.19122E-07        -0.64329E-11         0.00000E+00
    0.19259E-07        -0.60834E-11         0.00000E+00
    0.19390E-07        -0.56891E-11         0.00000E+00
    0.19517E-07        -0.52445E-11         0.00000E+00
    0.19640E-07        -0.47435E-11         0.00000E+00
    0.19757E-07        -0.41789E-11         0.00000E+00
    0.19868E-07        -0.35425E-11         0.00000E+00
    0.19974E-07        -0.28254E-11         0.00000E+00
    0.20075E-07        -0.20178E-11         0.00000E+00
    0.20169E-07        -0.11097E-11         0.00000E+00
    0.20258E-07        -0.91173E-13         0.00000E+00
    0.20340E-07         0.10464E-11         0.00000E+00
    0.20415E-07         0.23089E-11         0.00000E+00
    0.20484E-07         0.36971E-11         0.00000E+00
    0.20546E-07         0.52034E-11         0.00000E+00
    0.20601E-07         0.68072E-11         0.00000E+00
    0.20649E-07         0.84682E-11         0.00000E+00
    0.20690E-07         0.10118E-10         0.00000E+00
    0.20723E-07         0.11647E-10         0.00000E+00
    0.20749E-07         0.12890E-10         0.00000E+00
    0.20767E-07         0.13609E-10         0.00000E+00
    0.20778E-07         0.13474E-10         0.00000E+00
    0.20781E-07         0.12057E-10         0.00000E+00
    0.20777E-07         0.88584E-11         0.00000E+00
    0.20767E-07         0.33737E-11         0.00000E+00
    0.96463E-08         0.26819E-11         0.00000E+00
    0.96371E-08         0.70514E-11         0.00000E+00
    0.96330E-08         0.96306E-11         0.00000E+00
    0.96344E-08         0.10830E-10         0.00000E+00
    0.96413E-08         0.11047E-10         0.00000E+00
    0.96539E-08         0.10618E-10         0.00000E+00
    0.96723E-08         0.97936E-11         0.00000E+00
    0.96963E-08         0.87568E-11         0.00000E+00
    0.97259E-08         0.76309E-11         0.00000E+00
    0.97611E-08         0.64966E-11         0.00000E+00
    0.98018E-08         0.54041E-11         0.00000E+00
    0.98478E-08         0.43819E-11         0.00000E+00
    0.98992E-08         0.34439E-11         0.00000E+00
    0.99558E-08         0.25945E-11         0.00000E+00
    0.10018E-07         0.18316E-11         0.00000E+00
    0.10084E-07         0.11496E-11         0.00000E+00
    0.10156E-07         0.54114E-12         0.00000E+00
    0.10233E-07        -0.21485E-14         0.00000E+00
    0.10314E-07        -0.48857E-12         0.00000E+00
    0.10401E-07        -0.92602E-12         0.00000E+00
    0.10491E-07        -0.13217E-11         0.00000E+00
    0.10587E-07        -0.16822E-11         0.00000E+00
    0.10687E-07        -0.20130E-11         0.00000E+00
    0.10791E-07        -0.23191E-11         0.00000E+00
    0.10899E-07        -0.26045E-11         0.00000E+00
    0.11012E-07        -0.28727E-11         0.00000E+00
    0.11128E-07        -0.31266E-11         0.00000E+00
    0.11249E-07        -0.33686E-11         0.00000E+00
    0.11374E-07        -0.36005E-11         0.00000E+00
    0.11502E-07        -0.38241E-11         0.00000E+00
    0.11634E-07        -0.40406E-11         0.00000E+00
    0.11770E-07        -0.42510E-11         0.00000E+00
    0.11909E-07        -0.44561E-11         0.00000E+00
    0.12052E-07        -0.46565E-11         0.00000E+00
    0.12197E-07        -0.48527E-11         0.00000E+00
    0.12346E-07        -0.50450E-11         0.00000E+00
    0.12498E-07        -0.52338E-11         0.00000E+00
    0.12653E-07        -0.54190E-11         0.00000E+00
    0.12811E-07        -0.56008E-11         0.00000E+00
    0.12971E-07        -0.57792E-11         0.00000E+00
    0.13134E-07        -0.59540E-11         0.00000E+00
    0.13299E-07        -0.61252E-11         0.00000E+00
    0.13467E-07        -0.62926E-11         0.00000E+00
    0.13636E-07        -0.64559E-11         0.00000E+00
    0.13808E-07        -0.66150E-11         0.00000E+00
    0.13981E-07        -0.67693E-11         0.00000E+00
    0.14156E-07        -0.69188E-11         0.00000E+00
    0.14332E-07        -0.70628E-11         0.00000E+00
    0.14510E-07        -0.72012E-11         0.00000E+00
    0.14689E-07        -0.73333E-11         0.00000E+00
    0.14869E-07        -0.74588E-11         0.00000E+00
    0.15050E-07        -0.75771E-11         0.00000E+00
    0.15231E-07        -0.76877E-11         0.00000E+00
    0.15413E-07        -0.77900E-11         0.00000E+00
    0.15595E-07        -0.78836E-11         0.00000E+00
    0.15777E-07        -0.79677E-11         0.00000E+00
    0.15959E-07        -0.80417E-11         0.00000E+00
    0.16140E-07        -0.81051E-11         0.00000E+00
    0.16321E-07        -0.81570E-11         0.00000E+00
    0.16502E-07        -0.81969E-11         0.00000E+00
    0.16681E-07        -0.82239E-11         0.00000E+00
    0.16860E-07        -0.82373E-11         0.00000E+00
    0.17037E-07        -0.82363E-11         0.00000E+00
    0.17212E-07        -0.82200E-11         0.00000E+00
    0.17386E-07        -0.81876E-11         0.00000E+00
    0.17558E-07        -0.81380E-11         0.00000E+00
    0.17728E-07        -0.80702E-11         0.00000E+00
    0.17895E-07        -0.79832E-11         0.00000E+00
    0.18060E-07        -0.78756E-11         0.00000E+00
    0.18222E-07        -0.77461E-11         0.00000E+00
    0.18381E-07        -0.75930E-11         0.00000E+00
    0.18536E-07        -0.74147E-11         0.00000E+00
    0.18688E-07        -0.72090E-11         0.00000E+00
    0.18837E-07        -0.69735E-11         0.00000E+00
    0.18982E-07        -0.67054E-11         0.00000E+00
    0.19122E-07        -0.64015E-11         0.00000E+00
    0.19259E-07        -0.60578E-11         0.00000E+00
    0.19390E-07        -0.56698E-11         0.00000E+00
    0.19518E-07        -0.52322E-11         0.00000E+00
    0.19640E-07        -0.47388E-11         0.00000E+00
    0.19757E-07        -0.41824E-11         0.00000E+00
    0.19868E-07        -0.35548E-11         0.00000E+00
    0.19975E-07        -0.28472E-11         0.00000E+00
    0.20075E-07        -0.20497E-11         0.00000E+00
    0.20170E-07        -0.11520E-11         0.00000E+00
    0.20258E-07        -0.14413E-12         0.00000E+00
    0.20340E-07         0.98279E-12         0.00000E+00
    0.20416E-07         0.22350E-11         0.00000E+00
    0.20484E-07         0.36138E-11         0.00000E+00
    0.20546E-07         0.51123E-11         0.00000E+00
    0.20602E-07         0.67109E-11         0.00000E+00
    0.20649E-07         0.83704E-11         0.00000E+00
    0.20690E-07         0.10024E-10         0.00000E+00
    0.20723E-07         0.11563E-10         0.00000E+00
    0.20749E-07         0.12826E-10         0.00000E+00
    0.20767E-07         0.13573E-10         0.00000E+00
    0.20777E-07         0.13473E-10         0.00000E+00
    0.20781E-07         0.12091E-10         0.00000E+00
    0.20776E-07         0.89088E-11         0.00000E+00
    0.20765E-07         0.33996E-11         0.00000E+00
    0.96474E-08         0.26947E-11         0.00000E+00
    0.96378E-08         0.70693E-11         0.00000E+00
    0.96334E-08         0.96236E-11         0.00000E+00
    0.96345E-08         0.10788E-10         0.00000E+00
    0.96413E-08         0.10974E-10         0.00000E+00
    0.96538E-08         0.10522E-10         0.00000E+00
    0.96721E-08         0.96846E-11         0.00000E+00
    0.96961E-08         0.86424E-11         0.00000E+00
    0.97257E-08         0.75168E-11         0.00000E+00
    0.97609E-08         0.63871E-11         0.00000E+00
    0.98015E-08         0.53020E-11         0.00000E+00
    0.98476E-08         0.42890E-11         0.00000E+00
    0.98990E-08         0.33611E-11         0.00000E+00
    0.99557E-08         0.25221E-11         0.00000E+00
    0.10017E-07         0.17697E-11         0.00000E+00
    0.10084E-07         0.10980E-11         0.00000E+00
    0.10156E-07         0.49940E-12         0.00000E+00
    0.10233E-07        -0.34563E-13         0.00000E+00
    0.10314E-07        -0.51222E-12         0.00000E+00
    0.10400E-07        -0.94149E-12         0.00000E+00
    0.10491E-07        -0.13296E-11         0.00000E+00
    0.10587E-07        -0.16830E-11         0.00000E+00
    0.10686E-07        -0.20073E-11         0.00000E+00
    0.10791E-07        -0.23073E-11         0.00000E+00
    0.10899E-07        -0.25871E-11         0.00000E+00
    0.11012E-07        -0.28500E-11         0.00000E+00
    0.11128E-07        -0.30990E-11         0.00000E+00
    0.11249E-07        -0.33364E-11         0.00000E+00
    0.11374E-07        -0.35642E-11         0.00000E+00
    0.11502E-07        -0.37837E-11         0.00000E+00
    0.11634E-07        -0.39964E-11         0.00000E+00
    0.11770E-07        -0.42032E-11         0.00000E+00
    0.11909E-07        -0.44049E-11         0.00000E+00
    0.12052E-07        -0.46021E-11         0.00000E+00
    0.12197E-07        -0.47952E-11         0.00000E+00
    0.12346E-07        -0.49847E-11         0.00000E+00
    0.12498E-07        -0.51706E-11         0.00000E+00
    0.12653E-07        -0.53531E-11         0.00000E+00
    0.12811E-07        -0.55324E-11         0.00000E+00
    0.12971E-07        -0.57083E-11         0.00000E+00
    0.13134E-07        -0.58808E-11         0.00000E+00
    0.13299E-07        -0.60497E-11         0.00000E+00
    0.13467E-07        -0.62150E-11         0.00000E+00
    0.13636E-07        -0.63762E-11         0.00000E+00
    0.13808E-07        -0.65333E-11         0.00000E+00
    0.13981E-07        -0.66858E-11         0.00000E+00
    0.14156E-07        -0.68334E-11         0.00000E+00
    0.14332E-07        -0.69759E-11         0.00000E+00
    0.14510E-07        -0.71126E-11         0.00000E+00
    0.14689E-07        -0.72433E-11         0.00000E+00
    0.14869E-07        -0.73675E-11         0.00000E+00
    0.15050E-07        -0.74846E-11         0.00000E+00
    0.15231E-07        -0.75941E-11         0.00000E+00
    0.15413E-07        -0.76955E-11         0.00000E+00
    0.15595E-07        -0.77883E-11         0.00000E+00
    0.15777E-07        -0.78718E-11         0.00000E+00
    0.15959E-07        -0.79454E-11         0.00000E+00
    0.16140E-07        -0.80084E-11         0.00000E+00
    0.16321E-07        -0.80603E-11         0.00000E+00
    0.16502E-07        -0.81003E-11         0.00000E+00
    0.16681E-07        -0.81276E-11         0.00000E+00
    0.16860E-07        -0.81415E-11         0.00000E+00
    0.17037E-07        -0.81413E-11         0.00000E+00
    0.17212E-07        -0.81261E-11         0.00000E+00
    0.17386E-07        -0.80949E-11         0.00000E+00
    0.17558E-07        -0.80470E-11         0.00000E+00
    0.17728E-07        -0.79812E-11         0.00000E+00
    0.17895E-07        -0.78964E-11         0.00000E+00
    0.18060E-07        -0.77914E-11         0.00000E+00
    0.18222E-07        -0.76649E-11         0.00000E+00
    0.18381E-07        -0.75153E-11         0.00000E+00
    0.18536E-07        -0.73409E-11         0.00000E+00
    0.18688E-07        -0.71396E-11         0.00000E+00
    0.18837E-07        -0.69091E-11         0.00000E+00
    0.18982E-07        -0.66466E-11         0.00000E+00
    0.19122E-07        -0.63489E-11         0.00000E+00
    0.19259E-07        -0.60121E-11         0.00000E+00
    0.19391E-07        -0.56317E-11         0.00000E+00
    0.19518E-07        -0.52025E-11         0.00000E+00
    0.19640E-07        -0.47183E-11         0.00000E+00
    0.19757E-07        -0.41720E-11         0.00000E+00
    0.19869E-07        -0.35555E-11         0.00000E+00
    0.19975E-07        -0.28598E-11         0.00000E+00
    0.20075E-07        -0.20750E-11         0.00000E+00
    0.20170E-07        -0.11908E-11         0.00000E+00
    0.20258E-07        -0.19716E-12         0.00000E+00
    0.20340E-07         0.91518E-12         0.00000E+00
    0.20416E-07         0.21528E-11         0.00000E+00
    0.20485E-07         0.35174E-11         0.00000E+00
    0.20547E-07         0.50030E-11         0.00000E+00
    0.20602E-07         0.65908E-11         0.00000E+00
    0.20650E-07         0.82433E-11         0.00000E+00
    0.20690E-07         0.98949E-11         0.00000E+00
    0.20723E-07         0.11441E-10         0.00000E+00
    0.20749E-07         0.12719E-10         0.00000E+00
    0.20767E-07         0.13495E-10         0.00000E+00
    0.20777E-07         0.13434E-10         0.00000E+00
    0.20780E-07         0.12095E-10         0.00000E+00
    0.20776E-07         0.89418E-11         0.00000E+00
    0.20764E-07         0.34201E-11         0.00000E+00
    0.96485E-08         0.27028E-11         0.00000E+00
    0.96385E-08         0.70722E-11         0.00000E+00
    0.96337E-08         0.95917E-11         0.00000E+00
    0.96346E-08         0.10715E-10         0.00000E+00
    0.96412E-08         0.10866E-10         0.00000E+00
    0.96537E-08         0.10391E-10         0.00000E+00
    0.96719E-08         0.95427E-11         0.00000E+00
    0.96958E-08         0.84980E-11         0.00000E+00
    0.97255E-08         0.73766E-11         0.00000E+00
    0.97607E-08         0.62554E-11         0.00000E+00
    0.98013E-08         0.51815E-11         0.00000E+00
    0.98474E-08         0.41811E-11         0.00000E+00
    0.98989E-08         0.32667E-11         0.00000E+00
    0.99555E-08         0.24412E-11         0.00000E+00
    0.10017E-07         0.17019E-11         0.00000E+00
    0.10084E-07         0.10428E-11         0.00000E+00
    0.10156E-07         0.45612E-12         0.00000E+00
    0.10233E-07        -0.66664E-13         0.00000E+00
    0.10314E-07        -0.53392E-12         0.00000E+00
    0.10400E-07        -0.95355E-12         0.00000E+00
    0.10491E-07        -0.13328E-11         0.00000E+00
    0.10587E-07        -0.16779E-11         0.00000E+00
    0.10686E-07        -0.19946E-11         0.00000E+00
    0.10791E-07        -0.22875E-11         0.00000E+00
    0.10899E-07        -0.25607E-11         0.00000E+00
    0.11012E-07        -0.28176E-11         0.00000E+00
    0.11128E-07        -0.30610E-11         0.00000E+00
    0.11249E-07        -0.32930E-11         0.00000E+00
    0.11374E-07        -0.35157E-11         0.00000E+00
    0.11502E-07        -0.37306E-11         0.00000E+00
    0.11634E-07        -0.39388E-11         0.00000E+00
    0.11770E-07        -0.41414E-11         0.00000E+00
    0.11909E-07        -0.43390E-11         0.00000E+00
    0.12051E-07        -0.45324E-11         0.00000E+00
    0.12197E-07        -0.47218E-11         0.00000E+00
    0.12346E-07        -0.49077E-11         0.00000E+00
    0.12498E-07        -0.50902E-11         0.00000E+00
    0.12653E-07        -0.52695E-11         0.00000E+00
    0.12811E-07        -0.54456E-11         0.00000E+00
    0.12971E-07        -0.56184E-11         0.00000E+00
    0.13134E-07        -0.57880E-11         0.00000E+00
    0.13299E-07        -0.59541E-11         0.00000E+00
    0.13467E-07        -0.61166E-11         0.00000E+00
    0.13636E-07        -0.62753E-11         0.00000E+00
    0.13808E-07        -0.64299E-11         0.00000E+00
    0.13981E-07        -0.65800E-11         0.00000E+00
    0.14156E-07        -0.67254E-11         0.00000E+00
    0.14332E-07        -0.68657E-11         0.00000E+00
    0.14510E-07        -0.70004E-11         0.00000E+00
    0.14689E-07        -0.71293E-11         0.00000E+00
    0.14869E-07        -0.72517E-11         0.00000E+00
    0.15050E-07        -0.73672E-11         0.00000E+00
    0.15231E-07        -0.74753E-11         0.00000E+00
    0.15413E-07        -0.75754E-11         0.00000E+00
    0.15595E-07        -0.76671E-11         0.00000E+00
    0.15777E-07        -0.77497E-11         0.00000E+00
    0.15959E-07        -0.78226E-11         0.00000E+00
    0.16140E-07        -0.78851E-11         0.00000E+00
    0.16321E-07        -0.79367E-11         0.00000E+00
    0.16502E-07        -0.79766E-11         0.00000E+00
    0.16681E-07        -0.80042E-11         0.00000E+00
    0.16860E-07        -0.80186E-11         0.00000E+00
    0.17037E-07        -0.80191E-11         0.00000E+00
    0.17212E-07        -0.80050E-11         0.00000E+00
    0.17386E-07        -0.79752E-11         0.00000E+00
    0.17558E-07        -0.79290E-11         0.00000E+00
    0.17728E-07        -0.78653E-11         0.00000E+00
    0.17895E-07        -0.77831E-11         0.00000E+00
    0.18060E-07        -0.76811E-11         0.00000E+00
    0.18222E-07        -0.75580E-11         0.00000E+00
    0.18381E-07        -0.74124E-11         0.00000E+00
    0.18536E-07        -0.72424E-11         0.00000E+00
    0.18689E-07        -0.70462E-11         0.00000E+00
    0.18837E-07        -0.68214E-11         0.00000E+00
    0.18982E-07        -0.65653E-11         0.00000E+00
    0.19122E-07        -0.62748E-11         0.00000E+00
    0.19259E-07        -0.59460E-11         0.00000E+00
    0.19391E-07        -0.55745E-11         0.00000E+00
    0.19518E-07        -0.51551E-11         0.00000E+00
    0.19640E-07        -0.46818E-11         0.00000E+00
    0.19757E-07        -0.41474E-11         0.00000E+00
    0.19869E-07        -0.35440E-11         0.00000E+00
    0.19975E-07        -0.28625E-11         0.00000E+00
    0.20075E-07        -0.20932E-11         0.00000E+00
    0.20170E-07        -0.12257E-11         0.00000E+00
    0.20258E-07        -0.24966E-12         0.00000E+00
    0.20340E-07         0.84416E-12         0.00000E+00
    0.20416E-07         0.20627E-11         0.00000E+00
    0.20485E-07         0.34084E-11         0.00000E+00
    0.20547E-07         0.48758E-11         0.00000E+00
    0.20602E-07         0.64474E-11         0.00000E+00
    0.20650E-07         0.80871E-11         0.00000E+00
    0.20691E-07         0.97318E-11         0.00000E+00
    0.20724E-07         0.11279E-10         0.00000E+00
    0.20749E-07         0.12571E-10         0.00000E+00
    0.20767E-07         0.13374E-10         0.00000E+00
    0.20777E-07         0.13357E-10         0.00000E+00
    0.20780E-07         0.12069E-10         0.00000E+00
    0.20775E-07         0.89563E-11         0.00000E+00
    0.20763E-07         0.34347E-11         0.00000E+00
    0.96496E-08         0.27058E-11         0.00000E+00
    0.96391E-08         0.70591E-11         0.00000E+00
    0.96341E-08         0.95337E-11         0.00000E+00
    0.96347E-08         0.10608E-10         0.00000E+00
    0.96412E-08         0.10723E-10         0.00000E+00
    0.96535E-08         0.10225E-10         0.00000E+00
    0.96717E-08         0.93674E-11         0.00000E+00
    0.96956E-08         0.83238E-11         0.00000E+00
    0.97252E-08         0.72104E-11         0.00000E+00
    0.97604E-08         0.61016E-11         0.00000E+00
    0.98011E-08         0.50428E-11         0.00000E+00
    0.98472E-08         0.40588E-11         0.00000E+00
    0.98987E-08         0.31610E-11         0.00000E+00
    0.99553E-08         0.23520E-11         0.00000E+00
    0.10017E-07         0.16285E-11         0.00000E+00
    0.10084E-07         0.98442E-12         0.00000E+00
    0.10156E-07         0.41171E-12         0.00000E+00
    0.10233E-07        -0.98084E-13         0.00000E+00
    0.10314E-07        -0.55333E-12         0.00000E+00
    0.10400E-07        -0.96190E-12         0.00000E+00
    0.10491E-07        -0.13309E-11         0.00000E+00
    0.10587E-07        -0.16667E-11         0.00000E+00
    0.10686E-07        -0.19747E-11         0.00000E+00
    0.10791E-07        -0.22596E-11         0.00000E+00
    0.10899E-07        -0.25254E-11         0.00000E+00
    0.11012E-07        -0.27754E-11         0.00000E+00
    0.11128E-07        -0.30122E-11         0.00000E+00
    0.11249E-07        -0.32382E-11         0.00000E+00
    0.11374E-07        -0.34552E-11         0.00000E+00
    0.11502E-07        -0.36646E-11         0.00000E+00
    0.11634E-07        -0.38677E-11         0.00000E+00
    0.11770E-07        -0.40654E-11         0.00000E+00
    0.11909E-07        -0.42583E-11         0.00000E+00
    0.12051E-07        -0.44472E-11         0.00000E+00
    0.12197E-07        -0.46323E-11         0.00000E+00
    0.12346E-07        -0.48140E-11         0.00000E+00
    0.12498E-07        -0.49925E-11         0.00000E+00
    0.12653E-07        -0.51679E-11         0.00000E+00
    0.12811E-07        -0.53403E-11         0.00000E+00
    0.12971E-07        -0.55095E-11         0.00000E+00
    0.13134E-07        -0.56756E-11         0.00000E+00
    0.13299E-07        -0.58383E-11         0.00000E+00
    0.13467E-07        -0.59976E-11         0.00000E+00
    0.13636E-07        -0.61531E-11         0.00000E+00
    0.13808E-07        -0.63047E-11         0.00000E+00
    0.13981E-07        -0.64519E-11         0.00000E+00
    0.14156E-07        -0.65946E-11         0.00000E+00
    0.14332E-07        -0.67322E-11         0.00000E+00
    0.14510E-07        -0.68645E-11         0.00000E+00
    0.14689E-07        -0.69910E-11         0.00000E+00
    0.14869E-07        -0.71113E-11         0.00000E+00
    0.15049E-07        -0.72248E-11         0.00000E+00
    0.15231E-07        -0.73311E-11         0.00000E+00
    0.15413E-07        -0.74297E-11         0.00000E+00
    0.15595E-07        -0.75199E-11         0.00000E+00
    0.15777E-07        -0.76013E-11         0.00000E+00
    0.15959E-07        -0.76732E-11         0.00000E+00
    0.16140E-07        -0.77350E-11         0.00000E+00
    0.16321E-07        -0.77861E-11         0.00000E+00
    0.16502E-07        -0.78259E-11         0.00000E+00
    0.16681E-07        -0.78535E-11         0.00000E+00
    0.16860E-07        -0.78683E-11         0.00000E+00
    0.17037E-07        -0.78696E-11         0.00000E+00
    0.17212E-07        -0.78565E-11         0.00000E+00
    0.17386E-07        -0.78283E-11         0.00000E+00
    0.17558E-07        -0.77840E-11         0.00000E+00
    0.17728E-07        -0.77226E-11         0.00000E+00
    0.17895E-07        -0.76431E-11         0.00000E+00
    0.18060E-07        -0.75444E-11         0.00000E+00
    0.18222E-07        -0.74251E-11         0.00000E+00
    0.18381E-07        -0.72839E-11         0.00000E+00
    0.18536E-07        -0.71189E-11         0.00000E+00
    0.18689E-07        -0.69284E-11         0.00000E+00
    0.18837E-07        -0.67100E-11         0.00000E+00
    0.18982E-07        -0.64612E-11         0.00000E+00
    0.19123E-07        -0.61787E-11         0.00000E+00
    0.19259E-07        -0.58590E-11         0.00000E+00
    0.19391E-07        -0.54976E-11         0.00000E+00
    0.19518E-07        -0.50895E-11         0.00000E+00
    0.19640E-07        -0.46286E-11         0.00000E+00
    0.19757E-07        -0.41080E-11         0.00000E+00
    0.19869E-07        -0.35197E-11         0.00000E+00
    0.19975E-07        -0.28549E-11         0.00000E+00
    0.20076E-07        -0.21037E-11         0.00000E+00
    0.20170E-07        -0.12559E-11         0.00000E+00
    0.20259E-07        -0.30102E-12         0.00000E+00
    0.20341E-07         0.77038E-12         0.00000E+00
    0.20416E-07         0.19655E-11         0.00000E+00
    0.20485E-07         0.32873E-11         0.00000E+00
    0.20547E-07         0.47312E-11         0.00000E+00
    0.20602E-07         0.62809E-11         0.00000E+00
    0.20650E-07         0.79021E-11         0.00000E+00
    0.20691E-07         0.95340E-11         0.00000E+00
    0.20724E-07         0.11078E-10         0.00000E+00
    0.20749E-07         0.12379E-10         0.00000E+00
    0.20767E-07         0.13209E-10         0.00000E+00
    0.20777E-07         0.13238E-10         0.00000E+00
    0.20779E-07         0.12009E-10         0.00000E+00
    0.20774E-07         0.89508E-11         0.00000E+00
    0.20761E-07         0.34429E-11         0.00000E+00
    0.96507E-08         0.27032E-11         0.00000E+00
    0.96398E-08         0.70287E-11         0.00000E+00
    0.96344E-08         0.94478E-11         0.00000E+00
    0.96348E-08         0.10467E-10         0.00000E+00
    0.96411E-08         0.10542E-10         0.00000E+00
    0.96534E-08         0.10023E-10         0.00000E+00
    0.96715E-08         0.91586E-11         0.00000E+00
    0.96954E-08         0.81196E-11         0.00000E+00
    0.97250E-08         0.70183E-11         0.00000E+00
    0.97602E-08         0.59261E-11         0.00000E+00
    0.98009E-08         0.48863E-11         0.00000E+00
    0.98471E-08         0.39224E-11         0.00000E+00
    0.98985E-08         0.30447E-11         0.00000E+00
    0.99552E-08         0.22550E-11         0.00000E+00
    0.10017E-07         0.15501E-11         0.00000E+00
    0.10084E-07         0.92325E-12         0.00000E+00
    0.10156E-07         0.36657E-12         0.00000E+00
    0.10232E-07        -0.12844E-12         0.00000E+00
    0.10314E-07        -0.57011E-12         0.00000E+00
    0.10400E-07        -0.96622E-12         0.00000E+00
    0.10491E-07        -0.13238E-11         0.00000E+00
    0.10586E-07        -0.16491E-11         0.00000E+00
    0.10686E-07        -0.19474E-11         0.00000E+00
    0.10790E-07        -0.22234E-11         0.00000E+00
    0.10899E-07        -0.24808E-11         0.00000E+00
    0.11012E-07        -0.27231E-11         0.00000E+00
    0.11128E-07        -0.29527E-11         0.00000E+00
    0.11249E-07        -0.31719E-11         0.00000E+00
    0.11374E-07        -0.33824E-11         0.00000E+00
    0.11502E-07        -0.35858E-11         0.00000E+00
    0.11634E-07        -0.37830E-11         0.00000E+00
    0.11770E-07        -0.39751E-11         0.00000E+00
    0.11909E-07        -0.41628E-11         0.00000E+00
    0.12051E-07        -0.43465E-11         0.00000E+00
    0.12197E-07        -0.45267E-11         0.00000E+00
    0.12346E-07        -0.47036E-11         0.00000E+00
    0.12498E-07        -0.48775E-11         0.00000E+00
    0.12653E-07        -0.50484E-11         0.00000E+00
    0.12811E-07        -0.52164E-11         0.00000E+00
    0.12971E-07        -0.53815E-11         0.00000E+00
    0.13134E-07        -0.55435E-11         0.00000E+00
    0.13299E-07        -0.57023E-11         0.00000E+00
    0.13467E-07        -0.58578E-11         0.00000E+00
    0.13636E-07        -0.60096E-11         0.00000E+00
    0.13808E-07        -0.61577E-11         0.00000E+00
    0.13981E-07        -0.63015E-11         0.00000E+00
    0.14156E-07        -0.64409E-11         0.00000E+00
    0.14332E-07        -0.65755E-11         0.00000E+00
    0.14510E-07        -0.67049E-11         0.00000E+00
    0.14689E-07        -0.68286E-11         0.00000E+00
    0.14869E-07        -0.69463E-11         0.00000E+00
    0.15049E-07        -0.70574E-11         0.00000E+00
    0.15231E-07        -0.71615E-11         0.00000E+00
    0.15413E-07        -0.72581E-11         0.00000E+00
    0.15595E-07        -0.73466E-11         0.00000E+00
    0.15777E-07        -0.74265E-11         0.00000E+00
    0.15959E-07        -0.74972E-11         0.00000E+00
    0.16140E-07        -0.75581E-11         0.00000E+00
    0.16321E-07        -0.76085E-11         0.00000E+00
    0.16502E-07        -0.76479E-11         0.00000E+00
    0.16681E-07        -0.76755E-11         0.00000E+00
    0.16860E-07        -0.76907E-11         0.00000E+00
    0.17037E-07        -0.76926E-11         0.00000E+00
    0.17212E-07        -0.76807E-11         0.00000E+00
    0.17386E-07        -0.76540E-11         0.00000E+00
    0.17558E-07        -0.76116E-11         0.00000E+00
    0.17728E-07        -0.75527E-11         0.00000E+00
    0.17895E-07        -0.74763E-11         0.00000E+00
    0.18060E-07        -0.73811E-11         0.00000E+00
    0.18222E-07        -0.72660E-11         0.00000E+00
    0.18381E-07        -0.71296E-11         0.00000E+00
    0.18536E-07        -0.69702E-11         0.00000E+00
    0.18689E-07        -0.67860E-11         0.00000E+00
    0.18837E-07        -0.65748E-11         0.00000E+00
    0.18982E-07        -0.63339E-11         0.00000E+00
    0.19123E-07        -0.60605E-11         0.00000E+00
    0.19259E-07        -0.57509E-11         0.00000E+00
    0.19391E-07        -0.54008E-11         0.00000E+00
    0.19518E-07        -0.50052E-11         0.00000E+00
    0.19640E-07        -0.45583E-11         0.00000E+00
    0.19757E-07        -0.40532E-11         0.00000E+00
    0.19869E-07        -0.34822E-11         0.00000E+00
    0.19975E-07        -0.28363E-11         0.00000E+00
    0.20076E-07        -0.21060E-11         0.00000E+00
    0.20170E-07        -0.12808E-11         0.00000E+00
    0.20259E-07        -0.35055E-12         0.00000E+00
    0.20341E-07         0.69450E-12         0.00000E+00
    0.20417E-07         0.18618E-11         0.00000E+00
    0.20486E-07         0.31548E-11         0.00000E+00
    0.20548E-07         0.45698E-11         0.00000E+00
    0.20603E-07         0.60918E-11         0.00000E+00
    0.20651E-07         0.76884E-11         0.00000E+00
    0.20691E-07         0.93016E-11         0.00000E+00
    0.20724E-07         0.10836E-10         0.00000E+00
    0.20750E-07         0.12143E-10         0.00000E+00
    0.20767E-07         0.12999E-10         0.00000E+00
    0.20777E-07         0.13076E-10         0.00000E+00
    0.20779E-07         0.11915E-10         0.00000E+00
    0.20773E-07         0.89236E-11         0.00000E+00
    0.20760E-07         0.34442E-11         0.00000E+00
    0.96517E-08         0.26945E-11         0.00000E+00
    0.96404E-08         0.69797E-11         0.00000E+00
    0.96347E-08         0.93322E-11         0.00000E+00
    0.96349E-08         0.10290E-10         0.00000E+00
    0.96410E-08         0.10323E-10         0.00000E+00
    0.96532E-08         0.97835E-11         0.00000E+00
    0.96713E-08         0.89159E-11         0.00000E+00
    0.96952E-08         0.78855E-11         0.00000E+00
    0.97248E-08         0.68006E-11         0.00000E+00
    0.97600E-08         0.57293E-11         0.00000E+00
    0.98007E-08         0.47126E-11         0.00000E+00
    0.98469E-08         0.37724E-11         0.00000E+00
    0.98983E-08         0.29181E-11         0.00000E+00
    0.99551E-08         0.21509E-11         0.00000E+00
    0.10017E-07         0.14670E-11         0.00000E+00
    0.10084E-07         0.85978E-12         0.00000E+00
    0.10156E-07         0.32114E-12         0.00000E+00
    0.10232E-07        -0.15734E-12         0.00000E+00
    0.10314E-07        -0.58388E-12         0.00000E+00
    0.10400E-07        -0.96617E-12         0.00000E+00
    0.10491E-07        -0.13111E-11         0.00000E+00
    0.10586E-07        -0.16248E-11         0.00000E+00
    0.10686E-07        -0.19124E-11         0.00000E+00
    0.10790E-07        -0.21785E-11         0.00000E+00
    0.10899E-07        -0.24269E-11         0.00000E+00
    0.11011E-07        -0.26606E-11         0.00000E+00
    0.11128E-07        -0.28822E-11         0.00000E+00
    0.11249E-07        -0.30938E-11         0.00000E+00
    0.11373E-07        -0.32973E-11         0.00000E+00
    0.11502E-07        -0.34938E-11         0.00000E+00
    0.11634E-07        -0.36846E-11         0.00000E+00
    0.11770E-07        -0.38705E-11         0.00000E+00
    0.11909E-07        -0.40522E-11         0.00000E+00
    0.12051E-07        -0.42302E-11         0.00000E+00
    0.12197E-07        -0.44048E-11         0.00000E+00
    0.12346E-07        -0.45764E-11         0.00000E+00
    0.12498E-07        -0.47451E-11         0.00000E+00
    0.12653E-07        -0.49110E-11         0.00000E+00
    0.12811E-07        -0.50741E-11         0.00000E+00
    0.12971E-07        -0.52344E-11         0.00000E+00
    0.13134E-07        -0.53917E-11         0.00000E+00
    0.13299E-07        -0.55461E-11         0.00000E+00
    0.13467E-07        -0.56972E-11         0.00000E+00
    0.13636E-07        -0.58448E-11         0.00000E+00
    0.13808E-07        -0.59888E-11         0.00000E+00
    0.13981E-07        -0.61288E-11         0.00000E+00
    0.14156E-07        -0.62644E-11         0.00000E+00
    0.14332E-07        -0.63954E-11         0.00000E+00
    0.14510E-07        -0.65214E-11         0.00000E+00
    0.14689E-07        -0.66419E-11         0.00000E+00
    0.14869E-07        -0.67566E-11         0.00000E+00
    0.15049E-07        -0.68649E-11         0.00000E+00
    0.15231E-07        -0.69664E-11         0.00000E+00
    0.15413E-07        -0.70607E-11         0.00000E+00
    0.15595E-07        -0.71471E-11         0.00000E+00
    0.15777E-07        -0.72252E-11         0.00000E+00
    0.15959E-07        -0.72944E-11         0.00000E+00
    0.16140E-07        -0.73541E-11         0.00000E+00
    0.16321E-07        -0.74037E-11         0.00000E+00
    0.16502E-07        -0.74425E-11         0.00000E+00
    0.16681E-07        -0.74700E-11         0.00000E+00
    0.16860E-07        -0.74854E-11         0.00000E+00
    0.17037E-07        -0.74881E-11         0.00000E+00
    0.17212E-07        -0.74772E-11         0.00000E+00
    0.17386E-07        -0.74521E-11         0.00000E+00
    0.17558E-07        -0.74119E-11         0.00000E+00
    0.17728E-07        -0.73557E-11         0.00000E+00
    0.17895E-07        -0.72824E-11         0.00000E+00
    0.18060E-07        -0.71911E-11         0.00000E+00
    0.18222E-07        -0.70806E-11         0.00000E+00
    0.18381E-07        -0.69494E-11         0.00000E+00
    0.18536E-07        -0.67960E-11         0.00000E+00
    0.18689E-07        -0.66187E-11         0.00000E+00
    0.18837E-07        -0.64152E-11         0.00000E+00
    0.18982E-07        -0.61832E-11         0.00000E+00
    0.19123E-07        -0.59197E-11         0.00000E+00
    0.19259E-07        -0.56212E-11         0.00000E+00
    0.19391E-07        -0.52835E-11         0.00000E+00
    0.19518E-07        -0.49019E-11         0.00000E+00
    0.19640E-07        -0.44705E-11         0.00000E+00
    0.19757E-07        -0.39827E-11         0.00000E+00
    0.19869E-07        -0.34308E-11         0.00000E+00
    0.19975E-07        -0.28062E-11         0.00000E+00
    0.20076E-07        -0.20992E-11         0.00000E+00
    0.20170E-07        -0.12998E-11         0.00000E+00
    0.20259E-07        -0.39755E-12         0.00000E+00
    0.20341E-07         0.61725E-12         0.00000E+00
    0.20417E-07         0.17523E-11         0.00000E+00
    0.20486E-07         0.30116E-11         0.00000E+00
    0.20548E-07         0.43923E-11         0.00000E+00
    0.20603E-07         0.58806E-11         0.00000E+00
    0.20651E-07         0.74464E-11         0.00000E+00
    0.20692E-07         0.90346E-11         0.00000E+00
    0.20725E-07         0.10554E-10         0.00000E+00
    0.20750E-07         0.11862E-10         0.00000E+00
    0.20767E-07         0.12741E-10         0.00000E+00
    0.20777E-07         0.12868E-10         0.00000E+00
    0.20779E-07         0.11783E-10         0.00000E+00
    0.20772E-07         0.88728E-11         0.00000E+00
    0.20759E-07         0.34378E-11         0.00000E+00
    0.96528E-08         0.26791E-11         0.00000E+00
    0.96411E-08         0.69102E-11         0.00000E+00
    0.96350E-08         0.91847E-11         0.00000E+00
    0.96349E-08         0.10075E-10         0.00000E+00
    0.96410E-08         0.10065E-10         0.00000E+00
    0.96531E-08         0.95066E-11         0.00000E+00
    0.96711E-08         0.86390E-11         0.00000E+00
    0.96950E-08         0.76216E-11         0.00000E+00
    0.97246E-08         0.65575E-11         0.00000E+00
    0.97598E-08         0.55116E-11         0.00000E+00
    0.98005E-08         0.45222E-11         0.00000E+00
    0.98467E-08         0.36095E-11         0.00000E+00
    0.98982E-08         0.27819E-11         0.00000E+00
    0.99549E-08         0.20401E-11         0.00000E+00
    0.10017E-07         0.13799E-11         0.00000E+00
    0.10084E-07         0.79450E-12         0.00000E+00
    0.10156E-07         0.27587E-12         0.00000E+00
    0.10232E-07        -0.18435E-12         0.00000E+00
    0.10314E-07        -0.59427E-12         0.00000E+00
    0.10400E-07        -0.96141E-12         0.00000E+00
    0.10491E-07        -0.12925E-11         0.00000E+00
    0.10586E-07        -0.15935E-11         0.00000E+00
    0.10686E-07        -0.18696E-11         0.00000E+00
    0.10790E-07        -0.21249E-11         0.00000E+00
    0.10899E-07        -0.23633E-11         0.00000E+00
    0.11011E-07        -0.25877E-11         0.00000E+00
    0.11128E-07        -0.28006E-11         0.00000E+00
    0.11249E-07        -0.30040E-11         0.00000E+00
    0.11373E-07        -0.31996E-11         0.00000E+00
    0.11502E-07        -0.33888E-11         0.00000E+00
    0.11634E-07        -0.35724E-11         0.00000E+00
    0.11770E-07        -0.37515E-11         0.00000E+00
    0.11909E-07        -0.39266E-11         0.00000E+00
    0.12051E-07        -0.40982E-11         0.00000E+00
    0.12197E-07        -0.42667E-11         0.00000E+00
    0.12346E-07        -0.44323E-11         0.00000E+00
    0.12498E-07        -0.45952E-11         0.00000E+00
    0.12653E-07        -0.47555E-11         0.00000E+00
    0.12811E-07        -0.49131E-11         0.00000E+00
    0.12971E-07        -0.50680E-11         0.00000E+00
    0.13134E-07        -0.52202E-11         0.00000E+00
    0.13299E-07        -0.53695E-11         0.00000E+00
    0.13466E-07        -0.55157E-11         0.00000E+00
    0.13636E-07        -0.56586E-11         0.00000E+00
    0.13808E-07        -0.57980E-11         0.00000E+00
    0.13981E-07        -0.59335E-11         0.00000E+00
    0.14156E-07        -0.60649E-11         0.00000E+00
    0.14332E-07        -0.61919E-11         0.00000E+00
    0.14510E-07        -0.63140E-11         0.00000E+00
    0.14689E-07        -0.64309E-11         0.00000E+00
    0.14869E-07        -0.65421E-11         0.00000E+00
    0.15049E-07        -0.66472E-11         0.00000E+00
    0.15231E-07        -0.67458E-11         0.00000E+00
    0.15412E-07        -0.68374E-11         0.00000E+00
    0.15594E-07        -0.69214E-11         0.00000E+00
    0.15777E-07        -0.69974E-11         0.00000E+00
    0.15959E-07        -0.70648E-11         0.00000E+00
    0.16140E-07        -0.71230E-11         0.00000E+00
    0.16321E-07        -0.71715E-11         0.00000E+00
    0.16502E-07        -0.72097E-11         0.00000E+00
    0.16681E-07        -0.72369E-11         0.00000E+00
    0.16860E-07        -0.72525E-11         0.00000E+00
    0.17037E-07        -0.72558E-11         0.00000E+00
    0.17212E-07        -0.72461E-11         0.00000E+00
    0.17386E-07        -0.72226E-11         0.00000E+00
    0.17558E-07        -0.71846E-11         0.00000E+00
    0.17728E-07        -0.71311E-11         0.00000E+00
    0.17895E-07        -0.70613E-11         0.00000E+00
    0.18060E-07        -0.69742E-11         0.00000E+00
    0.18222E-07        -0.68685E-11         0.00000E+00
    0.18381E-07        -0.67429E-11         0.00000E+00
    0.18536E-07        -0.65961E-11         0.00000E+00
    0.18689E-07        -0.64262E-11         0.00000E+00
    0.18837E-07        -0.62312E-11         0.00000E+00
    0.18982E-07        -0.60087E-11         0.00000E+00
    0.19123E-07        -0.57560E-11         0.00000E+00
    0.19259E-07        -0.54695E-11         0.00000E+00
    0.19391E-07        -0.51455E-11         0.00000E+00
    0.19518E-07        -0.47790E-11         0.00000E+00
    0.19640E-07        -0.43646E-11         0.00000E+00
    0.19757E-07        -0.38958E-11         0.00000E+00
    0.19869E-07        -0.33650E-11         0.00000E+00
    0.19975E-07        -0.27638E-11         0.00000E+00
    0.20076E-07        -0.20829E-11         0.00000E+00
    0.20171E-07        -0.13121E-11         0.00000E+00
    0.20259E-07        -0.44128E-12         0.00000E+00
    0.20341E-07         0.53940E-12         0.00000E+00
    0.20417E-07         0.16379E-11         0.00000E+00
    0.20486E-07         0.28584E-11         0.00000E+00
    0.20548E-07         0.41992E-11         0.00000E+00
    0.20603E-07         0.56479E-11         0.00000E+00
    0.20651E-07         0.71764E-11         0.00000E+00
    0.20692E-07         0.87330E-11         0.00000E+00
    0.20725E-07         0.10231E-10         0.00000E+00
    0.20750E-07         0.11535E-10         0.00000E+00
    0.20768E-07         0.12433E-10         0.00000E+00
    0.20777E-07         0.12613E-10         0.00000E+00
    0.20778E-07         0.11611E-10         0.00000E+00
    0.20771E-07         0.87962E-11         0.00000E+00
    0.20757E-07         0.34228E-11         0.00000E+00
    0.96539E-08         0.26562E-11         0.00000E+00
    0.96417E-08         0.68184E-11         0.00000E+00
    0.96353E-08         0.90028E-11         0.00000E+00
    0.96350E-08         0.98197E-11         0.00000E+00
    0.96409E-08         0.97660E-11         0.00000E+00
    0.96529E-08         0.91911E-11         0.00000E+00
    0.96709E-08         0.83277E-11         0.00000E+00
    0.96948E-08         0.73279E-11         0.00000E+00
    0.97244E-08         0.62895E-11         0.00000E+00
    0.97596E-08         0.52735E-11         0.00000E+00
    0.98004E-08         0.43155E-11         0.00000E+00
    0.98465E-08         0.34341E-11         0.00000E+00
    0.98980E-08         0.26367E-11         0.00000E+00
    0.99548E-08         0.19232E-11         0.00000E+00
    0.10017E-07         0.12893E-11         0.00000E+00
    0.10084E-07         0.72793E-12         0.00000E+00
    0.10155E-07         0.23124E-12         0.00000E+00
    0.10232E-07        -0.20906E-12         0.00000E+00
    0.10314E-07        -0.60089E-12         0.00000E+00
    0.10400E-07        -0.95160E-12         0.00000E+00
    0.10491E-07        -0.12677E-11         0.00000E+00
    0.10586E-07        -0.15551E-11         0.00000E+00
    0.10686E-07        -0.18185E-11         0.00000E+00
    0.10790E-07        -0.20623E-11         0.00000E+00
    0.10899E-07        -0.22899E-11         0.00000E+00
    0.11011E-07        -0.25042E-11         0.00000E+00
    0.11128E-07        -0.27077E-11         0.00000E+00
    0.11249E-07        -0.29022E-11         0.00000E+00
    0.11373E-07        -0.30894E-11         0.00000E+00
    0.11502E-07        -0.32704E-11         0.00000E+00
    0.11634E-07        -0.34464E-11         0.00000E+00
    0.11770E-07        -0.36180E-11         0.00000E+00
    0.11909E-07        -0.37859E-11         0.00000E+00
    0.12051E-07        -0.39506E-11         0.00000E+00
    0.12197E-07        -0.41123E-11         0.00000E+00
    0.12346E-07        -0.42714E-11         0.00000E+00
    0.12498E-07        -0.44278E-11         0.00000E+00
    0.12653E-07        -0.45819E-11         0.00000E+00
    0.12811E-07        -0.47334E-11         0.00000E+00
    0.12971E-07        -0.48824E-11         0.00000E+00
    0.13134E-07        -0.50289E-11         0.00000E+00
    0.13299E-07        -0.51725E-11         0.00000E+00
    0.13466E-07        -0.53133E-11         0.00000E+00
    0.13636E-07        -0.54509E-11         0.00000E+00
    0.13808E-07        -0.55852E-11         0.00000E+00
    0.13981E-07        -0.57158E-11         0.00000E+00
    0.14156E-07        -0.58425E-11         0.00000E+00
    0.14332E-07        -0.59649E-11         0.00000E+00
    0.14510E-07        -0.60826E-11         0.00000E+00
    0.14689E-07        -0.61954E-11         0.00000E+00
    0.14869E-07        -0.63028E-11         0.00000E+00
    0.15049E-07        -0.64043E-11         0.00000E+00
    0.15231E-07        -0.64995E-11         0.00000E+00
    0.15412E-07        -0.65880E-11         0.00000E+00
    0.15594E-07        -0.66693E-11         0.00000E+00
    0.15777E-07        -0.67429E-11         0.00000E+00
    0.15959E-07        -0.68082E-11         0.00000E+00
    0.16140E-07        -0.68648E-11         0.00000E+00
    0.16321E-07        -0.69120E-11         0.00000E+00
    0.16502E-07        -0.69493E-11         0.00000E+00
    0.16681E-07        -0.69761E-11         0.00000E+00
    0.16860E-07        -0.69917E-11         0.00000E+00
    0.17037E-07        -0.69956E-11         0.00000E+00
    0.17212E-07        -0.69870E-11         0.00000E+00
    0.17386E-07        -0.69652E-11         0.00000E+00
    0.17558E-07        -0.69294E-11         0.00000E+00
    0.17728E-07        -0.68789E-11         0.00000E+00
    0.17895E-07        -0.68128E-11         0.00000E+00
    0.18060E-07        -0.67300E-11         0.00000E+00
    0.18222E-07        -0.66295E-11         0.00000E+00
    0.18381E-07        -0.65100E-11         0.00000E+00
    0.18536E-07        -0.63701E-11         0.00000E+00
    0.18689E-07        -0.62082E-11         0.00000E+00
    0.18837E-07        -0.60222E-11         0.00000E+00
    0.18982E-07        -0.58101E-11         0.00000E+00
    0.19123E-07        -0.55689E-11         0.00000E+00
    0.19259E-07        -0.52956E-11         0.00000E+00
    0.19391E-07        -0.49862E-11         0.00000E+00
    0.19518E-07        -0.46362E-11         0.00000E+00
    0.19640E-07        -0.42402E-11         0.00000E+00
    0.19757E-07        -0.37919E-11         0.00000E+00
    0.19869E-07        -0.32842E-11         0.00000E+00
    0.19976E-07        -0.27087E-11         0.00000E+00
    0.20076E-07        -0.20562E-11         0.00000E+00
    0.20171E-07        -0.13170E-11         0.00000E+00
    0.20259E-07        -0.48094E-12         0.00000E+00
    0.20342E-07         0.46177E-12         0.00000E+00
    0.20417E-07         0.15192E-11         0.00000E+00
    0.20486E-07         0.26961E-11         0.00000E+00
    0.20549E-07         0.39914E-11         0.00000E+00
    0.20604E-07         0.53942E-11         0.00000E+00
    0.20652E-07         0.68788E-11         0.00000E+00
    0.20692E-07         0.83970E-11         0.00000E+00
    0.20725E-07         0.98674E-11         0.00000E+00
    0.20750E-07         0.11160E-10         0.00000E+00
    0.20768E-07         0.12075E-10         0.00000E+00
    0.20777E-07         0.12306E-10         0.00000E+00
    0.20778E-07         0.11395E-10         0.00000E+00
    0.20771E-07         0.86910E-11         0.00000E+00
    0.20756E-07         0.33984E-11         0.00000E+00
    0.96549E-08         0.26249E-11         0.00000E+00
    0.96423E-08         0.67017E-11         0.00000E+00
    0.96355E-08         0.87837E-11         0.00000E+00
    0.96350E-08         0.95217E-11         0.00000E+00
    0.96408E-08         0.94244E-11         0.00000E+00
    0.96528E-08         0.88366E-11         0.00000E+00
    0.96707E-08         0.79819E-11         0.00000E+00
    0.96946E-08         0.70046E-11         0.00000E+00
    0.97242E-08         0.59969E-11         0.00000E+00
    0.97594E-08         0.50154E-11         0.00000E+00
    0.98002E-08         0.40932E-11         0.00000E+00
    0.98464E-08         0.32470E-11         0.00000E+00
    0.98979E-08         0.24831E-11         0.00000E+00
    0.99546E-08         0.18009E-11         0.00000E+00
    0.10017E-07         0.11957E-11         0.00000E+00
    0.10083E-07         0.66061E-12         0.00000E+00
    0.10155E-07         0.18773E-12         0.00000E+00
    0.10232E-07        -0.23101E-12         0.00000E+00
    0.10314E-07        -0.60334E-12         0.00000E+00
    0.10400E-07        -0.93637E-12         0.00000E+00
    0.10491E-07        -0.12365E-11         0.00000E+00
    0.10586E-07        -0.15091E-11         0.00000E+00
    0.10686E-07        -0.17591E-11         0.00000E+00
    0.10790E-07        -0.19905E-11         0.00000E+00
    0.10899E-07        -0.22065E-11         0.00000E+00
    0.11011E-07        -0.24101E-11         0.00000E+00
    0.11128E-07        -0.26034E-11         0.00000E+00
    0.11249E-07        -0.27884E-11         0.00000E+00
    0.11373E-07        -0.29664E-11         0.00000E+00
    0.11502E-07        -0.31387E-11         0.00000E+00
    0.11634E-07        -0.33063E-11         0.00000E+00
    0.11770E-07        -0.34699E-11         0.00000E+00
    0.11909E-07        -0.36300E-11         0.00000E+00
    0.12051E-07        -0.37871E-11         0.00000E+00
    0.12197E-07        -0.39415E-11         0.00000E+00
    0.12346E-07        -0.40934E-11         0.00000E+00
    0.12498E-07        -0.42429E-11         0.00000E+00
    0.12653E-07        -0.43901E-11         0.00000E+00
    0.12811E-07        -0.45350E-11         0.00000E+00
    0.12971E-07        -0.46776E-11         0.00000E+00
    0.13134E-07        -0.48177E-11         0.00000E+00
    0.13299E-07        -0.49552E-11         0.00000E+00
    0.13466E-07        -0.50900E-11         0.00000E+00
    0.13636E-07        -0.52218E-11         0.00000E+00
    0.13808E-07        -0.53504E-11         0.00000E+00
    0.13981E-07        -0.54756E-11         0.00000E+00
    0.14156E-07        -0.55970E-11         0.00000E+00
    0.14332E-07        -0.57143E-11         0.00000E+00
    0.14510E-07        -0.58273E-11         0.00000E+00
    0.14689E-07        -0.59355E-11         0.00000E+00
    0.14869E-07        -0.60385E-11         0.00000E+00
    0.15049E-07        -0.61360E-11         0.00000E+00
    0.15231E-07        -0.62275E-11         0.00000E+00
    0.15412E-07        -0.63126E-11         0.00000E+00
    0.15594E-07        -0.63908E-11         0.00000E+00
    0.15777E-07        -0.64617E-11         0.00000E+00
    0.15959E-07        -0.65247E-11         0.00000E+00
    0.16140E-07        -0.65793E-11         0.00000E+00
    0.16321E-07        -0.66250E-11         0.00000E+00
    0.16502E-07        -0.66612E-11         0.00000E+00
    0.16681E-07        -0.66874E-11         0.00000E+00
    0.16860E-07        -0.67030E-11         0.00000E+00
    0.17037E-07        -0.67074E-11         0.00000E+00
    0.17212E-07        -0.66998E-11         0.00000E+00
    0.17386E-07        -0.66798E-11         0.00000E+00
    0.17558E-07        -0.66464E-11         0.00000E+00
    0.17728E-07        -0.65990E-11         0.00000E+00
    0.17895E-07        -0.65366E-11         0.00000E+00
    0.18060E-07        -0.64584E-11         0.00000E+00
    0.18222E-07        -0.63634E-11         0.00000E+00
    0.18381E-07        -0.62503E-11         0.00000E+00
    0.18536E-07        -0.61178E-11         0.00000E+00
    0.18689E-07        -0.59644E-11         0.00000E+00
    0.18837E-07        -0.57882E-11         0.00000E+00
    0.18982E-07        -0.55870E-11         0.00000E+00
    0.19123E-07        -0.53582E-11         0.00000E+00
    0.19259E-07        -0.50988E-11         0.00000E+00
    0.19391E-07        -0.48051E-11         0.00000E+00
    0.19518E-07        -0.44728E-11         0.00000E+00
    0.19640E-07        -0.40966E-11         0.00000E+00
    0.19758E-07        -0.36706E-11         0.00000E+00
    0.19869E-07        -0.31877E-11         0.00000E+00
    0.19976E-07        -0.26400E-11         0.00000E+00
    0.20076E-07        -0.20185E-11         0.00000E+00
    0.20171E-07        -0.13137E-11         0.00000E+00
    0.20259E-07        -0.51570E-12         0.00000E+00
    0.20342E-07         0.38522E-12         0.00000E+00
    0.20417E-07         0.13972E-11         0.00000E+00
    0.20487E-07         0.25255E-11         0.00000E+00
    0.20549E-07         0.37696E-11         0.00000E+00
    0.20604E-07         0.51203E-11         0.00000E+00
    0.20652E-07         0.65542E-11         0.00000E+00
    0.20693E-07         0.80266E-11         0.00000E+00
    0.20725E-07         0.94618E-11         0.00000E+00
    0.20751E-07         0.10738E-10         0.00000E+00
    0.20768E-07         0.11664E-10         0.00000E+00
    0.20777E-07         0.11946E-10         0.00000E+00
    0.20778E-07         0.11131E-10         0.00000E+00
    0.20770E-07         0.85540E-11         0.00000E+00
    0.20755E-07         0.33632E-11         0.00000E+00
    0.96560E-08         0.25841E-11         0.00000E+00
    0.96428E-08         0.65575E-11         0.00000E+00
    0.96358E-08         0.85243E-11         0.00000E+00
    0.96351E-08         0.91788E-11         0.00000E+00
    0.96407E-08         0.90391E-11         0.00000E+00
    0.96526E-08         0.84422E-11         0.00000E+00
    0.96705E-08         0.76013E-11         0.00000E+00
    0.96944E-08         0.66520E-11         0.00000E+00
    0.97240E-08         0.56801E-11         0.00000E+00
    0.97592E-08         0.47381E-11         0.00000E+00
    0.98000E-08         0.38560E-11         0.00000E+00
    0.98462E-08         0.30488E-11         0.00000E+00
    0.98977E-08         0.23218E-11         0.00000E+00
    0.99545E-08         0.16737E-11         0.00000E+00
    0.10016E-07         0.10998E-11         0.00000E+00
    0.10083E-07         0.59309E-12         0.00000E+00
    0.10155E-07         0.14587E-12         0.00000E+00
    0.10232E-07        -0.24973E-12         0.00000E+00
    0.10314E-07        -0.60119E-12         0.00000E+00
    0.10400E-07        -0.91536E-12         0.00000E+00
    0.10491E-07        -0.11983E-11         0.00000E+00
    0.10586E-07        -0.14554E-11         0.00000E+00
    0.10686E-07        -0.16911E-11         0.00000E+00
    0.10790E-07        -0.19092E-11         0.00000E+00
    0.10899E-07        -0.21130E-11         0.00000E+00
    0.11011E-07        -0.23051E-11         0.00000E+00
    0.11128E-07        -0.24876E-11         0.00000E+00
    0.11249E-07        -0.26623E-11         0.00000E+00
    0.11373E-07        -0.28306E-11         0.00000E+00
    0.11502E-07        -0.29936E-11         0.00000E+00
    0.11634E-07        -0.31522E-11         0.00000E+00
    0.11770E-07        -0.33071E-11         0.00000E+00
    0.11909E-07        -0.34588E-11         0.00000E+00
    0.12051E-07        -0.36078E-11         0.00000E+00
    0.12197E-07        -0.37542E-11         0.00000E+00
    0.12346E-07        -0.38984E-11         0.00000E+00
    0.12498E-07        -0.40403E-11         0.00000E+00
    0.12653E-07        -0.41802E-11         0.00000E+00
    0.12811E-07        -0.43178E-11         0.00000E+00
    0.12971E-07        -0.44533E-11         0.00000E+00
    0.13134E-07        -0.45866E-11         0.00000E+00
    0.13299E-07        -0.47174E-11         0.00000E+00
    0.13466E-07        -0.48456E-11         0.00000E+00
    0.13636E-07        -0.49711E-11         0.00000E+00
    0.13807E-07        -0.50935E-11         0.00000E+00
    0.13981E-07        -0.52127E-11         0.00000E+00
    0.14156E-07        -0.53284E-11         0.00000E+00
    0.14332E-07        -0.54402E-11         0.00000E+00
    0.14510E-07        -0.55479E-11         0.00000E+00
    0.14689E-07        -0.56510E-11         0.00000E+00
    0.14869E-07        -0.57493E-11         0.00000E+00
    0.15049E-07        -0.58424E-11         0.00000E+00
    0.15231E-07        -0.59297E-11         0.00000E+00
    0.15412E-07        -0.60110E-11         0.00000E+00
    0.15594E-07        -0.60858E-11         0.00000E+00
    0.15777E-07        -0.61536E-11         0.00000E+00
    0.15958E-07        -0.62139E-11         0.00000E+00
    0.16140E-07        -0.62663E-11         0.00000E+00
    0.16321E-07        -0.63103E-11         0.00000E+00
    0.16502E-07        -0.63453E-11         0.00000E+00
    0.16681E-07        -0.63708E-11         0.00000E+00
    0.16860E-07        -0.63862E-11         0.00000E+00
    0.17037E-07        -0.63910E-11         0.00000E+00
    0.17212E-07        -0.63845E-11         0.00000E+00
    0.17386E-07        -0.63661E-11         0.00000E+00
    0.17558E-07        -0.63352E-11         0.00000E+00
    0.17728E-07        -0.62909E-11         0.00000E+00
    0.17895E-07        -0.62326E-11         0.00000E+00
    0.18060E-07        -0.61593E-11         0.00000E+00
    0.18222E-07        -0.60700E-11         0.00000E+00
    0.18381E-07        -0.59637E-11         0.00000E+00
    0.18537E-07        -0.58390E-11         0.00000E+00
    0.18689E-07        -0.56946E-11         0.00000E+00
    0.18837E-07        -0.55286E-11         0.00000E+00
    0.18982E-07        -0.53390E-11         0.00000E+00
    0.19123E-07        -0.51234E-11         0.00000E+00
    0.19259E-07        -0.48789E-11         0.00000E+00
    0.19391E-07        -0.46020E-11         0.00000E+00
    0.19518E-07        -0.42884E-11         0.00000E+00
    0.19641E-07        -0.39334E-11         0.00000E+00
    0.19758E-07        -0.35311E-11         0.00000E+00
    0.19869E-07        -0.30749E-11         0.00000E+00
    0.19976E-07        -0.25570E-11         0.00000E+00
    0.20076E-07        -0.19690E-11         0.00000E+00
    0.20171E-07        -0.13014E-11         0.00000E+00
    0.20260E-07        -0.54469E-12         0.00000E+00
    0.20342E-07         0.31068E-12         0.00000E+00
    0.20418E-07         0.12729E-11         0.00000E+00
    0.20487E-07         0.23475E-11         0.00000E+00
    0.20549E-07         0.35349E-11         0.00000E+00
    0.20604E-07         0.48271E-11         0.00000E+00
    0.20652E-07         0.62031E-11         0.00000E+00
    0.20693E-07         0.76223E-11         0.00000E+00
    0.20726E-07         0.90144E-11         0.00000E+00
    0.20751E-07         0.10266E-10         0.00000E+00
    0.20768E-07         0.11197E-10         0.00000E+00
    0.20777E-07         0.11528E-10         0.00000E+00
    0.20777E-07         0.10816E-10         0.00000E+00
    0.20769E-07         0.83817E-11         0.00000E+00
    0.20753E-07         0.33158E-11         0.00000E+00
    0.96570E-08         0.25326E-11         0.00000E+00
    0.96434E-08         0.63825E-11         0.00000E+00
    0.96360E-08         0.82210E-11         0.00000E+00
    0.96351E-08         0.87883E-11         0.00000E+00
    0.96407E-08         0.86084E-11         0.00000E+00
    0.96525E-08         0.80073E-11         0.00000E+00
    0.96704E-08         0.71858E-11         0.00000E+00
    0.96942E-08         0.62703E-11         0.00000E+00
    0.97238E-08         0.53398E-11         0.00000E+00
    0.97590E-08         0.44421E-11         0.00000E+00
    0.97998E-08         0.36045E-11         0.00000E+00
    0.98461E-08         0.28402E-11         0.00000E+00
    0.98976E-08         0.21534E-11         0.00000E+00
    0.99544E-08         0.15424E-11         0.00000E+00
    0.10016E-07         0.10022E-11         0.00000E+00
    0.10083E-07         0.52597E-12         0.00000E+00
    0.10155E-07         0.10618E-12         0.00000E+00
    0.10232E-07        -0.26476E-12         0.00000E+00
    0.10314E-07        -0.59403E-12         0.00000E+00
    0.10400E-07        -0.88817E-12         0.00000E+00
    0.10491E-07        -0.11530E-11         0.00000E+00
    0.10586E-07        -0.13935E-11         0.00000E+00
    0.10686E-07        -0.16141E-11         0.00000E+00
    0.10790E-07        -0.18182E-11         0.00000E+00
    0.10899E-07        -0.20090E-11         0.00000E+00
    0.11011E-07        -0.21889E-11         0.00000E+00
    0.11128E-07        -0.23600E-11         0.00000E+00
    0.11249E-07        -0.25239E-11         0.00000E+00
    0.11373E-07        -0.26818E-11         0.00000E+00
    0.11502E-07        -0.28349E-11         0.00000E+00
    0.11634E-07        -0.29839E-11         0.00000E+00
    0.11769E-07        -0.31296E-11         0.00000E+00
    0.11909E-07        -0.32723E-11         0.00000E+00
    0.12051E-07        -0.34125E-11         0.00000E+00
    0.12197E-07        -0.35504E-11         0.00000E+00
    0.12346E-07        -0.36863E-11         0.00000E+00
    0.12498E-07        -0.38201E-11         0.00000E+00
    0.12653E-07        -0.39519E-11         0.00000E+00
    0.12811E-07        -0.40818E-11         0.00000E+00
    0.12971E-07        -0.42097E-11         0.00000E+00
    0.13134E-07        -0.43355E-11         0.00000E+00
    0.13299E-07        -0.44591E-11         0.00000E+00
    0.13466E-07        -0.45802E-11         0.00000E+00
    0.13636E-07        -0.46987E-11         0.00000E+00
    0.13807E-07        -0.48145E-11         0.00000E+00
    0.13981E-07        -0.49272E-11         0.00000E+00
    0.14156E-07        -0.50366E-11         0.00000E+00
    0.14332E-07        -0.51424E-11         0.00000E+00
    0.14510E-07        -0.52443E-11         0.00000E+00
    0.14689E-07        -0.53420E-11         0.00000E+00
    0.14869E-07        -0.54351E-11         0.00000E+00
    0.15049E-07        -0.55232E-11         0.00000E+00
    0.15231E-07        -0.56060E-11         0.00000E+00
    0.15412E-07        -0.56831E-11         0.00000E+00
    0.15594E-07        -0.57541E-11         0.00000E+00
    0.15777E-07        -0.58185E-11         0.00000E+00
    0.15958E-07        -0.58759E-11         0.00000E+00
    0.16140E-07        -0.59259E-11         0.00000E+00
    0.16321E-07        -0.59678E-11         0.00000E+00
    0.16502E-07        -0.60014E-11         0.00000E+00
    0.16681E-07        -0.60260E-11         0.00000E+00
    0.16860E-07        -0.60411E-11         0.00000E+00
    0.17037E-07        -0.60463E-11         0.00000E+00
    0.17212E-07        -0.60408E-11         0.00000E+00
    0.17386E-07        -0.60242E-11         0.00000E+00
    0.17558E-07        -0.59957E-11         0.00000E+00
    0.17728E-07        -0.59547E-11         0.00000E+00
    0.17895E-07        -0.59005E-11         0.00000E+00
    0.18060E-07        -0.58323E-11         0.00000E+00
    0.18222E-07        -0.57490E-11         0.00000E+00
    0.18381E-07        -0.56498E-11         0.00000E+00
    0.18537E-07        -0.55334E-11         0.00000E+00
    0.18689E-07        -0.53984E-11         0.00000E+00
    0.18837E-07        -0.52432E-11         0.00000E+00
    0.18982E-07        -0.50659E-11         0.00000E+00
    0.19123E-07        -0.48642E-11         0.00000E+00
    0.19259E-07        -0.46354E-11         0.00000E+00
    0.19391E-07        -0.43762E-11         0.00000E+00
    0.19518E-07        -0.40826E-11         0.00000E+00
    0.19641E-07        -0.37500E-11         0.00000E+00
    0.19758E-07        -0.33730E-11         0.00000E+00
    0.19870E-07        -0.29451E-11         0.00000E+00
    0.19976E-07        -0.24591E-11         0.00000E+00
    0.20076E-07        -0.19068E-11         0.00000E+00
    0.20171E-07        -0.12792E-11         0.00000E+00
    0.20260E-07        -0.56700E-12         0.00000E+00
    0.20342E-07         0.23909E-12         0.00000E+00
    0.20418E-07         0.11472E-11         0.00000E+00
    0.20487E-07         0.21632E-11         0.00000E+00
    0.20549E-07         0.32880E-11         0.00000E+00
    0.20605E-07         0.45153E-11         0.00000E+00
    0.20653E-07         0.58263E-11         0.00000E+00
    0.20693E-07         0.71843E-11         0.00000E+00
    0.20726E-07         0.85251E-11         0.00000E+00
    0.20751E-07         0.97438E-11         0.00000E+00
    0.20768E-07         0.10674E-10         0.00000E+00
    0.20777E-07         0.11050E-10         0.00000E+00
    0.20777E-07         0.10445E-10         0.00000E+00
    0.20769E-07         0.81695E-11         0.00000E+00
    0.20752E-07         0.32545E-11         0.00000E+00
    0.96580E-08         0.24686E-11         0.00000E+00
    0.96439E-08         0.61729E-11         0.00000E+00
    0.96362E-08         0.78699E-11         0.00000E+00
    0.96351E-08         0.83475E-11         0.00000E+00
    0.96406E-08         0.81309E-11         0.00000E+00
    0.96523E-08         0.75312E-11         0.00000E+00
    0.96702E-08         0.67355E-11         0.00000E+00
    0.96940E-08         0.58599E-11         0.00000E+00
    0.97236E-08         0.49764E-11         0.00000E+00
    0.97589E-08         0.41282E-11         0.00000E+00
    0.97997E-08         0.33396E-11         0.00000E+00
    0.98459E-08         0.26221E-11         0.00000E+00
    0.98975E-08         0.19788E-11         0.00000E+00
    0.99543E-08         0.14077E-11         0.00000E+00
    0.10016E-07         0.90358E-12         0.00000E+00
    0.10083E-07         0.45986E-12         0.00000E+00
    0.10155E-07         0.69227E-13         0.00000E+00
    0.10232E-07        -0.27558E-12         0.00000E+00
    0.10314E-07        -0.58140E-12         0.00000E+00
    0.10400E-07        -0.85443E-12         0.00000E+00
    0.10491E-07        -0.11001E-11         0.00000E+00
    0.10586E-07        -0.13233E-11         0.00000E+00
    0.10686E-07        -0.15279E-11         0.00000E+00
    0.10790E-07        -0.17173E-11         0.00000E+00
    0.10899E-07        -0.18945E-11         0.00000E+00
    0.11011E-07        -0.20616E-11         0.00000E+00
    0.11128E-07        -0.22206E-11         0.00000E+00
    0.11249E-07        -0.23729E-11         0.00000E+00
    0.11373E-07        -0.25199E-11         0.00000E+00
    0.11502E-07        -0.26624E-11         0.00000E+00
    0.11634E-07        -0.28013E-11         0.00000E+00
    0.11769E-07        -0.29371E-11         0.00000E+00
    0.11909E-07        -0.30703E-11         0.00000E+00
    0.12051E-07        -0.32012E-11         0.00000E+00
    0.12197E-07        -0.33300E-11         0.00000E+00
    0.12346E-07        -0.34570E-11         0.00000E+00
    0.12498E-07        -0.35821E-11         0.00000E+00
    0.12653E-07        -0.37054E-11         0.00000E+00
    0.12810E-07        -0.38270E-11         0.00000E+00
    0.12971E-07        -0.39467E-11         0.00000E+00
    0.13134E-07        -0.40644E-11         0.00000E+00
    0.13299E-07        -0.41802E-11         0.00000E+00
    0.13466E-07        -0.42937E-11         0.00000E+00
    0.13636E-07        -0.44048E-11         0.00000E+00
    0.13807E-07        -0.45133E-11         0.00000E+00
    0.13981E-07        -0.46190E-11         0.00000E+00
    0.14156E-07        -0.47216E-11         0.00000E+00
    0.14332E-07        -0.48209E-11         0.00000E+00
    0.14510E-07        -0.49165E-11         0.00000E+00
    0.14689E-07        -0.50082E-11         0.00000E+00
    0.14869E-07        -0.50957E-11         0.00000E+00
    0.15049E-07        -0.51785E-11         0.00000E+00
    0.15231E-07        -0.52564E-11         0.00000E+00
    0.15412E-07        -0.53289E-11         0.00000E+00
    0.15594E-07        -0.53958E-11         0.00000E+00
    0.15777E-07        -0.54565E-11         0.00000E+00
    0.15958E-07        -0.55106E-11         0.00000E+00
    0.16140E-07        -0.55578E-11         0.00000E+00
    0.16321E-07        -0.55975E-11         0.00000E+00
    0.16502E-07        -0.56294E-11         0.00000E+00
    0.16681E-07        -0.56530E-11         0.00000E+00
    0.16860E-07        -0.56677E-11         0.00000E+00
    0.17037E-07        -0.56731E-11         0.00000E+00
    0.17212E-07        -0.56686E-11         0.00000E+00
    0.17386E-07        -0.56537E-11         0.00000E+00
    0.17558E-07        -0.56277E-11         0.00000E+00
    0.17728E-07        -0.55901E-11         0.00000E+00
    0.17895E-07        -0.55402E-11         0.00000E+00
    0.18060E-07        -0.54772E-11         0.00000E+00
    0.18222E-07        -0.54002E-11         0.00000E+00
    0.18381E-07        -0.53084E-11         0.00000E+00
    0.18537E-07        -0.52006E-11         0.00000E+00
    0.18689E-07        -0.50755E-11         0.00000E+00
    0.18837E-07        -0.49317E-11         0.00000E+00
    0.18982E-07        -0.47673E-11         0.00000E+00
    0.19123E-07        -0.45802E-11         0.00000E+00
    0.19259E-07        -0.43679E-11         0.00000E+00
    0.19391E-07        -0.41273E-11         0.00000E+00
    0.19518E-07        -0.38548E-11         0.00000E+00
    0.19641E-07        -0.35459E-11         0.00000E+00
    0.19758E-07        -0.31955E-11         0.00000E+00
    0.19870E-07        -0.27977E-11         0.00000E+00
    0.19976E-07        -0.23455E-11         0.00000E+00
    0.20077E-07        -0.18312E-11         0.00000E+00
    0.20171E-07        -0.12463E-11         0.00000E+00
    0.20260E-07        -0.58166E-12         0.00000E+00
    0.20342E-07         0.17150E-12         0.00000E+00
    0.20418E-07         0.10213E-11         0.00000E+00
    0.20487E-07         0.19736E-11         0.00000E+00
    0.20550E-07         0.30302E-11         0.00000E+00
    0.20605E-07         0.41859E-11         0.00000E+00
    0.20653E-07         0.54245E-11         0.00000E+00
    0.20693E-07         0.67132E-11         0.00000E+00
    0.20726E-07         0.79939E-11         0.00000E+00
    0.20751E-07         0.91709E-11         0.00000E+00
    0.20768E-07         0.10091E-10         0.00000E+00
    0.20777E-07         0.10507E-10         0.00000E+00
    0.20777E-07         0.10011E-10         0.00000E+00
    0.20768E-07         0.79125E-11         0.00000E+00
    0.20751E-07         0.31771E-11         0.00000E+00
    0.96590E-08         0.23902E-11         0.00000E+00
    0.96444E-08         0.59240E-11         0.00000E+00
    0.96364E-08         0.74665E-11         0.00000E+00
    0.96351E-08         0.78536E-11         0.00000E+00
    0.96405E-08         0.76051E-11         0.00000E+00
    0.96522E-08         0.70136E-11         0.00000E+00
    0.96700E-08         0.62505E-11         0.00000E+00
    0.96938E-08         0.54213E-11         0.00000E+00
    0.97234E-08         0.45906E-11         0.00000E+00
    0.97587E-08         0.37972E-11         0.00000E+00
    0.97995E-08         0.30621E-11         0.00000E+00
    0.98458E-08         0.23953E-11         0.00000E+00
    0.98974E-08         0.17988E-11         0.00000E+00
    0.99542E-08         0.12703E-11         0.00000E+00
    0.10016E-07         0.80464E-12         0.00000E+00
    0.10083E-07         0.39540E-12         0.00000E+00
    0.10155E-07         0.35573E-13         0.00000E+00
    0.10232E-07        -0.28170E-12         0.00000E+00
    0.10313E-07        -0.56286E-12         0.00000E+00
    0.10400E-07        -0.81372E-12         0.00000E+00
    0.10491E-07        -0.10394E-11         0.00000E+00
    0.10586E-07        -0.12443E-11         0.00000E+00
    0.10686E-07        -0.14322E-11         0.00000E+00
    0.10790E-07        -0.16063E-11         0.00000E+00
    0.10899E-07        -0.17691E-11         0.00000E+00
    0.11011E-07        -0.19228E-11         0.00000E+00
    0.11128E-07        -0.20691E-11         0.00000E+00
    0.11249E-07        -0.22094E-11         0.00000E+00
    0.11373E-07        -0.23448E-11         0.00000E+00
    0.11502E-07        -0.24762E-11         0.00000E+00
    0.11634E-07        -0.26044E-11         0.00000E+00
    0.11769E-07        -0.27298E-11         0.00000E+00
    0.11909E-07        -0.28528E-11         0.00000E+00
    0.12051E-07        -0.29738E-11         0.00000E+00
    0.12197E-07        -0.30930E-11         0.00000E+00
    0.12346E-07        -0.32105E-11         0.00000E+00
    0.12498E-07        -0.33263E-11         0.00000E+00
    0.12653E-07        -0.34405E-11         0.00000E+00
    0.12810E-07        -0.35532E-11         0.00000E+00
    0.12971E-07        -0.36641E-11         0.00000E+00
    0.13134E-07        -0.37733E-11         0.00000E+00
    0.13299E-07        -0.38807E-11         0.00000E+00
    0.13466E-07        -0.39860E-11         0.00000E+00
    0.13636E-07        -0.40891E-11         0.00000E+00
    0.13807E-07        -0.41898E-11         0.00000E+00
    0.13981E-07        -0.42880E-11         0.00000E+00
    0.14156E-07        -0.43833E-11         0.00000E+00
    0.14332E-07        -0.44756E-11         0.00000E+00
    0.14510E-07        -0.45645E-11         0.00000E+00
    0.14689E-07        -0.46498E-11         0.00000E+00
    0.14869E-07        -0.47311E-11         0.00000E+00
    0.15049E-07        -0.48082E-11         0.00000E+00
    0.15231E-07        -0.48807E-11         0.00000E+00
    0.15412E-07        -0.49483E-11         0.00000E+00
    0.15594E-07        -0.50106E-11         0.00000E+00
    0.15776E-07        -0.50672E-11         0.00000E+00
    0.15958E-07        -0.51178E-11         0.00000E+00
    0.16140E-07        -0.51620E-11         0.00000E+00
    0.16321E-07        -0.51993E-11         0.00000E+00
    0.16502E-07        -0.52293E-11         0.00000E+00
    0.16681E-07        -0.52516E-11         0.00000E+00
    0.16860E-07        -0.52657E-11         0.00000E+00
    0.17037E-07        -0.52713E-11         0.00000E+00
    0.17212E-07        -0.52677E-11         0.00000E+00
    0.17386E-07        -0.52545E-11         0.00000E+00
    0.17558E-07        -0.52311E-11         0.00000E+00
    0.17728E-07        -0.51969E-11         0.00000E+00
    0.17895E-07        -0.51514E-11         0.00000E+00
    0.18060E-07        -0.50938E-11         0.00000E+00
    0.18222E-07        -0.50234E-11         0.00000E+00
    0.18381E-07        -0.49392E-11         0.00000E+00
    0.18537E-07        -0.48404E-11         0.00000E+00
    0.18689E-07        -0.47257E-11         0.00000E+00
    0.18838E-07        -0.45937E-11         0.00000E+00
    0.18982E-07        -0.44428E-11         0.00000E+00
    0.19123E-07        -0.42710E-11         0.00000E+00
    0.19259E-07        -0.40760E-11         0.00000E+00
    0.19391E-07        -0.38549E-11         0.00000E+00
    0.19518E-07        -0.36044E-11         0.00000E+00
    0.19641E-07        -0.33204E-11         0.00000E+00
    0.19758E-07        -0.29981E-11         0.00000E+00
    0.19870E-07        -0.26319E-11         0.00000E+00
    0.19976E-07        -0.22155E-11         0.00000E+00
    0.20077E-07        -0.17414E-11         0.00000E+00
    0.20171E-07        -0.12016E-11         0.00000E+00
    0.20260E-07        -0.58769E-12         0.00000E+00
    0.20342E-07         0.10895E-12         0.00000E+00
    0.20418E-07         0.89616E-12         0.00000E+00
    0.20487E-07         0.17799E-11         0.00000E+00
    0.20550E-07         0.27625E-11         0.00000E+00
    0.20605E-07         0.38400E-11         0.00000E+00
    0.20653E-07         0.49987E-11         0.00000E+00
    0.20694E-07         0.62095E-11         0.00000E+00
    0.20727E-07         0.74208E-11         0.00000E+00
    0.20752E-07         0.85464E-11         0.00000E+00
    0.20768E-07         0.94470E-11         0.00000E+00
    0.20777E-07         0.98965E-11         0.00000E+00
    0.20777E-07         0.95102E-11         0.00000E+00
    0.20767E-07         0.76045E-11         0.00000E+00
    0.20749E-07         0.30810E-11         0.00000E+00
    0.96599E-08         0.22950E-11         0.00000E+00
    0.96448E-08         0.56306E-11         0.00000E+00
    0.96365E-08         0.70059E-11         0.00000E+00
    0.96351E-08         0.73035E-11         0.00000E+00
    0.96404E-08         0.70297E-11         0.00000E+00
    0.96520E-08         0.64538E-11         0.00000E+00
    0.96699E-08         0.57309E-11         0.00000E+00
    0.96937E-08         0.49549E-11         0.00000E+00
    0.97233E-08         0.41833E-11         0.00000E+00
    0.97586E-08         0.34499E-11         0.00000E+00
    0.97994E-08         0.27730E-11         0.00000E+00
    0.98457E-08         0.21606E-11         0.00000E+00
    0.98973E-08         0.16142E-11         0.00000E+00
    0.99541E-08         0.11310E-11         0.00000E+00
    0.10016E-07         0.70612E-12         0.00000E+00
    0.10083E-07         0.33324E-12         0.00000E+00
    0.10155E-07         0.58151E-14         0.00000E+00
    0.10232E-07        -0.28258E-12         0.00000E+00
    0.10313E-07        -0.53794E-12         0.00000E+00
    0.10400E-07        -0.76565E-12         0.00000E+00
    0.10491E-07        -0.97043E-12         0.00000E+00
    0.10586E-07        -0.11564E-11         0.00000E+00
    0.10686E-07        -0.13269E-11         0.00000E+00
    0.10790E-07        -0.14849E-11         0.00000E+00
    0.10899E-07        -0.16327E-11         0.00000E+00
    0.11011E-07        -0.17723E-11         0.00000E+00
    0.11128E-07        -0.19053E-11         0.00000E+00
    0.11249E-07        -0.20330E-11         0.00000E+00
    0.11373E-07        -0.21563E-11         0.00000E+00
    0.11502E-07        -0.22761E-11         0.00000E+00
    0.11634E-07        -0.23930E-11         0.00000E+00
    0.11769E-07        -0.25074E-11         0.00000E+00
    0.11909E-07        -0.26198E-11         0.00000E+00
    0.12051E-07        -0.27303E-11         0.00000E+00
    0.12197E-07        -0.28392E-11         0.00000E+00
    0.12346E-07        -0.29467E-11         0.00000E+00
    0.12498E-07        -0.30526E-11         0.00000E+00
    0.12653E-07        -0.31572E-11         0.00000E+00
    0.12810E-07        -0.32604E-11         0.00000E+00
    0.12971E-07        -0.33620E-11         0.00000E+00
    0.13134E-07        -0.34621E-11         0.00000E+00
    0.13299E-07        -0.35605E-11         0.00000E+00
    0.13466E-07        -0.36571E-11         0.00000E+00
    0.13636E-07        -0.37516E-11         0.00000E+00
    0.13807E-07        -0.38441E-11         0.00000E+00
    0.13981E-07        -0.39342E-11         0.00000E+00
    0.14156E-07        -0.40217E-11         0.00000E+00
    0.14332E-07        -0.41064E-11         0.00000E+00
    0.14510E-07        -0.41881E-11         0.00000E+00
    0.14689E-07        -0.42665E-11         0.00000E+00
    0.14869E-07        -0.43413E-11         0.00000E+00
    0.15049E-07        -0.44122E-11         0.00000E+00
    0.15231E-07        -0.44789E-11         0.00000E+00
    0.15412E-07        -0.45411E-11         0.00000E+00
    0.15594E-07        -0.45985E-11         0.00000E+00
    0.15776E-07        -0.46508E-11         0.00000E+00
    0.15958E-07        -0.46975E-11         0.00000E+00
    0.16140E-07        -0.47383E-11         0.00000E+00
    0.16321E-07        -0.47729E-11         0.00000E+00
    0.16502E-07        -0.48008E-11         0.00000E+00
    0.16681E-07        -0.48217E-11         0.00000E+00
    0.16860E-07        -0.48351E-11         0.00000E+00
    0.17037E-07        -0.48407E-11         0.00000E+00
    0.17212E-07        -0.48379E-11         0.00000E+00
    0.17386E-07        -0.48264E-11         0.00000E+00
    0.17558E-07        -0.48055E-11         0.00000E+00
    0.17728E-07        -0.47749E-11         0.00000E+00
    0.17895E-07        -0.47339E-11         0.00000E+00
    0.18060E-07        -0.46819E-11         0.00000E+00
    0.18222E-07        -0.46182E-11         0.00000E+00
    0.18381E-07        -0.45421E-11         0.00000E+00
    0.18537E-07        -0.44525E-11         0.00000E+00
    0.18689E-07        -0.43485E-11         0.00000E+00
    0.18838E-07        -0.42288E-11         0.00000E+00
    0.18982E-07        -0.40920E-11         0.00000E+00
    0.19123E-07        -0.39361E-11         0.00000E+00
    0.19259E-07        -0.37591E-11         0.00000E+00
    0.19391E-07        -0.35584E-11         0.00000E+00
    0.19518E-07        -0.33309E-11         0.00000E+00
    0.19641E-07        -0.30729E-11         0.00000E+00
    0.19758E-07        -0.27800E-11         0.00000E+00
    0.19870E-07        -0.24471E-11         0.00000E+00
    0.19976E-07        -0.20681E-11         0.00000E+00
    0.20077E-07        -0.16363E-11         0.00000E+00
    0.20172E-07        -0.11443E-11         0.00000E+00
    0.20260E-07        -0.58404E-12         0.00000E+00
    0.20343E-07         0.52571E-13         0.00000E+00
    0.20418E-07         0.77305E-12         0.00000E+00
    0.20488E-07         0.15833E-11         0.00000E+00
    0.20550E-07         0.24862E-11         0.00000E+00
    0.20605E-07         0.34788E-11         0.00000E+00
    0.20653E-07         0.45498E-11         0.00000E+00
    0.20694E-07         0.56740E-11         0.00000E+00
    0.20727E-07         0.68060E-11         0.00000E+00
    0.20752E-07         0.78695E-11         0.00000E+00
    0.20769E-07         0.87401E-11         0.00000E+00
    0.20777E-07         0.92133E-11         0.00000E+00
    0.20776E-07         0.89349E-11         0.00000E+00
    0.20767E-07         0.72383E-11         0.00000E+00
    0.20748E-07         0.29628E-11         0.00000E+00
    0.96608E-08         0.21799E-11         0.00000E+00
    0.96452E-08         0.52861E-11         0.00000E+00
    0.96366E-08         0.64829E-11         0.00000E+00
    0.96351E-08         0.66943E-11         0.00000E+00
    0.96403E-08         0.64032E-11         0.00000E+00
    0.96519E-08         0.58517E-11         0.00000E+00
    0.96697E-08         0.51770E-11         0.00000E+00
    0.96935E-08         0.44616E-11         0.00000E+00
    0.97231E-08         0.37553E-11         0.00000E+00
    0.97584E-08         0.30873E-11         0.00000E+00
    0.97993E-08         0.24731E-11         0.00000E+00
    0.98456E-08         0.19190E-11         0.00000E+00
    0.98972E-08         0.14259E-11         0.00000E+00
    0.99540E-08         0.99077E-12         0.00000E+00
    0.10016E-07         0.60878E-12         0.00000E+00
    0.10083E-07         0.27408E-12         0.00000E+00
    0.10155E-07        -0.19437E-13         0.00000E+00
    0.10232E-07        -0.27769E-12         0.00000E+00
    0.10313E-07        -0.50617E-12         0.00000E+00
    0.10400E-07        -0.70979E-12         0.00000E+00
    0.10491E-07        -0.89285E-12         0.00000E+00
    0.10586E-07        -0.10590E-11         0.00000E+00
    0.10686E-07        -0.12115E-11         0.00000E+00
    0.10790E-07        -0.13528E-11         0.00000E+00
    0.10899E-07        -0.14851E-11         0.00000E+00
    0.11011E-07        -0.16101E-11         0.00000E+00
    0.11128E-07        -0.17293E-11         0.00000E+00
    0.11249E-07        -0.18437E-11         0.00000E+00
    0.11373E-07        -0.19544E-11         0.00000E+00
    0.11502E-07        -0.20620E-11         0.00000E+00
    0.11634E-07        -0.21670E-11         0.00000E+00
    0.11769E-07        -0.22699E-11         0.00000E+00
    0.11909E-07        -0.23710E-11         0.00000E+00
    0.12051E-07        -0.24706E-11         0.00000E+00
    0.12197E-07        -0.25687E-11         0.00000E+00
    0.12346E-07        -0.26655E-11         0.00000E+00
    0.12498E-07        -0.27611E-11         0.00000E+00
    0.12653E-07        -0.28554E-11         0.00000E+00
    0.12810E-07        -0.29485E-11         0.00000E+00
    0.12971E-07        -0.30403E-11         0.00000E+00
    0.13134E-07        -0.31307E-11         0.00000E+00
    0.13299E-07        -0.32196E-11         0.00000E+00
    0.13466E-07        -0.33069E-11         0.00000E+00
    0.13636E-07        -0.33924E-11         0.00000E+00
    0.13807E-07        -0.34760E-11         0.00000E+00
    0.13981E-07        -0.35575E-11         0.00000E+00
    0.14156E-07        -0.36367E-11         0.00000E+00
    0.14332E-07        -0.37134E-11         0.00000E+00
    0.14510E-07        -0.37873E-11         0.00000E+00
    0.14689E-07        -0.38583E-11         0.00000E+00
    0.14869E-07        -0.39261E-11         0.00000E+00
    0.15049E-07        -0.39904E-11         0.00000E+00
    0.15231E-07        -0.40509E-11         0.00000E+00
    0.15412E-07        -0.41074E-11         0.00000E+00
    0.15594E-07        -0.41595E-11         0.00000E+00
    0.15776E-07        -0.42070E-11         0.00000E+00
    0.15958E-07        -0.42495E-11         0.00000E+00
    0.16140E-07        -0.42867E-11         0.00000E+00
    0.16321E-07        -0.43183E-11         0.00000E+00
    0.16502E-07        -0.43439E-11         0.00000E+00
    0.16681E-07        -0.43631E-11         0.00000E+00
    0.16860E-07        -0.43757E-11         0.00000E+00
    0.17037E-07        -0.43811E-11         0.00000E+00
    0.17212E-07        -0.43791E-11         0.00000E+00
    0.17386E-07        -0.43692E-11         0.00000E+00
    0.17558E-07        -0.43510E-11         0.00000E+00
    0.17728E-07        -0.43239E-11         0.00000E+00
    0.17895E-07        -0.42875E-11         0.00000E+00
    0.18060E-07        -0.42413E-11         0.00000E+00
    0.18222E-07        -0.41846E-11         0.00000E+00
    0.18381E-07        -0.41166E-11         0.00000E+00
    0.18537E-07        -0.40367E-11         0.00000E+00
    0.18689E-07        -0.39438E-11         0.00000E+00
    0.18838E-07        -0.38369E-11         0.00000E+00
    0.18982E-07        -0.37145E-11         0.00000E+00
    0.19123E-07        -0.35752E-11         0.00000E+00
    0.19259E-07        -0.34169E-11         0.00000E+00
    0.19391E-07        -0.32374E-11         0.00000E+00
    0.19519E-07        -0.30339E-11         0.00000E+00
    0.19641E-07        -0.28030E-11         0.00000E+00
    0.19758E-07        -0.25407E-11         0.00000E+00
    0.19870E-07        -0.22424E-11         0.00000E+00
    0.19976E-07        -0.19026E-11         0.00000E+00
    0.20077E-07        -0.15153E-11         0.00000E+00
    0.20172E-07        -0.10734E-11         0.00000E+00
    0.20260E-07        -0.56961E-12         0.00000E+00
    0.20343E-07         0.35379E-14         0.00000E+00
    0.20419E-07         0.65320E-12         0.00000E+00
    0.20488E-07         0.13852E-11         0.00000E+00
    0.20550E-07         0.22025E-11         0.00000E+00
    0.20605E-07         0.31035E-11         0.00000E+00
    0.20653E-07         0.40789E-11         0.00000E+00
    0.20694E-07         0.51074E-11         0.00000E+00
    0.20727E-07         0.61499E-11         0.00000E+00
    0.20752E-07         0.71399E-11         0.00000E+00
    0.20769E-07         0.79682E-11         0.00000E+00
    0.20777E-07         0.84540E-11         0.00000E+00
    0.20776E-07         0.82782E-11         0.00000E+00
    0.20766E-07         0.68053E-11         0.00000E+00
    0.20747E-07         0.28185E-11         0.00000E+00
    0.96617E-08         0.20409E-11         0.00000E+00
    0.96455E-08         0.48828E-11         0.00000E+00
    0.96367E-08         0.58915E-11         0.00000E+00
    0.96351E-08         0.60232E-11         0.00000E+00
    0.96402E-08         0.57246E-11         0.00000E+00
    0.96518E-08         0.52070E-11         0.00000E+00
    0.96696E-08         0.45892E-11         0.00000E+00
    0.96934E-08         0.39419E-11         0.00000E+00
    0.97230E-08         0.33075E-11         0.00000E+00
    0.97583E-08         0.27105E-11         0.00000E+00
    0.97992E-08         0.21635E-11         0.00000E+00
    0.98455E-08         0.16716E-11         0.00000E+00
    0.98971E-08         0.12349E-11         0.00000E+00
    0.99539E-08         0.85036E-12         0.00000E+00
    0.10016E-07         0.51340E-12         0.00000E+00
    0.10083E-07         0.21862E-12         0.00000E+00
    0.10155E-07        -0.39553E-13         0.00000E+00
    0.10232E-07        -0.26646E-12         0.00000E+00
    0.10313E-07        -0.46705E-12         0.00000E+00
    0.10400E-07        -0.64571E-12         0.00000E+00
    0.10491E-07        -0.80630E-12         0.00000E+00
    0.10586E-07        -0.95208E-12         0.00000E+00
    0.10686E-07        -0.10858E-11         0.00000E+00
    0.10790E-07        -0.12098E-11         0.00000E+00
    0.10899E-07        -0.13260E-11         0.00000E+00
    0.11011E-07        -0.14359E-11         0.00000E+00
    0.11128E-07        -0.15407E-11         0.00000E+00
    0.11249E-07        -0.16414E-11         0.00000E+00
    0.11373E-07        -0.17389E-11         0.00000E+00
    0.11502E-07        -0.18337E-11         0.00000E+00
    0.11634E-07        -0.19264E-11         0.00000E+00
    0.11769E-07        -0.20172E-11         0.00000E+00
    0.11909E-07        -0.21065E-11         0.00000E+00
    0.12051E-07        -0.21945E-11         0.00000E+00
    0.12197E-07        -0.22813E-11         0.00000E+00
    0.12346E-07        -0.23670E-11         0.00000E+00
    0.12498E-07        -0.24516E-11         0.00000E+00
    0.12653E-07        -0.25351E-11         0.00000E+00
    0.12810E-07        -0.26176E-11         0.00000E+00
    0.12971E-07        -0.26989E-11         0.00000E+00
    0.13134E-07        -0.27791E-11         0.00000E+00
    0.13299E-07        -0.28579E-11         0.00000E+00
    0.13466E-07        -0.29354E-11         0.00000E+00
    0.13636E-07        -0.30113E-11         0.00000E+00
    0.13807E-07        -0.30855E-11         0.00000E+00
    0.13981E-07        -0.31578E-11         0.00000E+00
    0.14156E-07        -0.32282E-11         0.00000E+00
    0.14332E-07        -0.32963E-11         0.00000E+00
    0.14510E-07        -0.33621E-11         0.00000E+00
    0.14689E-07        -0.34252E-11         0.00000E+00
    0.14869E-07        -0.34855E-11         0.00000E+00
    0.15049E-07        -0.35427E-11         0.00000E+00
    0.15231E-07        -0.35966E-11         0.00000E+00
    0.15412E-07        -0.36469E-11         0.00000E+00
    0.15594E-07        -0.36933E-11         0.00000E+00
    0.15776E-07        -0.37357E-11         0.00000E+00
    0.15958E-07        -0.37737E-11         0.00000E+00
    0.16140E-07        -0.38070E-11         0.00000E+00
    0.16321E-07        -0.38353E-11         0.00000E+00
    0.16502E-07        -0.38583E-11         0.00000E+00
    0.16681E-07        -0.38758E-11         0.00000E+00
    0.16860E-07        -0.38873E-11         0.00000E+00
    0.17037E-07        -0.38925E-11         0.00000E+00
    0.17212E-07        -0.38912E-11         0.00000E+00
    0.17386E-07        -0.38828E-11         0.00000E+00
    0.17558E-07        -0.38672E-11         0.00000E+00
    0.17728E-07        -0.38437E-11         0.00000E+00
    0.17895E-07        -0.38120E-11         0.00000E+00
    0.18060E-07        -0.37717E-11         0.00000E+00
    0.18222E-07        -0.37221E-11         0.00000E+00
    0.18381E-07        -0.36626E-11         0.00000E+00
    0.18537E-07        -0.35926E-11         0.00000E+00
    0.18689E-07        -0.35112E-11         0.00000E+00
    0.18838E-07        -0.34174E-11         0.00000E+00
    0.18982E-07        -0.33101E-11         0.00000E+00
    0.19123E-07        -0.31878E-11         0.00000E+00
    0.19259E-07        -0.30489E-11         0.00000E+00
    0.19391E-07        -0.28914E-11         0.00000E+00
    0.19519E-07        -0.27127E-11         0.00000E+00
    0.19641E-07        -0.25099E-11         0.00000E+00
    0.19758E-07        -0.22794E-11         0.00000E+00
    0.19870E-07        -0.20172E-11         0.00000E+00
    0.19976E-07        -0.17183E-11         0.00000E+00
    0.20077E-07        -0.13772E-11         0.00000E+00
    0.20172E-07        -0.98775E-12         0.00000E+00
    0.20260E-07        -0.54329E-12         0.00000E+00
    0.20343E-07        -0.36925E-13         0.00000E+00
    0.20419E-07         0.53794E-12         0.00000E+00
    0.20488E-07         0.11868E-11         0.00000E+00
    0.20550E-07         0.19130E-11         0.00000E+00
    0.20606E-07         0.27156E-11         0.00000E+00
    0.20654E-07         0.35874E-11         0.00000E+00
    0.20694E-07         0.45108E-11         0.00000E+00
    0.20727E-07         0.54529E-11         0.00000E+00
    0.20752E-07         0.63572E-11         0.00000E+00
    0.20769E-07         0.71299E-11         0.00000E+00
    0.20777E-07         0.76146E-11         0.00000E+00
    0.20776E-07         0.75325E-11         0.00000E+00
    0.20766E-07         0.62953E-11         0.00000E+00
    0.20746E-07         0.26430E-11         0.00000E+00
    0.96624E-08         0.18730E-11         0.00000E+00
    0.96458E-08         0.44114E-11         0.00000E+00
    0.96368E-08         0.52257E-11         0.00000E+00
    0.96350E-08         0.52875E-11         0.00000E+00
    0.96401E-08         0.49928E-11         0.00000E+00
    0.96517E-08         0.45197E-11         0.00000E+00
    0.96694E-08         0.39681E-11         0.00000E+00
    0.96932E-08         0.33969E-11         0.00000E+00
    0.97229E-08         0.28410E-11         0.00000E+00
    0.97582E-08         0.23205E-11         0.00000E+00
    0.97991E-08         0.18454E-11         0.00000E+00
    0.98454E-08         0.14194E-11         0.00000E+00
    0.98970E-08         0.10422E-11         0.00000E+00
    0.99539E-08         0.71073E-12         0.00000E+00
    0.10016E-07         0.42082E-12         0.00000E+00
    0.10083E-07         0.16759E-12         0.00000E+00
    0.10155E-07        -0.53884E-13         0.00000E+00
    0.10232E-07        -0.24834E-12         0.00000E+00
    0.10313E-07        -0.42009E-12         0.00000E+00
    0.10400E-07        -0.57300E-12         0.00000E+00
    0.10490E-07        -0.71039E-12         0.00000E+00
    0.10586E-07        -0.83512E-12         0.00000E+00
    0.10686E-07        -0.94958E-12         0.00000E+00
    0.10790E-07        -0.10558E-11         0.00000E+00
    0.10898E-07        -0.11553E-11         0.00000E+00
    0.11011E-07        -0.12495E-11         0.00000E+00
    0.11128E-07        -0.13394E-11         0.00000E+00
    0.11249E-07        -0.14259E-11         0.00000E+00
    0.11373E-07        -0.15097E-11         0.00000E+00
    0.11502E-07        -0.15912E-11         0.00000E+00
    0.11634E-07        -0.16710E-11         0.00000E+00
    0.11769E-07        -0.17492E-11         0.00000E+00
    0.11909E-07        -0.18262E-11         0.00000E+00
    0.12051E-07        -0.19021E-11         0.00000E+00
    0.12197E-07        -0.19769E-11         0.00000E+00
    0.12346E-07        -0.20509E-11         0.00000E+00
    0.12498E-07        -0.21240E-11         0.00000E+00
    0.12653E-07        -0.21962E-11         0.00000E+00
    0.12810E-07        -0.22675E-11         0.00000E+00
    0.12971E-07        -0.23379E-11         0.00000E+00
    0.13134E-07        -0.24072E-11         0.00000E+00
    0.13299E-07        -0.24755E-11         0.00000E+00
    0.13466E-07        -0.25425E-11         0.00000E+00
    0.13636E-07        -0.26082E-11         0.00000E+00
    0.13807E-07        -0.26725E-11         0.00000E+00
    0.13981E-07        -0.27352E-11         0.00000E+00
    0.14156E-07        -0.27962E-11         0.00000E+00
    0.14332E-07        -0.28553E-11         0.00000E+00
    0.14510E-07        -0.29123E-11         0.00000E+00
    0.14689E-07        -0.29671E-11         0.00000E+00
    0.14869E-07        -0.30194E-11         0.00000E+00
    0.15049E-07        -0.30691E-11         0.00000E+00
    0.15231E-07        -0.31159E-11         0.00000E+00
    0.15412E-07        -0.31596E-11         0.00000E+00
    0.15594E-07        -0.32000E-11         0.00000E+00
    0.15776E-07        -0.32369E-11         0.00000E+00
    0.15958E-07        -0.32700E-11         0.00000E+00
    0.16140E-07        -0.32991E-11         0.00000E+00
    0.16321E-07        -0.33239E-11         0.00000E+00
    0.16502E-07        -0.33441E-11         0.00000E+00
    0.16681E-07        -0.33595E-11         0.00000E+00
    0.16860E-07        -0.33698E-11         0.00000E+00
    0.17037E-07        -0.33747E-11         0.00000E+00
    0.17212E-07        -0.33738E-11         0.00000E+00
    0.17386E-07        -0.33670E-11         0.00000E+00
    0.17558E-07        -0.33539E-11         0.00000E+00
    0.17728E-07        -0.33341E-11         0.00000E+00
    0.17895E-07        -0.33072E-11         0.00000E+00
    0.18060E-07        -0.32728E-11         0.00000E+00
    0.18222E-07        -0.32305E-11         0.00000E+00
    0.18381E-07        -0.31797E-11         0.00000E+00
    0.18537E-07        -0.31199E-11         0.00000E+00
    0.18689E-07        -0.30503E-11         0.00000E+00
    0.18838E-07        -0.29701E-11         0.00000E+00
    0.18982E-07        -0.28782E-11         0.00000E+00
    0.19123E-07        -0.27736E-11         0.00000E+00
    0.19259E-07        -0.26547E-11         0.00000E+00
    0.19391E-07        -0.25198E-11         0.00000E+00
    0.19519E-07        -0.23667E-11         0.00000E+00
    0.19641E-07        -0.21930E-11         0.00000E+00
    0.19758E-07        -0.19955E-11         0.00000E+00
    0.19870E-07        -0.17706E-11         0.00000E+00
    0.19976E-07        -0.15141E-11         0.00000E+00
    0.20077E-07        -0.12212E-11         0.00000E+00
    0.20172E-07        -0.88640E-12         0.00000E+00
    0.20260E-07        -0.50390E-12         0.00000E+00
    0.20343E-07        -0.67537E-13         0.00000E+00
    0.20419E-07         0.42864E-12         0.00000E+00
    0.20488E-07         0.98974E-12         0.00000E+00
    0.20550E-07         0.16190E-11         0.00000E+00
    0.20606E-07         0.23165E-11         0.00000E+00
    0.20654E-07         0.30766E-11         0.00000E+00
    0.20694E-07         0.38853E-11         0.00000E+00
    0.20727E-07         0.47158E-11         0.00000E+00
    0.20752E-07         0.55213E-11         0.00000E+00
    0.20769E-07         0.62238E-11         0.00000E+00
    0.20777E-07         0.66915E-11         0.00000E+00
    0.20776E-07         0.66895E-11         0.00000E+00
    0.20765E-07         0.56959E-11         0.00000E+00
    0.20745E-07         0.24293E-11         0.00000E+00
    0.96631E-08         0.16695E-11         0.00000E+00
    0.96461E-08         0.38609E-11         0.00000E+00
    0.96368E-08         0.44793E-11         0.00000E+00
    0.96350E-08         0.44847E-11         0.00000E+00
    0.96400E-08         0.42070E-11         0.00000E+00
    0.96516E-08         0.37899E-11         0.00000E+00
    0.96693E-08         0.33144E-11         0.00000E+00
    0.96931E-08         0.28275E-11         0.00000E+00
    0.97228E-08         0.23570E-11         0.00000E+00
    0.97581E-08         0.19186E-11         0.00000E+00
    0.97990E-08         0.15199E-11         0.00000E+00
    0.98453E-08         0.11636E-11         0.00000E+00
    0.98969E-08         0.84879E-12         0.00000E+00
    0.99538E-08         0.57281E-12         0.00000E+00
    0.10016E-07         0.33187E-12         0.00000E+00
    0.10083E-07         0.12176E-12         0.00000E+00
    0.10155E-07        -0.61765E-13         0.00000E+00
    0.10232E-07        -0.22273E-12         0.00000E+00
    0.10313E-07        -0.36479E-12         0.00000E+00
    0.10400E-07        -0.49119E-12         0.00000E+00
    0.10490E-07        -0.60475E-12         0.00000E+00
    0.10586E-07        -0.70784E-12         0.00000E+00
    0.10686E-07        -0.80248E-12         0.00000E+00
    0.10790E-07        -0.89030E-12         0.00000E+00
    0.10898E-07        -0.97267E-12         0.00000E+00
    0.11011E-07        -0.10507E-11         0.00000E+00
    0.11128E-07        -0.11252E-11         0.00000E+00
    0.11249E-07        -0.11970E-11         0.00000E+00
    0.11373E-07        -0.12666E-11         0.00000E+00
    0.11502E-07        -0.13344E-11         0.00000E+00
    0.11634E-07        -0.14007E-11         0.00000E+00
    0.11769E-07        -0.14658E-11         0.00000E+00
    0.11909E-07        -0.15299E-11         0.00000E+00
    0.12051E-07        -0.15932E-11         0.00000E+00
    0.12197E-07        -0.16556E-11         0.00000E+00
    0.12346E-07        -0.17174E-11         0.00000E+00
    0.12498E-07        -0.17784E-11         0.00000E+00
    0.12653E-07        -0.18387E-11         0.00000E+00
    0.12810E-07        -0.18983E-11         0.00000E+00
    0.12971E-07        -0.19571E-11         0.00000E+00
    0.13134E-07        -0.20150E-11         0.00000E+00
    0.13299E-07        -0.20721E-11         0.00000E+00
    0.13466E-07        -0.21282E-11         0.00000E+00
    0.13636E-07        -0.21832E-11         0.00000E+00
    0.13807E-07        -0.22370E-11         0.00000E+00
    0.13981E-07        -0.22895E-11         0.00000E+00
    0.14156E-07        -0.23406E-11         0.00000E+00
    0.14332E-07        -0.23901E-11         0.00000E+00
    0.14510E-07        -0.24379E-11         0.00000E+00
    0.14689E-07        -0.24838E-11         0.00000E+00
    0.14869E-07        -0.25277E-11         0.00000E+00
    0.15049E-07        -0.25694E-11         0.00000E+00
    0.15231E-07        -0.26087E-11         0.00000E+00
    0.15412E-07        -0.26455E-11         0.00000E+00
    0.15594E-07        -0.26794E-11         0.00000E+00
    0.15776E-07        -0.27105E-11         0.00000E+00
    0.15958E-07        -0.27384E-11         0.00000E+00
    0.16140E-07        -0.27629E-11         0.00000E+00
    0.16321E-07        -0.27838E-11         0.00000E+00
    0.16502E-07        -0.28010E-11         0.00000E+00
    0.16681E-07        -0.28141E-11         0.00000E+00
    0.16860E-07        -0.28230E-11         0.00000E+00
    0.17037E-07        -0.28274E-11         0.00000E+00
    0.17212E-07        -0.28270E-11         0.00000E+00
    0.17386E-07        -0.28217E-11         0.00000E+00
    0.17558E-07        -0.28110E-11         0.00000E+00
    0.17728E-07        -0.27948E-11         0.00000E+00
    0.17895E-07        -0.27728E-11         0.00000E+00
    0.18060E-07        -0.27445E-11         0.00000E+00
    0.18222E-07        -0.27097E-11         0.00000E+00
    0.18381E-07        -0.26678E-11         0.00000E+00
    0.18537E-07        -0.26184E-11         0.00000E+00
    0.18689E-07        -0.25608E-11         0.00000E+00
    0.18838E-07        -0.24945E-11         0.00000E+00
    0.18982E-07        -0.24186E-11         0.00000E+00
    0.19123E-07        -0.23321E-11         0.00000E+00
    0.19260E-07        -0.22338E-11         0.00000E+00
    0.19391E-07        -0.21222E-11         0.00000E+00
    0.19519E-07        -0.19955E-11         0.00000E+00
    0.19641E-07        -0.18517E-11         0.00000E+00
    0.19758E-07        -0.16881E-11         0.00000E+00
    0.19870E-07        -0.15018E-11         0.00000E+00
    0.19976E-07        -0.12892E-11         0.00000E+00
    0.20077E-07        -0.10462E-11         0.00000E+00
    0.20172E-07        -0.76822E-12         0.00000E+00
    0.20261E-07        -0.45023E-12         0.00000E+00
    0.20343E-07        -0.86965E-13         0.00000E+00
    0.20419E-07         0.32674E-12         0.00000E+00
    0.20488E-07         0.79546E-12         0.00000E+00
    0.20551E-07         0.13223E-11         0.00000E+00
    0.20606E-07         0.19078E-11         0.00000E+00
    0.20654E-07         0.25480E-11         0.00000E+00
    0.20695E-07         0.32323E-11         0.00000E+00
    0.20727E-07         0.39395E-11         0.00000E+00
    0.20752E-07         0.46324E-11         0.00000E+00
    0.20769E-07         0.52485E-11         0.00000E+00
    0.20777E-07         0.56813E-11         0.00000E+00
    0.20776E-07         0.57408E-11         0.00000E+00
    0.20765E-07         0.49923E-11         0.00000E+00
    0.20744E-07         0.21688E-11         0.00000E+00
    0.96638E-08         0.14216E-11         0.00000E+00
    0.96462E-08         0.32177E-11         0.00000E+00
    0.96369E-08         0.36463E-11         0.00000E+00
    0.96350E-08         0.36127E-11         0.00000E+00
    0.96400E-08         0.33665E-11         0.00000E+00
    0.96515E-08         0.30181E-11         0.00000E+00
    0.96693E-08         0.26290E-11         0.00000E+00
    0.96930E-08         0.22349E-11         0.00000E+00
    0.97227E-08         0.18567E-11         0.00000E+00
    0.97580E-08         0.15060E-11         0.00000E+00
    0.97989E-08         0.11884E-11         0.00000E+00
    0.98452E-08         0.90528E-12         0.00000E+00
    0.98969E-08         0.65583E-12         0.00000E+00
    0.99538E-08         0.43761E-12         0.00000E+00
    0.10016E-07         0.24746E-12         0.00000E+00
    0.10083E-07         0.81903E-13         0.00000E+00
    0.10155E-07        -0.62512E-13         0.00000E+00
    0.10232E-07        -0.18904E-12         0.00000E+00
    0.10313E-07        -0.30062E-12         0.00000E+00
    0.10400E-07        -0.39986E-12         0.00000E+00
    0.10490E-07        -0.48899E-12         0.00000E+00
    0.10586E-07        -0.56992E-12         0.00000E+00
    0.10686E-07        -0.64423E-12         0.00000E+00
    0.10790E-07        -0.71323E-12         0.00000E+00
    0.10898E-07        -0.77799E-12         0.00000E+00
    0.11011E-07        -0.83938E-12         0.00000E+00
    0.11128E-07        -0.89809E-12         0.00000E+00
    0.11249E-07        -0.95466E-12         0.00000E+00
    0.11373E-07        -0.10095E-11         0.00000E+00
    0.11502E-07        -0.10631E-11         0.00000E+00
    0.11634E-07        -0.11155E-11         0.00000E+00
    0.11769E-07        -0.11670E-11         0.00000E+00
    0.11908E-07        -0.12177E-11         0.00000E+00
    0.12051E-07        -0.12678E-11         0.00000E+00
    0.12197E-07        -0.13173E-11         0.00000E+00
    0.12346E-07        -0.13662E-11         0.00000E+00
    0.12498E-07        -0.14146E-11         0.00000E+00
    0.12653E-07        -0.14624E-11         0.00000E+00
    0.12810E-07        -0.15097E-11         0.00000E+00
    0.12971E-07        -0.15564E-11         0.00000E+00
    0.13134E-07        -0.16025E-11         0.00000E+00
    0.13299E-07        -0.16478E-11         0.00000E+00
    0.13466E-07        -0.16924E-11         0.00000E+00
    0.13636E-07        -0.17361E-11         0.00000E+00
    0.13807E-07        -0.17790E-11         0.00000E+00
    0.13981E-07        -0.18207E-11         0.00000E+00
    0.14156E-07        -0.18614E-11         0.00000E+00
    0.14332E-07        -0.19008E-11         0.00000E+00
    0.14510E-07        -0.19389E-11         0.00000E+00
    0.14689E-07        -0.19754E-11         0.00000E+00
    0.14869E-07        -0.20104E-11         0.00000E+00
    0.15049E-07        -0.20436E-11         0.00000E+00
    0.15231E-07        -0.20750E-11         0.00000E+00
    0.15412E-07        -0.21043E-11         0.00000E+00
    0.15594E-07        -0.21315E-11         0.00000E+00
    0.15776E-07        -0.21563E-11         0.00000E+00
    0.15958E-07        -0.21786E-11         0.00000E+00
    0.16140E-07        -0.21982E-11         0.00000E+00
    0.16321E-07        -0.22151E-11         0.00000E+00
    0.16502E-07        -0.22289E-11         0.00000E+00
    0.16681E-07        -0.22395E-11         0.00000E+00
    0.16860E-07        -0.22468E-11         0.00000E+00
    0.17037E-07        -0.22505E-11         0.00000E+00
    0.17212E-07        -0.22505E-11         0.00000E+00
    0.17386E-07        -0.22465E-11         0.00000E+00
    0.17558E-07        -0.22383E-11         0.00000E+00
    0.17728E-07        -0.22258E-11         0.00000E+00
    0.17895E-07        -0.22086E-11         0.00000E+00
    0.18060E-07        -0.21865E-11         0.00000E+00
    0.18222E-07        -0.21592E-11         0.00000E+00
    0.18381E-07        -0.21264E-11         0.00000E+00
    0.18537E-07        -0.20877E-11         0.00000E+00
    0.18689E-07        -0.20425E-11         0.00000E+00
    0.18838E-07        -0.19905E-11         0.00000E+00
    0.18982E-07        -0.19309E-11         0.00000E+00
    0.19123E-07        -0.18629E-11         0.00000E+00
    0.19260E-07        -0.17856E-11         0.00000E+00
    0.19391E-07        -0.16980E-11         0.00000E+00
    0.19519E-07        -0.15984E-11         0.00000E+00
    0.19641E-07        -0.14854E-11         0.00000E+00
    0.19758E-07        -0.13567E-11         0.00000E+00
    0.19870E-07        -0.12101E-11         0.00000E+00
    0.19976E-07        -0.10428E-11         0.00000E+00
    0.20077E-07        -0.85130E-12         0.00000E+00
    0.20172E-07        -0.63208E-12         0.00000E+00
    0.20261E-07        -0.38101E-12         0.00000E+00
    0.20343E-07        -0.93824E-13         0.00000E+00
    0.20419E-07         0.23377E-12         0.00000E+00
    0.20488E-07         0.60562E-12         0.00000E+00
    0.20551E-07         0.10245E-11         0.00000E+00
    0.20606E-07         0.14913E-11         0.00000E+00
    0.20654E-07         0.20035E-11         0.00000E+00
    0.20695E-07         0.25533E-11         0.00000E+00
    0.20728E-07         0.31251E-11         0.00000E+00
    0.20753E-07         0.36909E-11         0.00000E+00
    0.20769E-07         0.42034E-11         0.00000E+00
    0.20777E-07         0.45811E-11         0.00000E+00
    0.20776E-07         0.46785E-11         0.00000E+00
    0.20765E-07         0.41666E-11         0.00000E+00
    0.20743E-07         0.18497E-11         0.00000E+00
    0.96643E-08         0.11172E-11         0.00000E+00
    0.96464E-08         0.24658E-11         0.00000E+00
    0.96369E-08         0.27211E-11         0.00000E+00
    0.96349E-08         0.26697E-11         0.00000E+00
    0.96399E-08         0.24711E-11         0.00000E+00
    0.96514E-08         0.22047E-11         0.00000E+00
    0.96692E-08         0.19129E-11         0.00000E+00
    0.96930E-08         0.16204E-11         0.00000E+00
    0.97226E-08         0.13416E-11         0.00000E+00
    0.97580E-08         0.10843E-11         0.00000E+00
    0.97989E-08         0.85207E-12         0.00000E+00
    0.98452E-08         0.64576E-12         0.00000E+00
    0.98968E-08         0.46443E-12         0.00000E+00
    0.99537E-08         0.30615E-12         0.00000E+00
    0.10016E-07         0.16849E-12         0.00000E+00
    0.10083E-07         0.48822E-13         0.00000E+00
    0.10155E-07        -0.55425E-13         0.00000E+00
    0.10232E-07        -0.14666E-12         0.00000E+00
    0.10313E-07        -0.22707E-12         0.00000E+00
    0.10400E-07        -0.29854E-12         0.00000E+00
    0.10490E-07        -0.36273E-12         0.00000E+00
    0.10586E-07        -0.42101E-12         0.00000E+00
    0.10686E-07        -0.47455E-12         0.00000E+00
    0.10790E-07        -0.52430E-12         0.00000E+00
    0.10898E-07        -0.57102E-12         0.00000E+00
    0.11011E-07        -0.61534E-12         0.00000E+00
    0.11128E-07        -0.65777E-12         0.00000E+00
    0.11249E-07        -0.69869E-12         0.00000E+00
    0.11373E-07        -0.73842E-12         0.00000E+00
    0.11502E-07        -0.77719E-12         0.00000E+00
    0.11634E-07        -0.81520E-12         0.00000E+00
    0.11769E-07        -0.85258E-12         0.00000E+00
    0.11908E-07        -0.88943E-12         0.00000E+00
    0.12051E-07        -0.92582E-12         0.00000E+00
    0.12197E-07        -0.96180E-12         0.00000E+00
    0.12346E-07        -0.99740E-12         0.00000E+00
    0.12498E-07        -0.10326E-11         0.00000E+00
    0.12653E-07        -0.10675E-11         0.00000E+00
    0.12810E-07        -0.11019E-11         0.00000E+00
    0.12971E-07        -0.11359E-11         0.00000E+00
    0.13134E-07        -0.11695E-11         0.00000E+00
    0.13299E-07        -0.12026E-11         0.00000E+00
    0.13466E-07        -0.12351E-11         0.00000E+00
    0.13636E-07        -0.12670E-11         0.00000E+00
    0.13807E-07        -0.12983E-11         0.00000E+00
    0.13981E-07        -0.13288E-11         0.00000E+00
    0.14156E-07        -0.13585E-11         0.00000E+00
    0.14332E-07        -0.13872E-11         0.00000E+00
    0.14510E-07        -0.14151E-11         0.00000E+00
    0.14689E-07        -0.14418E-11         0.00000E+00
    0.14869E-07        -0.14674E-11         0.00000E+00
    0.15049E-07        -0.14917E-11         0.00000E+00
    0.15231E-07        -0.15146E-11         0.00000E+00
    0.15412E-07        -0.15361E-11         0.00000E+00
    0.15594E-07        -0.15560E-11         0.00000E+00
    0.15776E-07        -0.15742E-11         0.00000E+00
    0.15958E-07        -0.15906E-11         0.00000E+00
    0.16140E-07        -0.16051E-11         0.00000E+00
    0.16321E-07        -0.16174E-11         0.00000E+00
    0.16502E-07        -0.16277E-11         0.00000E+00
    0.16681E-07        -0.16356E-11         0.00000E+00
    0.16860E-07        -0.16410E-11         0.00000E+00
    0.17037E-07        -0.16439E-11         0.00000E+00
    0.17212E-07        -0.16441E-11         0.00000E+00
    0.17386E-07        -0.16413E-11         0.00000E+00
    0.17558E-07        -0.16356E-11         0.00000E+00
    0.17728E-07        -0.16267E-11         0.00000E+00
    0.17895E-07        -0.16144E-11         0.00000E+00
    0.18060E-07        -0.15986E-11         0.00000E+00
    0.18222E-07        -0.15790E-11         0.00000E+00
    0.18381E-07        -0.15554E-11         0.00000E+00
    0.18537E-07        -0.15275E-11         0.00000E+00
    0.18689E-07        -0.14950E-11         0.00000E+00
    0.18838E-07        -0.14575E-11         0.00000E+00
    0.18982E-07        -0.14145E-11         0.00000E+00
    0.19123E-07        -0.13656E-11         0.00000E+00
    0.19260E-07        -0.13099E-11         0.00000E+00
    0.19391E-07        -0.12466E-11         0.00000E+00
    0.19519E-07        -0.11749E-11         0.00000E+00
    0.19641E-07        -0.10933E-11         0.00000E+00
    0.19758E-07        -0.10005E-11         0.00000E+00
    0.19870E-07        -0.89471E-12         0.00000E+00
    0.19976E-07        -0.77381E-12         0.00000E+00
    0.20077E-07        -0.63542E-12         0.00000E+00
    0.20172E-07        -0.47681E-12         0.00000E+00
    0.20261E-07        -0.29496E-12         0.00000E+00
    0.20343E-07        -0.86671E-13         0.00000E+00
    0.20419E-07         0.15130E-12         0.00000E+00
    0.20488E-07         0.42193E-12         0.00000E+00
    0.20551E-07         0.72747E-12         0.00000E+00
    0.20606E-07         0.10689E-11         0.00000E+00
    0.20654E-07         0.14447E-11         0.00000E+00
    0.20695E-07         0.18499E-11         0.00000E+00
    0.20728E-07         0.22739E-11         0.00000E+00
    0.20753E-07         0.26974E-11         0.00000E+00
    0.20769E-07         0.30878E-11         0.00000E+00
    0.20777E-07         0.33885E-11         0.00000E+00
    0.20776E-07         0.34953E-11         0.00000E+00
    0.20765E-07         0.31974E-11         0.00000E+00
    0.20742E-07         0.14559E-11         0.00000E+00
    0.96646E-08         0.73959E-12         0.00000E+00
    0.96464E-08         0.15860E-11         0.00000E+00
    0.96369E-08         0.17003E-11         0.00000E+00
    0.96349E-08         0.16540E-11         0.00000E+00
    0.96399E-08         0.15207E-11         0.00000E+00
    0.96514E-08         0.13505E-11         0.00000E+00
    0.96691E-08         0.11672E-11         0.00000E+00
    0.96929E-08         0.98536E-12         0.00000E+00
    0.97226E-08         0.81305E-12         0.00000E+00
    0.97579E-08         0.65478E-12         0.00000E+00
    0.97988E-08         0.51244E-12         0.00000E+00
    0.98452E-08         0.38634E-12         0.00000E+00
    0.98968E-08         0.27579E-12         0.00000E+00
    0.99537E-08         0.17950E-12         0.00000E+00
    0.10016E-07         0.95897E-13         0.00000E+00
    0.10083E-07         0.23339E-13         0.00000E+00
    0.10155E-07        -0.39788E-13         0.00000E+00
    0.10232E-07        -0.94983E-13         0.00000E+00
    0.10313E-07        -0.14359E-12         0.00000E+00
    0.10400E-07        -0.18678E-12         0.00000E+00
    0.10490E-07        -0.22556E-12         0.00000E+00
    0.10586E-07        -0.26079E-12         0.00000E+00
    0.10686E-07        -0.29315E-12         0.00000E+00
    0.10790E-07        -0.32324E-12         0.00000E+00
    0.10898E-07        -0.35153E-12         0.00000E+00
    0.11011E-07        -0.37838E-12         0.00000E+00
    0.11128E-07        -0.40411E-12         0.00000E+00
    0.11249E-07        -0.42895E-12         0.00000E+00
    0.11373E-07        -0.45308E-12         0.00000E+00
    0.11502E-07        -0.47666E-12         0.00000E+00
    0.11634E-07        -0.49979E-12         0.00000E+00
    0.11769E-07        -0.52255E-12         0.00000E+00
    0.11908E-07        -0.54501E-12         0.00000E+00
    0.12051E-07        -0.56720E-12         0.00000E+00
    0.12197E-07        -0.58915E-12         0.00000E+00
    0.12346E-07        -0.61088E-12         0.00000E+00
    0.12498E-07        -0.63239E-12         0.00000E+00
    0.12653E-07        -0.65368E-12         0.00000E+00
    0.12810E-07        -0.67473E-12         0.00000E+00
    0.12971E-07        -0.69553E-12         0.00000E+00
    0.13134E-07        -0.71607E-12         0.00000E+00
    0.13299E-07        -0.73630E-12         0.00000E+00
    0.13466E-07        -0.75621E-12         0.00000E+00
    0.13636E-07        -0.77575E-12         0.00000E+00
    0.13807E-07        -0.79488E-12         0.00000E+00
    0.13981E-07        -0.81356E-12         0.00000E+00
    0.14156E-07        -0.83175E-12         0.00000E+00
    0.14332E-07        -0.84940E-12         0.00000E+00
    0.14510E-07        -0.86645E-12         0.00000E+00
    0.14689E-07        -0.88286E-12         0.00000E+00
    0.14869E-07        -0.89855E-12         0.00000E+00
    0.15049E-07        -0.91347E-12         0.00000E+00
    0.15231E-07        -0.92757E-12         0.00000E+00
    0.15412E-07        -0.94076E-12         0.00000E+00
    0.15594E-07        -0.95299E-12         0.00000E+00
    0.15776E-07        -0.96419E-12         0.00000E+00
    0.15958E-07        -0.97428E-12         0.00000E+00
    0.16140E-07        -0.98319E-12         0.00000E+00
    0.16321E-07        -0.99085E-12         0.00000E+00
    0.16502E-07        -0.99718E-12         0.00000E+00
    0.16681E-07        -0.10021E-11         0.00000E+00
    0.16860E-07        -0.10055E-11         0.00000E+00
    0.17037E-07        -0.10074E-11         0.00000E+00
    0.17212E-07        -0.10076E-11         0.00000E+00
    0.17386E-07        -0.10061E-11         0.00000E+00
    0.17558E-07        -0.10027E-11         0.00000E+00
    0.17728E-07        -0.99735E-12         0.00000E+00
    0.17895E-07        -0.98998E-12         0.00000E+00
    0.18060E-07        -0.98046E-12         0.00000E+00
    0.18222E-07        -0.96864E-12         0.00000E+00
    0.18381E-07        -0.95440E-12         0.00000E+00
    0.18537E-07        -0.93756E-12         0.00000E+00
    0.18689E-07        -0.91792E-12         0.00000E+00
    0.18838E-07        -0.89525E-12         0.00000E+00
    0.18982E-07        -0.86927E-12         0.00000E+00
    0.19123E-07        -0.83965E-12         0.00000E+00
    0.19260E-07        -0.80597E-12         0.00000E+00
    0.19391E-07        -0.76772E-12         0.00000E+00
    0.19519E-07        -0.72429E-12         0.00000E+00
    0.19641E-07        -0.67494E-12         0.00000E+00
    0.19758E-07        -0.61876E-12         0.00000E+00
    0.19870E-07        -0.55468E-12         0.00000E+00
    0.19977E-07        -0.48141E-12         0.00000E+00
    0.20077E-07        -0.39749E-12         0.00000E+00
    0.20172E-07        -0.30123E-12         0.00000E+00
    0.20261E-07        -0.19074E-12         0.00000E+00
    0.20343E-07        -0.64016E-13         0.00000E+00
    0.20419E-07         0.80986E-13         0.00000E+00
    0.20488E-07         0.24618E-12         0.00000E+00
    0.20551E-07         0.43309E-12         0.00000E+00
    0.20606E-07         0.64246E-12         0.00000E+00
    0.20654E-07         0.87370E-12         0.00000E+00
    0.20695E-07         0.11241E-11         0.00000E+00
    0.20728E-07         0.13876E-11         0.00000E+00
    0.20753E-07         0.16531E-11         0.00000E+00
    0.20769E-07         0.19016E-11         0.00000E+00
    0.20777E-07         0.21013E-11         0.00000E+00
    0.20776E-07         0.21862E-11         0.00000E+00
    0.20765E-07         0.20593E-11         0.00000E+00
    0.20742E-07         0.96518E-12         0.00000E+00
    0.96648E-08         0.26501E-12         0.00000E+00
    0.96465E-08         0.55574E-12         0.00000E+00
    0.96369E-08         0.58278E-12         0.00000E+00
    0.96349E-08         0.56392E-12         0.00000E+00
    0.96398E-08         0.51591E-12         0.00000E+00
    0.96513E-08         0.45671E-12         0.00000E+00
    0.96691E-08         0.39362E-12         0.00000E+00
    0.96929E-08         0.33146E-12         0.00000E+00
    0.97226E-08         0.27283E-12         0.00000E+00
    0.97579E-08         0.21914E-12         0.00000E+00
    0.97988E-08         0.17099E-12         0.00000E+00
    0.98451E-08         0.12842E-12         0.00000E+00
    0.98968E-08         0.91157E-13         0.00000E+00
    0.99537E-08         0.58753E-13         0.00000E+00
    0.10016E-07         0.30658E-13         0.00000E+00
    0.10083E-07         0.63011E-14         0.00000E+00
    0.10155E-07        -0.14871E-13         0.00000E+00
    0.10232E-07        -0.33370E-13         0.00000E+00
    0.10313E-07        -0.49652E-13         0.00000E+00
    0.10400E-07        -0.64116E-13         0.00000E+00
    0.10490E-07        -0.77104E-13         0.00000E+00
    0.10586E-07        -0.88900E-13         0.00000E+00
    0.10686E-07        -0.99744E-13         0.00000E+00
    0.10790E-07        -0.10983E-12         0.00000E+00
    0.10898E-07        -0.11931E-12         0.00000E+00
    0.11011E-07        -0.12833E-12         0.00000E+00
    0.11128E-07        -0.13696E-12         0.00000E+00
    0.11249E-07        -0.14531E-12         0.00000E+00
    0.11373E-07        -0.15343E-12         0.00000E+00
    0.11502E-07        -0.16136E-12         0.00000E+00
    0.11634E-07        -0.16914E-12         0.00000E+00
    0.11769E-07        -0.17681E-12         0.00000E+00
    0.11908E-07        -0.18438E-12         0.00000E+00
    0.12051E-07        -0.19186E-12         0.00000E+00
    0.12197E-07        -0.19926E-12         0.00000E+00
    0.12346E-07        -0.20659E-12         0.00000E+00
    0.12498E-07        -0.21385E-12         0.00000E+00
    0.12653E-07        -0.22104E-12         0.00000E+00
    0.12810E-07        -0.22815E-12         0.00000E+00
    0.12971E-07        -0.23518E-12         0.00000E+00
    0.13134E-07        -0.24211E-12         0.00000E+00
    0.13299E-07        -0.24895E-12         0.00000E+00
    0.13466E-07        -0.25568E-12         0.00000E+00
    0.13636E-07        -0.26228E-12         0.00000E+00
    0.13807E-07        -0.26875E-12         0.00000E+00
    0.13981E-07        -0.27507E-12         0.00000E+00
    0.14156E-07        -0.28123E-12         0.00000E+00
    0.14332E-07        -0.28720E-12         0.00000E+00
    0.14510E-07        -0.29297E-12         0.00000E+00
    0.14689E-07        -0.29852E-12         0.00000E+00
    0.14869E-07        -0.30384E-12         0.00000E+00
    0.15049E-07        -0.30889E-12         0.00000E+00
    0.15231E-07        -0.31367E-12         0.00000E+00
    0.15412E-07        -0.31814E-12         0.00000E+00
    0.15594E-07        -0.32229E-12         0.00000E+00
    0.15776E-07        -0.32608E-12         0.00000E+00
    0.15958E-07        -0.32951E-12         0.00000E+00
    0.16140E-07        -0.33254E-12         0.00000E+00
    0.16321E-07        -0.33515E-12         0.00000E+00
    0.16502E-07        -0.33731E-12         0.00000E+00
    0.16681E-07        -0.33899E-12         0.00000E+00
    0.16860E-07        -0.34017E-12         0.00000E+00
    0.17037E-07        -0.34082E-12         0.00000E+00
    0.17212E-07        -0.34092E-12         0.00000E+00
    0.17386E-07        -0.34042E-12         0.00000E+00
    0.17558E-07        -0.33931E-12         0.00000E+00
    0.17728E-07        -0.33754E-12         0.00000E+00
    0.17895E-07        -0.33509E-12         0.00000E+00
    0.18060E-07        -0.33191E-12         0.00000E+00
    0.18222E-07        -0.32796E-12         0.00000E+00
    0.18381E-07        -0.32320E-12         0.00000E+00
    0.18537E-07        -0.31756E-12         0.00000E+00
    0.18689E-07        -0.31098E-12         0.00000E+00
    0.18838E-07        -0.30338E-12         0.00000E+00
    0.18982E-07        -0.29468E-12         0.00000E+00
    0.19123E-07        -0.28475E-12         0.00000E+00
    0.19260E-07        -0.27346E-12         0.00000E+00
    0.19391E-07        -0.26064E-12         0.00000E+00
    0.19519E-07        -0.24609E-12         0.00000E+00
    0.19641E-07        -0.22954E-12         0.00000E+00
    0.19758E-07        -0.21070E-12         0.00000E+00
    0.19870E-07        -0.18920E-12         0.00000E+00
    0.19977E-07        -0.16462E-12         0.00000E+00
    0.20077E-07        -0.13644E-12         0.00000E+00
    0.20172E-07        -0.10410E-12         0.00000E+00
    0.20261E-07        -0.66955E-13         0.00000E+00
    0.20343E-07        -0.24311E-13         0.00000E+00
    0.20419E-07         0.24538E-13         0.00000E+00
    0.20488E-07         0.80262E-13         0.00000E+00
    0.20551E-07         0.14341E-12         0.00000E+00
    0.20606E-07         0.21427E-12         0.00000E+00
    0.20654E-07         0.29271E-12         0.00000E+00
    0.20695E-07         0.37790E-12         0.00000E+00
    0.20728E-07         0.46790E-12         0.00000E+00
    0.20753E-07         0.55920E-12         0.00000E+00
    0.20769E-07         0.64541E-12         0.00000E+00
    0.20777E-07         0.71686E-12         0.00000E+00
    0.20776E-07         0.74983E-12         0.00000E+00
    0.20765E-07         0.72225E-12         0.00000E+00
    0.20742E-07         0.34619E-12         0.00000E+00
POINT_DATA       5151
VECTORS vDarcyNodal double 
    0.96251E-08         0.00000E+00         0.00000E+00
    0.96247E-08         0.28894E-12         0.00000E+00
    0.96251E-08         0.37053E-12         0.00000E+00
    0.96289E-08         0.41370E-12         0.00000E+00
    0.96367E-08         0.42266E-12         0.00000E+00
    0.96489E-08         0.41241E-12         0.00000E+00
    0.96660E-08         0.38896E-12         0.00000E+00
    0.96880E-08         0.35758E-12         0.00000E+00
    0.97153E-08         0.32177E-12         0.00000E+00
    0.97478E-08         0.28413E-12         0.00000E+00
    0.97856E-08         0.24641E-12         0.00000E+00
    0.98288E-08         0.20977E-12         0.00000E+00
    0.98772E-08         0.17495E-12         0.00000E+00
    0.99309E-08         0.14233E-12         0.00000E+00
    0.99898E-08         0.11210E-12         0.00000E+00
    0.10054E-07         0.84250E-13         0.00000E+00
    0.10123E-07         0.58711E-13         0.00000E+00
    0.10197E-07         0.35333E-13         0.00000E+00
    0.10276E-07         0.13939E-13         0.00000E+00
    0.10359E-07        -0.56631E-14         0.00000E+00
    0.10448E-07        -0.23665E-13         0.00000E+00
    0.10541E-07        -0.40249E-13         0.00000E+00
    0.10638E-07        -0.55588E-13         0.00000E+00
    0.10740E-07        -0.69836E-13         0.00000E+00
    0.10846E-07        -0.83133E-13         0.00000E+00
    0.10957E-07        -0.95603E-13         0.00000E+00
    0.11071E-07        -0.10735E-12         0.00000E+00
    0.11190E-07        -0.11848E-12         0.00000E+00
    0.11312E-07        -0.12906E-12         0.00000E+00
    0.11439E-07        -0.13916E-12         0.00000E+00
    0.11569E-07        -0.14885E-12         0.00000E+00
    0.11703E-07        -0.15816E-12         0.00000E+00
    0.11840E-07        -0.16715E-12         0.00000E+00
    0.11981E-07        -0.17585E-12         0.00000E+00
    0.12125E-07        -0.18429E-12         0.00000E+00
    0.12273E-07        -0.19248E-12         0.00000E+00
    0.12423E-07        -0.20044E-12         0.00000E+00
    0.12576E-07        -0.20820E-12         0.00000E+00
    0.12733E-07        -0.21575E-12         0.00000E+00
    0.12892E-07        -0.22311E-12         0.00000E+00
    0.13053E-07        -0.23027E-12         0.00000E+00
    0.13217E-07        -0.23724E-12         0.00000E+00
    0.13384E-07        -0.24402E-12         0.00000E+00
    0.13552E-07        -0.25059E-12         0.00000E+00
    0.13723E-07        -0.25696E-12         0.00000E+00
    0.13895E-07        -0.26311E-12         0.00000E+00
    0.14069E-07        -0.26904E-12         0.00000E+00
    0.14245E-07        -0.27472E-12         0.00000E+00
    0.14422E-07        -0.28015E-12         0.00000E+00
    0.14600E-07        -0.28531E-12         0.00000E+00
    0.14779E-07        -0.29019E-12         0.00000E+00
    0.14960E-07        -0.29476E-12         0.00000E+00
    0.15141E-07        -0.29900E-12         0.00000E+00
    0.15322E-07        -0.30290E-12         0.00000E+00
    0.15504E-07        -0.30643E-12         0.00000E+00
    0.15686E-07        -0.30956E-12         0.00000E+00
    0.15868E-07        -0.31227E-12         0.00000E+00
    0.16050E-07        -0.31454E-12         0.00000E+00
    0.16231E-07        -0.31633E-12         0.00000E+00
    0.16412E-07        -0.31761E-12         0.00000E+00
    0.16592E-07        -0.31836E-12         0.00000E+00
    0.16771E-07        -0.31854E-12         0.00000E+00
    0.16948E-07        -0.31811E-12         0.00000E+00
    0.17124E-07        -0.31704E-12         0.00000E+00
    0.17299E-07        -0.31528E-12         0.00000E+00
    0.17472E-07        -0.31280E-12         0.00000E+00
    0.17642E-07        -0.30955E-12         0.00000E+00
    0.17811E-07        -0.30548E-12         0.00000E+00
    0.17977E-07        -0.30053E-12         0.00000E+00
    0.18140E-07        -0.29465E-12         0.00000E+00
    0.18300E-07        -0.28778E-12         0.00000E+00
    0.18458E-07        -0.27983E-12         0.00000E+00
    0.18611E-07        -0.27074E-12         0.00000E+00
    0.18762E-07        -0.26041E-12         0.00000E+00
    0.18908E-07        -0.24874E-12         0.00000E+00
    0.19051E-07        -0.23562E-12         0.00000E+00
    0.19189E-07        -0.22093E-12         0.00000E+00
    0.19323E-07        -0.20452E-12         0.00000E+00
    0.19452E-07        -0.18624E-12         0.00000E+00
    0.19576E-07        -0.16591E-12         0.00000E+00
    0.19696E-07        -0.14333E-12         0.00000E+00
    0.19810E-07        -0.11830E-12         0.00000E+00
    0.19919E-07        -0.90598E-13         0.00000E+00
    0.20021E-07        -0.59992E-13         0.00000E+00
    0.20119E-07        -0.26260E-13         0.00000E+00
    0.20210E-07         0.10799E-13         0.00000E+00
    0.20294E-07         0.51339E-13         0.00000E+00
    0.20373E-07         0.95431E-13         0.00000E+00
    0.20445E-07         0.14301E-12         0.00000E+00
    0.20510E-07         0.19380E-12         0.00000E+00
    0.20568E-07         0.24724E-12         0.00000E+00
    0.20619E-07         0.30232E-12         0.00000E+00
    0.20664E-07         0.35746E-12         0.00000E+00
    0.20701E-07         0.41032E-12         0.00000E+00
    0.20732E-07         0.45749E-12         0.00000E+00
    0.20755E-07         0.49441E-12         0.00000E+00
    0.20773E-07         0.51425E-12         0.00000E+00
    0.20784E-07         0.50938E-12         0.00000E+00
    0.20791E-07         0.46058E-12         0.00000E+00
    0.20792E-07         0.36324E-12         0.00000E+00
    0.20792E-07         0.00000E+00         0.00000E+00
    0.96252E-08         0.00000E+00         0.00000E+00
    0.96247E-08         0.55581E-12         0.00000E+00
    0.96251E-08         0.72943E-12         0.00000E+00
    0.96289E-08         0.81613E-12         0.00000E+00
    0.96367E-08         0.83612E-12         0.00000E+00
    0.96489E-08         0.81659E-12         0.00000E+00
    0.96659E-08         0.77061E-12         0.00000E+00
    0.96880E-08         0.70857E-12         0.00000E+00
    0.97153E-08         0.63761E-12         0.00000E+00
    0.97478E-08         0.56292E-12         0.00000E+00
    0.97856E-08         0.48804E-12         0.00000E+00
    0.98288E-08         0.41532E-12         0.00000E+00
    0.98772E-08         0.34621E-12         0.00000E+00
    0.99309E-08         0.28150E-12         0.00000E+00
    0.99898E-08         0.22153E-12         0.00000E+00
    0.10054E-07         0.16633E-12         0.00000E+00
    0.10123E-07         0.11572E-12         0.00000E+00
    0.10197E-07         0.69409E-13         0.00000E+00
    0.10276E-07         0.27046E-13         0.00000E+00
    0.10359E-07        -0.11754E-13         0.00000E+00
    0.10448E-07        -0.47374E-13         0.00000E+00
    0.10541E-07        -0.80182E-13         0.00000E+00
    0.10638E-07        -0.11052E-12         0.00000E+00
    0.10740E-07        -0.13869E-12         0.00000E+00
    0.10846E-07        -0.16498E-12         0.00000E+00
    0.10957E-07        -0.18963E-12         0.00000E+00
    0.11071E-07        -0.21286E-12         0.00000E+00
    0.11190E-07        -0.23485E-12         0.00000E+00
    0.11312E-07        -0.25577E-12         0.00000E+00
    0.11439E-07        -0.27574E-12         0.00000E+00
    0.11569E-07        -0.29489E-12         0.00000E+00
    0.11703E-07        -0.31332E-12         0.00000E+00
    0.11840E-07        -0.33110E-12         0.00000E+00
    0.11981E-07        -0.34830E-12         0.00000E+00
    0.12125E-07        -0.36498E-12         0.00000E+00
    0.12273E-07        -0.38119E-12         0.00000E+00
    0.12423E-07        -0.39695E-12         0.00000E+00
    0.12576E-07        -0.41229E-12         0.00000E+00
    0.12733E-07        -0.42724E-12         0.00000E+00
    0.12892E-07        -0.44180E-12         0.00000E+00
    0.13053E-07        -0.45598E-12         0.00000E+00
    0.13217E-07        -0.46978E-12         0.00000E+00
    0.13384E-07        -0.48319E-12         0.00000E+00
    0.13552E-07        -0.49621E-12         0.00000E+00
    0.13723E-07        -0.50881E-12         0.00000E+00
    0.13895E-07        -0.52099E-12         0.00000E+00
    0.14069E-07        -0.53273E-12         0.00000E+00
    0.14245E-07        -0.54399E-12         0.00000E+00
    0.14422E-07        -0.55474E-12         0.00000E+00
    0.14600E-07        -0.56497E-12         0.00000E+00
    0.14779E-07        -0.57463E-12         0.00000E+00
    0.14960E-07        -0.58368E-12         0.00000E+00
    0.15141E-07        -0.59209E-12         0.00000E+00
    0.15322E-07        -0.59982E-12         0.00000E+00
    0.15504E-07        -0.60681E-12         0.00000E+00
    0.15686E-07        -0.61303E-12         0.00000E+00
    0.15868E-07        -0.61841E-12         0.00000E+00
    0.16050E-07        -0.62291E-12         0.00000E+00
    0.16231E-07        -0.62647E-12         0.00000E+00
    0.16412E-07        -0.62903E-12         0.00000E+00
    0.16592E-07        -0.63052E-12         0.00000E+00
    0.16771E-07        -0.63089E-12         0.00000E+00
    0.16948E-07        -0.63006E-12         0.00000E+00
    0.17124E-07        -0.62796E-12         0.00000E+00
    0.17299E-07        -0.62451E-12         0.00000E+00
    0.17472E-07        -0.61962E-12         0.00000E+00
    0.17642E-07        -0.61321E-12         0.00000E+00
    0.17811E-07        -0.60518E-12         0.00000E+00
    0.17977E-07        -0.59541E-12         0.00000E+00
    0.18140E-07        -0.58381E-12         0.00000E+00
    0.18300E-07        -0.57023E-12         0.00000E+00
    0.18458E-07        -0.55453E-12         0.00000E+00
    0.18611E-07        -0.53657E-12         0.00000E+00
    0.18762E-07        -0.51615E-12         0.00000E+00
    0.18908E-07        -0.49309E-12         0.00000E+00
    0.19051E-07        -0.46717E-12         0.00000E+00
    0.19189E-07        -0.43812E-12         0.00000E+00
    0.19323E-07        -0.40568E-12         0.00000E+00
    0.19452E-07        -0.36952E-12         0.00000E+00
    0.19576E-07        -0.32930E-12         0.00000E+00
    0.19696E-07        -0.28463E-12         0.00000E+00
    0.19810E-07        -0.23509E-12         0.00000E+00
    0.19919E-07        -0.18024E-12         0.00000E+00
    0.20021E-07        -0.11962E-12         0.00000E+00
    0.20119E-07        -0.52783E-13         0.00000E+00
    0.20210E-07         0.20670E-13         0.00000E+00
    0.20294E-07         0.10105E-12         0.00000E+00
    0.20373E-07         0.18851E-12         0.00000E+00
    0.20445E-07         0.28292E-12         0.00000E+00
    0.20510E-07         0.38373E-12         0.00000E+00
    0.20568E-07         0.48980E-12         0.00000E+00
    0.20619E-07         0.59913E-12         0.00000E+00
    0.20664E-07         0.70856E-12         0.00000E+00
    0.20701E-07         0.81334E-12         0.00000E+00
    0.20732E-07         0.90667E-12         0.00000E+00
    0.20755E-07         0.97921E-12         0.00000E+00
    0.20773E-07         0.10176E-11         0.00000E+00
    0.20784E-07         0.10050E-11         0.00000E+00
    0.20791E-07         0.90681E-12         0.00000E+00
    0.20792E-07         0.69837E-12         0.00000E+00
    0.20792E-07         0.00000E+00         0.00000E+00
    0.96254E-08         0.00000E+00         0.00000E+00
    0.96248E-08         0.10507E-11         0.00000E+00
    0.96252E-08         0.14232E-11         0.00000E+00
    0.96289E-08         0.15991E-11         0.00000E+00
    0.96367E-08         0.16446E-11         0.00000E+00
    0.96489E-08         0.16085E-11         0.00000E+00
    0.96659E-08         0.15192E-11         0.00000E+00
    0.96880E-08         0.13973E-11         0.00000E+00
    0.97152E-08         0.12573E-11         0.00000E+00
    0.97478E-08         0.11097E-11         0.00000E+00
    0.97856E-08         0.96170E-12         0.00000E+00
    0.98288E-08         0.81793E-12         0.00000E+00
    0.98772E-08         0.68133E-12         0.00000E+00
    0.99309E-08         0.55348E-12         0.00000E+00
    0.99898E-08         0.43506E-12         0.00000E+00
    0.10054E-07         0.32612E-12         0.00000E+00
    0.10123E-07         0.22631E-12         0.00000E+00
    0.10197E-07         0.13504E-12         0.00000E+00
    0.10276E-07         0.51600E-13         0.00000E+00
    0.10359E-07        -0.24785E-13         0.00000E+00
    0.10448E-07        -0.94876E-13         0.00000E+00
    0.10541E-07        -0.15941E-12         0.00000E+00
    0.10638E-07        -0.21905E-12         0.00000E+00
    0.10740E-07        -0.27443E-12         0.00000E+00
    0.10846E-07        -0.32610E-12         0.00000E+00
    0.10957E-07        -0.37455E-12         0.00000E+00
    0.11071E-07        -0.42019E-12         0.00000E+00
    0.11190E-07        -0.46340E-12         0.00000E+00
    0.11312E-07        -0.50450E-12         0.00000E+00
    0.11439E-07        -0.54375E-12         0.00000E+00
    0.11569E-07        -0.58139E-12         0.00000E+00
    0.11703E-07        -0.61760E-12         0.00000E+00
    0.11840E-07        -0.65256E-12         0.00000E+00
    0.11981E-07        -0.68639E-12         0.00000E+00
    0.12125E-07        -0.71919E-12         0.00000E+00
    0.12273E-07        -0.75107E-12         0.00000E+00
    0.12423E-07        -0.78207E-12         0.00000E+00
    0.12576E-07        -0.81227E-12         0.00000E+00
    0.12733E-07        -0.84168E-12         0.00000E+00
    0.12892E-07        -0.87034E-12         0.00000E+00
    0.13053E-07        -0.89825E-12         0.00000E+00
    0.13217E-07        -0.92541E-12         0.00000E+00
    0.13384E-07        -0.95182E-12         0.00000E+00
    0.13552E-07        -0.97746E-12         0.00000E+00
    0.13723E-07        -0.10023E-11         0.00000E+00
    0.13895E-07        -0.10263E-11         0.00000E+00
    0.14069E-07        -0.10494E-11         0.00000E+00
    0.14245E-07        -0.10716E-11         0.00000E+00
    0.14422E-07        -0.10928E-11         0.00000E+00
    0.14600E-07        -0.11129E-11         0.00000E+00
    0.14779E-07        -0.11320E-11         0.00000E+00
    0.14960E-07        -0.11499E-11         0.00000E+00
    0.15141E-07        -0.11664E-11         0.00000E+00
    0.15322E-07        -0.11817E-11         0.00000E+00
    0.15504E-07        -0.11955E-11         0.00000E+00
    0.15686E-07        -0.12078E-11         0.00000E+00
    0.15868E-07        -0.12184E-11         0.00000E+00
    0.16050E-07        -0.12273E-11         0.00000E+00
    0.16231E-07        -0.12344E-11         0.00000E+00
    0.16412E-07        -0.12394E-11         0.00000E+00
    0.16592E-07        -0.12424E-11         0.00000E+00
    0.16771E-07        -0.12432E-11         0.00000E+00
    0.16948E-07        -0.12416E-11         0.00000E+00
    0.17124E-07        -0.12376E-11         0.00000E+00
    0.17299E-07        -0.12308E-11         0.00000E+00
    0.17472E-07        -0.12213E-11         0.00000E+00
    0.17642E-07        -0.12087E-11         0.00000E+00
    0.17811E-07        -0.11930E-11         0.00000E+00
    0.17977E-07        -0.11739E-11         0.00000E+00
    0.18140E-07        -0.11511E-11         0.00000E+00
    0.18300E-07        -0.11245E-11         0.00000E+00
    0.18458E-07        -0.10937E-11         0.00000E+00
    0.18611E-07        -0.10584E-11         0.00000E+00
    0.18762E-07        -0.10183E-11         0.00000E+00
    0.18908E-07        -0.97302E-12         0.00000E+00
    0.19051E-07        -0.92209E-12         0.00000E+00
    0.19189E-07        -0.86502E-12         0.00000E+00
    0.19323E-07        -0.80125E-12         0.00000E+00
    0.19452E-07        -0.73016E-12         0.00000E+00
    0.19577E-07        -0.65104E-12         0.00000E+00
    0.19696E-07        -0.56314E-12         0.00000E+00
    0.19810E-07        -0.46562E-12         0.00000E+00
    0.19919E-07        -0.35759E-12         0.00000E+00
    0.20022E-07        -0.23813E-12         0.00000E+00
    0.20119E-07        -0.10636E-12         0.00000E+00
    0.20210E-07         0.38545E-13         0.00000E+00
    0.20294E-07         0.19721E-12         0.00000E+00
    0.20373E-07         0.36994E-12         0.00000E+00
    0.20445E-07         0.55647E-12         0.00000E+00
    0.20510E-07         0.75575E-12         0.00000E+00
    0.20568E-07         0.96548E-12         0.00000E+00
    0.20619E-07         0.11817E-11         0.00000E+00
    0.20664E-07         0.13979E-11         0.00000E+00
    0.20701E-07         0.16047E-11         0.00000E+00
    0.20732E-07         0.17883E-11         0.00000E+00
    0.20755E-07         0.19296E-11         0.00000E+00
    0.20773E-07         0.20021E-11         0.00000E+00
    0.20784E-07         0.19695E-11         0.00000E+00
    0.20791E-07         0.17696E-11         0.00000E+00
    0.20792E-07         0.13192E-11         0.00000E+00
    0.20792E-07         0.00000E+00         0.00000E+00
    0.96256E-08         0.00000E+00         0.00000E+00
    0.96250E-08         0.14768E-11         0.00000E+00
    0.96253E-08         0.20686E-11         0.00000E+00
    0.96289E-08         0.23393E-11         0.00000E+00
    0.96367E-08         0.24161E-11         0.00000E+00
    0.96489E-08         0.23675E-11         0.00000E+00
    0.96659E-08         0.22383E-11         0.00000E+00
    0.96880E-08         0.20593E-11         0.00000E+00
    0.97152E-08         0.18529E-11         0.00000E+00
    0.97477E-08         0.16349E-11         0.00000E+00
    0.97856E-08         0.14160E-11         0.00000E+00
    0.98287E-08         0.12034E-11         0.00000E+00
    0.98772E-08         0.10015E-11         0.00000E+00
    0.99309E-08         0.81269E-12         0.00000E+00
    0.99898E-08         0.63788E-12         0.00000E+00
    0.10054E-07         0.47718E-12         0.00000E+00
    0.10123E-07         0.33007E-12         0.00000E+00
    0.10197E-07         0.19565E-12         0.00000E+00
    0.10276E-07         0.72842E-13         0.00000E+00
    0.10359E-07        -0.39501E-13         0.00000E+00
    0.10448E-07        -0.14253E-12         0.00000E+00
    0.10541E-07        -0.23733E-12         0.00000E+00
    0.10638E-07        -0.32492E-12         0.00000E+00
    0.10740E-07        -0.40622E-12         0.00000E+00
    0.10846E-07        -0.48205E-12         0.00000E+00
    0.10957E-07        -0.55313E-12         0.00000E+00
    0.11071E-07        -0.62011E-12         0.00000E+00
    0.11190E-07        -0.68351E-12         0.00000E+00
    0.11312E-07        -0.74382E-12         0.00000E+00
    0.11439E-07        -0.80142E-12         0.00000E+00
    0.11569E-07        -0.85666E-12         0.00000E+00
    0.11703E-07        -0.90983E-12         0.00000E+00
    0.11840E-07        -0.96115E-12         0.00000E+00
    0.11981E-07        -0.10108E-11         0.00000E+00
    0.12125E-07        -0.10590E-11         0.00000E+00
    0.12273E-07        -0.11058E-11         0.00000E+00
    0.12423E-07        -0.11514E-11         0.00000E+00
    0.12576E-07        -0.11958E-11         0.00000E+00
    0.12733E-07        -0.12390E-11         0.00000E+00
    0.12892E-07        -0.12812E-11         0.00000E+00
    0.13053E-07        -0.13222E-11         0.00000E+00
    0.13217E-07        -0.13622E-11         0.00000E+00
    0.13384E-07        -0.14010E-11         0.00000E+00
    0.13552E-07        -0.14388E-11         0.00000E+00
    0.13723E-07        -0.14753E-11         0.00000E+00
    0.13895E-07        -0.15106E-11         0.00000E+00
    0.14069E-07        -0.15447E-11         0.00000E+00
    0.14245E-07        -0.15773E-11         0.00000E+00
    0.14422E-07        -0.16086E-11         0.00000E+00
    0.14600E-07        -0.16383E-11         0.00000E+00
    0.14779E-07        -0.16663E-11         0.00000E+00
    0.14960E-07        -0.16926E-11         0.00000E+00
    0.15141E-07        -0.17171E-11         0.00000E+00
    0.15322E-07        -0.17396E-11         0.00000E+00
    0.15504E-07        -0.17600E-11         0.00000E+00
    0.15686E-07        -0.17781E-11         0.00000E+00
    0.15868E-07        -0.17938E-11         0.00000E+00
    0.16050E-07        -0.18070E-11         0.00000E+00
    0.16231E-07        -0.18174E-11         0.00000E+00
    0.16412E-07        -0.18250E-11         0.00000E+00
    0.16592E-07        -0.18295E-11         0.00000E+00
    0.16771E-07        -0.18308E-11         0.00000E+00
    0.16948E-07        -0.18285E-11         0.00000E+00
    0.17124E-07        -0.18227E-11         0.00000E+00
    0.17299E-07        -0.18129E-11         0.00000E+00
    0.17472E-07        -0.17990E-11         0.00000E+00
    0.17642E-07        -0.17806E-11         0.00000E+00
    0.17811E-07        -0.17576E-11         0.00000E+00
    0.17977E-07        -0.17296E-11         0.00000E+00
    0.18140E-07        -0.16963E-11         0.00000E+00
    0.18300E-07        -0.16573E-11         0.00000E+00
    0.18458E-07        -0.16122E-11         0.00000E+00
    0.18611E-07        -0.15605E-11         0.00000E+00
    0.18762E-07        -0.15018E-11         0.00000E+00
    0.18908E-07        -0.14353E-11         0.00000E+00
    0.19051E-07        -0.13606E-11         0.00000E+00
    0.19189E-07        -0.12769E-11         0.00000E+00
    0.19323E-07        -0.11833E-11         0.00000E+00
    0.19452E-07        -0.10789E-11         0.00000E+00
    0.19577E-07        -0.96266E-12         0.00000E+00
    0.19696E-07        -0.83346E-12         0.00000E+00
    0.19810E-07        -0.69004E-12         0.00000E+00
    0.19919E-07        -0.53106E-12         0.00000E+00
    0.20022E-07        -0.35517E-12         0.00000E+00
    0.20119E-07        -0.16101E-12         0.00000E+00
    0.20210E-07         0.52658E-13         0.00000E+00
    0.20294E-07         0.28678E-12         0.00000E+00
    0.20373E-07         0.54181E-12         0.00000E+00
    0.20445E-07         0.81741E-12         0.00000E+00
    0.20510E-07         0.11120E-11         0.00000E+00
    0.20568E-07         0.14221E-11         0.00000E+00
    0.20619E-07         0.17418E-11         0.00000E+00
    0.20664E-07         0.20613E-11         0.00000E+00
    0.20701E-07         0.23664E-11         0.00000E+00
    0.20732E-07         0.26362E-11         0.00000E+00
    0.20756E-07         0.28415E-11         0.00000E+00
    0.20773E-07         0.29425E-11         0.00000E+00
    0.20784E-07         0.28818E-11         0.00000E+00
    0.20790E-07         0.25723E-11         0.00000E+00
    0.20792E-07         0.18526E-11         0.00000E+00
    0.20792E-07         0.00000E+00         0.00000E+00
    0.96260E-08         0.00000E+00         0.00000E+00
    0.96252E-08         0.18494E-11         0.00000E+00
    0.96254E-08         0.26659E-11         0.00000E+00
    0.96290E-08         0.30383E-11         0.00000E+00
    0.96367E-08         0.31507E-11         0.00000E+00
    0.96489E-08         0.30937E-11         0.00000E+00
    0.96659E-08         0.29277E-11         0.00000E+00
    0.96879E-08         0.26944E-11         0.00000E+00
    0.97152E-08         0.24242E-11         0.00000E+00
    0.97477E-08         0.21381E-11         0.00000E+00
    0.97855E-08         0.18507E-11         0.00000E+00
    0.98287E-08         0.15717E-11         0.00000E+00
    0.98771E-08         0.13067E-11         0.00000E+00
    0.99308E-08         0.10590E-11         0.00000E+00
    0.99897E-08         0.82991E-12         0.00000E+00
    0.10054E-07         0.61947E-12         0.00000E+00
    0.10123E-07         0.42697E-12         0.00000E+00
    0.10197E-07         0.25123E-12         0.00000E+00
    0.10276E-07         0.90792E-13         0.00000E+00
    0.10359E-07        -0.55871E-13         0.00000E+00
    0.10448E-07        -0.19028E-12         0.00000E+00
    0.10541E-07        -0.31390E-12         0.00000E+00
    0.10638E-07        -0.42806E-12         0.00000E+00
    0.10740E-07        -0.53399E-12         0.00000E+00
    0.10846E-07        -0.63277E-12         0.00000E+00
    0.10957E-07        -0.72535E-12         0.00000E+00
    0.11071E-07        -0.81257E-12         0.00000E+00
    0.11190E-07        -0.89514E-12         0.00000E+00
    0.11312E-07        -0.97369E-12         0.00000E+00
    0.11439E-07        -0.10487E-11         0.00000E+00
    0.11569E-07        -0.11207E-11         0.00000E+00
    0.11703E-07        -0.11900E-11         0.00000E+00
    0.11840E-07        -0.12569E-11         0.00000E+00
    0.11981E-07        -0.13216E-11         0.00000E+00
    0.12125E-07        -0.13844E-11         0.00000E+00
    0.12273E-07        -0.14455E-11         0.00000E+00
    0.12423E-07        -0.15050E-11         0.00000E+00
    0.12576E-07        -0.15629E-11         0.00000E+00
    0.12733E-07        -0.16193E-11         0.00000E+00
    0.12892E-07        -0.16743E-11         0.00000E+00
    0.13053E-07        -0.17279E-11         0.00000E+00
    0.13217E-07        -0.17801E-11         0.00000E+00
    0.13384E-07        -0.18308E-11         0.00000E+00
    0.13552E-07        -0.18801E-11         0.00000E+00
    0.13723E-07        -0.19278E-11         0.00000E+00
    0.13895E-07        -0.19740E-11         0.00000E+00
    0.14069E-07        -0.20185E-11         0.00000E+00
    0.14245E-07        -0.20612E-11         0.00000E+00
    0.14422E-07        -0.21020E-11         0.00000E+00
    0.14600E-07        -0.21409E-11         0.00000E+00
    0.14779E-07        -0.21776E-11         0.00000E+00
    0.14960E-07        -0.22120E-11         0.00000E+00
    0.15141E-07        -0.22441E-11         0.00000E+00
    0.15322E-07        -0.22735E-11         0.00000E+00
    0.15504E-07        -0.23002E-11         0.00000E+00
    0.15686E-07        -0.23240E-11         0.00000E+00
    0.15868E-07        -0.23446E-11         0.00000E+00
    0.16050E-07        -0.23619E-11         0.00000E+00
    0.16231E-07        -0.23757E-11         0.00000E+00
    0.16412E-07        -0.23857E-11         0.00000E+00
    0.16592E-07        -0.23917E-11         0.00000E+00
    0.16771E-07        -0.23935E-11         0.00000E+00
    0.16948E-07        -0.23907E-11         0.00000E+00
    0.17124E-07        -0.23832E-11         0.00000E+00
    0.17299E-07        -0.23706E-11         0.00000E+00
    0.17472E-07        -0.23526E-11         0.00000E+00
    0.17642E-07        -0.23288E-11         0.00000E+00
    0.17811E-07        -0.22990E-11         0.00000E+00
    0.17977E-07        -0.22627E-11         0.00000E+00
    0.18140E-07        -0.22194E-11         0.00000E+00
    0.18300E-07        -0.21687E-11         0.00000E+00
    0.18458E-07        -0.21100E-11         0.00000E+00
    0.18611E-07        -0.20428E-11         0.00000E+00
    0.18762E-07        -0.19664E-11         0.00000E+00
    0.18908E-07        -0.18800E-11         0.00000E+00
    0.19051E-07        -0.17827E-11         0.00000E+00
    0.19189E-07        -0.16737E-11         0.00000E+00
    0.19323E-07        -0.15517E-11         0.00000E+00
    0.19452E-07        -0.14156E-11         0.00000E+00
    0.19577E-07        -0.12641E-11         0.00000E+00
    0.19696E-07        -0.10955E-11         0.00000E+00
    0.19810E-07        -0.90827E-12         0.00000E+00
    0.19919E-07        -0.70061E-12         0.00000E+00
    0.20022E-07        -0.47070E-12         0.00000E+00
    0.20119E-07        -0.21672E-12         0.00000E+00
    0.20210E-07         0.62966E-13         0.00000E+00
    0.20295E-07         0.36966E-12         0.00000E+00
    0.20373E-07         0.70398E-12         0.00000E+00
    0.20445E-07         0.10655E-11         0.00000E+00
    0.20510E-07         0.14521E-11         0.00000E+00
    0.20568E-07         0.18593E-11         0.00000E+00
    0.20619E-07         0.22790E-11         0.00000E+00
    0.20664E-07         0.26984E-11         0.00000E+00
    0.20701E-07         0.30980E-11         0.00000E+00
    0.20732E-07         0.34500E-11         0.00000E+00
    0.20756E-07         0.37149E-11         0.00000E+00
    0.20773E-07         0.38388E-11         0.00000E+00
    0.20784E-07         0.37440E-11         0.00000E+00
    0.20790E-07         0.33153E-11         0.00000E+00
    0.20792E-07         0.23184E-11         0.00000E+00
    0.20791E-07         0.00000E+00         0.00000E+00
    0.96264E-08         0.00000E+00         0.00000E+00
    0.96255E-08         0.21796E-11         0.00000E+00
    0.96255E-08         0.32179E-11         0.00000E+00
    0.96290E-08         0.36973E-11         0.00000E+00
    0.96367E-08         0.38490E-11         0.00000E+00
    0.96488E-08         0.37870E-11         0.00000E+00
    0.96658E-08         0.35870E-11         0.00000E+00
    0.96879E-08         0.33023E-11         0.00000E+00
    0.97151E-08         0.29707E-11         0.00000E+00
    0.97476E-08         0.26190E-11         0.00000E+00
    0.97855E-08         0.22656E-11         0.00000E+00
    0.98286E-08         0.19224E-11         0.00000E+00
    0.98771E-08         0.15966E-11         0.00000E+00
    0.99308E-08         0.12923E-11         0.00000E+00
    0.99897E-08         0.10111E-11         0.00000E+00
    0.10054E-07         0.75294E-12         0.00000E+00
    0.10123E-07         0.51702E-12         0.00000E+00
    0.10197E-07         0.30180E-12         0.00000E+00
    0.10276E-07         0.10548E-12         0.00000E+00
    0.10359E-07        -0.73856E-13         0.00000E+00
    0.10448E-07        -0.23811E-12         0.00000E+00
    0.10541E-07        -0.38908E-12         0.00000E+00
    0.10638E-07        -0.52845E-12         0.00000E+00
    0.10740E-07        -0.65771E-12         0.00000E+00
    0.10846E-07        -0.77822E-12         0.00000E+00
    0.10957E-07        -0.89116E-12         0.00000E+00
    0.11071E-07        -0.99754E-12         0.00000E+00
    0.11190E-07        -0.10983E-11         0.00000E+00
    0.11312E-07        -0.11941E-11         0.00000E+00
    0.11439E-07        -0.12856E-11         0.00000E+00
    0.11569E-07        -0.13734E-11         0.00000E+00
    0.11703E-07        -0.14580E-11         0.00000E+00
    0.11840E-07        -0.15396E-11         0.00000E+00
    0.11981E-07        -0.16187E-11         0.00000E+00
    0.12125E-07        -0.16954E-11         0.00000E+00
    0.12273E-07        -0.17700E-11         0.00000E+00
    0.12423E-07        -0.18427E-11         0.00000E+00
    0.12576E-07        -0.19134E-11         0.00000E+00
    0.12733E-07        -0.19824E-11         0.00000E+00
    0.12892E-07        -0.20497E-11         0.00000E+00
    0.13053E-07        -0.21152E-11         0.00000E+00
    0.13217E-07        -0.21790E-11         0.00000E+00
    0.13384E-07        -0.22411E-11         0.00000E+00
    0.13552E-07        -0.23014E-11         0.00000E+00
    0.13723E-07        -0.23599E-11         0.00000E+00
    0.13895E-07        -0.24164E-11         0.00000E+00
    0.14069E-07        -0.24709E-11         0.00000E+00
    0.14245E-07        -0.25232E-11         0.00000E+00
    0.14422E-07        -0.25732E-11         0.00000E+00
    0.14600E-07        -0.26208E-11         0.00000E+00
    0.14779E-07        -0.26658E-11         0.00000E+00
    0.14960E-07        -0.27080E-11         0.00000E+00
    0.15141E-07        -0.27473E-11         0.00000E+00
    0.15322E-07        -0.27834E-11         0.00000E+00
    0.15504E-07        -0.28162E-11         0.00000E+00
    0.15686E-07        -0.28453E-11         0.00000E+00
    0.15868E-07        -0.28707E-11         0.00000E+00
    0.16050E-07        -0.28920E-11         0.00000E+00
    0.16231E-07        -0.29090E-11         0.00000E+00
    0.16412E-07        -0.29214E-11         0.00000E+00
    0.16592E-07        -0.29289E-11         0.00000E+00
    0.16771E-07        -0.29313E-11         0.00000E+00
    0.16948E-07        -0.29281E-11         0.00000E+00
    0.17124E-07        -0.29191E-11         0.00000E+00
    0.17299E-07        -0.29039E-11         0.00000E+00
    0.17472E-07        -0.28821E-11         0.00000E+00
    0.17643E-07        -0.28533E-11         0.00000E+00
    0.17811E-07        -0.28171E-11         0.00000E+00
    0.17977E-07        -0.27729E-11         0.00000E+00
    0.18140E-07        -0.27202E-11         0.00000E+00
    0.18300E-07        -0.26585E-11         0.00000E+00
    0.18458E-07        -0.25871E-11         0.00000E+00
    0.18611E-07        -0.25053E-11         0.00000E+00
    0.18762E-07        -0.24121E-11         0.00000E+00
    0.18908E-07        -0.23068E-11         0.00000E+00
    0.19051E-07        -0.21882E-11         0.00000E+00
    0.19189E-07        -0.20552E-11         0.00000E+00
    0.19323E-07        -0.19064E-11         0.00000E+00
    0.19452E-07        -0.17403E-11         0.00000E+00
    0.19577E-07        -0.15552E-11         0.00000E+00
    0.19696E-07        -0.13492E-11         0.00000E+00
    0.19810E-07        -0.11203E-11         0.00000E+00
    0.19919E-07        -0.86618E-12         0.00000E+00
    0.20022E-07        -0.58468E-12         0.00000E+00
    0.20119E-07        -0.27350E-12         0.00000E+00
    0.20210E-07         0.69439E-13         0.00000E+00
    0.20295E-07         0.44577E-12         0.00000E+00
    0.20373E-07         0.85632E-12         0.00000E+00
    0.20445E-07         0.13006E-11         0.00000E+00
    0.20510E-07         0.17759E-11         0.00000E+00
    0.20568E-07         0.22768E-11         0.00000E+00
    0.20619E-07         0.27931E-11         0.00000E+00
    0.20664E-07         0.33086E-11         0.00000E+00
    0.20701E-07         0.37992E-11         0.00000E+00
    0.20732E-07         0.42294E-11         0.00000E+00
    0.20756E-07         0.45498E-11         0.00000E+00
    0.20773E-07         0.46916E-11         0.00000E+00
    0.20784E-07         0.45574E-11         0.00000E+00
    0.20790E-07         0.40019E-11         0.00000E+00
    0.20791E-07         0.27307E-11         0.00000E+00
    0.20791E-07         0.00000E+00         0.00000E+00
    0.96268E-08         0.00000E+00         0.00000E+00
    0.96259E-08         0.24754E-11         0.00000E+00
    0.96257E-08         0.37277E-11         0.00000E+00
    0.96291E-08         0.43176E-11         0.00000E+00
    0.96367E-08         0.45116E-11         0.00000E+00
    0.96488E-08         0.44474E-11         0.00000E+00
    0.96658E-08         0.42164E-11         0.00000E+00
    0.96878E-08         0.38827E-11         0.00000E+00
    0.97150E-08         0.34922E-11         0.00000E+00
    0.97475E-08         0.30775E-11         0.00000E+00
    0.97854E-08         0.26604E-11         0.00000E+00
    0.98285E-08         0.22554E-11         0.00000E+00
    0.98770E-08         0.18713E-11         0.00000E+00
    0.99307E-08         0.15126E-11         0.00000E+00
    0.99896E-08         0.11813E-11         0.00000E+00
    0.10054E-07         0.87759E-12         0.00000E+00
    0.10123E-07         0.60021E-12         0.00000E+00
    0.10197E-07         0.34738E-12         0.00000E+00
    0.10276E-07         0.11694E-12         0.00000E+00
    0.10359E-07        -0.93409E-13         0.00000E+00
    0.10448E-07        -0.28594E-12         0.00000E+00
    0.10541E-07        -0.46281E-12         0.00000E+00
    0.10638E-07        -0.62600E-12         0.00000E+00
    0.10740E-07        -0.77732E-12         0.00000E+00
    0.10846E-07        -0.91835E-12         0.00000E+00
    0.10957E-07        -0.10505E-11         0.00000E+00
    0.11071E-07        -0.11750E-11         0.00000E+00
    0.11190E-07        -0.12928E-11         0.00000E+00
    0.11312E-07        -0.14049E-11         0.00000E+00
    0.11439E-07        -0.15121E-11         0.00000E+00
    0.11569E-07        -0.16149E-11         0.00000E+00
    0.11703E-07        -0.17138E-11         0.00000E+00
    0.11840E-07        -0.18095E-11         0.00000E+00
    0.11981E-07        -0.19021E-11         0.00000E+00
    0.12125E-07        -0.19920E-11         0.00000E+00
    0.12273E-07        -0.20794E-11         0.00000E+00
    0.12423E-07        -0.21645E-11         0.00000E+00
    0.12576E-07        -0.22475E-11         0.00000E+00
    0.12733E-07        -0.23284E-11         0.00000E+00
    0.12892E-07        -0.24073E-11         0.00000E+00
    0.13053E-07        -0.24842E-11         0.00000E+00
    0.13217E-07        -0.25591E-11         0.00000E+00
    0.13384E-07        -0.26320E-11         0.00000E+00
    0.13552E-07        -0.27027E-11         0.00000E+00
    0.13723E-07        -0.27714E-11         0.00000E+00
    0.13895E-07        -0.28377E-11         0.00000E+00
    0.14069E-07        -0.29017E-11         0.00000E+00
    0.14245E-07        -0.29632E-11         0.00000E+00
    0.14422E-07        -0.30220E-11         0.00000E+00
    0.14600E-07        -0.30779E-11         0.00000E+00
    0.14779E-07        -0.31308E-11         0.00000E+00
    0.14960E-07        -0.31805E-11         0.00000E+00
    0.15141E-07        -0.32267E-11         0.00000E+00
    0.15322E-07        -0.32692E-11         0.00000E+00
    0.15504E-07        -0.33078E-11         0.00000E+00
    0.15686E-07        -0.33422E-11         0.00000E+00
    0.15868E-07        -0.33721E-11         0.00000E+00
    0.16050E-07        -0.33973E-11         0.00000E+00
    0.16231E-07        -0.34174E-11         0.00000E+00
    0.16412E-07        -0.34322E-11         0.00000E+00
    0.16592E-07        -0.34412E-11         0.00000E+00
    0.16771E-07        -0.34441E-11         0.00000E+00
    0.16948E-07        -0.34406E-11         0.00000E+00
    0.17124E-07        -0.34303E-11         0.00000E+00
    0.17299E-07        -0.34127E-11         0.00000E+00
    0.17472E-07        -0.33874E-11         0.00000E+00
    0.17643E-07        -0.33539E-11         0.00000E+00
    0.17811E-07        -0.33117E-11         0.00000E+00
    0.17977E-07        -0.32602E-11         0.00000E+00
    0.18140E-07        -0.31988E-11         0.00000E+00
    0.18300E-07        -0.31268E-11         0.00000E+00
    0.18458E-07        -0.30434E-11         0.00000E+00
    0.18611E-07        -0.29477E-11         0.00000E+00
    0.18762E-07        -0.28389E-11         0.00000E+00
    0.18908E-07        -0.27157E-11         0.00000E+00
    0.19051E-07        -0.25770E-11         0.00000E+00
    0.19189E-07        -0.24214E-11         0.00000E+00
    0.19323E-07        -0.22472E-11         0.00000E+00
    0.19452E-07        -0.20527E-11         0.00000E+00
    0.19577E-07        -0.18359E-11         0.00000E+00
    0.19696E-07        -0.15944E-11         0.00000E+00
    0.19810E-07        -0.13259E-11         0.00000E+00
    0.19919E-07        -0.10277E-11         0.00000E+00
    0.20022E-07        -0.69708E-12         0.00000E+00
    0.20119E-07        -0.33133E-12         0.00000E+00
    0.20210E-07         0.72059E-13         0.00000E+00
    0.20295E-07         0.51506E-12         0.00000E+00
    0.20373E-07         0.99871E-12         0.00000E+00
    0.20445E-07         0.15224E-11         0.00000E+00
    0.20510E-07         0.20832E-11         0.00000E+00
    0.20568E-07         0.26742E-11         0.00000E+00
    0.20620E-07         0.32835E-11         0.00000E+00
    0.20664E-07         0.38917E-11         0.00000E+00
    0.20701E-07         0.44695E-11         0.00000E+00
    0.20732E-07         0.49742E-11         0.00000E+00
    0.20756E-07         0.53460E-11         0.00000E+00
    0.20773E-07         0.55015E-11         0.00000E+00
    0.20784E-07         0.53235E-11         0.00000E+00
    0.20790E-07         0.46362E-11         0.00000E+00
    0.20791E-07         0.30998E-11         0.00000E+00
    0.20790E-07         0.00000E+00         0.00000E+00
    0.96274E-08         0.00000E+00         0.00000E+00
    0.96263E-08         0.27427E-11         0.00000E+00
    0.96259E-08         0.41989E-11         0.00000E+00
    0.96292E-08         0.49004E-11         0.00000E+00
    0.96367E-08         0.51390E-11         0.00000E+00
    0.96488E-08         0.50752E-11         0.00000E+00
    0.96657E-08         0.48155E-11         0.00000E+00
    0.96877E-08         0.44353E-11         0.00000E+00
    0.97149E-08         0.39885E-11         0.00000E+00
    0.97474E-08         0.35132E-11         0.00000E+00
    0.97853E-08         0.30349E-11         0.00000E+00
    0.98285E-08         0.25706E-11         0.00000E+00
    0.98769E-08         0.21304E-11         0.00000E+00
    0.99306E-08         0.17197E-11         0.00000E+00
    0.99895E-08         0.13406E-11         0.00000E+00
    0.10054E-07         0.99339E-12         0.00000E+00
    0.10123E-07         0.67655E-12         0.00000E+00
    0.10197E-07         0.38800E-12         0.00000E+00
    0.10276E-07         0.12522E-12         0.00000E+00
    0.10359E-07        -0.11447E-12         0.00000E+00
    0.10448E-07        -0.33372E-12         0.00000E+00
    0.10540E-07        -0.53502E-12         0.00000E+00
    0.10638E-07        -0.72067E-12         0.00000E+00
    0.10740E-07        -0.89275E-12         0.00000E+00
    0.10846E-07        -0.10531E-11         0.00000E+00
    0.10956E-07        -0.12033E-11         0.00000E+00
    0.11071E-07        -0.13448E-11         0.00000E+00
    0.11190E-07        -0.14788E-11         0.00000E+00
    0.11312E-07        -0.16062E-11         0.00000E+00
    0.11439E-07        -0.17280E-11         0.00000E+00
    0.11569E-07        -0.18449E-11         0.00000E+00
    0.11703E-07        -0.19575E-11         0.00000E+00
    0.11840E-07        -0.20663E-11         0.00000E+00
    0.11981E-07        -0.21717E-11         0.00000E+00
    0.12125E-07        -0.22740E-11         0.00000E+00
    0.12273E-07        -0.23736E-11         0.00000E+00
    0.12423E-07        -0.24705E-11         0.00000E+00
    0.12576E-07        -0.25650E-11         0.00000E+00
    0.12733E-07        -0.26572E-11         0.00000E+00
    0.12892E-07        -0.27471E-11         0.00000E+00
    0.13053E-07        -0.28348E-11         0.00000E+00
    0.13217E-07        -0.29202E-11         0.00000E+00
    0.13384E-07        -0.30033E-11         0.00000E+00
    0.13552E-07        -0.30840E-11         0.00000E+00
    0.13723E-07        -0.31623E-11         0.00000E+00
    0.13895E-07        -0.32381E-11         0.00000E+00
    0.14069E-07        -0.33111E-11         0.00000E+00
    0.14245E-07        -0.33812E-11         0.00000E+00
    0.14422E-07        -0.34484E-11         0.00000E+00
    0.14600E-07        -0.35123E-11         0.00000E+00
    0.14779E-07        -0.35727E-11         0.00000E+00
    0.14960E-07        -0.36295E-11         0.00000E+00
    0.15141E-07        -0.36823E-11         0.00000E+00
    0.15322E-07        -0.37309E-11         0.00000E+00
    0.15504E-07        -0.37751E-11         0.00000E+00
    0.15686E-07        -0.38145E-11         0.00000E+00
    0.15868E-07        -0.38488E-11         0.00000E+00
    0.16050E-07        -0.38777E-11         0.00000E+00
    0.16231E-07        -0.39008E-11         0.00000E+00
    0.16412E-07        -0.39179E-11         0.00000E+00
    0.16592E-07        -0.39284E-11         0.00000E+00
    0.16771E-07        -0.39320E-11         0.00000E+00
    0.16948E-07        -0.39283E-11         0.00000E+00
    0.17124E-07        -0.39168E-11         0.00000E+00
    0.17299E-07        -0.38970E-11         0.00000E+00
    0.17472E-07        -0.38685E-11         0.00000E+00
    0.17643E-07        -0.38306E-11         0.00000E+00
    0.17811E-07        -0.37829E-11         0.00000E+00
    0.17977E-07        -0.37245E-11         0.00000E+00
    0.18140E-07        -0.36549E-11         0.00000E+00
    0.18300E-07        -0.35733E-11         0.00000E+00
    0.18458E-07        -0.34786E-11         0.00000E+00
    0.18612E-07        -0.33701E-11         0.00000E+00
    0.18762E-07        -0.32465E-11         0.00000E+00
    0.18908E-07        -0.31066E-11         0.00000E+00
    0.19051E-07        -0.29491E-11         0.00000E+00
    0.19189E-07        -0.27722E-11         0.00000E+00
    0.19323E-07        -0.25741E-11         0.00000E+00
    0.19452E-07        -0.23529E-11         0.00000E+00
    0.19577E-07        -0.21060E-11         0.00000E+00
    0.19696E-07        -0.18310E-11         0.00000E+00
    0.19810E-07        -0.15251E-11         0.00000E+00
    0.19919E-07        -0.11851E-11         0.00000E+00
    0.20022E-07        -0.80781E-12         0.00000E+00
    0.20119E-07        -0.39016E-12         0.00000E+00
    0.20210E-07         0.70822E-13         0.00000E+00
    0.20295E-07         0.57748E-12         0.00000E+00
    0.20373E-07         0.11310E-11         0.00000E+00
    0.20445E-07         0.17309E-11         0.00000E+00
    0.20510E-07         0.23736E-11         0.00000E+00
    0.20568E-07         0.30512E-11         0.00000E+00
    0.20620E-07         0.37500E-11         0.00000E+00
    0.20664E-07         0.44472E-11         0.00000E+00
    0.20701E-07         0.51086E-11         0.00000E+00
    0.20732E-07         0.56842E-11         0.00000E+00
    0.20756E-07         0.61038E-11         0.00000E+00
    0.20773E-07         0.62694E-11         0.00000E+00
    0.20784E-07         0.60440E-11         0.00000E+00
    0.20790E-07         0.52227E-11         0.00000E+00
    0.20790E-07         0.34334E-11         0.00000E+00
    0.20789E-07         0.00000E+00         0.00000E+00
    0.96279E-08         0.00000E+00         0.00000E+00
    0.96267E-08         0.29862E-11         0.00000E+00
    0.96261E-08         0.46349E-11         0.00000E+00
    0.96293E-08         0.54472E-11         0.00000E+00
    0.96367E-08         0.57320E-11         0.00000E+00
    0.96487E-08         0.56705E-11         0.00000E+00
    0.96656E-08         0.53843E-11         0.00000E+00
    0.96876E-08         0.49600E-11         0.00000E+00
    0.97148E-08         0.44594E-11         0.00000E+00
    0.97473E-08         0.39258E-11         0.00000E+00
    0.97852E-08         0.33889E-11         0.00000E+00
    0.98284E-08         0.28678E-11         0.00000E+00
    0.98768E-08         0.23739E-11         0.00000E+00
    0.99306E-08         0.19135E-11         0.00000E+00
    0.99895E-08         0.14890E-11         0.00000E+00
    0.10053E-07         0.11003E-11         0.00000E+00
    0.10123E-07         0.74607E-12         0.00000E+00
    0.10197E-07         0.42371E-12         0.00000E+00
    0.10275E-07         0.13037E-12         0.00000E+00
    0.10359E-07        -0.13699E-12         0.00000E+00
    0.10447E-07        -0.38138E-12         0.00000E+00
    0.10540E-07        -0.60564E-12         0.00000E+00
    0.10638E-07        -0.81237E-12         0.00000E+00
    0.10740E-07        -0.10039E-11         0.00000E+00
    0.10846E-07        -0.11824E-11         0.00000E+00
    0.10956E-07        -0.13495E-11         0.00000E+00
    0.11071E-07        -0.15070E-11         0.00000E+00
    0.11190E-07        -0.16560E-11         0.00000E+00
    0.11312E-07        -0.17979E-11         0.00000E+00
    0.11439E-07        -0.19334E-11         0.00000E+00
    0.11569E-07        -0.20636E-11         0.00000E+00
    0.11703E-07        -0.21889E-11         0.00000E+00
    0.11840E-07        -0.23101E-11         0.00000E+00
    0.11981E-07        -0.24275E-11         0.00000E+00
    0.12125E-07        -0.25415E-11         0.00000E+00
    0.12273E-07        -0.26525E-11         0.00000E+00
    0.12423E-07        -0.27606E-11         0.00000E+00
    0.12576E-07        -0.28660E-11         0.00000E+00
    0.12733E-07        -0.29688E-11         0.00000E+00
    0.12892E-07        -0.30691E-11         0.00000E+00
    0.13053E-07        -0.31669E-11         0.00000E+00
    0.13217E-07        -0.32623E-11         0.00000E+00
    0.13384E-07        -0.33551E-11         0.00000E+00
    0.13552E-07        -0.34452E-11         0.00000E+00
    0.13723E-07        -0.35327E-11         0.00000E+00
    0.13895E-07        -0.36173E-11         0.00000E+00
    0.14069E-07        -0.36989E-11         0.00000E+00
    0.14245E-07        -0.37773E-11         0.00000E+00
    0.14422E-07        -0.38524E-11         0.00000E+00
    0.14600E-07        -0.39238E-11         0.00000E+00
    0.14779E-07        -0.39914E-11         0.00000E+00
    0.14960E-07        -0.40549E-11         0.00000E+00
    0.15141E-07        -0.41141E-11         0.00000E+00
    0.15322E-07        -0.41685E-11         0.00000E+00
    0.15504E-07        -0.42180E-11         0.00000E+00
    0.15686E-07        -0.42622E-11         0.00000E+00
    0.15868E-07        -0.43007E-11         0.00000E+00
    0.16050E-07        -0.43332E-11         0.00000E+00
    0.16231E-07        -0.43592E-11         0.00000E+00
    0.16412E-07        -0.43785E-11         0.00000E+00
    0.16592E-07        -0.43905E-11         0.00000E+00
    0.16771E-07        -0.43948E-11         0.00000E+00
    0.16948E-07        -0.43910E-11         0.00000E+00
    0.17124E-07        -0.43784E-11         0.00000E+00
    0.17299E-07        -0.43567E-11         0.00000E+00
    0.17472E-07        -0.43252E-11         0.00000E+00
    0.17643E-07        -0.42834E-11         0.00000E+00
    0.17811E-07        -0.42305E-11         0.00000E+00
    0.17977E-07        -0.41658E-11         0.00000E+00
    0.18140E-07        -0.40886E-11         0.00000E+00
    0.18300E-07        -0.39979E-11         0.00000E+00
    0.18458E-07        -0.38929E-11         0.00000E+00
    0.18612E-07        -0.37723E-11         0.00000E+00
    0.18762E-07        -0.36349E-11         0.00000E+00
    0.18908E-07        -0.34794E-11         0.00000E+00
    0.19051E-07        -0.33042E-11         0.00000E+00
    0.19189E-07        -0.31074E-11         0.00000E+00
    0.19323E-07        -0.28869E-11         0.00000E+00
    0.19452E-07        -0.26405E-11         0.00000E+00
    0.19577E-07        -0.23655E-11         0.00000E+00
    0.19696E-07        -0.20590E-11         0.00000E+00
    0.19810E-07        -0.17177E-11         0.00000E+00
    0.19919E-07        -0.13382E-11         0.00000E+00
    0.20022E-07        -0.91680E-12         0.00000E+00
    0.20119E-07        -0.44995E-12         0.00000E+00
    0.20210E-07         0.65740E-13         0.00000E+00
    0.20295E-07         0.63297E-12         0.00000E+00
    0.20373E-07         0.12532E-11         0.00000E+00
    0.20445E-07         0.19258E-11         0.00000E+00
    0.20510E-07         0.26469E-11         0.00000E+00
    0.20568E-07         0.34076E-11         0.00000E+00
    0.20620E-07         0.41922E-11         0.00000E+00
    0.20664E-07         0.49748E-11         0.00000E+00
    0.20702E-07         0.57162E-11         0.00000E+00
    0.20732E-07         0.63593E-11         0.00000E+00
    0.20756E-07         0.68232E-11         0.00000E+00
    0.20773E-07         0.69958E-11         0.00000E+00
    0.20784E-07         0.67207E-11         0.00000E+00
    0.20789E-07         0.57658E-11         0.00000E+00
    0.20790E-07         0.37373E-11         0.00000E+00
    0.20789E-07         0.00000E+00         0.00000E+00
    0.96285E-08         0.00000E+00         0.00000E+00
    0.96272E-08         0.32092E-11         0.00000E+00
    0.96263E-08         0.50389E-11         0.00000E+00
    0.96294E-08         0.59596E-11         0.00000E+00
    0.96368E-08         0.62911E-11         0.00000E+00
    0.96487E-08         0.62334E-11         0.00000E+00
    0.96656E-08         0.59228E-11         0.00000E+00
    0.96875E-08         0.54566E-11         0.00000E+00
    0.97147E-08         0.49044E-11         0.00000E+00
    0.97472E-08         0.43153E-11         0.00000E+00
    0.97851E-08         0.37223E-11         0.00000E+00
    0.98283E-08         0.31468E-11         0.00000E+00
    0.98767E-08         0.26018E-11         0.00000E+00
    0.99305E-08         0.20940E-11         0.00000E+00
    0.99894E-08         0.16263E-11         0.00000E+00
    0.10053E-07         0.11984E-11         0.00000E+00
    0.10122E-07         0.80880E-12         0.00000E+00
    0.10197E-07         0.45456E-12         0.00000E+00
    0.10275E-07         0.13247E-12         0.00000E+00
    0.10359E-07        -0.16088E-12         0.00000E+00
    0.10447E-07        -0.42885E-12         0.00000E+00
    0.10540E-07        -0.67460E-12         0.00000E+00
    0.10638E-07        -0.90104E-12         0.00000E+00
    0.10740E-07        -0.11108E-11         0.00000E+00
    0.10846E-07        -0.13061E-11         0.00000E+00
    0.10956E-07        -0.14891E-11         0.00000E+00
    0.11071E-07        -0.16614E-11         0.00000E+00
    0.11190E-07        -0.18246E-11         0.00000E+00
    0.11312E-07        -0.19798E-11         0.00000E+00
    0.11439E-07        -0.21282E-11         0.00000E+00
    0.11569E-07        -0.22708E-11         0.00000E+00
    0.11703E-07        -0.24081E-11         0.00000E+00
    0.11840E-07        -0.25408E-11         0.00000E+00
    0.11981E-07        -0.26695E-11         0.00000E+00
    0.12125E-07        -0.27945E-11         0.00000E+00
    0.12273E-07        -0.29162E-11         0.00000E+00
    0.12423E-07        -0.30347E-11         0.00000E+00
    0.12576E-07        -0.31503E-11         0.00000E+00
    0.12733E-07        -0.32632E-11         0.00000E+00
    0.12892E-07        -0.33733E-11         0.00000E+00
    0.13053E-07        -0.34807E-11         0.00000E+00
    0.13217E-07        -0.35854E-11         0.00000E+00
    0.13384E-07        -0.36873E-11         0.00000E+00
    0.13552E-07        -0.37863E-11         0.00000E+00
    0.13723E-07        -0.38824E-11         0.00000E+00
    0.13895E-07        -0.39754E-11         0.00000E+00
    0.14069E-07        -0.40651E-11         0.00000E+00
    0.14245E-07        -0.41514E-11         0.00000E+00
    0.14422E-07        -0.42339E-11         0.00000E+00
    0.14600E-07        -0.43125E-11         0.00000E+00
    0.14779E-07        -0.43869E-11         0.00000E+00
    0.14960E-07        -0.44568E-11         0.00000E+00
    0.15141E-07        -0.45219E-11         0.00000E+00
    0.15322E-07        -0.45819E-11         0.00000E+00
    0.15504E-07        -0.46365E-11         0.00000E+00
    0.15686E-07        -0.46852E-11         0.00000E+00
    0.15868E-07        -0.47277E-11         0.00000E+00
    0.16050E-07        -0.47636E-11         0.00000E+00
    0.16231E-07        -0.47925E-11         0.00000E+00
    0.16412E-07        -0.48139E-11         0.00000E+00
    0.16592E-07        -0.48274E-11         0.00000E+00
    0.16771E-07        -0.48325E-11         0.00000E+00
    0.16948E-07        -0.48286E-11         0.00000E+00
    0.17124E-07        -0.48152E-11         0.00000E+00
    0.17299E-07        -0.47917E-11         0.00000E+00
    0.17472E-07        -0.47576E-11         0.00000E+00
    0.17643E-07        -0.47121E-11         0.00000E+00
    0.17811E-07        -0.46544E-11         0.00000E+00
    0.17977E-07        -0.45839E-11         0.00000E+00
    0.18140E-07        -0.44997E-11         0.00000E+00
    0.18301E-07        -0.44007E-11         0.00000E+00
    0.18458E-07        -0.42859E-11         0.00000E+00
    0.18612E-07        -0.41541E-11         0.00000E+00
    0.18762E-07        -0.40040E-11         0.00000E+00
    0.18908E-07        -0.38339E-11         0.00000E+00
    0.19051E-07        -0.36422E-11         0.00000E+00
    0.19189E-07        -0.34268E-11         0.00000E+00
    0.19323E-07        -0.31855E-11         0.00000E+00
    0.19452E-07        -0.29156E-11         0.00000E+00
    0.19577E-07        -0.26142E-11         0.00000E+00
    0.19696E-07        -0.22781E-11         0.00000E+00
    0.19810E-07        -0.19036E-11         0.00000E+00
    0.19919E-07        -0.14869E-11         0.00000E+00
    0.20022E-07        -0.10240E-11         0.00000E+00
    0.20119E-07        -0.51064E-12         0.00000E+00
    0.20210E-07         0.56840E-13         0.00000E+00
    0.20295E-07         0.68154E-12         0.00000E+00
    0.20373E-07         0.13652E-11         0.00000E+00
    0.20445E-07         0.21071E-11         0.00000E+00
    0.20510E-07         0.29029E-11         0.00000E+00
    0.20569E-07         0.37431E-11         0.00000E+00
    0.20620E-07         0.46097E-11         0.00000E+00
    0.20664E-07         0.54741E-11         0.00000E+00
    0.20702E-07         0.62920E-11         0.00000E+00
    0.20732E-07         0.69992E-11         0.00000E+00
    0.20756E-07         0.75046E-11         0.00000E+00
    0.20773E-07         0.76817E-11         0.00000E+00
    0.20784E-07         0.73553E-11         0.00000E+00
    0.20789E-07         0.62692E-11         0.00000E+00
    0.20789E-07         0.40159E-11         0.00000E+00
    0.20788E-07         0.18626E-20         0.00000E+00
    0.96292E-08         0.00000E+00         0.00000E+00
    0.96277E-08         0.34145E-11         0.00000E+00
    0.96266E-08         0.54134E-11         0.00000E+00
    0.96295E-08         0.64389E-11         0.00000E+00
    0.96368E-08         0.68170E-11         0.00000E+00
    0.96487E-08         0.67643E-11         0.00000E+00
    0.96655E-08         0.64309E-11         0.00000E+00
    0.96874E-08         0.59249E-11         0.00000E+00
    0.97146E-08         0.53236E-11         0.00000E+00
    0.97471E-08         0.46813E-11         0.00000E+00
    0.97850E-08         0.40347E-11         0.00000E+00
    0.98281E-08         0.34075E-11         0.00000E+00
    0.98766E-08         0.28138E-11         0.00000E+00
    0.99304E-08         0.22612E-11         0.00000E+00
    0.99893E-08         0.17526E-11         0.00000E+00
    0.10053E-07         0.12877E-11         0.00000E+00
    0.10122E-07         0.86478E-12         0.00000E+00
    0.10196E-07         0.48060E-12         0.00000E+00
    0.10275E-07         0.13158E-12         0.00000E+00
    0.10359E-07        -0.18606E-12         0.00000E+00
    0.10447E-07        -0.47603E-12         0.00000E+00
    0.10540E-07        -0.74180E-12         0.00000E+00
    0.10638E-07        -0.98658E-12         0.00000E+00
    0.10740E-07        -0.12132E-11         0.00000E+00
    0.10846E-07        -0.14243E-11         0.00000E+00
    0.10956E-07        -0.16219E-11         0.00000E+00
    0.11071E-07        -0.18080E-11         0.00000E+00
    0.11190E-07        -0.19843E-11         0.00000E+00
    0.11312E-07        -0.21520E-11         0.00000E+00
    0.11439E-07        -0.23124E-11         0.00000E+00
    0.11569E-07        -0.24664E-11         0.00000E+00
    0.11703E-07        -0.26149E-11         0.00000E+00
    0.11840E-07        -0.27584E-11         0.00000E+00
    0.11981E-07        -0.28976E-11         0.00000E+00
    0.12125E-07        -0.30329E-11         0.00000E+00
    0.12272E-07        -0.31645E-11         0.00000E+00
    0.12423E-07        -0.32929E-11         0.00000E+00
    0.12576E-07        -0.34181E-11         0.00000E+00
    0.12733E-07        -0.35403E-11         0.00000E+00
    0.12892E-07        -0.36596E-11         0.00000E+00
    0.13053E-07        -0.37759E-11         0.00000E+00
    0.13217E-07        -0.38894E-11         0.00000E+00
    0.13384E-07        -0.39999E-11         0.00000E+00
    0.13552E-07        -0.41073E-11         0.00000E+00
    0.13723E-07        -0.42115E-11         0.00000E+00
    0.13895E-07        -0.43124E-11         0.00000E+00
    0.14069E-07        -0.44098E-11         0.00000E+00
    0.14245E-07        -0.45034E-11         0.00000E+00
    0.14422E-07        -0.45930E-11         0.00000E+00
    0.14600E-07        -0.46783E-11         0.00000E+00
    0.14779E-07        -0.47591E-11         0.00000E+00
    0.14960E-07        -0.48351E-11         0.00000E+00
    0.15141E-07        -0.49059E-11         0.00000E+00
    0.15322E-07        -0.49711E-11         0.00000E+00
    0.15504E-07        -0.50305E-11         0.00000E+00
    0.15686E-07        -0.50835E-11         0.00000E+00
    0.15868E-07        -0.51299E-11         0.00000E+00
    0.16050E-07        -0.51691E-11         0.00000E+00
    0.16231E-07        -0.52007E-11         0.00000E+00
    0.16412E-07        -0.52242E-11         0.00000E+00
    0.16592E-07        -0.52391E-11         0.00000E+00
    0.16771E-07        -0.52450E-11         0.00000E+00
    0.16948E-07        -0.52411E-11         0.00000E+00
    0.17124E-07        -0.52270E-11         0.00000E+00
    0.17299E-07        -0.52020E-11         0.00000E+00
    0.17472E-07        -0.51654E-11         0.00000E+00
    0.17643E-07        -0.51166E-11         0.00000E+00
    0.17811E-07        -0.50546E-11         0.00000E+00
    0.17977E-07        -0.49788E-11         0.00000E+00
    0.18140E-07        -0.48880E-11         0.00000E+00
    0.18301E-07        -0.47814E-11         0.00000E+00
    0.18458E-07        -0.46576E-11         0.00000E+00
    0.18612E-07        -0.45155E-11         0.00000E+00
    0.18762E-07        -0.43536E-11         0.00000E+00
    0.18908E-07        -0.41701E-11         0.00000E+00
    0.19051E-07        -0.39631E-11         0.00000E+00
    0.19189E-07        -0.37305E-11         0.00000E+00
    0.19323E-07        -0.34697E-11         0.00000E+00
    0.19452E-07        -0.31779E-11         0.00000E+00
    0.19577E-07        -0.28520E-11         0.00000E+00
    0.19696E-07        -0.24882E-11         0.00000E+00
    0.19810E-07        -0.20827E-11         0.00000E+00
    0.19919E-07        -0.16312E-11         0.00000E+00
    0.20022E-07        -0.11292E-11         0.00000E+00
    0.20119E-07        -0.57214E-12         0.00000E+00
    0.20210E-07         0.44167E-13         0.00000E+00
    0.20295E-07         0.72317E-12         0.00000E+00
    0.20374E-07         0.14668E-11         0.00000E+00
    0.20445E-07         0.22745E-11         0.00000E+00
    0.20511E-07         0.31416E-11         0.00000E+00
    0.20569E-07         0.40573E-11         0.00000E+00
    0.20620E-07         0.50024E-11         0.00000E+00
    0.20665E-07         0.59448E-11         0.00000E+00
    0.20702E-07         0.68358E-11         0.00000E+00
    0.20732E-07         0.76039E-11         0.00000E+00
    0.20756E-07         0.81481E-11         0.00000E+00
    0.20773E-07         0.83279E-11         0.00000E+00
    0.20784E-07         0.79499E-11         0.00000E+00
    0.20789E-07         0.67367E-11         0.00000E+00
    0.20788E-07         0.42728E-11         0.00000E+00
    0.20787E-07         0.13466E-20         0.00000E+00
    0.96299E-08         0.00000E+00         0.00000E+00
    0.96283E-08         0.36044E-11         0.00000E+00
    0.96270E-08         0.57611E-11         0.00000E+00
    0.96297E-08         0.68867E-11         0.00000E+00
    0.96368E-08         0.73106E-11         0.00000E+00
    0.96486E-08         0.72634E-11         0.00000E+00
    0.96654E-08         0.69086E-11         0.00000E+00
    0.96873E-08         0.63647E-11         0.00000E+00
    0.97145E-08         0.57166E-11         0.00000E+00
    0.97470E-08         0.50236E-11         0.00000E+00
    0.97848E-08         0.43261E-11         0.00000E+00
    0.98280E-08         0.36497E-11         0.00000E+00
    0.98765E-08         0.30100E-11         0.00000E+00
    0.99302E-08         0.24150E-11         0.00000E+00
    0.99892E-08         0.18678E-11         0.00000E+00
    0.10053E-07         0.13682E-11         0.00000E+00
    0.10122E-07         0.91407E-12         0.00000E+00
    0.10196E-07         0.50191E-12         0.00000E+00
    0.10275E-07         0.12778E-12         0.00000E+00
    0.10359E-07        -0.21245E-12         0.00000E+00
    0.10447E-07        -0.52283E-12         0.00000E+00
    0.10540E-07        -0.80716E-12         0.00000E+00
    0.10638E-07        -0.10689E-11         0.00000E+00
    0.10740E-07        -0.13112E-11         0.00000E+00
    0.10846E-07        -0.15367E-11         0.00000E+00
    0.10956E-07        -0.17479E-11         0.00000E+00
    0.11071E-07        -0.19468E-11         0.00000E+00
    0.11190E-07        -0.21352E-11         0.00000E+00
    0.11312E-07        -0.23144E-11         0.00000E+00
    0.11439E-07        -0.24859E-11         0.00000E+00
    0.11569E-07        -0.26506E-11         0.00000E+00
    0.11703E-07        -0.28093E-11         0.00000E+00
    0.11840E-07        -0.29629E-11         0.00000E+00
    0.11981E-07        -0.31118E-11         0.00000E+00
    0.12125E-07        -0.32566E-11         0.00000E+00
    0.12272E-07        -0.33976E-11         0.00000E+00
    0.12423E-07        -0.35350E-11         0.00000E+00
    0.12576E-07        -0.36692E-11         0.00000E+00
    0.12733E-07        -0.38001E-11         0.00000E+00
    0.12892E-07        -0.39280E-11         0.00000E+00
    0.13053E-07        -0.40527E-11         0.00000E+00
    0.13217E-07        -0.41744E-11         0.00000E+00
    0.13383E-07        -0.42929E-11         0.00000E+00
    0.13552E-07        -0.44081E-11         0.00000E+00
    0.13723E-07        -0.45200E-11         0.00000E+00
    0.13895E-07        -0.46283E-11         0.00000E+00
    0.14069E-07        -0.47328E-11         0.00000E+00
    0.14245E-07        -0.48333E-11         0.00000E+00
    0.14422E-07        -0.49295E-11         0.00000E+00
    0.14600E-07        -0.50212E-11         0.00000E+00
    0.14779E-07        -0.51080E-11         0.00000E+00
    0.14960E-07        -0.51897E-11         0.00000E+00
    0.15141E-07        -0.52658E-11         0.00000E+00
    0.15322E-07        -0.53360E-11         0.00000E+00
    0.15504E-07        -0.53999E-11         0.00000E+00
    0.15686E-07        -0.54571E-11         0.00000E+00
    0.15868E-07        -0.55071E-11         0.00000E+00
    0.16050E-07        -0.55494E-11         0.00000E+00
    0.16231E-07        -0.55836E-11         0.00000E+00
    0.16412E-07        -0.56092E-11         0.00000E+00
    0.16592E-07        -0.56256E-11         0.00000E+00
    0.16771E-07        -0.56322E-11         0.00000E+00
    0.16948E-07        -0.56285E-11         0.00000E+00
    0.17124E-07        -0.56138E-11         0.00000E+00
    0.17299E-07        -0.55874E-11         0.00000E+00
    0.17472E-07        -0.55487E-11         0.00000E+00
    0.17643E-07        -0.54968E-11         0.00000E+00
    0.17811E-07        -0.54310E-11         0.00000E+00
    0.17977E-07        -0.53502E-11         0.00000E+00
    0.18140E-07        -0.52536E-11         0.00000E+00
    0.18301E-07        -0.51399E-11         0.00000E+00
    0.18458E-07        -0.50080E-11         0.00000E+00
    0.18612E-07        -0.48564E-11         0.00000E+00
    0.18762E-07        -0.46835E-11         0.00000E+00
    0.18908E-07        -0.44876E-11         0.00000E+00
    0.19051E-07        -0.42666E-11         0.00000E+00
    0.19189E-07        -0.40180E-11         0.00000E+00
    0.19323E-07        -0.37393E-11         0.00000E+00
    0.19452E-07        -0.34273E-11         0.00000E+00
    0.19577E-07        -0.30786E-11         0.00000E+00
    0.19696E-07        -0.26892E-11         0.00000E+00
    0.19810E-07        -0.22548E-11         0.00000E+00
    0.19919E-07        -0.17709E-11         0.00000E+00
    0.20022E-07        -0.12324E-11         0.00000E+00
    0.20119E-07        -0.63436E-12         0.00000E+00
    0.20210E-07         0.27782E-13         0.00000E+00
    0.20295E-07         0.75789E-12         0.00000E+00
    0.20374E-07         0.15582E-11         0.00000E+00
    0.20446E-07         0.24280E-11         0.00000E+00
    0.20511E-07         0.33626E-11         0.00000E+00
    0.20569E-07         0.43502E-11         0.00000E+00
    0.20620E-07         0.53698E-11         0.00000E+00
    0.20665E-07         0.63866E-11         0.00000E+00
    0.20702E-07         0.73473E-11         0.00000E+00
    0.20732E-07         0.81734E-11         0.00000E+00
    0.20756E-07         0.87539E-11         0.00000E+00
    0.20773E-07         0.89352E-11         0.00000E+00
    0.20784E-07         0.85062E-11         0.00000E+00
    0.20788E-07         0.71712E-11         0.00000E+00
    0.20788E-07         0.45108E-11         0.00000E+00
    0.20786E-07        -0.13466E-20         0.00000E+00
    0.96307E-08         0.00000E+00         0.00000E+00
    0.96289E-08         0.37805E-11         0.00000E+00
    0.96273E-08         0.60840E-11         0.00000E+00
    0.96299E-08         0.73044E-11         0.00000E+00
    0.96369E-08         0.77723E-11         0.00000E+00
    0.96486E-08         0.77308E-11         0.00000E+00
    0.96653E-08         0.73559E-11         0.00000E+00
    0.96872E-08         0.67760E-11         0.00000E+00
    0.97143E-08         0.60832E-11         0.00000E+00
    0.97468E-08         0.53422E-11         0.00000E+00
    0.97847E-08         0.45963E-11         0.00000E+00
    0.98279E-08         0.38735E-11         0.00000E+00
    0.98764E-08         0.31903E-11         0.00000E+00
    0.99301E-08         0.25554E-11         0.00000E+00
    0.99891E-08         0.19721E-11         0.00000E+00
    0.10053E-07         0.14400E-11         0.00000E+00
    0.10122E-07         0.95674E-12         0.00000E+00
    0.10196E-07         0.51857E-12         0.00000E+00
    0.10275E-07         0.12117E-12         0.00000E+00
    0.10359E-07        -0.23995E-12         0.00000E+00
    0.10447E-07        -0.56916E-12         0.00000E+00
    0.10540E-07        -0.87057E-12         0.00000E+00
    0.10638E-07        -0.11479E-11         0.00000E+00
    0.10740E-07        -0.14046E-11         0.00000E+00
    0.10846E-07        -0.16434E-11         0.00000E+00
    0.10956E-07        -0.18671E-11         0.00000E+00
    0.11071E-07        -0.20777E-11         0.00000E+00
    0.11190E-07        -0.22771E-11         0.00000E+00
    0.11312E-07        -0.24670E-11         0.00000E+00
    0.11439E-07        -0.26486E-11         0.00000E+00
    0.11569E-07        -0.28231E-11         0.00000E+00
    0.11703E-07        -0.29914E-11         0.00000E+00
    0.11840E-07        -0.31542E-11         0.00000E+00
    0.11981E-07        -0.33121E-11         0.00000E+00
    0.12125E-07        -0.34657E-11         0.00000E+00
    0.12272E-07        -0.36152E-11         0.00000E+00
    0.12423E-07        -0.37611E-11         0.00000E+00
    0.12576E-07        -0.39035E-11         0.00000E+00
    0.12733E-07        -0.40426E-11         0.00000E+00
    0.12892E-07        -0.41784E-11         0.00000E+00
    0.13053E-07        -0.43110E-11         0.00000E+00
    0.13217E-07        -0.44403E-11         0.00000E+00
    0.13383E-07        -0.45663E-11         0.00000E+00
    0.13552E-07        -0.46888E-11         0.00000E+00
    0.13722E-07        -0.48077E-11         0.00000E+00
    0.13895E-07        -0.49229E-11         0.00000E+00
    0.14069E-07        -0.50341E-11         0.00000E+00
    0.14245E-07        -0.51410E-11         0.00000E+00
    0.14422E-07        -0.52435E-11         0.00000E+00
    0.14600E-07        -0.53411E-11         0.00000E+00
    0.14779E-07        -0.54336E-11         0.00000E+00
    0.14960E-07        -0.55206E-11         0.00000E+00
    0.15141E-07        -0.56017E-11         0.00000E+00
    0.15322E-07        -0.56766E-11         0.00000E+00
    0.15504E-07        -0.57448E-11         0.00000E+00
    0.15686E-07        -0.58058E-11         0.00000E+00
    0.15868E-07        -0.58593E-11         0.00000E+00
    0.16050E-07        -0.59046E-11         0.00000E+00
    0.16231E-07        -0.59413E-11         0.00000E+00
    0.16412E-07        -0.59688E-11         0.00000E+00
    0.16592E-07        -0.59866E-11         0.00000E+00
    0.16771E-07        -0.59941E-11         0.00000E+00
    0.16948E-07        -0.59906E-11         0.00000E+00
    0.17124E-07        -0.59754E-11         0.00000E+00
    0.17299E-07        -0.59479E-11         0.00000E+00
    0.17472E-07        -0.59073E-11         0.00000E+00
    0.17643E-07        -0.58527E-11         0.00000E+00
    0.17811E-07        -0.57834E-11         0.00000E+00
    0.17977E-07        -0.56982E-11         0.00000E+00
    0.18140E-07        -0.55962E-11         0.00000E+00
    0.18301E-07        -0.54762E-11         0.00000E+00
    0.18458E-07        -0.53368E-11         0.00000E+00
    0.18612E-07        -0.51765E-11         0.00000E+00
    0.18762E-07        -0.49937E-11         0.00000E+00
    0.18908E-07        -0.47865E-11         0.00000E+00
    0.19051E-07        -0.45525E-11         0.00000E+00
    0.19189E-07        -0.42894E-11         0.00000E+00
    0.19323E-07        -0.39942E-11         0.00000E+00
    0.19453E-07        -0.36636E-11         0.00000E+00
    0.19577E-07        -0.32939E-11         0.00000E+00
    0.19696E-07        -0.28808E-11         0.00000E+00
    0.19811E-07        -0.24198E-11         0.00000E+00
    0.19919E-07        -0.19057E-11         0.00000E+00
    0.20022E-07        -0.13333E-11         0.00000E+00
    0.20119E-07        -0.69717E-12         0.00000E+00
    0.20211E-07         0.77673E-14         0.00000E+00
    0.20295E-07         0.78572E-12         0.00000E+00
    0.20374E-07         0.16391E-11         0.00000E+00
    0.20446E-07         0.25676E-11         0.00000E+00
    0.20511E-07         0.35658E-11         0.00000E+00
    0.20569E-07         0.46214E-11         0.00000E+00
    0.20621E-07         0.57118E-11         0.00000E+00
    0.20665E-07         0.67993E-11         0.00000E+00
    0.20702E-07         0.78262E-11         0.00000E+00
    0.20733E-07         0.87075E-11         0.00000E+00
    0.20756E-07         0.93225E-11         0.00000E+00
    0.20773E-07         0.95044E-11         0.00000E+00
    0.20783E-07         0.90260E-11         0.00000E+00
    0.20788E-07         0.75755E-11         0.00000E+00
    0.20787E-07         0.47320E-11         0.00000E+00
    0.20785E-07         0.00000E+00         0.00000E+00
    0.96314E-08         0.18626E-20         0.00000E+00
    0.96295E-08         0.39442E-11         0.00000E+00
    0.96277E-08         0.63838E-11         0.00000E+00
    0.96300E-08         0.76932E-11         0.00000E+00
    0.96369E-08         0.82030E-11         0.00000E+00
    0.96485E-08         0.81669E-11         0.00000E+00
    0.96652E-08         0.77727E-11         0.00000E+00
    0.96871E-08         0.71585E-11         0.00000E+00
    0.97142E-08         0.64234E-11         0.00000E+00
    0.97467E-08         0.56367E-11         0.00000E+00
    0.97845E-08         0.48451E-11         0.00000E+00
    0.98277E-08         0.40785E-11         0.00000E+00
    0.98762E-08         0.33546E-11         0.00000E+00
    0.99300E-08         0.26824E-11         0.00000E+00
    0.99890E-08         0.20653E-11         0.00000E+00
    0.10053E-07         0.15031E-11         0.00000E+00
    0.10122E-07         0.99287E-12         0.00000E+00
    0.10196E-07         0.53069E-12         0.00000E+00
    0.10275E-07         0.11186E-12         0.00000E+00
    0.10359E-07        -0.26843E-12         0.00000E+00
    0.10447E-07        -0.61489E-12         0.00000E+00
    0.10540E-07        -0.93192E-12         0.00000E+00
    0.10638E-07        -0.12235E-11         0.00000E+00
    0.10740E-07        -0.14932E-11         0.00000E+00
    0.10846E-07        -0.17442E-11         0.00000E+00
    0.10956E-07        -0.19792E-11         0.00000E+00
    0.11071E-07        -0.22005E-11         0.00000E+00
    0.11190E-07        -0.24101E-11         0.00000E+00
    0.11312E-07        -0.26096E-11         0.00000E+00
    0.11439E-07        -0.28005E-11         0.00000E+00
    0.11569E-07        -0.29840E-11         0.00000E+00
    0.11703E-07        -0.31609E-11         0.00000E+00
    0.11840E-07        -0.33322E-11         0.00000E+00
    0.11981E-07        -0.34984E-11         0.00000E+00
    0.12125E-07        -0.36600E-11         0.00000E+00
    0.12272E-07        -0.38175E-11         0.00000E+00
    0.12423E-07        -0.39712E-11         0.00000E+00
    0.12576E-07        -0.41212E-11         0.00000E+00
    0.12733E-07        -0.42677E-11         0.00000E+00
    0.12892E-07        -0.44109E-11         0.00000E+00
    0.13053E-07        -0.45507E-11         0.00000E+00
    0.13217E-07        -0.46870E-11         0.00000E+00
    0.13383E-07        -0.48199E-11         0.00000E+00
    0.13552E-07        -0.49492E-11         0.00000E+00
    0.13722E-07        -0.50747E-11         0.00000E+00
    0.13895E-07        -0.51963E-11         0.00000E+00
    0.14069E-07        -0.53137E-11         0.00000E+00
    0.14245E-07        -0.54266E-11         0.00000E+00
    0.14422E-07        -0.55349E-11         0.00000E+00
    0.14600E-07        -0.56380E-11         0.00000E+00
    0.14779E-07        -0.57358E-11         0.00000E+00
    0.14960E-07        -0.58278E-11         0.00000E+00
    0.15141E-07        -0.59136E-11         0.00000E+00
    0.15322E-07        -0.59928E-11         0.00000E+00
    0.15504E-07        -0.60650E-11         0.00000E+00
    0.15686E-07        -0.61297E-11         0.00000E+00
    0.15868E-07        -0.61864E-11         0.00000E+00
    0.16050E-07        -0.62346E-11         0.00000E+00
    0.16231E-07        -0.62736E-11         0.00000E+00
    0.16412E-07        -0.63031E-11         0.00000E+00
    0.16592E-07        -0.63222E-11         0.00000E+00
    0.16771E-07        -0.63306E-11         0.00000E+00
    0.16948E-07        -0.63273E-11         0.00000E+00
    0.17124E-07        -0.63118E-11         0.00000E+00
    0.17299E-07        -0.62834E-11         0.00000E+00
    0.17472E-07        -0.62411E-11         0.00000E+00
    0.17643E-07        -0.61842E-11         0.00000E+00
    0.17811E-07        -0.61117E-11         0.00000E+00
    0.17977E-07        -0.60226E-11         0.00000E+00
    0.18140E-07        -0.59158E-11         0.00000E+00
    0.18301E-07        -0.57900E-11         0.00000E+00
    0.18458E-07        -0.56439E-11         0.00000E+00
    0.18612E-07        -0.54758E-11         0.00000E+00
    0.18762E-07        -0.52840E-11         0.00000E+00
    0.18909E-07        -0.50665E-11         0.00000E+00
    0.19051E-07        -0.48208E-11         0.00000E+00
    0.19189E-07        -0.45444E-11         0.00000E+00
    0.19323E-07        -0.42342E-11         0.00000E+00
    0.19453E-07        -0.38866E-11         0.00000E+00
    0.19577E-07        -0.34977E-11         0.00000E+00
    0.19697E-07        -0.30629E-11         0.00000E+00
    0.19811E-07        -0.25774E-11         0.00000E+00
    0.19919E-07        -0.20356E-11         0.00000E+00
    0.20022E-07        -0.14319E-11         0.00000E+00
    0.20120E-07        -0.76046E-12         0.00000E+00
    0.20211E-07        -0.15778E-13         0.00000E+00
    0.20296E-07         0.80672E-12         0.00000E+00
    0.20374E-07         0.17098E-11         0.00000E+00
    0.20446E-07         0.26931E-11         0.00000E+00
    0.20511E-07         0.37511E-11         0.00000E+00
    0.20569E-07         0.48708E-11         0.00000E+00
    0.20621E-07         0.60280E-11         0.00000E+00
    0.20665E-07         0.71826E-11         0.00000E+00
    0.20702E-07         0.82724E-11         0.00000E+00
    0.20733E-07         0.92061E-11         0.00000E+00
    0.20756E-07         0.98539E-11         0.00000E+00
    0.20773E-07         0.10036E-10         0.00000E+00
    0.20783E-07         0.95109E-11         0.00000E+00
    0.20788E-07         0.79518E-11         0.00000E+00
    0.20786E-07         0.49382E-11         0.00000E+00
    0.20784E-07         0.00000E+00         0.00000E+00
    0.96322E-08         0.00000E+00         0.00000E+00
    0.96301E-08         0.40967E-11         0.00000E+00
    0.96280E-08         0.66623E-11         0.00000E+00
    0.96302E-08         0.80544E-11         0.00000E+00
    0.96370E-08         0.86031E-11         0.00000E+00
    0.96485E-08         0.85717E-11         0.00000E+00
    0.96651E-08         0.81591E-11         0.00000E+00
    0.96869E-08         0.75121E-11         0.00000E+00
    0.97140E-08         0.67368E-11         0.00000E+00
    0.97465E-08         0.59070E-11         0.00000E+00
    0.97844E-08         0.50725E-11         0.00000E+00
    0.98276E-08         0.42649E-11         0.00000E+00
    0.98761E-08         0.35028E-11         0.00000E+00
    0.99299E-08         0.27959E-11         0.00000E+00
    0.99888E-08         0.21477E-11         0.00000E+00
    0.10053E-07         0.15575E-11         0.00000E+00
    0.10122E-07         0.10225E-11         0.00000E+00
    0.10196E-07         0.53836E-12         0.00000E+00
    0.10275E-07         0.99966E-13         0.00000E+00
    0.10359E-07        -0.29779E-12         0.00000E+00
    0.10447E-07        -0.65992E-12         0.00000E+00
    0.10540E-07        -0.99110E-12         0.00000E+00
    0.10638E-07        -0.12956E-11         0.00000E+00
    0.10740E-07        -0.15771E-11         0.00000E+00
    0.10846E-07        -0.18391E-11         0.00000E+00
    0.10956E-07        -0.20843E-11         0.00000E+00
    0.11071E-07        -0.23152E-11         0.00000E+00
    0.11189E-07        -0.25339E-11         0.00000E+00
    0.11312E-07        -0.27422E-11         0.00000E+00
    0.11439E-07        -0.29415E-11         0.00000E+00
    0.11569E-07        -0.31331E-11         0.00000E+00
    0.11703E-07        -0.33179E-11         0.00000E+00
    0.11840E-07        -0.34969E-11         0.00000E+00
    0.11981E-07        -0.36706E-11         0.00000E+00
    0.12125E-07        -0.38396E-11         0.00000E+00
    0.12272E-07        -0.40043E-11         0.00000E+00
    0.12423E-07        -0.41651E-11         0.00000E+00
    0.12576E-07        -0.43221E-11         0.00000E+00
    0.12733E-07        -0.44755E-11         0.00000E+00
    0.12891E-07        -0.46254E-11         0.00000E+00
    0.13053E-07        -0.47718E-11         0.00000E+00
    0.13217E-07        -0.49146E-11         0.00000E+00
    0.13383E-07        -0.50539E-11         0.00000E+00
    0.13552E-07        -0.51894E-11         0.00000E+00
    0.13722E-07        -0.53210E-11         0.00000E+00
    0.13895E-07        -0.54484E-11         0.00000E+00
    0.14069E-07        -0.55716E-11         0.00000E+00
    0.14245E-07        -0.56901E-11         0.00000E+00
    0.14422E-07        -0.58036E-11         0.00000E+00
    0.14600E-07        -0.59119E-11         0.00000E+00
    0.14779E-07        -0.60146E-11         0.00000E+00
    0.14960E-07        -0.61112E-11         0.00000E+00
    0.15141E-07        -0.62014E-11         0.00000E+00
    0.15322E-07        -0.62847E-11         0.00000E+00
    0.15504E-07        -0.63606E-11         0.00000E+00
    0.15686E-07        -0.64287E-11         0.00000E+00
    0.15868E-07        -0.64884E-11         0.00000E+00
    0.16050E-07        -0.65392E-11         0.00000E+00
    0.16231E-07        -0.65806E-11         0.00000E+00
    0.16412E-07        -0.66118E-11         0.00000E+00
    0.16592E-07        -0.66324E-11         0.00000E+00
    0.16771E-07        -0.66415E-11         0.00000E+00
    0.16948E-07        -0.66387E-11         0.00000E+00
    0.17124E-07        -0.66230E-11         0.00000E+00
    0.17299E-07        -0.65937E-11         0.00000E+00
    0.17472E-07        -0.65501E-11         0.00000E+00
    0.17643E-07        -0.64911E-11         0.00000E+00
    0.17811E-07        -0.64159E-11         0.00000E+00
    0.17977E-07        -0.63233E-11         0.00000E+00
    0.18140E-07        -0.62122E-11         0.00000E+00
    0.18301E-07        -0.60813E-11         0.00000E+00
    0.18458E-07        -0.59291E-11         0.00000E+00
    0.18612E-07        -0.57541E-11         0.00000E+00
    0.18762E-07        -0.55542E-11         0.00000E+00
    0.18909E-07        -0.53274E-11         0.00000E+00
    0.19051E-07        -0.50713E-11         0.00000E+00
    0.19189E-07        -0.47829E-11         0.00000E+00
    0.19323E-07        -0.44591E-11         0.00000E+00
    0.19453E-07        -0.40961E-11         0.00000E+00
    0.19577E-07        -0.36898E-11         0.00000E+00
    0.19697E-07        -0.32353E-11         0.00000E+00
    0.19811E-07        -0.27274E-11         0.00000E+00
    0.19919E-07        -0.21603E-11         0.00000E+00
    0.20023E-07        -0.15279E-11         0.00000E+00
    0.20120E-07        -0.82405E-12         0.00000E+00
    0.20211E-07        -0.42731E-13         0.00000E+00
    0.20296E-07         0.82098E-12         0.00000E+00
    0.20374E-07         0.17701E-11         0.00000E+00
    0.20446E-07         0.28045E-11         0.00000E+00
    0.20511E-07         0.39184E-11         0.00000E+00
    0.20570E-07         0.50983E-11         0.00000E+00
    0.20621E-07         0.63184E-11         0.00000E+00
    0.20665E-07         0.75361E-11         0.00000E+00
    0.20703E-07         0.86856E-11         0.00000E+00
    0.20733E-07         0.96693E-11         0.00000E+00
    0.20756E-07         0.10348E-10         0.00000E+00
    0.20773E-07         0.10532E-10         0.00000E+00
    0.20783E-07         0.99624E-11         0.00000E+00
    0.20787E-07         0.83022E-11         0.00000E+00
    0.20785E-07         0.51309E-11         0.00000E+00
    0.20783E-07         0.00000E+00         0.00000E+00
    0.96331E-08        -0.18626E-20         0.00000E+00
    0.96308E-08         0.42390E-11         0.00000E+00
    0.96285E-08         0.69206E-11         0.00000E+00
    0.96304E-08         0.83888E-11         0.00000E+00
    0.96370E-08         0.89733E-11         0.00000E+00
    0.96485E-08         0.89457E-11         0.00000E+00
    0.96650E-08         0.85150E-11         0.00000E+00
    0.96868E-08         0.78368E-11         0.00000E+00
    0.97139E-08         0.70234E-11         0.00000E+00
    0.97463E-08         0.61531E-11         0.00000E+00
    0.97842E-08         0.52783E-11         0.00000E+00
    0.98274E-08         0.44325E-11         0.00000E+00
    0.98759E-08         0.36351E-11         0.00000E+00
    0.99297E-08         0.28961E-11         0.00000E+00
    0.99887E-08         0.22191E-11         0.00000E+00
    0.10053E-07         0.16035E-11         0.00000E+00
    0.10122E-07         0.10459E-11         0.00000E+00
    0.10196E-07         0.54171E-12         0.00000E+00
    0.10275E-07         0.85609E-13         0.00000E+00
    0.10359E-07        -0.32789E-12         0.00000E+00
    0.10447E-07        -0.70411E-12         0.00000E+00
    0.10540E-07        -0.10480E-11         0.00000E+00
    0.10638E-07        -0.13640E-11         0.00000E+00
    0.10739E-07        -0.16561E-11         0.00000E+00
    0.10846E-07        -0.19278E-11         0.00000E+00
    0.10956E-07        -0.21822E-11         0.00000E+00
    0.11071E-07        -0.24217E-11         0.00000E+00
    0.11189E-07        -0.26486E-11         0.00000E+00
    0.11312E-07        -0.28647E-11         0.00000E+00
    0.11439E-07        -0.30715E-11         0.00000E+00
    0.11569E-07        -0.32704E-11         0.00000E+00
    0.11703E-07        -0.34623E-11         0.00000E+00
    0.11840E-07        -0.36482E-11         0.00000E+00
    0.11981E-07        -0.38287E-11         0.00000E+00
    0.12125E-07        -0.40044E-11         0.00000E+00
    0.12272E-07        -0.41757E-11         0.00000E+00
    0.12423E-07        -0.43428E-11         0.00000E+00
    0.12576E-07        -0.45062E-11         0.00000E+00
    0.12732E-07        -0.46658E-11         0.00000E+00
    0.12891E-07        -0.48218E-11         0.00000E+00
    0.13053E-07        -0.49742E-11         0.00000E+00
    0.13217E-07        -0.51230E-11         0.00000E+00
    0.13383E-07        -0.52681E-11         0.00000E+00
    0.13552E-07        -0.54093E-11         0.00000E+00
    0.13722E-07        -0.55464E-11         0.00000E+00
    0.13895E-07        -0.56793E-11         0.00000E+00
    0.14069E-07        -0.58077E-11         0.00000E+00
    0.14245E-07        -0.59312E-11         0.00000E+00
    0.14422E-07        -0.60497E-11         0.00000E+00
    0.14600E-07        -0.61627E-11         0.00000E+00
    0.14779E-07        -0.62699E-11         0.00000E+00
    0.14960E-07        -0.63708E-11         0.00000E+00
    0.15140E-07        -0.64650E-11         0.00000E+00
    0.15322E-07        -0.65520E-11         0.00000E+00
    0.15504E-07        -0.66314E-11         0.00000E+00
    0.15686E-07        -0.67027E-11         0.00000E+00
    0.15868E-07        -0.67653E-11         0.00000E+00
    0.16050E-07        -0.68186E-11         0.00000E+00
    0.16231E-07        -0.68620E-11         0.00000E+00
    0.16412E-07        -0.68950E-11         0.00000E+00
    0.16592E-07        -0.69169E-11         0.00000E+00
    0.16771E-07        -0.69270E-11         0.00000E+00
    0.16948E-07        -0.69245E-11         0.00000E+00
    0.17124E-07        -0.69087E-11         0.00000E+00
    0.17299E-07        -0.68789E-11         0.00000E+00
    0.17472E-07        -0.68341E-11         0.00000E+00
    0.17643E-07        -0.67733E-11         0.00000E+00
    0.17811E-07        -0.66957E-11         0.00000E+00
    0.17977E-07        -0.66001E-11         0.00000E+00
    0.18140E-07        -0.64853E-11         0.00000E+00
    0.18301E-07        -0.63499E-11         0.00000E+00
    0.18458E-07        -0.61924E-11         0.00000E+00
    0.18612E-07        -0.60112E-11         0.00000E+00
    0.18762E-07        -0.58041E-11         0.00000E+00
    0.18909E-07        -0.55692E-11         0.00000E+00
    0.19051E-07        -0.53036E-11         0.00000E+00
    0.19190E-07        -0.50046E-11         0.00000E+00
    0.19323E-07        -0.46686E-11         0.00000E+00
    0.19453E-07        -0.42919E-11         0.00000E+00
    0.19577E-07        -0.38699E-11         0.00000E+00
    0.19697E-07        -0.33977E-11         0.00000E+00
    0.19811E-07        -0.28697E-11         0.00000E+00
    0.19920E-07        -0.22797E-11         0.00000E+00
    0.20023E-07        -0.16213E-11         0.00000E+00
    0.20120E-07        -0.88778E-12         0.00000E+00
    0.20211E-07        -0.72950E-13         0.00000E+00
    0.20296E-07         0.82860E-12         0.00000E+00
    0.20374E-07         0.18202E-11         0.00000E+00
    0.20446E-07         0.29018E-11         0.00000E+00
    0.20512E-07         0.40677E-11         0.00000E+00
    0.20570E-07         0.53035E-11         0.00000E+00
    0.20621E-07         0.65825E-11         0.00000E+00
    0.20666E-07         0.78598E-11         0.00000E+00
    0.20703E-07         0.90657E-11         0.00000E+00
    0.20733E-07         0.10097E-10         0.00000E+00
    0.20756E-07         0.10806E-10         0.00000E+00
    0.20773E-07         0.10991E-10         0.00000E+00
    0.20783E-07         0.10382E-10         0.00000E+00
    0.20787E-07         0.86283E-11         0.00000E+00
    0.20785E-07         0.53113E-11         0.00000E+00
    0.20782E-07         0.00000E+00         0.00000E+00
    0.96339E-08         0.00000E+00         0.00000E+00
    0.96315E-08         0.43717E-11         0.00000E+00
    0.96289E-08         0.71600E-11         0.00000E+00
    0.96306E-08         0.86975E-11         0.00000E+00
    0.96371E-08         0.93140E-11         0.00000E+00
    0.96484E-08         0.92887E-11         0.00000E+00
    0.96649E-08         0.88403E-11         0.00000E+00
    0.96866E-08         0.81323E-11         0.00000E+00
    0.97137E-08         0.72830E-11         0.00000E+00
    0.97462E-08         0.63747E-11         0.00000E+00
    0.97840E-08         0.54625E-11         0.00000E+00
    0.98272E-08         0.45812E-11         0.00000E+00
    0.98758E-08         0.37513E-11         0.00000E+00
    0.99296E-08         0.29830E-11         0.00000E+00
    0.99886E-08         0.22798E-11         0.00000E+00
    0.10053E-07         0.16410E-11         0.00000E+00
    0.10122E-07         0.10630E-11         0.00000E+00
    0.10196E-07         0.54087E-12         0.00000E+00
    0.10275E-07         0.68932E-13         0.00000E+00
    0.10359E-07        -0.35860E-12         0.00000E+00
    0.10447E-07        -0.74731E-12         0.00000E+00
    0.10540E-07        -0.11024E-11         0.00000E+00
    0.10637E-07        -0.14286E-11         0.00000E+00
    0.10739E-07        -0.17300E-11         0.00000E+00
    0.10846E-07        -0.20104E-11         0.00000E+00
    0.10956E-07        -0.22728E-11         0.00000E+00
    0.11071E-07        -0.25199E-11         0.00000E+00
    0.11189E-07        -0.27540E-11         0.00000E+00
    0.11312E-07        -0.29770E-11         0.00000E+00
    0.11438E-07        -0.31905E-11         0.00000E+00
    0.11569E-07        -0.33959E-11         0.00000E+00
    0.11703E-07        -0.35941E-11         0.00000E+00
    0.11840E-07        -0.37862E-11         0.00000E+00
    0.11981E-07        -0.39727E-11         0.00000E+00
    0.12125E-07        -0.41543E-11         0.00000E+00
    0.12272E-07        -0.43314E-11         0.00000E+00
    0.12423E-07        -0.45044E-11         0.00000E+00
    0.12576E-07        -0.46734E-11         0.00000E+00
    0.12732E-07        -0.48387E-11         0.00000E+00
    0.12891E-07        -0.50002E-11         0.00000E+00
    0.13053E-07        -0.51581E-11         0.00000E+00
    0.13217E-07        -0.53122E-11         0.00000E+00
    0.13383E-07        -0.54625E-11         0.00000E+00
    0.13552E-07        -0.56088E-11         0.00000E+00
    0.13722E-07        -0.57510E-11         0.00000E+00
    0.13895E-07        -0.58888E-11         0.00000E+00
    0.14069E-07        -0.60219E-11         0.00000E+00
    0.14245E-07        -0.61502E-11         0.00000E+00
    0.14422E-07        -0.62731E-11         0.00000E+00
    0.14600E-07        -0.63904E-11         0.00000E+00
    0.14779E-07        -0.65016E-11         0.00000E+00
    0.14960E-07        -0.66065E-11         0.00000E+00
    0.15140E-07        -0.67043E-11         0.00000E+00
    0.15322E-07        -0.67949E-11         0.00000E+00
    0.15504E-07        -0.68775E-11         0.00000E+00
    0.15686E-07        -0.69517E-11         0.00000E+00
    0.15868E-07        -0.70169E-11         0.00000E+00
    0.16050E-07        -0.70725E-11         0.00000E+00
    0.16231E-07        -0.71180E-11         0.00000E+00
    0.16412E-07        -0.71526E-11         0.00000E+00
    0.16592E-07        -0.71758E-11         0.00000E+00
    0.16771E-07        -0.71867E-11         0.00000E+00
    0.16948E-07        -0.71847E-11         0.00000E+00
    0.17124E-07        -0.71690E-11         0.00000E+00
    0.17299E-07        -0.71387E-11         0.00000E+00
    0.17472E-07        -0.70930E-11         0.00000E+00
    0.17643E-07        -0.70308E-11         0.00000E+00
    0.17811E-07        -0.69512E-11         0.00000E+00
    0.17977E-07        -0.68530E-11         0.00000E+00
    0.18140E-07        -0.67349E-11         0.00000E+00
    0.18301E-07        -0.65957E-11         0.00000E+00
    0.18458E-07        -0.64336E-11         0.00000E+00
    0.18612E-07        -0.62469E-11         0.00000E+00
    0.18762E-07        -0.60337E-11         0.00000E+00
    0.18909E-07        -0.57915E-11         0.00000E+00
    0.19051E-07        -0.55177E-11         0.00000E+00
    0.19190E-07        -0.52093E-11         0.00000E+00
    0.19324E-07        -0.48627E-11         0.00000E+00
    0.19453E-07        -0.44738E-11         0.00000E+00
    0.19577E-07        -0.40380E-11         0.00000E+00
    0.19697E-07        -0.35500E-11         0.00000E+00
    0.19811E-07        -0.30039E-11         0.00000E+00
    0.19920E-07        -0.23934E-11         0.00000E+00
    0.20023E-07        -0.17116E-11         0.00000E+00
    0.20120E-07        -0.95146E-12         0.00000E+00
    0.20211E-07        -0.10627E-12         0.00000E+00
    0.20296E-07         0.82970E-12         0.00000E+00
    0.20375E-07         0.18601E-11         0.00000E+00
    0.20447E-07         0.29851E-11         0.00000E+00
    0.20512E-07         0.41988E-11         0.00000E+00
    0.20570E-07         0.54866E-11         0.00000E+00
    0.20622E-07         0.68204E-11         0.00000E+00
    0.20666E-07         0.81533E-11         0.00000E+00
    0.20703E-07         0.94123E-11         0.00000E+00
    0.20733E-07         0.10489E-10         0.00000E+00
    0.20756E-07         0.11227E-10         0.00000E+00
    0.20773E-07         0.11415E-10         0.00000E+00
    0.20783E-07         0.10770E-10         0.00000E+00
    0.20786E-07         0.89314E-11         0.00000E+00
    0.20784E-07         0.54804E-11         0.00000E+00
    0.20781E-07         0.00000E+00         0.00000E+00
    0.96348E-08         0.00000E+00         0.00000E+00
    0.96323E-08         0.44956E-11         0.00000E+00
    0.96293E-08         0.73812E-11         0.00000E+00
    0.96309E-08         0.89811E-11         0.00000E+00
    0.96371E-08         0.96256E-11         0.00000E+00
    0.96484E-08         0.96011E-11         0.00000E+00
    0.96648E-08         0.91350E-11         0.00000E+00
    0.96865E-08         0.83985E-11         0.00000E+00
    0.97135E-08         0.75154E-11         0.00000E+00
    0.97460E-08         0.65718E-11         0.00000E+00
    0.97838E-08         0.56249E-11         0.00000E+00
    0.98271E-08         0.47112E-11         0.00000E+00
    0.98756E-08         0.38515E-11         0.00000E+00
    0.99294E-08         0.30565E-11         0.00000E+00
    0.99884E-08         0.23298E-11         0.00000E+00
    0.10053E-07         0.16702E-11         0.00000E+00
    0.10122E-07         0.10740E-11         0.00000E+00
    0.10196E-07         0.53599E-12         0.00000E+00
    0.10275E-07         0.50086E-13         0.00000E+00
    0.10358E-07        -0.38975E-12         0.00000E+00
    0.10447E-07        -0.78939E-12         0.00000E+00
    0.10540E-07        -0.11543E-11         0.00000E+00
    0.10637E-07        -0.14893E-11         0.00000E+00
    0.10739E-07        -0.17988E-11         0.00000E+00
    0.10846E-07        -0.20866E-11         0.00000E+00
    0.10956E-07        -0.23560E-11         0.00000E+00
    0.11071E-07        -0.26097E-11         0.00000E+00
    0.11189E-07        -0.28500E-11         0.00000E+00
    0.11312E-07        -0.30791E-11         0.00000E+00
    0.11438E-07        -0.32984E-11         0.00000E+00
    0.11569E-07        -0.35094E-11         0.00000E+00
    0.11703E-07        -0.37132E-11         0.00000E+00
    0.11840E-07        -0.39106E-11         0.00000E+00
    0.11981E-07        -0.41025E-11         0.00000E+00
    0.12125E-07        -0.42893E-11         0.00000E+00
    0.12272E-07        -0.44716E-11         0.00000E+00
    0.12423E-07        -0.46497E-11         0.00000E+00
    0.12576E-07        -0.48238E-11         0.00000E+00
    0.12732E-07        -0.49940E-11         0.00000E+00
    0.12891E-07        -0.51605E-11         0.00000E+00
    0.13053E-07        -0.53232E-11         0.00000E+00
    0.13217E-07        -0.54821E-11         0.00000E+00
    0.13383E-07        -0.56371E-11         0.00000E+00
    0.13552E-07        -0.57880E-11         0.00000E+00
    0.13722E-07        -0.59347E-11         0.00000E+00
    0.13895E-07        -0.60769E-11         0.00000E+00
    0.14069E-07        -0.62144E-11         0.00000E+00
    0.14245E-07        -0.63468E-11         0.00000E+00
    0.14422E-07        -0.64737E-11         0.00000E+00
    0.14600E-07        -0.65949E-11         0.00000E+00
    0.14779E-07        -0.67099E-11         0.00000E+00
    0.14959E-07        -0.68182E-11         0.00000E+00
    0.15140E-07        -0.69195E-11         0.00000E+00
    0.15322E-07        -0.70131E-11         0.00000E+00
    0.15504E-07        -0.70987E-11         0.00000E+00
    0.15686E-07        -0.71755E-11         0.00000E+00
    0.15868E-07        -0.72432E-11         0.00000E+00
    0.16050E-07        -0.73010E-11         0.00000E+00
    0.16231E-07        -0.73483E-11         0.00000E+00
    0.16412E-07        -0.73845E-11         0.00000E+00
    0.16592E-07        -0.74089E-11         0.00000E+00
    0.16771E-07        -0.74207E-11         0.00000E+00
    0.16948E-07        -0.74193E-11         0.00000E+00
    0.17124E-07        -0.74037E-11         0.00000E+00
    0.17299E-07        -0.73731E-11         0.00000E+00
    0.17472E-07        -0.73267E-11         0.00000E+00
    0.17643E-07        -0.72633E-11         0.00000E+00
    0.17811E-07        -0.71821E-11         0.00000E+00
    0.17977E-07        -0.70817E-11         0.00000E+00
    0.18140E-07        -0.69610E-11         0.00000E+00
    0.18301E-07        -0.68184E-11         0.00000E+00
    0.18458E-07        -0.66524E-11         0.00000E+00
    0.18612E-07        -0.64612E-11         0.00000E+00
    0.18762E-07        -0.62426E-11         0.00000E+00
    0.18909E-07        -0.59942E-11         0.00000E+00
    0.19051E-07        -0.57134E-11         0.00000E+00
    0.19190E-07        -0.53969E-11         0.00000E+00
    0.19324E-07        -0.50410E-11         0.00000E+00
    0.19453E-07        -0.46415E-11         0.00000E+00
    0.19577E-07        -0.41936E-11         0.00000E+00
    0.19697E-07        -0.36918E-11         0.00000E+00
    0.19811E-07        -0.31300E-11         0.00000E+00
    0.19920E-07        -0.25013E-11         0.00000E+00
    0.20023E-07        -0.17988E-11         0.00000E+00
    0.20120E-07        -0.10149E-11         0.00000E+00
    0.20211E-07        -0.14250E-12         0.00000E+00
    0.20296E-07         0.82443E-12         0.00000E+00
    0.20375E-07         0.18899E-11         0.00000E+00
    0.20447E-07         0.30543E-11         0.00000E+00
    0.20512E-07         0.43118E-11         0.00000E+00
    0.20570E-07         0.56472E-11         0.00000E+00
    0.20622E-07         0.70317E-11         0.00000E+00
    0.20666E-07         0.84165E-11         0.00000E+00
    0.20703E-07         0.97254E-11         0.00000E+00
    0.20733E-07         0.10845E-10         0.00000E+00
    0.20756E-07         0.11612E-10         0.00000E+00
    0.20773E-07         0.11805E-10         0.00000E+00
    0.20782E-07         0.11128E-10         0.00000E+00
    0.20786E-07         0.92128E-11         0.00000E+00
    0.20783E-07         0.56388E-11         0.00000E+00
    0.20780E-07        -0.18626E-20         0.00000E+00
    0.96357E-08         0.00000E+00         0.00000E+00
    0.96330E-08         0.46110E-11         0.00000E+00
    0.96298E-08         0.75851E-11         0.00000E+00
    0.96311E-08         0.92403E-11         0.00000E+00
    0.96372E-08         0.99084E-11         0.00000E+00
    0.96483E-08         0.98828E-11         0.00000E+00
    0.96646E-08         0.93991E-11         0.00000E+00
    0.96863E-08         0.86354E-11         0.00000E+00
    0.97133E-08         0.77206E-11         0.00000E+00
    0.97458E-08         0.67442E-11         0.00000E+00
    0.97837E-08         0.57656E-11         0.00000E+00
    0.98269E-08         0.48223E-11         0.00000E+00
    0.98755E-08         0.39358E-11         0.00000E+00
    0.99293E-08         0.31169E-11         0.00000E+00
    0.99883E-08         0.23692E-11         0.00000E+00
    0.10052E-07         0.16913E-11         0.00000E+00
    0.10122E-07         0.10791E-11         0.00000E+00
    0.10196E-07         0.52722E-12         0.00000E+00
    0.10275E-07         0.29234E-13         0.00000E+00
    0.10358E-07        -0.42120E-12         0.00000E+00
    0.10447E-07        -0.83019E-12         0.00000E+00
    0.10540E-07        -0.12034E-11         0.00000E+00
    0.10637E-07        -0.15459E-11         0.00000E+00
    0.10739E-07        -0.18623E-11         0.00000E+00
    0.10846E-07        -0.21564E-11         0.00000E+00
    0.10956E-07        -0.24317E-11         0.00000E+00
    0.11071E-07        -0.26910E-11         0.00000E+00
    0.11189E-07        -0.29366E-11         0.00000E+00
    0.11312E-07        -0.31708E-11         0.00000E+00
    0.11438E-07        -0.33951E-11         0.00000E+00
    0.11569E-07        -0.36109E-11         0.00000E+00
    0.11702E-07        -0.38194E-11         0.00000E+00
    0.11840E-07        -0.40216E-11         0.00000E+00
    0.11981E-07        -0.42180E-11         0.00000E+00
    0.12125E-07        -0.44094E-11         0.00000E+00
    0.12272E-07        -0.45962E-11         0.00000E+00
    0.12423E-07        -0.47787E-11         0.00000E+00
    0.12576E-07        -0.49572E-11         0.00000E+00
    0.12732E-07        -0.51318E-11         0.00000E+00
    0.12891E-07        -0.53026E-11         0.00000E+00
    0.13053E-07        -0.54696E-11         0.00000E+00
    0.13217E-07        -0.56327E-11         0.00000E+00
    0.13383E-07        -0.57918E-11         0.00000E+00
    0.13552E-07        -0.59468E-11         0.00000E+00
    0.13722E-07        -0.60975E-11         0.00000E+00
    0.13895E-07        -0.62436E-11         0.00000E+00
    0.14069E-07        -0.63849E-11         0.00000E+00
    0.14244E-07        -0.65210E-11         0.00000E+00
    0.14422E-07        -0.66515E-11         0.00000E+00
    0.14600E-07        -0.67762E-11         0.00000E+00
    0.14779E-07        -0.68945E-11         0.00000E+00
    0.14959E-07        -0.70060E-11         0.00000E+00
    0.15140E-07        -0.71103E-11         0.00000E+00
    0.15322E-07        -0.72068E-11         0.00000E+00
    0.15504E-07        -0.72949E-11         0.00000E+00
    0.15686E-07        -0.73743E-11         0.00000E+00
    0.15868E-07        -0.74441E-11         0.00000E+00
    0.16050E-07        -0.75039E-11         0.00000E+00
    0.16231E-07        -0.75530E-11         0.00000E+00
    0.16412E-07        -0.75906E-11         0.00000E+00
    0.16592E-07        -0.76162E-11         0.00000E+00
    0.16771E-07        -0.76289E-11         0.00000E+00
    0.16948E-07        -0.76280E-11         0.00000E+00
    0.17124E-07        -0.76127E-11         0.00000E+00
    0.17299E-07        -0.75820E-11         0.00000E+00
    0.17472E-07        -0.75351E-11         0.00000E+00
    0.17643E-07        -0.74709E-11         0.00000E+00
    0.17811E-07        -0.73883E-11         0.00000E+00
    0.17977E-07        -0.72862E-11         0.00000E+00
    0.18140E-07        -0.71633E-11         0.00000E+00
    0.18301E-07        -0.70180E-11         0.00000E+00
    0.18458E-07        -0.68488E-11         0.00000E+00
    0.18612E-07        -0.66537E-11         0.00000E+00
    0.18762E-07        -0.64307E-11         0.00000E+00
    0.18909E-07        -0.61772E-11         0.00000E+00
    0.19051E-07        -0.58904E-11         0.00000E+00
    0.19190E-07        -0.55670E-11         0.00000E+00
    0.19324E-07        -0.52033E-11         0.00000E+00
    0.19453E-07        -0.47948E-11         0.00000E+00
    0.19578E-07        -0.43366E-11         0.00000E+00
    0.19697E-07        -0.38230E-11         0.00000E+00
    0.19811E-07        -0.32475E-11         0.00000E+00
    0.19920E-07        -0.26032E-11         0.00000E+00
    0.20023E-07        -0.18825E-11         0.00000E+00
    0.20120E-07        -0.10778E-11         0.00000E+00
    0.20212E-07        -0.18143E-12         0.00000E+00
    0.20297E-07         0.81297E-12         0.00000E+00
    0.20375E-07         0.19098E-11         0.00000E+00
    0.20447E-07         0.31096E-11         0.00000E+00
    0.20512E-07         0.44066E-11         0.00000E+00
    0.20571E-07         0.57854E-11         0.00000E+00
    0.20622E-07         0.72164E-11         0.00000E+00
    0.20666E-07         0.86491E-11         0.00000E+00
    0.20704E-07         0.10005E-10         0.00000E+00
    0.20734E-07         0.11165E-10         0.00000E+00
    0.20757E-07         0.11961E-10         0.00000E+00
    0.20773E-07         0.12160E-10         0.00000E+00
    0.20782E-07         0.11456E-10         0.00000E+00
    0.20785E-07         0.94733E-11         0.00000E+00
    0.20782E-07         0.57872E-11         0.00000E+00
    0.20779E-07         0.23789E-20         0.00000E+00
    0.96367E-08         0.00000E+00         0.00000E+00
    0.96338E-08         0.47185E-11         0.00000E+00
    0.96302E-08         0.77721E-11         0.00000E+00
    0.96313E-08         0.94755E-11         0.00000E+00
    0.96373E-08         0.10163E-10         0.00000E+00
    0.96483E-08         0.10134E-10         0.00000E+00
    0.96645E-08         0.96323E-11         0.00000E+00
    0.96861E-08         0.88426E-11         0.00000E+00
    0.97131E-08         0.78983E-11         0.00000E+00
    0.97456E-08         0.68918E-11         0.00000E+00
    0.97835E-08         0.58844E-11         0.00000E+00
    0.98267E-08         0.49145E-11         0.00000E+00
    0.98753E-08         0.40042E-11         0.00000E+00
    0.99291E-08         0.31643E-11         0.00000E+00
    0.99882E-08         0.23981E-11         0.00000E+00
    0.10052E-07         0.17043E-11         0.00000E+00
    0.10121E-07         0.10785E-11         0.00000E+00
    0.10196E-07         0.51476E-12         0.00000E+00
    0.10275E-07         0.65538E-14         0.00000E+00
    0.10358E-07        -0.45276E-12         0.00000E+00
    0.10447E-07        -0.86953E-12         0.00000E+00
    0.10540E-07        -0.12496E-11         0.00000E+00
    0.10637E-07        -0.15984E-11         0.00000E+00
    0.10739E-07        -0.19204E-11         0.00000E+00
    0.10845E-07        -0.22197E-11         0.00000E+00
    0.10956E-07        -0.24998E-11         0.00000E+00
    0.11071E-07        -0.27636E-11         0.00000E+00
    0.11189E-07        -0.30137E-11         0.00000E+00
    0.11312E-07        -0.32521E-11         0.00000E+00
    0.11438E-07        -0.34805E-11         0.00000E+00
    0.11569E-07        -0.37004E-11         0.00000E+00
    0.11702E-07        -0.39129E-11         0.00000E+00
    0.11840E-07        -0.41189E-11         0.00000E+00
    0.11981E-07        -0.43192E-11         0.00000E+00
    0.12125E-07        -0.45145E-11         0.00000E+00
    0.12272E-07        -0.47051E-11         0.00000E+00
    0.12423E-07        -0.48914E-11         0.00000E+00
    0.12576E-07        -0.50737E-11         0.00000E+00
    0.12732E-07        -0.52520E-11         0.00000E+00
    0.12891E-07        -0.54265E-11         0.00000E+00
    0.13053E-07        -0.55972E-11         0.00000E+00
    0.13217E-07        -0.57639E-11         0.00000E+00
    0.13383E-07        -0.59266E-11         0.00000E+00
    0.13552E-07        -0.60852E-11         0.00000E+00
    0.13722E-07        -0.62394E-11         0.00000E+00
    0.13895E-07        -0.63889E-11         0.00000E+00
    0.14069E-07        -0.65335E-11         0.00000E+00
    0.14244E-07        -0.66728E-11         0.00000E+00
    0.14422E-07        -0.68065E-11         0.00000E+00
    0.14600E-07        -0.69342E-11         0.00000E+00
    0.14779E-07        -0.70555E-11         0.00000E+00
    0.14959E-07        -0.71698E-11         0.00000E+00
    0.15140E-07        -0.72767E-11         0.00000E+00
    0.15322E-07        -0.73757E-11         0.00000E+00
    0.15504E-07        -0.74663E-11         0.00000E+00
    0.15686E-07        -0.75478E-11         0.00000E+00
    0.15868E-07        -0.76196E-11         0.00000E+00
    0.16050E-07        -0.76812E-11         0.00000E+00
    0.16231E-07        -0.77319E-11         0.00000E+00
    0.16412E-07        -0.77709E-11         0.00000E+00
    0.16592E-07        -0.77976E-11         0.00000E+00
    0.16771E-07        -0.78112E-11         0.00000E+00
    0.16948E-07        -0.78109E-11         0.00000E+00
    0.17124E-07        -0.77959E-11         0.00000E+00
    0.17299E-07        -0.77653E-11         0.00000E+00
    0.17472E-07        -0.77181E-11         0.00000E+00
    0.17643E-07        -0.76533E-11         0.00000E+00
    0.17811E-07        -0.75698E-11         0.00000E+00
    0.17977E-07        -0.74664E-11         0.00000E+00
    0.18140E-07        -0.73417E-11         0.00000E+00
    0.18301E-07        -0.71944E-11         0.00000E+00
    0.18458E-07        -0.70226E-11         0.00000E+00
    0.18612E-07        -0.68244E-11         0.00000E+00
    0.18762E-07        -0.65978E-11         0.00000E+00
    0.18909E-07        -0.63401E-11         0.00000E+00
    0.19051E-07        -0.60484E-11         0.00000E+00
    0.19190E-07        -0.57195E-11         0.00000E+00
    0.19324E-07        -0.53493E-11         0.00000E+00
    0.19453E-07        -0.49335E-11         0.00000E+00
    0.19578E-07        -0.44667E-11         0.00000E+00
    0.19697E-07        -0.39431E-11         0.00000E+00
    0.19811E-07        -0.33562E-11         0.00000E+00
    0.19920E-07        -0.26986E-11         0.00000E+00
    0.20023E-07        -0.19625E-11         0.00000E+00
    0.20121E-07        -0.11399E-11         0.00000E+00
    0.20212E-07        -0.22282E-12         0.00000E+00
    0.20297E-07         0.79552E-12         0.00000E+00
    0.20375E-07         0.19198E-11         0.00000E+00
    0.20447E-07         0.31509E-11         0.00000E+00
    0.20513E-07         0.44832E-11         0.00000E+00
    0.20571E-07         0.59011E-11         0.00000E+00
    0.20622E-07         0.73742E-11         0.00000E+00
    0.20667E-07         0.88510E-11         0.00000E+00
    0.20704E-07         0.10250E-10         0.00000E+00
    0.20734E-07         0.11449E-10         0.00000E+00
    0.20757E-07         0.12272E-10         0.00000E+00
    0.20773E-07         0.12480E-10         0.00000E+00
    0.20782E-07         0.11756E-10         0.00000E+00
    0.20784E-07         0.97136E-11         0.00000E+00
    0.20781E-07         0.59262E-11         0.00000E+00
    0.20778E-07        -0.51632E-21         0.00000E+00
    0.96376E-08         0.00000E+00         0.00000E+00
    0.96346E-08         0.48182E-11         0.00000E+00
    0.96307E-08         0.79428E-11         0.00000E+00
    0.96316E-08         0.96871E-11         0.00000E+00
    0.96373E-08         0.10389E-10         0.00000E+00
    0.96482E-08         0.10354E-10         0.00000E+00
    0.96644E-08         0.98346E-11         0.00000E+00
    0.96859E-08         0.90202E-11         0.00000E+00
    0.97129E-08         0.80485E-11         0.00000E+00
    0.97454E-08         0.70147E-11         0.00000E+00
    0.97833E-08         0.59815E-11         0.00000E+00
    0.98265E-08         0.49880E-11         0.00000E+00
    0.98751E-08         0.40568E-11         0.00000E+00
    0.99290E-08         0.31986E-11         0.00000E+00
    0.99880E-08         0.24168E-11         0.00000E+00
    0.10052E-07         0.17095E-11         0.00000E+00
    0.10121E-07         0.10723E-11         0.00000E+00
    0.10195E-07         0.49877E-12         0.00000E+00
    0.10274E-07        -0.17766E-13         0.00000E+00
    0.10358E-07        -0.48425E-12         0.00000E+00
    0.10447E-07        -0.90725E-12         0.00000E+00
    0.10540E-07        -0.12928E-11         0.00000E+00
    0.10637E-07        -0.16464E-11         0.00000E+00
    0.10739E-07        -0.19729E-11         0.00000E+00
    0.10845E-07        -0.22762E-11         0.00000E+00
    0.10956E-07        -0.25601E-11         0.00000E+00
    0.11071E-07        -0.28276E-11         0.00000E+00
    0.11189E-07        -0.30811E-11         0.00000E+00
    0.11312E-07        -0.33229E-11         0.00000E+00
    0.11438E-07        -0.35546E-11         0.00000E+00
    0.11569E-07        -0.37777E-11         0.00000E+00
    0.11702E-07        -0.39934E-11         0.00000E+00
    0.11840E-07        -0.42026E-11         0.00000E+00
    0.11981E-07        -0.44061E-11         0.00000E+00
    0.12125E-07        -0.46045E-11         0.00000E+00
    0.12272E-07        -0.47983E-11         0.00000E+00
    0.12423E-07        -0.49878E-11         0.00000E+00
    0.12576E-07        -0.51731E-11         0.00000E+00
    0.12732E-07        -0.53546E-11         0.00000E+00
    0.12891E-07        -0.55322E-11         0.00000E+00
    0.13053E-07        -0.57060E-11         0.00000E+00
    0.13217E-07        -0.58758E-11         0.00000E+00
    0.13383E-07        -0.60415E-11         0.00000E+00
    0.13552E-07        -0.62031E-11         0.00000E+00
    0.13722E-07        -0.63602E-11         0.00000E+00
    0.13895E-07        -0.65127E-11         0.00000E+00
    0.14069E-07        -0.66601E-11         0.00000E+00
    0.14244E-07        -0.68022E-11         0.00000E+00
    0.14422E-07        -0.69386E-11         0.00000E+00
    0.14600E-07        -0.70690E-11         0.00000E+00
    0.14779E-07        -0.71927E-11         0.00000E+00
    0.14959E-07        -0.73095E-11         0.00000E+00
    0.15140E-07        -0.74187E-11         0.00000E+00
    0.15322E-07        -0.75199E-11         0.00000E+00
    0.15504E-07        -0.76125E-11         0.00000E+00
    0.15686E-07        -0.76960E-11         0.00000E+00
    0.15868E-07        -0.77696E-11         0.00000E+00
    0.16050E-07        -0.78328E-11         0.00000E+00
    0.16231E-07        -0.78849E-11         0.00000E+00
    0.16412E-07        -0.79252E-11         0.00000E+00
    0.16592E-07        -0.79530E-11         0.00000E+00
    0.16771E-07        -0.79674E-11         0.00000E+00
    0.16948E-07        -0.79678E-11         0.00000E+00
    0.17125E-07        -0.79532E-11         0.00000E+00
    0.17299E-07        -0.79228E-11         0.00000E+00
    0.17472E-07        -0.78755E-11         0.00000E+00
    0.17643E-07        -0.78104E-11         0.00000E+00
    0.17811E-07        -0.77263E-11         0.00000E+00
    0.17977E-07        -0.76220E-11         0.00000E+00
    0.18140E-07        -0.74961E-11         0.00000E+00
    0.18301E-07        -0.73472E-11         0.00000E+00
    0.18458E-07        -0.71735E-11         0.00000E+00
    0.18612E-07        -0.69730E-11         0.00000E+00
    0.18762E-07        -0.67437E-11         0.00000E+00
    0.18909E-07        -0.64828E-11         0.00000E+00
    0.19051E-07        -0.61874E-11         0.00000E+00
    0.19190E-07        -0.58541E-11         0.00000E+00
    0.19324E-07        -0.54789E-11         0.00000E+00
    0.19453E-07        -0.50571E-11         0.00000E+00
    0.19578E-07        -0.45835E-11         0.00000E+00
    0.19697E-07        -0.40520E-11         0.00000E+00
    0.19811E-07        -0.34558E-11         0.00000E+00
    0.19920E-07        -0.27873E-11         0.00000E+00
    0.20023E-07        -0.20385E-11         0.00000E+00
    0.20121E-07        -0.12009E-11         0.00000E+00
    0.20212E-07        -0.26640E-12         0.00000E+00
    0.20297E-07         0.77232E-12         0.00000E+00
    0.20376E-07         0.19203E-11         0.00000E+00
    0.20448E-07         0.31786E-11         0.00000E+00
    0.20513E-07         0.45418E-11         0.00000E+00
    0.20571E-07         0.59943E-11         0.00000E+00
    0.20623E-07         0.75052E-11         0.00000E+00
    0.20667E-07         0.90219E-11         0.00000E+00
    0.20704E-07         0.10461E-10         0.00000E+00
    0.20734E-07         0.11696E-10         0.00000E+00
    0.20757E-07         0.12548E-10         0.00000E+00
    0.20773E-07         0.12766E-10         0.00000E+00
    0.20781E-07         0.12027E-10         0.00000E+00
    0.20784E-07         0.99342E-11         0.00000E+00
    0.20780E-07         0.60560E-11         0.00000E+00
    0.20776E-07         0.00000E+00         0.00000E+00
    0.96386E-08         0.00000E+00         0.00000E+00
    0.96354E-08         0.49104E-11         0.00000E+00
    0.96312E-08         0.80974E-11         0.00000E+00
    0.96318E-08         0.98752E-11         0.00000E+00
    0.96374E-08         0.10586E-10         0.00000E+00
    0.96482E-08         0.10544E-10         0.00000E+00
    0.96643E-08         0.10006E-10         0.00000E+00
    0.96858E-08         0.91679E-11         0.00000E+00
    0.97127E-08         0.81711E-11         0.00000E+00
    0.97452E-08         0.71127E-11         0.00000E+00
    0.97831E-08         0.60566E-11         0.00000E+00
    0.98263E-08         0.50428E-11         0.00000E+00
    0.98749E-08         0.40937E-11         0.00000E+00
    0.99288E-08         0.32202E-11         0.00000E+00
    0.99879E-08         0.24253E-11         0.00000E+00
    0.10052E-07         0.17071E-11         0.00000E+00
    0.10121E-07         0.10607E-11         0.00000E+00
    0.10195E-07         0.47948E-12         0.00000E+00
    0.10274E-07        -0.43523E-13         0.00000E+00
    0.10358E-07        -0.51547E-12         0.00000E+00
    0.10447E-07        -0.94315E-12         0.00000E+00
    0.10540E-07        -0.13328E-11         0.00000E+00
    0.10637E-07        -0.16900E-11         0.00000E+00
    0.10739E-07        -0.20196E-11         0.00000E+00
    0.10845E-07        -0.23260E-11         0.00000E+00
    0.10956E-07        -0.26126E-11         0.00000E+00
    0.11070E-07        -0.28827E-11         0.00000E+00
    0.11189E-07        -0.31388E-11         0.00000E+00
    0.11312E-07        -0.33830E-11         0.00000E+00
    0.11438E-07        -0.36172E-11         0.00000E+00
    0.11568E-07        -0.38427E-11         0.00000E+00
    0.11702E-07        -0.40609E-11         0.00000E+00
    0.11840E-07        -0.42725E-11         0.00000E+00
    0.11981E-07        -0.44785E-11         0.00000E+00
    0.12125E-07        -0.46794E-11         0.00000E+00
    0.12272E-07        -0.48757E-11         0.00000E+00
    0.12423E-07        -0.50676E-11         0.00000E+00
    0.12576E-07        -0.52555E-11         0.00000E+00
    0.12732E-07        -0.54395E-11         0.00000E+00
    0.12891E-07        -0.56196E-11         0.00000E+00
    0.13053E-07        -0.57959E-11         0.00000E+00
    0.13217E-07        -0.59682E-11         0.00000E+00
    0.13383E-07        -0.61365E-11         0.00000E+00
    0.13552E-07        -0.63005E-11         0.00000E+00
    0.13722E-07        -0.64600E-11         0.00000E+00
    0.13895E-07        -0.66149E-11         0.00000E+00
    0.14069E-07        -0.67647E-11         0.00000E+00
    0.14244E-07        -0.69091E-11         0.00000E+00
    0.14421E-07        -0.70478E-11         0.00000E+00
    0.14600E-07        -0.71803E-11         0.00000E+00
    0.14779E-07        -0.73062E-11         0.00000E+00
    0.14959E-07        -0.74250E-11         0.00000E+00
    0.15140E-07        -0.75363E-11         0.00000E+00
    0.15322E-07        -0.76393E-11         0.00000E+00
    0.15504E-07        -0.77337E-11         0.00000E+00
    0.15686E-07        -0.78188E-11         0.00000E+00
    0.15868E-07        -0.78940E-11         0.00000E+00
    0.16050E-07        -0.79586E-11         0.00000E+00
    0.16231E-07        -0.80120E-11         0.00000E+00
    0.16412E-07        -0.80535E-11         0.00000E+00
    0.16592E-07        -0.80823E-11         0.00000E+00
    0.16771E-07        -0.80976E-11         0.00000E+00
    0.16948E-07        -0.80986E-11         0.00000E+00
    0.17125E-07        -0.80845E-11         0.00000E+00
    0.17299E-07        -0.80544E-11         0.00000E+00
    0.17472E-07        -0.80073E-11         0.00000E+00
    0.17643E-07        -0.79421E-11         0.00000E+00
    0.17811E-07        -0.78577E-11         0.00000E+00
    0.17977E-07        -0.77529E-11         0.00000E+00
    0.18140E-07        -0.76263E-11         0.00000E+00
    0.18301E-07        -0.74764E-11         0.00000E+00
    0.18458E-07        -0.73014E-11         0.00000E+00
    0.18612E-07        -0.70994E-11         0.00000E+00
    0.18762E-07        -0.68681E-11         0.00000E+00
    0.18909E-07        -0.66050E-11         0.00000E+00
    0.19052E-07        -0.63070E-11         0.00000E+00
    0.19190E-07        -0.59706E-11         0.00000E+00
    0.19324E-07        -0.55917E-11         0.00000E+00
    0.19453E-07        -0.51656E-11         0.00000E+00
    0.19578E-07        -0.46869E-11         0.00000E+00
    0.19697E-07        -0.41494E-11         0.00000E+00
    0.19812E-07        -0.35460E-11         0.00000E+00
    0.19920E-07        -0.28691E-11         0.00000E+00
    0.20024E-07        -0.21102E-11         0.00000E+00
    0.20121E-07        -0.12606E-11         0.00000E+00
    0.20212E-07        -0.31189E-12         0.00000E+00
    0.20297E-07         0.74362E-12         0.00000E+00
    0.20376E-07         0.19113E-11         0.00000E+00
    0.20448E-07         0.31927E-11         0.00000E+00
    0.20513E-07         0.45824E-11         0.00000E+00
    0.20572E-07         0.60650E-11         0.00000E+00
    0.20623E-07         0.76093E-11         0.00000E+00
    0.20667E-07         0.91618E-11         0.00000E+00
    0.20704E-07         0.10637E-10         0.00000E+00
    0.20734E-07         0.11907E-10         0.00000E+00
    0.20757E-07         0.12786E-10         0.00000E+00
    0.20772E-07         0.13019E-10         0.00000E+00
    0.20781E-07         0.12270E-10         0.00000E+00
    0.20783E-07         0.10136E-10         0.00000E+00
    0.20779E-07         0.61768E-11         0.00000E+00
    0.20775E-07         0.00000E+00         0.00000E+00
    0.96396E-08         0.00000E+00         0.00000E+00
    0.96362E-08         0.49952E-11         0.00000E+00
    0.96317E-08         0.82361E-11         0.00000E+00
    0.96321E-08         0.10040E-10         0.00000E+00
    0.96375E-08         0.10755E-10         0.00000E+00
    0.96481E-08         0.10702E-10         0.00000E+00
    0.96641E-08         0.10146E-10         0.00000E+00
    0.96856E-08         0.92856E-11         0.00000E+00
    0.97125E-08         0.82659E-11         0.00000E+00
    0.97450E-08         0.71858E-11         0.00000E+00
    0.97828E-08         0.61101E-11         0.00000E+00
    0.98261E-08         0.50789E-11         0.00000E+00
    0.98747E-08         0.41151E-11         0.00000E+00
    0.99286E-08         0.32292E-11         0.00000E+00
    0.99877E-08         0.24240E-11         0.00000E+00
    0.10052E-07         0.16973E-11         0.00000E+00
    0.10121E-07         0.10439E-11         0.00000E+00
    0.10195E-07         0.45709E-12         0.00000E+00
    0.10274E-07        -0.70502E-13         0.00000E+00
    0.10358E-07        -0.54622E-12         0.00000E+00
    0.10446E-07        -0.97704E-12         0.00000E+00
    0.10540E-07        -0.13693E-11         0.00000E+00
    0.10637E-07        -0.17288E-11         0.00000E+00
    0.10739E-07        -0.20605E-11         0.00000E+00
    0.10845E-07        -0.23687E-11         0.00000E+00
    0.10956E-07        -0.26571E-11         0.00000E+00
    0.11070E-07        -0.29289E-11         0.00000E+00
    0.11189E-07        -0.31866E-11         0.00000E+00
    0.11312E-07        -0.34325E-11         0.00000E+00
    0.11438E-07        -0.36683E-11         0.00000E+00
    0.11568E-07        -0.38955E-11         0.00000E+00
    0.11702E-07        -0.41153E-11         0.00000E+00
    0.11840E-07        -0.43287E-11         0.00000E+00
    0.11981E-07        -0.45365E-11         0.00000E+00
    0.12125E-07        -0.47392E-11         0.00000E+00
    0.12272E-07        -0.49372E-11         0.00000E+00
    0.12423E-07        -0.51311E-11         0.00000E+00
    0.12576E-07        -0.53208E-11         0.00000E+00
    0.12732E-07        -0.55067E-11         0.00000E+00
    0.12891E-07        -0.56887E-11         0.00000E+00
    0.13053E-07        -0.58669E-11         0.00000E+00
    0.13217E-07        -0.60412E-11         0.00000E+00
    0.13383E-07        -0.62114E-11         0.00000E+00
    0.13552E-07        -0.63773E-11         0.00000E+00
    0.13722E-07        -0.65388E-11         0.00000E+00
    0.13895E-07        -0.66955E-11         0.00000E+00
    0.14069E-07        -0.68472E-11         0.00000E+00
    0.14244E-07        -0.69935E-11         0.00000E+00
    0.14421E-07        -0.71340E-11         0.00000E+00
    0.14600E-07        -0.72683E-11         0.00000E+00
    0.14779E-07        -0.73959E-11         0.00000E+00
    0.14959E-07        -0.75164E-11         0.00000E+00
    0.15140E-07        -0.76292E-11         0.00000E+00
    0.15322E-07        -0.77339E-11         0.00000E+00
    0.15504E-07        -0.78298E-11         0.00000E+00
    0.15686E-07        -0.79163E-11         0.00000E+00
    0.15868E-07        -0.79928E-11         0.00000E+00
    0.16050E-07        -0.80586E-11         0.00000E+00
    0.16231E-07        -0.81132E-11         0.00000E+00
    0.16412E-07        -0.81557E-11         0.00000E+00
    0.16592E-07        -0.81854E-11         0.00000E+00
    0.16771E-07        -0.82015E-11         0.00000E+00
    0.16948E-07        -0.82032E-11         0.00000E+00
    0.17125E-07        -0.81897E-11         0.00000E+00
    0.17299E-07        -0.81601E-11         0.00000E+00
    0.17472E-07        -0.81132E-11         0.00000E+00
    0.17643E-07        -0.80482E-11         0.00000E+00
    0.17811E-07        -0.79639E-11         0.00000E+00
    0.17977E-07        -0.78590E-11         0.00000E+00
    0.18140E-07        -0.77321E-11         0.00000E+00
    0.18301E-07        -0.75817E-11         0.00000E+00
    0.18458E-07        -0.74061E-11         0.00000E+00
    0.18612E-07        -0.72033E-11         0.00000E+00
    0.18762E-07        -0.69710E-11         0.00000E+00
    0.18909E-07        -0.67066E-11         0.00000E+00
    0.19052E-07        -0.64070E-11         0.00000E+00
    0.19190E-07        -0.60686E-11         0.00000E+00
    0.19324E-07        -0.56874E-11         0.00000E+00
    0.19453E-07        -0.52586E-11         0.00000E+00
    0.19578E-07        -0.47765E-11         0.00000E+00
    0.19697E-07        -0.42348E-11         0.00000E+00
    0.19812E-07        -0.36265E-11         0.00000E+00
    0.19921E-07        -0.29434E-11         0.00000E+00
    0.20024E-07        -0.21771E-11         0.00000E+00
    0.20121E-07        -0.13186E-11         0.00000E+00
    0.20212E-07        -0.35896E-12         0.00000E+00
    0.20297E-07         0.70973E-12         0.00000E+00
    0.20376E-07         0.18933E-11         0.00000E+00
    0.20448E-07         0.31934E-11         0.00000E+00
    0.20513E-07         0.46051E-11         0.00000E+00
    0.20572E-07         0.61132E-11         0.00000E+00
    0.20623E-07         0.76863E-11         0.00000E+00
    0.20668E-07         0.92703E-11         0.00000E+00
    0.20705E-07         0.10779E-10         0.00000E+00
    0.20734E-07         0.12081E-10         0.00000E+00
    0.20757E-07         0.12988E-10         0.00000E+00
    0.20772E-07         0.13236E-10         0.00000E+00
    0.20781E-07         0.12485E-10         0.00000E+00
    0.20783E-07         0.10318E-10         0.00000E+00
    0.20778E-07         0.62890E-11         0.00000E+00
    0.20774E-07         0.00000E+00         0.00000E+00
    0.96406E-08         0.00000E+00         0.00000E+00
    0.96370E-08         0.50727E-11         0.00000E+00
    0.96322E-08         0.83588E-11         0.00000E+00
    0.96323E-08         0.10181E-10         0.00000E+00
    0.96375E-08         0.10895E-10         0.00000E+00
    0.96480E-08         0.10830E-10         0.00000E+00
    0.96640E-08         0.10254E-10         0.00000E+00
    0.96854E-08         0.93731E-11         0.00000E+00
    0.97123E-08         0.83329E-11         0.00000E+00
    0.97447E-08         0.72339E-11         0.00000E+00
    0.97826E-08         0.61417E-11         0.00000E+00
    0.98259E-08         0.50966E-11         0.00000E+00
    0.98746E-08         0.41211E-11         0.00000E+00
    0.99285E-08         0.32257E-11         0.00000E+00
    0.99876E-08         0.24129E-11         0.00000E+00
    0.10052E-07         0.16803E-11         0.00000E+00
    0.10121E-07         0.10222E-11         0.00000E+00
    0.10195E-07         0.43186E-12         0.00000E+00
    0.10274E-07        -0.98472E-13         0.00000E+00
    0.10358E-07        -0.57628E-12         0.00000E+00
    0.10446E-07        -0.10087E-11         0.00000E+00
    0.10539E-07        -0.14023E-11         0.00000E+00
    0.10637E-07        -0.17628E-11         0.00000E+00
    0.10739E-07        -0.20953E-11         0.00000E+00
    0.10845E-07        -0.24043E-11         0.00000E+00
    0.10956E-07        -0.26935E-11         0.00000E+00
    0.11070E-07        -0.29660E-11         0.00000E+00
    0.11189E-07        -0.32244E-11         0.00000E+00
    0.11312E-07        -0.34711E-11         0.00000E+00
    0.11438E-07        -0.37077E-11         0.00000E+00
    0.11568E-07        -0.39359E-11         0.00000E+00
    0.11702E-07        -0.41566E-11         0.00000E+00
    0.11840E-07        -0.43710E-11         0.00000E+00
    0.11981E-07        -0.45799E-11         0.00000E+00
    0.12125E-07        -0.47837E-11         0.00000E+00
    0.12272E-07        -0.49829E-11         0.00000E+00
    0.12422E-07        -0.51780E-11         0.00000E+00
    0.12576E-07        -0.53690E-11         0.00000E+00
    0.12732E-07        -0.55562E-11         0.00000E+00
    0.12891E-07        -0.57395E-11         0.00000E+00
    0.13053E-07        -0.59190E-11         0.00000E+00
    0.13217E-07        -0.60946E-11         0.00000E+00
    0.13383E-07        -0.62662E-11         0.00000E+00
    0.13552E-07        -0.64335E-11         0.00000E+00
    0.13722E-07        -0.65964E-11         0.00000E+00
    0.13895E-07        -0.67546E-11         0.00000E+00
    0.14069E-07        -0.69076E-11         0.00000E+00
    0.14244E-07        -0.70553E-11         0.00000E+00
    0.14421E-07        -0.71972E-11         0.00000E+00
    0.14600E-07        -0.73328E-11         0.00000E+00
    0.14779E-07        -0.74617E-11         0.00000E+00
    0.14959E-07        -0.75835E-11         0.00000E+00
    0.15140E-07        -0.76976E-11         0.00000E+00
    0.15322E-07        -0.78035E-11         0.00000E+00
    0.15504E-07        -0.79006E-11         0.00000E+00
    0.15686E-07        -0.79882E-11         0.00000E+00
    0.15868E-07        -0.80658E-11         0.00000E+00
    0.16050E-07        -0.81327E-11         0.00000E+00
    0.16231E-07        -0.81882E-11         0.00000E+00
    0.16412E-07        -0.82316E-11         0.00000E+00
    0.16592E-07        -0.82622E-11         0.00000E+00
    0.16771E-07        -0.82791E-11         0.00000E+00
    0.16948E-07        -0.82816E-11         0.00000E+00
    0.17125E-07        -0.82687E-11         0.00000E+00
    0.17299E-07        -0.82396E-11         0.00000E+00
    0.17472E-07        -0.81933E-11         0.00000E+00
    0.17643E-07        -0.81287E-11         0.00000E+00
    0.17811E-07        -0.80447E-11         0.00000E+00
    0.17977E-07        -0.79400E-11         0.00000E+00
    0.18141E-07        -0.78133E-11         0.00000E+00
    0.18301E-07        -0.76630E-11         0.00000E+00
    0.18458E-07        -0.74874E-11         0.00000E+00
    0.18612E-07        -0.72845E-11         0.00000E+00
    0.18762E-07        -0.70520E-11         0.00000E+00
    0.18909E-07        -0.67872E-11         0.00000E+00
    0.19052E-07        -0.64871E-11         0.00000E+00
    0.19190E-07        -0.61480E-11         0.00000E+00
    0.19324E-07        -0.57658E-11         0.00000E+00
    0.19453E-07        -0.53357E-11         0.00000E+00
    0.19578E-07        -0.48519E-11         0.00000E+00
    0.19698E-07        -0.43080E-11         0.00000E+00
    0.19812E-07        -0.36968E-11         0.00000E+00
    0.19921E-07        -0.30101E-11         0.00000E+00
    0.20024E-07        -0.22391E-11         0.00000E+00
    0.20121E-07        -0.13745E-11         0.00000E+00
    0.20213E-07        -0.40727E-12         0.00000E+00
    0.20298E-07         0.67097E-12         0.00000E+00
    0.20376E-07         0.18663E-11         0.00000E+00
    0.20448E-07         0.31809E-11         0.00000E+00
    0.20514E-07         0.46102E-11         0.00000E+00
    0.20572E-07         0.61390E-11         0.00000E+00
    0.20624E-07         0.77362E-11         0.00000E+00
    0.20668E-07         0.93475E-11         0.00000E+00
    0.20705E-07         0.10886E-10         0.00000E+00
    0.20735E-07         0.12218E-10         0.00000E+00
    0.20757E-07         0.13152E-10         0.00000E+00
    0.20772E-07         0.13420E-10         0.00000E+00
    0.20781E-07         0.12671E-10         0.00000E+00
    0.20782E-07         0.10481E-10         0.00000E+00
    0.20777E-07         0.63924E-11         0.00000E+00
    0.20773E-07         0.00000E+00         0.00000E+00
    0.96416E-08         0.00000E+00         0.00000E+00
    0.96379E-08         0.51428E-11         0.00000E+00
    0.96327E-08         0.84655E-11         0.00000E+00
    0.96326E-08         0.10298E-10         0.00000E+00
    0.96376E-08         0.11006E-10         0.00000E+00
    0.96480E-08         0.10925E-10         0.00000E+00
    0.96638E-08         0.10331E-10         0.00000E+00
    0.96852E-08         0.94302E-11         0.00000E+00
    0.97121E-08         0.83719E-11         0.00000E+00
    0.97445E-08         0.72572E-11         0.00000E+00
    0.97824E-08         0.61518E-11         0.00000E+00
    0.98257E-08         0.50959E-11         0.00000E+00
    0.98744E-08         0.41119E-11         0.00000E+00
    0.99283E-08         0.32100E-11         0.00000E+00
    0.99874E-08         0.23924E-11         0.00000E+00
    0.10052E-07         0.16563E-11         0.00000E+00
    0.10121E-07         0.99592E-12         0.00000E+00
    0.10195E-07         0.40402E-12         0.00000E+00
    0.10274E-07        -0.12719E-12         0.00000E+00
    0.10358E-07        -0.60542E-12         0.00000E+00
    0.10446E-07        -0.10379E-11         0.00000E+00
    0.10539E-07        -0.14314E-11         0.00000E+00
    0.10637E-07        -0.17917E-11         0.00000E+00
    0.10739E-07        -0.21239E-11         0.00000E+00
    0.10845E-07        -0.24326E-11         0.00000E+00
    0.10956E-07        -0.27215E-11         0.00000E+00
    0.11070E-07        -0.29938E-11         0.00000E+00
    0.11189E-07        -0.32522E-11         0.00000E+00
    0.11312E-07        -0.34988E-11         0.00000E+00
    0.11438E-07        -0.37355E-11         0.00000E+00
    0.11568E-07        -0.39637E-11         0.00000E+00
    0.11702E-07        -0.41847E-11         0.00000E+00
    0.11840E-07        -0.43994E-11         0.00000E+00
    0.11980E-07        -0.46086E-11         0.00000E+00
    0.12125E-07        -0.48129E-11         0.00000E+00
    0.12272E-07        -0.50127E-11         0.00000E+00
    0.12422E-07        -0.52083E-11         0.00000E+00
    0.12576E-07        -0.53999E-11         0.00000E+00
    0.12732E-07        -0.55878E-11         0.00000E+00
    0.12891E-07        -0.57719E-11         0.00000E+00
    0.13053E-07        -0.59521E-11         0.00000E+00
    0.13217E-07        -0.61286E-11         0.00000E+00
    0.13383E-07        -0.63010E-11         0.00000E+00
    0.13552E-07        -0.64691E-11         0.00000E+00
    0.13722E-07        -0.66329E-11         0.00000E+00
    0.13895E-07        -0.67919E-11         0.00000E+00
    0.14069E-07        -0.69459E-11         0.00000E+00
    0.14244E-07        -0.70945E-11         0.00000E+00
    0.14421E-07        -0.72372E-11         0.00000E+00
    0.14600E-07        -0.73738E-11         0.00000E+00
    0.14779E-07        -0.75037E-11         0.00000E+00
    0.14959E-07        -0.76264E-11         0.00000E+00
    0.15140E-07        -0.77414E-11         0.00000E+00
    0.15322E-07        -0.78481E-11         0.00000E+00
    0.15504E-07        -0.79461E-11         0.00000E+00
    0.15686E-07        -0.80346E-11         0.00000E+00
    0.15868E-07        -0.81130E-11         0.00000E+00
    0.16049E-07        -0.81808E-11         0.00000E+00
    0.16231E-07        -0.82371E-11         0.00000E+00
    0.16412E-07        -0.82813E-11         0.00000E+00
    0.16592E-07        -0.83126E-11         0.00000E+00
    0.16771E-07        -0.83303E-11         0.00000E+00
    0.16948E-07        -0.83335E-11         0.00000E+00
    0.17125E-07        -0.83213E-11         0.00000E+00
    0.17299E-07        -0.82929E-11         0.00000E+00
    0.17472E-07        -0.82473E-11         0.00000E+00
    0.17643E-07        -0.81833E-11         0.00000E+00
    0.17811E-07        -0.81000E-11         0.00000E+00
    0.17977E-07        -0.79959E-11         0.00000E+00
    0.18141E-07        -0.78698E-11         0.00000E+00
    0.18301E-07        -0.77202E-11         0.00000E+00
    0.18458E-07        -0.75452E-11         0.00000E+00
    0.18612E-07        -0.73428E-11         0.00000E+00
    0.18763E-07        -0.71109E-11         0.00000E+00
    0.18909E-07        -0.68467E-11         0.00000E+00
    0.19052E-07        -0.65470E-11         0.00000E+00
    0.19190E-07        -0.62084E-11         0.00000E+00
    0.19324E-07        -0.58266E-11         0.00000E+00
    0.19454E-07        -0.53966E-11         0.00000E+00
    0.19578E-07        -0.49128E-11         0.00000E+00
    0.19698E-07        -0.43687E-11         0.00000E+00
    0.19812E-07        -0.37567E-11         0.00000E+00
    0.19921E-07        -0.30687E-11         0.00000E+00
    0.20024E-07        -0.22956E-11         0.00000E+00
    0.20121E-07        -0.14280E-11         0.00000E+00
    0.20213E-07        -0.45643E-12         0.00000E+00
    0.20298E-07         0.62768E-12         0.00000E+00
    0.20377E-07         0.18309E-11         0.00000E+00
    0.20449E-07         0.31556E-11         0.00000E+00
    0.20514E-07         0.45978E-11         0.00000E+00
    0.20573E-07         0.61425E-11         0.00000E+00
    0.20624E-07         0.77591E-11         0.00000E+00
    0.20668E-07         0.93931E-11         0.00000E+00
    0.20705E-07         0.10957E-10         0.00000E+00
    0.20735E-07         0.12317E-10         0.00000E+00
    0.20757E-07         0.13278E-10         0.00000E+00
    0.20772E-07         0.13567E-10         0.00000E+00
    0.20780E-07         0.12828E-10         0.00000E+00
    0.20781E-07         0.10624E-10         0.00000E+00
    0.20776E-07         0.64870E-11         0.00000E+00
    0.20771E-07         0.00000E+00         0.00000E+00
    0.96426E-08         0.00000E+00         0.00000E+00
    0.96387E-08         0.52054E-11         0.00000E+00
    0.96333E-08         0.85559E-11         0.00000E+00
    0.96328E-08         0.10392E-10         0.00000E+00
    0.96376E-08         0.11088E-10         0.00000E+00
    0.96479E-08         0.10989E-10         0.00000E+00
    0.96637E-08         0.10375E-10         0.00000E+00
    0.96850E-08         0.94567E-11         0.00000E+00
    0.97119E-08         0.83830E-11         0.00000E+00
    0.97443E-08         0.72556E-11         0.00000E+00
    0.97822E-08         0.61402E-11         0.00000E+00
    0.98255E-08         0.50769E-11         0.00000E+00
    0.98742E-08         0.40877E-11         0.00000E+00
    0.99281E-08         0.31823E-11         0.00000E+00
    0.99872E-08         0.23627E-11         0.00000E+00
    0.10051E-07         0.16257E-11         0.00000E+00
    0.10121E-07         0.96521E-12         0.00000E+00
    0.10195E-07         0.37384E-12         0.00000E+00
    0.10274E-07        -0.15640E-12         0.00000E+00
    0.10358E-07        -0.63338E-12         0.00000E+00
    0.10446E-07        -0.10645E-11         0.00000E+00
    0.10539E-07        -0.14565E-11         0.00000E+00
    0.10637E-07        -0.18153E-11         0.00000E+00
    0.10739E-07        -0.21461E-11         0.00000E+00
    0.10845E-07        -0.24535E-11         0.00000E+00
    0.10956E-07        -0.27412E-11         0.00000E+00
    0.11070E-07        -0.30124E-11         0.00000E+00
    0.11189E-07        -0.32697E-11         0.00000E+00
    0.11312E-07        -0.35155E-11         0.00000E+00
    0.11438E-07        -0.37514E-11         0.00000E+00
    0.11568E-07        -0.39790E-11         0.00000E+00
    0.11702E-07        -0.41995E-11         0.00000E+00
    0.11840E-07        -0.44138E-11         0.00000E+00
    0.11980E-07        -0.46227E-11         0.00000E+00
    0.12125E-07        -0.48268E-11         0.00000E+00
    0.12272E-07        -0.50264E-11         0.00000E+00
    0.12422E-07        -0.52220E-11         0.00000E+00
    0.12576E-07        -0.54136E-11         0.00000E+00
    0.12732E-07        -0.56016E-11         0.00000E+00
    0.12891E-07        -0.57858E-11         0.00000E+00
    0.13053E-07        -0.59662E-11         0.00000E+00
    0.13217E-07        -0.61429E-11         0.00000E+00
    0.13383E-07        -0.63155E-11         0.00000E+00
    0.13552E-07        -0.64840E-11         0.00000E+00
    0.13722E-07        -0.66481E-11         0.00000E+00
    0.13895E-07        -0.68075E-11         0.00000E+00
    0.14069E-07        -0.69619E-11         0.00000E+00
    0.14244E-07        -0.71109E-11         0.00000E+00
    0.14421E-07        -0.72542E-11         0.00000E+00
    0.14600E-07        -0.73912E-11         0.00000E+00
    0.14779E-07        -0.75216E-11         0.00000E+00
    0.14959E-07        -0.76448E-11         0.00000E+00
    0.15140E-07        -0.77604E-11         0.00000E+00
    0.15322E-07        -0.78677E-11         0.00000E+00
    0.15504E-07        -0.79662E-11         0.00000E+00
    0.15686E-07        -0.80553E-11         0.00000E+00
    0.15868E-07        -0.81344E-11         0.00000E+00
    0.16049E-07        -0.82027E-11         0.00000E+00
    0.16231E-07        -0.82597E-11         0.00000E+00
    0.16412E-07        -0.83045E-11         0.00000E+00
    0.16592E-07        -0.83366E-11         0.00000E+00
    0.16771E-07        -0.83549E-11         0.00000E+00
    0.16948E-07        -0.83589E-11         0.00000E+00
    0.17125E-07        -0.83475E-11         0.00000E+00
    0.17299E-07        -0.83198E-11         0.00000E+00
    0.17472E-07        -0.82750E-11         0.00000E+00
    0.17643E-07        -0.82120E-11         0.00000E+00
    0.17811E-07        -0.81295E-11         0.00000E+00
    0.17977E-07        -0.80265E-11         0.00000E+00
    0.18141E-07        -0.79015E-11         0.00000E+00
    0.18301E-07        -0.77529E-11         0.00000E+00
    0.18458E-07        -0.75791E-11         0.00000E+00
    0.18612E-07        -0.73781E-11         0.00000E+00
    0.18763E-07        -0.71475E-11         0.00000E+00
    0.18909E-07        -0.68847E-11         0.00000E+00
    0.19052E-07        -0.65866E-11         0.00000E+00
    0.19190E-07        -0.62496E-11         0.00000E+00
    0.19324E-07        -0.58694E-11         0.00000E+00
    0.19454E-07        -0.54411E-11         0.00000E+00
    0.19578E-07        -0.49590E-11         0.00000E+00
    0.19698E-07        -0.44163E-11         0.00000E+00
    0.19812E-07        -0.38057E-11         0.00000E+00
    0.19921E-07        -0.31188E-11         0.00000E+00
    0.20024E-07        -0.23463E-11         0.00000E+00
    0.20122E-07        -0.14786E-11         0.00000E+00
    0.20213E-07        -0.50605E-12         0.00000E+00
    0.20298E-07         0.58027E-12         0.00000E+00
    0.20377E-07         0.17872E-11         0.00000E+00
    0.20449E-07         0.31177E-11         0.00000E+00
    0.20514E-07         0.45681E-11         0.00000E+00
    0.20573E-07         0.61239E-11         0.00000E+00
    0.20624E-07         0.77549E-11         0.00000E+00
    0.20669E-07         0.94070E-11         0.00000E+00
    0.20706E-07         0.10993E-10         0.00000E+00
    0.20735E-07         0.12378E-10         0.00000E+00
    0.20757E-07         0.13365E-10         0.00000E+00
    0.20772E-07         0.13680E-10         0.00000E+00
    0.20780E-07         0.12956E-10         0.00000E+00
    0.20781E-07         0.10748E-10         0.00000E+00
    0.20775E-07         0.65728E-11         0.00000E+00
    0.20770E-07         0.00000E+00         0.00000E+00
    0.96437E-08         0.00000E+00         0.00000E+00
    0.96396E-08         0.52604E-11         0.00000E+00
    0.96338E-08         0.86295E-11         0.00000E+00
    0.96331E-08         0.10460E-10         0.00000E+00
    0.96377E-08         0.11140E-10         0.00000E+00
    0.96478E-08         0.11021E-10         0.00000E+00
    0.96635E-08         0.10387E-10         0.00000E+00
    0.96848E-08         0.94525E-11         0.00000E+00
    0.97117E-08         0.83659E-11         0.00000E+00
    0.97441E-08         0.72291E-11         0.00000E+00
    0.97820E-08         0.61073E-11         0.00000E+00
    0.98253E-08         0.50401E-11         0.00000E+00
    0.98740E-08         0.40488E-11         0.00000E+00
    0.99279E-08         0.31430E-11         0.00000E+00
    0.99871E-08         0.23241E-11         0.00000E+00
    0.10051E-07         0.15887E-11         0.00000E+00
    0.10121E-07         0.93042E-12         0.00000E+00
    0.10195E-07         0.34162E-12         0.00000E+00
    0.10274E-07        -0.18583E-12         0.00000E+00
    0.10358E-07        -0.65993E-12         0.00000E+00
    0.10446E-07        -0.10882E-11         0.00000E+00
    0.10539E-07        -0.14773E-11         0.00000E+00
    0.10637E-07        -0.18335E-11         0.00000E+00
    0.10739E-07        -0.21618E-11         0.00000E+00
    0.10845E-07        -0.24668E-11         0.00000E+00
    0.10956E-07        -0.27522E-11         0.00000E+00
    0.11070E-07        -0.30214E-11         0.00000E+00
    0.11189E-07        -0.32769E-11         0.00000E+00
    0.11312E-07        -0.35210E-11         0.00000E+00
    0.11438E-07        -0.37554E-11         0.00000E+00
    0.11568E-07        -0.39817E-11         0.00000E+00
    0.11702E-07        -0.42010E-11         0.00000E+00
    0.11840E-07        -0.44142E-11         0.00000E+00
    0.11980E-07        -0.46221E-11         0.00000E+00
    0.12125E-07        -0.48252E-11         0.00000E+00
    0.12272E-07        -0.50241E-11         0.00000E+00
    0.12422E-07        -0.52190E-11         0.00000E+00
    0.12576E-07        -0.54100E-11         0.00000E+00
    0.12732E-07        -0.55974E-11         0.00000E+00
    0.12891E-07        -0.57812E-11         0.00000E+00
    0.13053E-07        -0.59613E-11         0.00000E+00
    0.13217E-07        -0.61376E-11         0.00000E+00
    0.13383E-07        -0.63100E-11         0.00000E+00
    0.13552E-07        -0.64782E-11         0.00000E+00
    0.13722E-07        -0.66422E-11         0.00000E+00
    0.13894E-07        -0.68014E-11         0.00000E+00
    0.14069E-07        -0.69557E-11         0.00000E+00
    0.14244E-07        -0.71047E-11         0.00000E+00
    0.14421E-07        -0.72479E-11         0.00000E+00
    0.14600E-07        -0.73850E-11         0.00000E+00
    0.14779E-07        -0.75155E-11         0.00000E+00
    0.14959E-07        -0.76388E-11         0.00000E+00
    0.15140E-07        -0.77546E-11         0.00000E+00
    0.15322E-07        -0.78621E-11         0.00000E+00
    0.15504E-07        -0.79609E-11         0.00000E+00
    0.15686E-07        -0.80503E-11         0.00000E+00
    0.15868E-07        -0.81297E-11         0.00000E+00
    0.16049E-07        -0.81985E-11         0.00000E+00
    0.16231E-07        -0.82559E-11         0.00000E+00
    0.16412E-07        -0.83013E-11         0.00000E+00
    0.16592E-07        -0.83339E-11         0.00000E+00
    0.16771E-07        -0.83530E-11         0.00000E+00
    0.16948E-07        -0.83576E-11         0.00000E+00
    0.17125E-07        -0.83470E-11         0.00000E+00
    0.17299E-07        -0.83203E-11         0.00000E+00
    0.17472E-07        -0.82765E-11         0.00000E+00
    0.17643E-07        -0.82145E-11         0.00000E+00
    0.17811E-07        -0.81333E-11         0.00000E+00
    0.17977E-07        -0.80316E-11         0.00000E+00
    0.18141E-07        -0.79080E-11         0.00000E+00
    0.18301E-07        -0.77611E-11         0.00000E+00
    0.18458E-07        -0.75890E-11         0.00000E+00
    0.18612E-07        -0.73899E-11         0.00000E+00
    0.18763E-07        -0.71615E-11         0.00000E+00
    0.18909E-07        -0.69010E-11         0.00000E+00
    0.19052E-07        -0.66054E-11         0.00000E+00
    0.19190E-07        -0.62712E-11         0.00000E+00
    0.19324E-07        -0.58939E-11         0.00000E+00
    0.19454E-07        -0.54688E-11         0.00000E+00
    0.19578E-07        -0.49899E-11         0.00000E+00
    0.19698E-07        -0.44507E-11         0.00000E+00
    0.19812E-07        -0.38435E-11         0.00000E+00
    0.19921E-07        -0.31600E-11         0.00000E+00
    0.20024E-07        -0.23907E-11         0.00000E+00
    0.20122E-07        -0.15259E-11         0.00000E+00
    0.20213E-07        -0.55567E-12         0.00000E+00
    0.20298E-07         0.52916E-12         0.00000E+00
    0.20377E-07         0.17358E-11         0.00000E+00
    0.20449E-07         0.30676E-11         0.00000E+00
    0.20515E-07         0.45214E-11         0.00000E+00
    0.20573E-07         0.60833E-11         0.00000E+00
    0.20625E-07         0.77237E-11         0.00000E+00
    0.20669E-07         0.93891E-11         0.00000E+00
    0.20706E-07         0.10993E-10         0.00000E+00
    0.20735E-07         0.12400E-10         0.00000E+00
    0.20758E-07         0.13413E-10         0.00000E+00
    0.20772E-07         0.13755E-10         0.00000E+00
    0.20780E-07         0.13054E-10         0.00000E+00
    0.20780E-07         0.10851E-10         0.00000E+00
    0.20774E-07         0.66493E-11         0.00000E+00
    0.20769E-07         0.00000E+00         0.00000E+00
    0.96447E-08         0.00000E+00         0.00000E+00
    0.96404E-08         0.53075E-11         0.00000E+00
    0.96343E-08         0.86859E-11         0.00000E+00
    0.96333E-08         0.10503E-10         0.00000E+00
    0.96378E-08         0.11161E-10         0.00000E+00
    0.96477E-08         0.11019E-10         0.00000E+00
    0.96634E-08         0.10367E-10         0.00000E+00
    0.96846E-08         0.94173E-11         0.00000E+00
    0.97114E-08         0.83208E-11         0.00000E+00
    0.97438E-08         0.71779E-11         0.00000E+00
    0.97818E-08         0.60532E-11         0.00000E+00
    0.98251E-08         0.49854E-11         0.00000E+00
    0.98738E-08         0.39955E-11         0.00000E+00
    0.99278E-08         0.30923E-11         0.00000E+00
    0.99869E-08         0.22770E-11         0.00000E+00
    0.10051E-07         0.15457E-11         0.00000E+00
    0.10120E-07         0.89185E-12         0.00000E+00
    0.10195E-07         0.30766E-12         0.00000E+00
    0.10274E-07        -0.21519E-12         0.00000E+00
    0.10358E-07        -0.68478E-12         0.00000E+00
    0.10446E-07        -0.11087E-11         0.00000E+00
    0.10539E-07        -0.14937E-11         0.00000E+00
    0.10637E-07        -0.18460E-11         0.00000E+00
    0.10739E-07        -0.21706E-11         0.00000E+00
    0.10845E-07        -0.24722E-11         0.00000E+00
    0.10956E-07        -0.27546E-11         0.00000E+00
    0.11070E-07        -0.30208E-11         0.00000E+00
    0.11189E-07        -0.32737E-11         0.00000E+00
    0.11311E-07        -0.35153E-11         0.00000E+00
    0.11438E-07        -0.37475E-11         0.00000E+00
    0.11568E-07        -0.39716E-11         0.00000E+00
    0.11702E-07        -0.41889E-11         0.00000E+00
    0.11839E-07        -0.44004E-11         0.00000E+00
    0.11980E-07        -0.46066E-11         0.00000E+00
    0.12125E-07        -0.48083E-11         0.00000E+00
    0.12272E-07        -0.50057E-11         0.00000E+00
    0.12422E-07        -0.51992E-11         0.00000E+00
    0.12576E-07        -0.53891E-11         0.00000E+00
    0.12732E-07        -0.55754E-11         0.00000E+00
    0.12891E-07        -0.57581E-11         0.00000E+00
    0.13053E-07        -0.59372E-11         0.00000E+00
    0.13217E-07        -0.61126E-11         0.00000E+00
    0.13383E-07        -0.62841E-11         0.00000E+00
    0.13552E-07        -0.64516E-11         0.00000E+00
    0.13722E-07        -0.66149E-11         0.00000E+00
    0.13894E-07        -0.67735E-11         0.00000E+00
    0.14069E-07        -0.69272E-11         0.00000E+00
    0.14244E-07        -0.70757E-11         0.00000E+00
    0.14421E-07        -0.72185E-11         0.00000E+00
    0.14600E-07        -0.73552E-11         0.00000E+00
    0.14779E-07        -0.74853E-11         0.00000E+00
    0.14959E-07        -0.76084E-11         0.00000E+00
    0.15140E-07        -0.77239E-11         0.00000E+00
    0.15322E-07        -0.78313E-11         0.00000E+00
    0.15504E-07        -0.79301E-11         0.00000E+00
    0.15686E-07        -0.80195E-11         0.00000E+00
    0.15868E-07        -0.80990E-11         0.00000E+00
    0.16049E-07        -0.81680E-11         0.00000E+00
    0.16231E-07        -0.82257E-11         0.00000E+00
    0.16412E-07        -0.82715E-11         0.00000E+00
    0.16592E-07        -0.83046E-11         0.00000E+00
    0.16771E-07        -0.83242E-11         0.00000E+00
    0.16948E-07        -0.83296E-11         0.00000E+00
    0.17125E-07        -0.83198E-11         0.00000E+00
    0.17299E-07        -0.82941E-11         0.00000E+00
    0.17472E-07        -0.82514E-11         0.00000E+00
    0.17643E-07        -0.81907E-11         0.00000E+00
    0.17811E-07        -0.81110E-11         0.00000E+00
    0.17977E-07        -0.80109E-11         0.00000E+00
    0.18141E-07        -0.78892E-11         0.00000E+00
    0.18301E-07        -0.77444E-11         0.00000E+00
    0.18458E-07        -0.75747E-11         0.00000E+00
    0.18612E-07        -0.73782E-11         0.00000E+00
    0.18763E-07        -0.71526E-11         0.00000E+00
    0.18909E-07        -0.68954E-11         0.00000E+00
    0.19052E-07        -0.66033E-11         0.00000E+00
    0.19190E-07        -0.62729E-11         0.00000E+00
    0.19324E-07        -0.58998E-11         0.00000E+00
    0.19454E-07        -0.54792E-11         0.00000E+00
    0.19578E-07        -0.50052E-11         0.00000E+00
    0.19698E-07        -0.44712E-11         0.00000E+00
    0.19812E-07        -0.38696E-11         0.00000E+00
    0.19921E-07        -0.31918E-11         0.00000E+00
    0.20025E-07        -0.24284E-11         0.00000E+00
    0.20122E-07        -0.15694E-11         0.00000E+00
    0.20213E-07        -0.60483E-12         0.00000E+00
    0.20299E-07         0.47482E-12         0.00000E+00
    0.20377E-07         0.16771E-11         0.00000E+00
    0.20450E-07         0.30057E-11         0.00000E+00
    0.20515E-07         0.44581E-11         0.00000E+00
    0.20574E-07         0.60210E-11         0.00000E+00
    0.20625E-07         0.76656E-11         0.00000E+00
    0.20669E-07         0.93394E-11         0.00000E+00
    0.20706E-07         0.10956E-10         0.00000E+00
    0.20736E-07         0.12383E-10         0.00000E+00
    0.20758E-07         0.13422E-10         0.00000E+00
    0.20772E-07         0.13793E-10         0.00000E+00
    0.20779E-07         0.13120E-10         0.00000E+00
    0.20779E-07         0.10934E-10         0.00000E+00
    0.20773E-07         0.67163E-11         0.00000E+00
    0.20767E-07         0.00000E+00         0.00000E+00
    0.96458E-08         0.00000E+00         0.00000E+00
    0.96413E-08         0.53464E-11         0.00000E+00
    0.96348E-08         0.87244E-11         0.00000E+00
    0.96336E-08         0.10520E-10         0.00000E+00
    0.96378E-08         0.11150E-10         0.00000E+00
    0.96477E-08         0.10984E-10         0.00000E+00
    0.96632E-08         0.10313E-10         0.00000E+00
    0.96844E-08         0.93509E-11         0.00000E+00
    0.97112E-08         0.82475E-11         0.00000E+00
    0.97436E-08         0.71020E-11         0.00000E+00
    0.97815E-08         0.59780E-11         0.00000E+00
    0.98249E-08         0.49133E-11         0.00000E+00
    0.98736E-08         0.39280E-11         0.00000E+00
    0.99276E-08         0.30306E-11         0.00000E+00
    0.99868E-08         0.22216E-11         0.00000E+00
    0.10051E-07         0.14969E-11         0.00000E+00
    0.10120E-07         0.84984E-12         0.00000E+00
    0.10195E-07         0.27226E-12         0.00000E+00
    0.10274E-07        -0.24418E-12         0.00000E+00
    0.10358E-07        -0.70767E-12         0.00000E+00
    0.10446E-07        -0.11258E-11         0.00000E+00
    0.10539E-07        -0.15054E-11         0.00000E+00
    0.10637E-07        -0.18526E-11         0.00000E+00
    0.10739E-07        -0.21725E-11         0.00000E+00
    0.10845E-07        -0.24697E-11         0.00000E+00
    0.10955E-07        -0.27480E-11         0.00000E+00
    0.11070E-07        -0.30105E-11         0.00000E+00
    0.11189E-07        -0.32599E-11         0.00000E+00
    0.11311E-07        -0.34982E-11         0.00000E+00
    0.11438E-07        -0.37274E-11         0.00000E+00
    0.11568E-07        -0.39487E-11         0.00000E+00
    0.11702E-07        -0.41634E-11         0.00000E+00
    0.11839E-07        -0.43723E-11         0.00000E+00
    0.11980E-07        -0.45763E-11         0.00000E+00
    0.12124E-07        -0.47757E-11         0.00000E+00
    0.12272E-07        -0.49711E-11         0.00000E+00
    0.12422E-07        -0.51627E-11         0.00000E+00
    0.12576E-07        -0.53508E-11         0.00000E+00
    0.12732E-07        -0.55353E-11         0.00000E+00
    0.12891E-07        -0.57164E-11         0.00000E+00
    0.13053E-07        -0.58939E-11         0.00000E+00
    0.13217E-07        -0.60679E-11         0.00000E+00
    0.13383E-07        -0.62380E-11         0.00000E+00
    0.13551E-07        -0.64042E-11         0.00000E+00
    0.13722E-07        -0.65662E-11         0.00000E+00
    0.13894E-07        -0.67237E-11         0.00000E+00
    0.14069E-07        -0.68764E-11         0.00000E+00
    0.14244E-07        -0.70238E-11         0.00000E+00
    0.14421E-07        -0.71657E-11         0.00000E+00
    0.14600E-07        -0.73016E-11         0.00000E+00
    0.14779E-07        -0.74310E-11         0.00000E+00
    0.14959E-07        -0.75534E-11         0.00000E+00
    0.15140E-07        -0.76684E-11         0.00000E+00
    0.15322E-07        -0.77753E-11         0.00000E+00
    0.15504E-07        -0.78737E-11         0.00000E+00
    0.15686E-07        -0.79629E-11         0.00000E+00
    0.15868E-07        -0.80422E-11         0.00000E+00
    0.16049E-07        -0.81112E-11         0.00000E+00
    0.16231E-07        -0.81690E-11         0.00000E+00
    0.16412E-07        -0.82150E-11         0.00000E+00
    0.16592E-07        -0.82485E-11         0.00000E+00
    0.16770E-07        -0.82686E-11         0.00000E+00
    0.16948E-07        -0.82747E-11         0.00000E+00
    0.17125E-07        -0.82658E-11         0.00000E+00
    0.17299E-07        -0.82411E-11         0.00000E+00
    0.17472E-07        -0.81997E-11         0.00000E+00
    0.17643E-07        -0.81405E-11         0.00000E+00
    0.17811E-07        -0.80625E-11         0.00000E+00
    0.17977E-07        -0.79644E-11         0.00000E+00
    0.18141E-07        -0.78450E-11         0.00000E+00
    0.18301E-07        -0.77027E-11         0.00000E+00
    0.18458E-07        -0.75359E-11         0.00000E+00
    0.18612E-07        -0.73427E-11         0.00000E+00
    0.18763E-07        -0.71207E-11         0.00000E+00
    0.18909E-07        -0.68675E-11         0.00000E+00
    0.19052E-07        -0.65799E-11         0.00000E+00
    0.19190E-07        -0.62544E-11         0.00000E+00
    0.19325E-07        -0.58868E-11         0.00000E+00
    0.19454E-07        -0.54721E-11         0.00000E+00
    0.19579E-07        -0.50046E-11         0.00000E+00
    0.19698E-07        -0.44777E-11         0.00000E+00
    0.19813E-07        -0.38836E-11         0.00000E+00
    0.19921E-07        -0.32138E-11         0.00000E+00
    0.20025E-07        -0.24588E-11         0.00000E+00
    0.20122E-07        -0.16087E-11         0.00000E+00
    0.20214E-07        -0.65303E-12         0.00000E+00
    0.20299E-07         0.41773E-12         0.00000E+00
    0.20378E-07         0.16115E-11         0.00000E+00
    0.20450E-07         0.29324E-11         0.00000E+00
    0.20515E-07         0.43785E-11         0.00000E+00
    0.20574E-07         0.59372E-11         0.00000E+00
    0.20625E-07         0.75808E-11         0.00000E+00
    0.20670E-07         0.92578E-11         0.00000E+00
    0.20706E-07         0.10884E-10         0.00000E+00
    0.20736E-07         0.12326E-10         0.00000E+00
    0.20758E-07         0.13390E-10         0.00000E+00
    0.20772E-07         0.13793E-10         0.00000E+00
    0.20779E-07         0.13154E-10         0.00000E+00
    0.20779E-07         0.10994E-10         0.00000E+00
    0.20771E-07         0.67733E-11         0.00000E+00
    0.20766E-07         0.00000E+00         0.00000E+00
    0.96469E-08         0.00000E+00         0.00000E+00
    0.96422E-08         0.53766E-11         0.00000E+00
    0.96353E-08         0.87441E-11         0.00000E+00
    0.96338E-08         0.10510E-10         0.00000E+00
    0.96378E-08         0.11107E-10         0.00000E+00
    0.96476E-08         0.10914E-10         0.00000E+00
    0.96630E-08         0.10225E-10         0.00000E+00
    0.96842E-08         0.92532E-11         0.00000E+00
    0.97110E-08         0.81461E-11         0.00000E+00
    0.97434E-08         0.70017E-11         0.00000E+00
    0.97813E-08         0.58821E-11         0.00000E+00
    0.98247E-08         0.48240E-11         0.00000E+00
    0.98734E-08         0.38468E-11         0.00000E+00
    0.99274E-08         0.29582E-11         0.00000E+00
    0.99866E-08         0.21584E-11         0.00000E+00
    0.10051E-07         0.14429E-11         0.00000E+00
    0.10120E-07         0.80475E-12         0.00000E+00
    0.10194E-07         0.23578E-12         0.00000E+00
    0.10274E-07        -0.27249E-12         0.00000E+00
    0.10357E-07        -0.72829E-12         0.00000E+00
    0.10446E-07        -0.11392E-11         0.00000E+00
    0.10539E-07        -0.15121E-11         0.00000E+00
    0.10637E-07        -0.18531E-11         0.00000E+00
    0.10739E-07        -0.21673E-11         0.00000E+00
    0.10845E-07        -0.24591E-11         0.00000E+00
    0.10955E-07        -0.27324E-11         0.00000E+00
    0.11070E-07        -0.29903E-11         0.00000E+00
    0.11189E-07        -0.32353E-11         0.00000E+00
    0.11311E-07        -0.34697E-11         0.00000E+00
    0.11438E-07        -0.36950E-11         0.00000E+00
    0.11568E-07        -0.39128E-11         0.00000E+00
    0.11702E-07        -0.41242E-11         0.00000E+00
    0.11839E-07        -0.43300E-11         0.00000E+00
    0.11980E-07        -0.45310E-11         0.00000E+00
    0.12124E-07        -0.47276E-11         0.00000E+00
    0.12272E-07        -0.49203E-11         0.00000E+00
    0.12422E-07        -0.51094E-11         0.00000E+00
    0.12576E-07        -0.52950E-11         0.00000E+00
    0.12732E-07        -0.54772E-11         0.00000E+00
    0.12891E-07        -0.56560E-11         0.00000E+00
    0.13053E-07        -0.58314E-11         0.00000E+00
    0.13217E-07        -0.60034E-11         0.00000E+00
    0.13383E-07        -0.61716E-11         0.00000E+00
    0.13551E-07        -0.63360E-11         0.00000E+00
    0.13722E-07        -0.64962E-11         0.00000E+00
    0.13894E-07        -0.66520E-11         0.00000E+00
    0.14068E-07        -0.68031E-11         0.00000E+00
    0.14244E-07        -0.69491E-11         0.00000E+00
    0.14421E-07        -0.70896E-11         0.00000E+00
    0.14600E-07        -0.72242E-11         0.00000E+00
    0.14779E-07        -0.73524E-11         0.00000E+00
    0.14959E-07        -0.74738E-11         0.00000E+00
    0.15140E-07        -0.75878E-11         0.00000E+00
    0.15322E-07        -0.76939E-11         0.00000E+00
    0.15504E-07        -0.77916E-11         0.00000E+00
    0.15686E-07        -0.78802E-11         0.00000E+00
    0.15868E-07        -0.79592E-11         0.00000E+00
    0.16049E-07        -0.80279E-11         0.00000E+00
    0.16231E-07        -0.80856E-11         0.00000E+00
    0.16412E-07        -0.81317E-11         0.00000E+00
    0.16592E-07        -0.81654E-11         0.00000E+00
    0.16770E-07        -0.81860E-11         0.00000E+00
    0.16948E-07        -0.81928E-11         0.00000E+00
    0.17125E-07        -0.81848E-11         0.00000E+00
    0.17299E-07        -0.81613E-11         0.00000E+00
    0.17472E-07        -0.81212E-11         0.00000E+00
    0.17643E-07        -0.80637E-11         0.00000E+00
    0.17811E-07        -0.79877E-11         0.00000E+00
    0.17977E-07        -0.78919E-11         0.00000E+00
    0.18141E-07        -0.77751E-11         0.00000E+00
    0.18301E-07        -0.76359E-11         0.00000E+00
    0.18458E-07        -0.74725E-11         0.00000E+00
    0.18612E-07        -0.72831E-11         0.00000E+00
    0.18763E-07        -0.70655E-11         0.00000E+00
    0.18909E-07        -0.68171E-11         0.00000E+00
    0.19052E-07        -0.65349E-11         0.00000E+00
    0.19191E-07        -0.62154E-11         0.00000E+00
    0.19325E-07        -0.58545E-11         0.00000E+00
    0.19454E-07        -0.54471E-11         0.00000E+00
    0.19579E-07        -0.49877E-11         0.00000E+00
    0.19698E-07        -0.44695E-11         0.00000E+00
    0.19813E-07        -0.38849E-11         0.00000E+00
    0.19922E-07        -0.32254E-11         0.00000E+00
    0.20025E-07        -0.24815E-11         0.00000E+00
    0.20122E-07        -0.16431E-11         0.00000E+00
    0.20214E-07        -0.69972E-12         0.00000E+00
    0.20299E-07         0.35844E-12         0.00000E+00
    0.20378E-07         0.15395E-11         0.00000E+00
    0.20450E-07         0.28482E-11         0.00000E+00
    0.20516E-07         0.42830E-11         0.00000E+00
    0.20574E-07         0.58323E-11         0.00000E+00
    0.20626E-07         0.74694E-11         0.00000E+00
    0.20670E-07         0.91443E-11         0.00000E+00
    0.20707E-07         0.10774E-10         0.00000E+00
    0.20736E-07         0.12229E-10         0.00000E+00
    0.20758E-07         0.13315E-10         0.00000E+00
    0.20772E-07         0.13752E-10         0.00000E+00
    0.20779E-07         0.13155E-10         0.00000E+00
    0.20778E-07         0.11031E-10         0.00000E+00
    0.20770E-07         0.68197E-11         0.00000E+00
    0.20765E-07         0.00000E+00         0.00000E+00
    0.96480E-08         0.00000E+00         0.00000E+00
    0.96430E-08         0.53975E-11         0.00000E+00
    0.96358E-08         0.87439E-11         0.00000E+00
    0.96340E-08         0.10471E-10         0.00000E+00
    0.96379E-08         0.11031E-10         0.00000E+00
    0.96475E-08         0.10810E-10         0.00000E+00
    0.96629E-08         0.10103E-10         0.00000E+00
    0.96840E-08         0.91239E-11         0.00000E+00
    0.97108E-08         0.80165E-11         0.00000E+00
    0.97432E-08         0.68769E-11         0.00000E+00
    0.97811E-08         0.57656E-11         0.00000E+00
    0.98245E-08         0.47179E-11         0.00000E+00
    0.98732E-08         0.37522E-11         0.00000E+00
    0.99273E-08         0.28756E-11         0.00000E+00
    0.99865E-08         0.20877E-11         0.00000E+00
    0.10051E-07         0.13839E-11         0.00000E+00
    0.10120E-07         0.75695E-12         0.00000E+00
    0.10194E-07         0.19857E-12         0.00000E+00
    0.10273E-07        -0.29979E-12         0.00000E+00
    0.10357E-07        -0.74635E-12         0.00000E+00
    0.10446E-07        -0.11487E-11         0.00000E+00
    0.10539E-07        -0.15137E-11         0.00000E+00
    0.10637E-07        -0.18473E-11         0.00000E+00
    0.10739E-07        -0.21546E-11         0.00000E+00
    0.10845E-07        -0.24402E-11         0.00000E+00
    0.10955E-07        -0.27076E-11         0.00000E+00
    0.11070E-07        -0.29600E-11         0.00000E+00
    0.11189E-07        -0.32000E-11         0.00000E+00
    0.11311E-07        -0.34295E-11         0.00000E+00
    0.11438E-07        -0.36504E-11         0.00000E+00
    0.11568E-07        -0.38639E-11         0.00000E+00
    0.11702E-07        -0.40713E-11         0.00000E+00
    0.11839E-07        -0.42733E-11         0.00000E+00
    0.11980E-07        -0.44706E-11         0.00000E+00
    0.12124E-07        -0.46638E-11         0.00000E+00
    0.12272E-07        -0.48532E-11         0.00000E+00
    0.12422E-07        -0.50391E-11         0.00000E+00
    0.12576E-07        -0.52217E-11         0.00000E+00
    0.12732E-07        -0.54010E-11         0.00000E+00
    0.12891E-07        -0.55770E-11         0.00000E+00
    0.13053E-07        -0.57497E-11         0.00000E+00
    0.13217E-07        -0.59190E-11         0.00000E+00
    0.13383E-07        -0.60848E-11         0.00000E+00
    0.13551E-07        -0.62468E-11         0.00000E+00
    0.13722E-07        -0.64047E-11         0.00000E+00
    0.13894E-07        -0.65584E-11         0.00000E+00
    0.14068E-07        -0.67074E-11         0.00000E+00
    0.14244E-07        -0.68514E-11         0.00000E+00
    0.14421E-07        -0.69901E-11         0.00000E+00
    0.14600E-07        -0.71230E-11         0.00000E+00
    0.14779E-07        -0.72496E-11         0.00000E+00
    0.14959E-07        -0.73695E-11         0.00000E+00
    0.15140E-07        -0.74822E-11         0.00000E+00
    0.15322E-07        -0.75872E-11         0.00000E+00
    0.15504E-07        -0.76838E-11         0.00000E+00
    0.15686E-07        -0.77716E-11         0.00000E+00
    0.15868E-07        -0.78499E-11         0.00000E+00
    0.16049E-07        -0.79181E-11         0.00000E+00
    0.16231E-07        -0.79755E-11         0.00000E+00
    0.16412E-07        -0.80215E-11         0.00000E+00
    0.16592E-07        -0.80554E-11         0.00000E+00
    0.16770E-07        -0.80764E-11         0.00000E+00
    0.16948E-07        -0.80837E-11         0.00000E+00
    0.17125E-07        -0.80767E-11         0.00000E+00
    0.17299E-07        -0.80543E-11         0.00000E+00
    0.17472E-07        -0.80158E-11         0.00000E+00
    0.17643E-07        -0.79602E-11         0.00000E+00
    0.17811E-07        -0.78863E-11         0.00000E+00
    0.17977E-07        -0.77931E-11         0.00000E+00
    0.18141E-07        -0.76794E-11         0.00000E+00
    0.18301E-07        -0.75436E-11         0.00000E+00
    0.18458E-07        -0.73841E-11         0.00000E+00
    0.18612E-07        -0.71992E-11         0.00000E+00
    0.18763E-07        -0.69866E-11         0.00000E+00
    0.18909E-07        -0.67439E-11         0.00000E+00
    0.19052E-07        -0.64680E-11         0.00000E+00
    0.19191E-07        -0.61556E-11         0.00000E+00
    0.19325E-07        -0.58025E-11         0.00000E+00
    0.19454E-07        -0.54038E-11         0.00000E+00
    0.19579E-07        -0.49539E-11         0.00000E+00
    0.19698E-07        -0.44462E-11         0.00000E+00
    0.19813E-07        -0.38732E-11         0.00000E+00
    0.19922E-07        -0.32263E-11         0.00000E+00
    0.20025E-07        -0.24960E-11         0.00000E+00
    0.20123E-07        -0.16722E-11         0.00000E+00
    0.20214E-07        -0.74434E-12         0.00000E+00
    0.20299E-07         0.29752E-12         0.00000E+00
    0.20378E-07         0.14618E-11         0.00000E+00
    0.20450E-07         0.27537E-11         0.00000E+00
    0.20516E-07         0.41721E-11         0.00000E+00
    0.20574E-07         0.57066E-11         0.00000E+00
    0.20626E-07         0.73316E-11         0.00000E+00
    0.20670E-07         0.89989E-11         0.00000E+00
    0.20707E-07         0.10628E-10         0.00000E+00
    0.20736E-07         0.12092E-10         0.00000E+00
    0.20758E-07         0.13199E-10         0.00000E+00
    0.20772E-07         0.13671E-10         0.00000E+00
    0.20779E-07         0.13120E-10         0.00000E+00
    0.20778E-07         0.11043E-10         0.00000E+00
    0.20769E-07         0.68548E-11         0.00000E+00
    0.20763E-07         0.00000E+00         0.00000E+00
    0.96490E-08         0.00000E+00         0.00000E+00
    0.96439E-08         0.54086E-11         0.00000E+00
    0.96363E-08         0.87226E-11         0.00000E+00
    0.96343E-08         0.10403E-10         0.00000E+00
    0.96379E-08         0.10920E-10         0.00000E+00
    0.96474E-08         0.10669E-10         0.00000E+00
    0.96627E-08         0.99472E-11         0.00000E+00
    0.96838E-08         0.89629E-11         0.00000E+00
    0.97105E-08         0.78589E-11         0.00000E+00
    0.97429E-08         0.67281E-11         0.00000E+00
    0.97809E-08         0.56289E-11         0.00000E+00
    0.98243E-08         0.45953E-11         0.00000E+00
    0.98731E-08         0.36446E-11         0.00000E+00
    0.99271E-08         0.27831E-11         0.00000E+00
    0.99863E-08         0.20100E-11         0.00000E+00
    0.10051E-07         0.13204E-11         0.00000E+00
    0.10120E-07         0.70685E-12         0.00000E+00
    0.10194E-07         0.16099E-12         0.00000E+00
    0.10273E-07        -0.32573E-12         0.00000E+00
    0.10357E-07        -0.76152E-12         0.00000E+00
    0.10446E-07        -0.11539E-11         0.00000E+00
    0.10539E-07        -0.15097E-11         0.00000E+00
    0.10636E-07        -0.18349E-11         0.00000E+00
    0.10738E-07        -0.21344E-11         0.00000E+00
    0.10845E-07        -0.24127E-11         0.00000E+00
    0.10955E-07        -0.26734E-11         0.00000E+00
    0.11070E-07        -0.29196E-11         0.00000E+00
    0.11189E-07        -0.31536E-11         0.00000E+00
    0.11311E-07        -0.33776E-11         0.00000E+00
    0.11438E-07        -0.35933E-11         0.00000E+00
    0.11568E-07        -0.38019E-11         0.00000E+00
    0.11702E-07        -0.40046E-11         0.00000E+00
    0.11839E-07        -0.42022E-11         0.00000E+00
    0.11980E-07        -0.43952E-11         0.00000E+00
    0.12124E-07        -0.45843E-11         0.00000E+00
    0.12272E-07        -0.47698E-11         0.00000E+00
    0.12422E-07        -0.49519E-11         0.00000E+00
    0.12576E-07        -0.51308E-11         0.00000E+00
    0.12732E-07        -0.53066E-11         0.00000E+00
    0.12891E-07        -0.54792E-11         0.00000E+00
    0.13052E-07        -0.56487E-11         0.00000E+00
    0.13217E-07        -0.58149E-11         0.00000E+00
    0.13383E-07        -0.59776E-11         0.00000E+00
    0.13551E-07        -0.61366E-11         0.00000E+00
    0.13722E-07        -0.62918E-11         0.00000E+00
    0.13894E-07        -0.64427E-11         0.00000E+00
    0.14068E-07        -0.65892E-11         0.00000E+00
    0.14244E-07        -0.67308E-11         0.00000E+00
    0.14421E-07        -0.68671E-11         0.00000E+00
    0.14600E-07        -0.69978E-11         0.00000E+00
    0.14779E-07        -0.71224E-11         0.00000E+00
    0.14959E-07        -0.72405E-11         0.00000E+00
    0.15140E-07        -0.73515E-11         0.00000E+00
    0.15322E-07        -0.74549E-11         0.00000E+00
    0.15504E-07        -0.75502E-11         0.00000E+00
    0.15686E-07        -0.76368E-11         0.00000E+00
    0.15868E-07        -0.77142E-11         0.00000E+00
    0.16049E-07        -0.77816E-11         0.00000E+00
    0.16231E-07        -0.78385E-11         0.00000E+00
    0.16412E-07        -0.78843E-11         0.00000E+00
    0.16592E-07        -0.79182E-11         0.00000E+00
    0.16770E-07        -0.79395E-11         0.00000E+00
    0.16948E-07        -0.79474E-11         0.00000E+00
    0.17125E-07        -0.79413E-11         0.00000E+00
    0.17299E-07        -0.79202E-11         0.00000E+00
    0.17472E-07        -0.78833E-11         0.00000E+00
    0.17643E-07        -0.78297E-11         0.00000E+00
    0.17811E-07        -0.77582E-11         0.00000E+00
    0.17977E-07        -0.76679E-11         0.00000E+00
    0.18141E-07        -0.75575E-11         0.00000E+00
    0.18301E-07        -0.74256E-11         0.00000E+00
    0.18458E-07        -0.72706E-11         0.00000E+00
    0.18612E-07        -0.70907E-11         0.00000E+00
    0.18763E-07        -0.68839E-11         0.00000E+00
    0.18909E-07        -0.66476E-11         0.00000E+00
    0.19052E-07        -0.63789E-11         0.00000E+00
    0.19191E-07        -0.60746E-11         0.00000E+00
    0.19325E-07        -0.57304E-11         0.00000E+00
    0.19454E-07        -0.53417E-11         0.00000E+00
    0.19579E-07        -0.49029E-11         0.00000E+00
    0.19698E-07        -0.44074E-11         0.00000E+00
    0.19813E-07        -0.38479E-11         0.00000E+00
    0.19922E-07        -0.32158E-11         0.00000E+00
    0.20025E-07        -0.25016E-11         0.00000E+00
    0.20123E-07        -0.16953E-11         0.00000E+00
    0.20214E-07        -0.78627E-12         0.00000E+00
    0.20299E-07         0.23559E-12         0.00000E+00
    0.20378E-07         0.13790E-11         0.00000E+00
    0.20451E-07         0.26493E-11         0.00000E+00
    0.20516E-07         0.40464E-11         0.00000E+00
    0.20575E-07         0.55606E-11         0.00000E+00
    0.20626E-07         0.71677E-11         0.00000E+00
    0.20671E-07         0.88216E-11         0.00000E+00
    0.20707E-07         0.10444E-10         0.00000E+00
    0.20737E-07         0.11912E-10         0.00000E+00
    0.20758E-07         0.13038E-10         0.00000E+00
    0.20772E-07         0.13546E-10         0.00000E+00
    0.20778E-07         0.13048E-10         0.00000E+00
    0.20777E-07         0.11029E-10         0.00000E+00
    0.20768E-07         0.68776E-11         0.00000E+00
    0.20762E-07         0.00000E+00         0.00000E+00
    0.96501E-08         0.00000E+00         0.00000E+00
    0.96448E-08         0.54090E-11         0.00000E+00
    0.96368E-08         0.86788E-11         0.00000E+00
    0.96345E-08         0.10303E-10         0.00000E+00
    0.96379E-08         0.10773E-10         0.00000E+00
    0.96473E-08         0.10492E-10         0.00000E+00
    0.96625E-08         0.97559E-11         0.00000E+00
    0.96836E-08         0.87701E-11         0.00000E+00
    0.97103E-08         0.76733E-11         0.00000E+00
    0.97427E-08         0.65554E-11         0.00000E+00
    0.97807E-08         0.54724E-11         0.00000E+00
    0.98241E-08         0.44567E-11         0.00000E+00
    0.98729E-08         0.35245E-11         0.00000E+00
    0.99269E-08         0.26812E-11         0.00000E+00
    0.99862E-08         0.19258E-11         0.00000E+00
    0.10051E-07         0.12528E-11         0.00000E+00
    0.10120E-07         0.65485E-12         0.00000E+00
    0.10194E-07         0.12343E-12         0.00000E+00
    0.10273E-07        -0.34996E-12         0.00000E+00
    0.10357E-07        -0.77349E-12         0.00000E+00
    0.10446E-07        -0.11546E-11         0.00000E+00
    0.10539E-07        -0.15001E-11         0.00000E+00
    0.10636E-07        -0.18157E-11         0.00000E+00
    0.10738E-07        -0.21064E-11         0.00000E+00
    0.10845E-07        -0.23766E-11         0.00000E+00
    0.10955E-07        -0.26297E-11         0.00000E+00
    0.11070E-07        -0.28687E-11         0.00000E+00
    0.11189E-07        -0.30962E-11         0.00000E+00
    0.11311E-07        -0.33139E-11         0.00000E+00
    0.11438E-07        -0.35237E-11         0.00000E+00
    0.11568E-07        -0.37267E-11         0.00000E+00
    0.11702E-07        -0.39240E-11         0.00000E+00
    0.11839E-07        -0.41165E-11         0.00000E+00
    0.11980E-07        -0.43046E-11         0.00000E+00
    0.12124E-07        -0.44890E-11         0.00000E+00
    0.12272E-07        -0.46699E-11         0.00000E+00
    0.12422E-07        -0.48477E-11         0.00000E+00
    0.12576E-07        -0.50223E-11         0.00000E+00
    0.12732E-07        -0.51940E-11         0.00000E+00
    0.12891E-07        -0.53627E-11         0.00000E+00
    0.13052E-07        -0.55283E-11         0.00000E+00
    0.13216E-07        -0.56908E-11         0.00000E+00
    0.13383E-07        -0.58499E-11         0.00000E+00
    0.13551E-07        -0.60055E-11         0.00000E+00
    0.13722E-07        -0.61573E-11         0.00000E+00
    0.13894E-07        -0.63050E-11         0.00000E+00
    0.14068E-07        -0.64484E-11         0.00000E+00
    0.14244E-07        -0.65871E-11         0.00000E+00
    0.14421E-07        -0.67207E-11         0.00000E+00
    0.14599E-07        -0.68487E-11         0.00000E+00
    0.14779E-07        -0.69709E-11         0.00000E+00
    0.14959E-07        -0.70867E-11         0.00000E+00
    0.15140E-07        -0.71956E-11         0.00000E+00
    0.15322E-07        -0.72971E-11         0.00000E+00
    0.15504E-07        -0.73907E-11         0.00000E+00
    0.15686E-07        -0.74758E-11         0.00000E+00
    0.15868E-07        -0.75519E-11         0.00000E+00
    0.16049E-07        -0.76184E-11         0.00000E+00
    0.16231E-07        -0.76747E-11         0.00000E+00
    0.16412E-07        -0.77200E-11         0.00000E+00
    0.16592E-07        -0.77537E-11         0.00000E+00
    0.16770E-07        -0.77752E-11         0.00000E+00
    0.16948E-07        -0.77838E-11         0.00000E+00
    0.17125E-07        -0.77785E-11         0.00000E+00
    0.17299E-07        -0.77587E-11         0.00000E+00
    0.17472E-07        -0.77235E-11         0.00000E+00
    0.17643E-07        -0.76721E-11         0.00000E+00
    0.17811E-07        -0.76033E-11         0.00000E+00
    0.17977E-07        -0.75161E-11         0.00000E+00
    0.18141E-07        -0.74094E-11         0.00000E+00
    0.18301E-07        -0.72818E-11         0.00000E+00
    0.18458E-07        -0.71317E-11         0.00000E+00
    0.18612E-07        -0.69574E-11         0.00000E+00
    0.18763E-07        -0.67570E-11         0.00000E+00
    0.18910E-07        -0.65278E-11         0.00000E+00
    0.19052E-07        -0.62673E-11         0.00000E+00
    0.19191E-07        -0.59720E-11         0.00000E+00
    0.19325E-07        -0.56379E-11         0.00000E+00
    0.19454E-07        -0.52605E-11         0.00000E+00
    0.19579E-07        -0.48342E-11         0.00000E+00
    0.19699E-07        -0.43527E-11         0.00000E+00
    0.19813E-07        -0.38085E-11         0.00000E+00
    0.19922E-07        -0.31934E-11         0.00000E+00
    0.20025E-07        -0.24978E-11         0.00000E+00
    0.20123E-07        -0.17118E-11         0.00000E+00
    0.20214E-07        -0.82487E-12         0.00000E+00
    0.20300E-07         0.17331E-12         0.00000E+00
    0.20379E-07         0.12916E-11         0.00000E+00
    0.20451E-07         0.25358E-11         0.00000E+00
    0.20516E-07         0.39064E-11         0.00000E+00
    0.20575E-07         0.53947E-11         0.00000E+00
    0.20627E-07         0.69780E-11         0.00000E+00
    0.20671E-07         0.86125E-11         0.00000E+00
    0.20708E-07         0.10223E-10         0.00000E+00
    0.20737E-07         0.11691E-10         0.00000E+00
    0.20758E-07         0.12832E-10         0.00000E+00
    0.20772E-07         0.13376E-10         0.00000E+00
    0.20778E-07         0.12937E-10         0.00000E+00
    0.20776E-07         0.10987E-10         0.00000E+00
    0.20767E-07         0.68871E-11         0.00000E+00
    0.20761E-07         0.00000E+00         0.00000E+00
    0.96512E-08         0.00000E+00         0.00000E+00
    0.96457E-08         0.53977E-11         0.00000E+00
    0.96373E-08         0.86107E-11         0.00000E+00
    0.96347E-08         0.10169E-10         0.00000E+00
    0.96380E-08         0.10588E-10         0.00000E+00
    0.96472E-08         0.10277E-10         0.00000E+00
    0.96623E-08         0.95292E-11         0.00000E+00
    0.96833E-08         0.85453E-11         0.00000E+00
    0.97101E-08         0.74598E-11         0.00000E+00
    0.97425E-08         0.63590E-11         0.00000E+00
    0.97805E-08         0.52964E-11         0.00000E+00
    0.98239E-08         0.43025E-11         0.00000E+00
    0.98727E-08         0.33923E-11         0.00000E+00
    0.99268E-08         0.25705E-11         0.00000E+00
    0.99860E-08         0.18355E-11         0.00000E+00
    0.10050E-07         0.11816E-11         0.00000E+00
    0.10120E-07         0.60139E-12         0.00000E+00
    0.10194E-07         0.86315E-13         0.00000E+00
    0.10273E-07        -0.37209E-12         0.00000E+00
    0.10357E-07        -0.78190E-12         0.00000E+00
    0.10446E-07        -0.11505E-11         0.00000E+00
    0.10539E-07        -0.14844E-11         0.00000E+00
    0.10636E-07        -0.17894E-11         0.00000E+00
    0.10738E-07        -0.20704E-11         0.00000E+00
    0.10845E-07        -0.23315E-11         0.00000E+00
    0.10955E-07        -0.25762E-11         0.00000E+00
    0.11070E-07        -0.28074E-11         0.00000E+00
    0.11189E-07        -0.30274E-11         0.00000E+00
    0.11311E-07        -0.32383E-11         0.00000E+00
    0.11438E-07        -0.34414E-11         0.00000E+00
    0.11568E-07        -0.36382E-11         0.00000E+00
    0.11702E-07        -0.38295E-11         0.00000E+00
    0.11839E-07        -0.40162E-11         0.00000E+00
    0.11980E-07        -0.41988E-11         0.00000E+00
    0.12124E-07        -0.43779E-11         0.00000E+00
    0.12272E-07        -0.45536E-11         0.00000E+00
    0.12422E-07        -0.47264E-11         0.00000E+00
    0.12576E-07        -0.48962E-11         0.00000E+00
    0.12732E-07        -0.50632E-11         0.00000E+00
    0.12891E-07        -0.52273E-11         0.00000E+00
    0.13052E-07        -0.53885E-11         0.00000E+00
    0.13216E-07        -0.55467E-11         0.00000E+00
    0.13383E-07        -0.57017E-11         0.00000E+00
    0.13551E-07        -0.58533E-11         0.00000E+00
    0.13722E-07        -0.60012E-11         0.00000E+00
    0.13894E-07        -0.61452E-11         0.00000E+00
    0.14068E-07        -0.62850E-11         0.00000E+00
    0.14244E-07        -0.64203E-11         0.00000E+00
    0.14421E-07        -0.65506E-11         0.00000E+00
    0.14599E-07        -0.66756E-11         0.00000E+00
    0.14779E-07        -0.67949E-11         0.00000E+00
    0.14959E-07        -0.69080E-11         0.00000E+00
    0.15140E-07        -0.70144E-11         0.00000E+00
    0.15322E-07        -0.71136E-11         0.00000E+00
    0.15504E-07        -0.72052E-11         0.00000E+00
    0.15686E-07        -0.72886E-11         0.00000E+00
    0.15868E-07        -0.73632E-11         0.00000E+00
    0.16049E-07        -0.74284E-11         0.00000E+00
    0.16231E-07        -0.74837E-11         0.00000E+00
    0.16412E-07        -0.75284E-11         0.00000E+00
    0.16592E-07        -0.75619E-11         0.00000E+00
    0.16770E-07        -0.75835E-11         0.00000E+00
    0.16948E-07        -0.75925E-11         0.00000E+00
    0.17125E-07        -0.75882E-11         0.00000E+00
    0.17299E-07        -0.75697E-11         0.00000E+00
    0.17472E-07        -0.75364E-11         0.00000E+00
    0.17643E-07        -0.74872E-11         0.00000E+00
    0.17811E-07        -0.74212E-11         0.00000E+00
    0.17977E-07        -0.73375E-11         0.00000E+00
    0.18141E-07        -0.72348E-11         0.00000E+00
    0.18301E-07        -0.71118E-11         0.00000E+00
    0.18459E-07        -0.69672E-11         0.00000E+00
    0.18613E-07        -0.67991E-11         0.00000E+00
    0.18763E-07        -0.66056E-11         0.00000E+00
    0.18910E-07        -0.63844E-11         0.00000E+00
    0.19052E-07        -0.61328E-11         0.00000E+00
    0.19191E-07        -0.58474E-11         0.00000E+00
    0.19325E-07        -0.55246E-11         0.00000E+00
    0.19454E-07        -0.51597E-11         0.00000E+00
    0.19579E-07        -0.47474E-11         0.00000E+00
    0.19699E-07        -0.42814E-11         0.00000E+00
    0.19813E-07        -0.37545E-11         0.00000E+00
    0.19922E-07        -0.31585E-11         0.00000E+00
    0.20025E-07        -0.24840E-11         0.00000E+00
    0.20123E-07        -0.17212E-11         0.00000E+00
    0.20215E-07        -0.85947E-12         0.00000E+00
    0.20300E-07         0.11137E-12         0.00000E+00
    0.20379E-07         0.12004E-11         0.00000E+00
    0.20451E-07         0.24138E-11         0.00000E+00
    0.20517E-07         0.37527E-11         0.00000E+00
    0.20575E-07         0.52094E-11         0.00000E+00
    0.20627E-07         0.67630E-11         0.00000E+00
    0.20671E-07         0.83718E-11         0.00000E+00
    0.20708E-07         0.99644E-11         0.00000E+00
    0.20737E-07         0.11426E-10         0.00000E+00
    0.20759E-07         0.12579E-10         0.00000E+00
    0.20772E-07         0.13160E-10         0.00000E+00
    0.20778E-07         0.12784E-10         0.00000E+00
    0.20776E-07         0.10914E-10         0.00000E+00
    0.20766E-07         0.68820E-11         0.00000E+00
    0.20759E-07         0.00000E+00         0.00000E+00
    0.96523E-08         0.00000E+00         0.00000E+00
    0.96465E-08         0.53736E-11         0.00000E+00
    0.96378E-08         0.85163E-11         0.00000E+00
    0.96349E-08         0.10001E-10         0.00000E+00
    0.96380E-08         0.10365E-10         0.00000E+00
    0.96471E-08         0.10024E-10         0.00000E+00
    0.96622E-08         0.92664E-11         0.00000E+00
    0.96831E-08         0.82885E-11         0.00000E+00
    0.97099E-08         0.72186E-11         0.00000E+00
    0.97423E-08         0.61395E-11         0.00000E+00
    0.97803E-08         0.51015E-11         0.00000E+00
    0.98237E-08         0.41333E-11         0.00000E+00
    0.98725E-08         0.32486E-11         0.00000E+00
    0.99266E-08         0.24514E-11         0.00000E+00
    0.99859E-08         0.17396E-11         0.00000E+00
    0.10050E-07         0.11073E-11         0.00000E+00
    0.10120E-07         0.54695E-12         0.00000E+00
    0.10194E-07         0.50058E-13         0.00000E+00
    0.10273E-07        -0.39175E-12         0.00000E+00
    0.10357E-07        -0.78641E-12         0.00000E+00
    0.10446E-07        -0.11412E-11         0.00000E+00
    0.10539E-07        -0.14625E-11         0.00000E+00
    0.10636E-07        -0.17558E-11         0.00000E+00
    0.10738E-07        -0.20261E-11         0.00000E+00
    0.10845E-07        -0.22773E-11         0.00000E+00
    0.10955E-07        -0.25128E-11         0.00000E+00
    0.11070E-07        -0.27354E-11         0.00000E+00
    0.11189E-07        -0.29473E-11         0.00000E+00
    0.11311E-07        -0.31505E-11         0.00000E+00
    0.11438E-07        -0.33464E-11         0.00000E+00
    0.11568E-07        -0.35362E-11         0.00000E+00
    0.11702E-07        -0.37209E-11         0.00000E+00
    0.11839E-07        -0.39012E-11         0.00000E+00
    0.11980E-07        -0.40777E-11         0.00000E+00
    0.12124E-07        -0.42508E-11         0.00000E+00
    0.12272E-07        -0.44208E-11         0.00000E+00
    0.12422E-07        -0.45879E-11         0.00000E+00
    0.12576E-07        -0.47524E-11         0.00000E+00
    0.12732E-07        -0.49141E-11         0.00000E+00
    0.12891E-07        -0.50731E-11         0.00000E+00
    0.13052E-07        -0.52293E-11         0.00000E+00
    0.13216E-07        -0.53826E-11         0.00000E+00
    0.13383E-07        -0.55329E-11         0.00000E+00
    0.13551E-07        -0.56799E-11         0.00000E+00
    0.13722E-07        -0.58235E-11         0.00000E+00
    0.13894E-07        -0.59633E-11         0.00000E+00
    0.14068E-07        -0.60990E-11         0.00000E+00
    0.14244E-07        -0.62304E-11         0.00000E+00
    0.14421E-07        -0.63569E-11         0.00000E+00
    0.14599E-07        -0.64784E-11         0.00000E+00
    0.14779E-07        -0.65943E-11         0.00000E+00
    0.14959E-07        -0.67043E-11         0.00000E+00
    0.15140E-07        -0.68078E-11         0.00000E+00
    0.15322E-07        -0.69044E-11         0.00000E+00
    0.15503E-07        -0.69936E-11         0.00000E+00
    0.15686E-07        -0.70749E-11         0.00000E+00
    0.15868E-07        -0.71477E-11         0.00000E+00
    0.16049E-07        -0.72115E-11         0.00000E+00
    0.16231E-07        -0.72656E-11         0.00000E+00
    0.16412E-07        -0.73096E-11         0.00000E+00
    0.16592E-07        -0.73427E-11         0.00000E+00
    0.16770E-07        -0.73642E-11         0.00000E+00
    0.16948E-07        -0.73737E-11         0.00000E+00
    0.17125E-07        -0.73702E-11         0.00000E+00
    0.17299E-07        -0.73531E-11         0.00000E+00
    0.17472E-07        -0.73216E-11         0.00000E+00
    0.17643E-07        -0.72749E-11         0.00000E+00
    0.17811E-07        -0.72119E-11         0.00000E+00
    0.17977E-07        -0.71318E-11         0.00000E+00
    0.18141E-07        -0.70335E-11         0.00000E+00
    0.18301E-07        -0.69156E-11         0.00000E+00
    0.18459E-07        -0.67767E-11         0.00000E+00
    0.18613E-07        -0.66153E-11         0.00000E+00
    0.18763E-07        -0.64295E-11         0.00000E+00
    0.18910E-07        -0.62169E-11         0.00000E+00
    0.19052E-07        -0.59750E-11         0.00000E+00
    0.19191E-07        -0.57006E-11         0.00000E+00
    0.19325E-07        -0.53901E-11         0.00000E+00
    0.19454E-07        -0.50389E-11         0.00000E+00
    0.19579E-07        -0.46420E-11         0.00000E+00
    0.19699E-07        -0.41931E-11         0.00000E+00
    0.19813E-07        -0.36853E-11         0.00000E+00
    0.19922E-07        -0.31105E-11         0.00000E+00
    0.20026E-07        -0.24595E-11         0.00000E+00
    0.20123E-07        -0.17226E-11         0.00000E+00
    0.20215E-07        -0.88934E-12         0.00000E+00
    0.20300E-07         0.50513E-13         0.00000E+00
    0.20379E-07         0.11061E-11         0.00000E+00
    0.20451E-07         0.22841E-11         0.00000E+00
    0.20517E-07         0.35860E-11         0.00000E+00
    0.20576E-07         0.50054E-11         0.00000E+00
    0.20627E-07         0.65230E-11         0.00000E+00
    0.20671E-07         0.80997E-11         0.00000E+00
    0.20708E-07         0.96679E-11         0.00000E+00
    0.20737E-07         0.11118E-10         0.00000E+00
    0.20759E-07         0.12279E-10         0.00000E+00
    0.20772E-07         0.12895E-10         0.00000E+00
    0.20778E-07         0.12586E-10         0.00000E+00
    0.20775E-07         0.10808E-10         0.00000E+00
    0.20765E-07         0.68606E-11         0.00000E+00
    0.20758E-07         0.00000E+00         0.00000E+00
    0.96534E-08         0.00000E+00         0.00000E+00
    0.96474E-08         0.53353E-11         0.00000E+00
    0.96382E-08         0.83933E-11         0.00000E+00
    0.96351E-08         0.97941E-11         0.00000E+00
    0.96380E-08         0.10101E-10         0.00000E+00
    0.96470E-08         0.97304E-11         0.00000E+00
    0.96620E-08         0.89673E-11         0.00000E+00
    0.96829E-08         0.79995E-11         0.00000E+00
    0.97097E-08         0.69500E-11         0.00000E+00
    0.97421E-08         0.58970E-11         0.00000E+00
    0.97801E-08         0.48881E-11         0.00000E+00
    0.98235E-08         0.39496E-11         0.00000E+00
    0.98724E-08         0.30940E-11         0.00000E+00
    0.99265E-08         0.23246E-11         0.00000E+00
    0.99858E-08         0.16387E-11         0.00000E+00
    0.10050E-07         0.10304E-11         0.00000E+00
    0.10120E-07         0.49200E-12         0.00000E+00
    0.10194E-07         0.15105E-13         0.00000E+00
    0.10273E-07        -0.40852E-12         0.00000E+00
    0.10357E-07        -0.78665E-12         0.00000E+00
    0.10445E-07        -0.11264E-11         0.00000E+00
    0.10539E-07        -0.14339E-11         0.00000E+00
    0.10636E-07        -0.17147E-11         0.00000E+00
    0.10738E-07        -0.19734E-11         0.00000E+00
    0.10845E-07        -0.22139E-11         0.00000E+00
    0.10955E-07        -0.24394E-11         0.00000E+00
    0.11070E-07        -0.26526E-11         0.00000E+00
    0.11188E-07        -0.28557E-11         0.00000E+00
    0.11311E-07        -0.30505E-11         0.00000E+00
    0.11438E-07        -0.32385E-11         0.00000E+00
    0.11568E-07        -0.34207E-11         0.00000E+00
    0.11702E-07        -0.35981E-11         0.00000E+00
    0.11839E-07        -0.37714E-11         0.00000E+00
    0.11980E-07        -0.39411E-11         0.00000E+00
    0.12124E-07        -0.41077E-11         0.00000E+00
    0.12272E-07        -0.42714E-11         0.00000E+00
    0.12422E-07        -0.44323E-11         0.00000E+00
    0.12575E-07        -0.45907E-11         0.00000E+00
    0.12732E-07        -0.47466E-11         0.00000E+00
    0.12891E-07        -0.48999E-11         0.00000E+00
    0.13052E-07        -0.50506E-11         0.00000E+00
    0.13216E-07        -0.51985E-11         0.00000E+00
    0.13383E-07        -0.53435E-11         0.00000E+00
    0.13551E-07        -0.54855E-11         0.00000E+00
    0.13722E-07        -0.56241E-11         0.00000E+00
    0.13894E-07        -0.57591E-11         0.00000E+00
    0.14068E-07        -0.58902E-11         0.00000E+00
    0.14244E-07        -0.60172E-11         0.00000E+00
    0.14421E-07        -0.61396E-11         0.00000E+00
    0.14599E-07        -0.62571E-11         0.00000E+00
    0.14779E-07        -0.63692E-11         0.00000E+00
    0.14959E-07        -0.64756E-11         0.00000E+00
    0.15140E-07        -0.65759E-11         0.00000E+00
    0.15322E-07        -0.66695E-11         0.00000E+00
    0.15503E-07        -0.67559E-11         0.00000E+00
    0.15686E-07        -0.68348E-11         0.00000E+00
    0.15868E-07        -0.69055E-11         0.00000E+00
    0.16049E-07        -0.69675E-11         0.00000E+00
    0.16231E-07        -0.70203E-11         0.00000E+00
    0.16412E-07        -0.70633E-11         0.00000E+00
    0.16592E-07        -0.70958E-11         0.00000E+00
    0.16770E-07        -0.71172E-11         0.00000E+00
    0.16948E-07        -0.71270E-11         0.00000E+00
    0.17125E-07        -0.71244E-11         0.00000E+00
    0.17299E-07        -0.71087E-11         0.00000E+00
    0.17472E-07        -0.70791E-11         0.00000E+00
    0.17643E-07        -0.70349E-11         0.00000E+00
    0.17811E-07        -0.69752E-11         0.00000E+00
    0.17977E-07        -0.68989E-11         0.00000E+00
    0.18141E-07        -0.68052E-11         0.00000E+00
    0.18301E-07        -0.66927E-11         0.00000E+00
    0.18459E-07        -0.65602E-11         0.00000E+00
    0.18613E-07        -0.64060E-11         0.00000E+00
    0.18763E-07        -0.62283E-11         0.00000E+00
    0.18910E-07        -0.60251E-11         0.00000E+00
    0.19052E-07        -0.57937E-11         0.00000E+00
    0.19191E-07        -0.55312E-11         0.00000E+00
    0.19325E-07        -0.52339E-11         0.00000E+00
    0.19455E-07        -0.48977E-11         0.00000E+00
    0.19579E-07        -0.45175E-11         0.00000E+00
    0.19699E-07        -0.40873E-11         0.00000E+00
    0.19813E-07        -0.36004E-11         0.00000E+00
    0.19922E-07        -0.30488E-11         0.00000E+00
    0.20026E-07        -0.24237E-11         0.00000E+00
    0.20123E-07        -0.17154E-11         0.00000E+00
    0.20215E-07        -0.91374E-12         0.00000E+00
    0.20300E-07        -0.84700E-14         0.00000E+00
    0.20379E-07         0.10096E-11         0.00000E+00
    0.20452E-07         0.21474E-11         0.00000E+00
    0.20517E-07         0.34071E-11         0.00000E+00
    0.20576E-07         0.47834E-11         0.00000E+00
    0.20628E-07         0.62586E-11         0.00000E+00
    0.20672E-07         0.77965E-11         0.00000E+00
    0.20709E-07         0.93334E-11         0.00000E+00
    0.20738E-07         0.10765E-10         0.00000E+00
    0.20759E-07         0.11930E-10         0.00000E+00
    0.20772E-07         0.12579E-10         0.00000E+00
    0.20777E-07         0.12340E-10         0.00000E+00
    0.20775E-07         0.10666E-10         0.00000E+00
    0.20764E-07         0.68212E-11         0.00000E+00
    0.20757E-07         0.00000E+00         0.00000E+00
    0.96544E-08         0.00000E+00         0.00000E+00
    0.96482E-08         0.52811E-11         0.00000E+00
    0.96387E-08         0.82390E-11         0.00000E+00
    0.96352E-08         0.95475E-11         0.00000E+00
    0.96379E-08         0.97940E-11         0.00000E+00
    0.96469E-08         0.93965E-11         0.00000E+00
    0.96618E-08         0.86313E-11         0.00000E+00
    0.96827E-08         0.76784E-11         0.00000E+00
    0.97095E-08         0.66542E-11         0.00000E+00
    0.97419E-08         0.56322E-11         0.00000E+00
    0.97799E-08         0.46567E-11         0.00000E+00
    0.98234E-08         0.37520E-11         0.00000E+00
    0.98722E-08         0.29292E-11         0.00000E+00
    0.99263E-08         0.21907E-11         0.00000E+00
    0.99856E-08         0.15335E-11         0.00000E+00
    0.10050E-07         0.95149E-12         0.00000E+00
    0.10119E-07         0.43705E-12         0.00000E+00
    0.10194E-07        -0.18081E-13         0.00000E+00
    0.10273E-07        -0.42199E-12         0.00000E+00
    0.10357E-07        -0.78225E-12         0.00000E+00
    0.10445E-07        -0.11057E-11         0.00000E+00
    0.10539E-07        -0.13985E-11         0.00000E+00
    0.10636E-07        -0.16657E-11         0.00000E+00
    0.10738E-07        -0.19119E-11         0.00000E+00
    0.10845E-07        -0.21409E-11         0.00000E+00
    0.10955E-07        -0.23556E-11         0.00000E+00
    0.11070E-07        -0.25587E-11         0.00000E+00
    0.11188E-07        -0.27524E-11         0.00000E+00
    0.11311E-07        -0.29382E-11         0.00000E+00
    0.11438E-07        -0.31176E-11         0.00000E+00
    0.11568E-07        -0.32916E-11         0.00000E+00
    0.11702E-07        -0.34611E-11         0.00000E+00
    0.11839E-07        -0.36268E-11         0.00000E+00
    0.11980E-07        -0.37892E-11         0.00000E+00
    0.12124E-07        -0.39485E-11         0.00000E+00
    0.12272E-07        -0.41053E-11         0.00000E+00
    0.12422E-07        -0.42595E-11         0.00000E+00
    0.12575E-07        -0.44113E-11         0.00000E+00
    0.12732E-07        -0.45607E-11         0.00000E+00
    0.12891E-07        -0.47077E-11         0.00000E+00
    0.13052E-07        -0.48523E-11         0.00000E+00
    0.13216E-07        -0.49943E-11         0.00000E+00
    0.13383E-07        -0.51335E-11         0.00000E+00
    0.13551E-07        -0.52698E-11         0.00000E+00
    0.13722E-07        -0.54029E-11         0.00000E+00
    0.13894E-07        -0.55327E-11         0.00000E+00
    0.14068E-07        -0.56587E-11         0.00000E+00
    0.14244E-07        -0.57808E-11         0.00000E+00
    0.14421E-07        -0.58985E-11         0.00000E+00
    0.14599E-07        -0.60115E-11         0.00000E+00
    0.14779E-07        -0.61194E-11         0.00000E+00
    0.14959E-07        -0.62219E-11         0.00000E+00
    0.15140E-07        -0.63184E-11         0.00000E+00
    0.15322E-07        -0.64086E-11         0.00000E+00
    0.15503E-07        -0.64920E-11         0.00000E+00
    0.15686E-07        -0.65681E-11         0.00000E+00
    0.15868E-07        -0.66364E-11         0.00000E+00
    0.16049E-07        -0.66964E-11         0.00000E+00
    0.16231E-07        -0.67476E-11         0.00000E+00
    0.16412E-07        -0.67894E-11         0.00000E+00
    0.16592E-07        -0.68211E-11         0.00000E+00
    0.16770E-07        -0.68424E-11         0.00000E+00
    0.16948E-07        -0.68524E-11         0.00000E+00
    0.17125E-07        -0.68506E-11         0.00000E+00
    0.17299E-07        -0.68363E-11         0.00000E+00
    0.17472E-07        -0.68087E-11         0.00000E+00
    0.17643E-07        -0.67671E-11         0.00000E+00
    0.17811E-07        -0.67108E-11         0.00000E+00
    0.17977E-07        -0.66386E-11         0.00000E+00
    0.18141E-07        -0.65498E-11         0.00000E+00
    0.18301E-07        -0.64431E-11         0.00000E+00
    0.18459E-07        -0.63172E-11         0.00000E+00
    0.18613E-07        -0.61707E-11         0.00000E+00
    0.18763E-07        -0.60018E-11         0.00000E+00
    0.18910E-07        -0.58086E-11         0.00000E+00
    0.19052E-07        -0.55885E-11         0.00000E+00
    0.19191E-07        -0.53387E-11         0.00000E+00
    0.19325E-07        -0.50557E-11         0.00000E+00
    0.19455E-07        -0.47356E-11         0.00000E+00
    0.19579E-07        -0.43734E-11         0.00000E+00
    0.19699E-07        -0.39634E-11         0.00000E+00
    0.19813E-07        -0.34991E-11         0.00000E+00
    0.19922E-07        -0.29728E-11         0.00000E+00
    0.20026E-07        -0.23758E-11         0.00000E+00
    0.20124E-07        -0.16989E-11         0.00000E+00
    0.20215E-07        -0.93188E-12         0.00000E+00
    0.20300E-07        -0.64753E-13         0.00000E+00
    0.20379E-07         0.91174E-12         0.00000E+00
    0.20452E-07         0.20047E-11         0.00000E+00
    0.20518E-07         0.32169E-11         0.00000E+00
    0.20576E-07         0.45441E-11         0.00000E+00
    0.20628E-07         0.59704E-11         0.00000E+00
    0.20672E-07         0.74625E-11         0.00000E+00
    0.20709E-07         0.89610E-11         0.00000E+00
    0.20738E-07         0.10368E-10         0.00000E+00
    0.20759E-07         0.11530E-10         0.00000E+00
    0.20772E-07         0.12209E-10         0.00000E+00
    0.20777E-07         0.12043E-10         0.00000E+00
    0.20774E-07         0.10483E-10         0.00000E+00
    0.20763E-07         0.67616E-11         0.00000E+00
    0.20755E-07         0.00000E+00         0.00000E+00
    0.96555E-08         0.00000E+00         0.00000E+00
    0.96490E-08         0.52090E-11         0.00000E+00
    0.96391E-08         0.80502E-11         0.00000E+00
    0.96354E-08         0.92578E-11         0.00000E+00
    0.96379E-08         0.94428E-11         0.00000E+00
    0.96467E-08         0.90208E-11         0.00000E+00
    0.96617E-08         0.82580E-11         0.00000E+00
    0.96825E-08         0.73251E-11         0.00000E+00
    0.97093E-08         0.63315E-11         0.00000E+00
    0.97417E-08         0.53455E-11         0.00000E+00
    0.97797E-08         0.44080E-11         0.00000E+00
    0.98232E-08         0.35412E-11         0.00000E+00
    0.98720E-08         0.27547E-11         0.00000E+00
    0.99262E-08         0.20502E-11         0.00000E+00
    0.99855E-08         0.14244E-11         0.00000E+00
    0.10050E-07         0.87108E-12         0.00000E+00
    0.10119E-07         0.38262E-12         0.00000E+00
    0.10194E-07        -0.49022E-13         0.00000E+00
    0.10273E-07        -0.43172E-12         0.00000E+00
    0.10357E-07        -0.77281E-12         0.00000E+00
    0.10445E-07        -0.10789E-11         0.00000E+00
    0.10539E-07        -0.13559E-11         0.00000E+00
    0.10636E-07        -0.16086E-11         0.00000E+00
    0.10738E-07        -0.18415E-11         0.00000E+00
    0.10844E-07        -0.20581E-11         0.00000E+00
    0.10955E-07        -0.22614E-11         0.00000E+00
    0.11070E-07        -0.24538E-11         0.00000E+00
    0.11188E-07        -0.26372E-11         0.00000E+00
    0.11311E-07        -0.28134E-11         0.00000E+00
    0.11438E-07        -0.29836E-11         0.00000E+00
    0.11568E-07        -0.31488E-11         0.00000E+00
    0.11702E-07        -0.33098E-11         0.00000E+00
    0.11839E-07        -0.34672E-11         0.00000E+00
    0.11980E-07        -0.36216E-11         0.00000E+00
    0.12124E-07        -0.37733E-11         0.00000E+00
    0.12272E-07        -0.39224E-11         0.00000E+00
    0.12422E-07        -0.40693E-11         0.00000E+00
    0.12575E-07        -0.42139E-11         0.00000E+00
    0.12732E-07        -0.43563E-11         0.00000E+00
    0.12891E-07        -0.44965E-11         0.00000E+00
    0.13052E-07        -0.46344E-11         0.00000E+00
    0.13216E-07        -0.47698E-11         0.00000E+00
    0.13383E-07        -0.49027E-11         0.00000E+00
    0.13551E-07        -0.50328E-11         0.00000E+00
    0.13722E-07        -0.51600E-11         0.00000E+00
    0.13894E-07        -0.52839E-11         0.00000E+00
    0.14068E-07        -0.54044E-11         0.00000E+00
    0.14244E-07        -0.55210E-11         0.00000E+00
    0.14421E-07        -0.56335E-11         0.00000E+00
    0.14599E-07        -0.57416E-11         0.00000E+00
    0.14779E-07        -0.58449E-11         0.00000E+00
    0.14959E-07        -0.59430E-11         0.00000E+00
    0.15140E-07        -0.60354E-11         0.00000E+00
    0.15322E-07        -0.61218E-11         0.00000E+00
    0.15503E-07        -0.62018E-11         0.00000E+00
    0.15685E-07        -0.62748E-11         0.00000E+00
    0.15868E-07        -0.63404E-11         0.00000E+00
    0.16049E-07        -0.63981E-11         0.00000E+00
    0.16231E-07        -0.64474E-11         0.00000E+00
    0.16412E-07        -0.64878E-11         0.00000E+00
    0.16592E-07        -0.65187E-11         0.00000E+00
    0.16770E-07        -0.65395E-11         0.00000E+00
    0.16948E-07        -0.65497E-11         0.00000E+00
    0.17125E-07        -0.65487E-11         0.00000E+00
    0.17299E-07        -0.65357E-11         0.00000E+00
    0.17472E-07        -0.65102E-11         0.00000E+00
    0.17643E-07        -0.64714E-11         0.00000E+00
    0.17811E-07        -0.64185E-11         0.00000E+00
    0.17977E-07        -0.63507E-11         0.00000E+00
    0.18141E-07        -0.62670E-11         0.00000E+00
    0.18301E-07        -0.61664E-11         0.00000E+00
    0.18459E-07        -0.60476E-11         0.00000E+00
    0.18613E-07        -0.59092E-11         0.00000E+00
    0.18763E-07        -0.57497E-11         0.00000E+00
    0.18910E-07        -0.55670E-11         0.00000E+00
    0.19052E-07        -0.53589E-11         0.00000E+00
    0.19191E-07        -0.51227E-11         0.00000E+00
    0.19325E-07        -0.48550E-11         0.00000E+00
    0.19455E-07        -0.45521E-11         0.00000E+00
    0.19579E-07        -0.42092E-11         0.00000E+00
    0.19699E-07        -0.38209E-11         0.00000E+00
    0.19814E-07        -0.33808E-11         0.00000E+00
    0.19923E-07        -0.28817E-11         0.00000E+00
    0.20026E-07        -0.23152E-11         0.00000E+00
    0.20124E-07        -0.16722E-11         0.00000E+00
    0.20215E-07        -0.94292E-12         0.00000E+00
    0.20301E-07        -0.11746E-12         0.00000E+00
    0.20380E-07         0.81336E-12         0.00000E+00
    0.20452E-07         0.18568E-11         0.00000E+00
    0.20518E-07         0.30162E-11         0.00000E+00
    0.20577E-07         0.42883E-11         0.00000E+00
    0.20628E-07         0.56591E-11         0.00000E+00
    0.20672E-07         0.70982E-11         0.00000E+00
    0.20709E-07         0.85507E-11         0.00000E+00
    0.20738E-07         0.99255E-11         0.00000E+00
    0.20759E-07         0.11078E-10         0.00000E+00
    0.20772E-07         0.11783E-10         0.00000E+00
    0.20777E-07         0.11691E-10         0.00000E+00
    0.20773E-07         0.10257E-10         0.00000E+00
    0.20762E-07         0.66791E-11         0.00000E+00
    0.20754E-07         0.00000E+00         0.00000E+00
    0.96565E-08         0.00000E+00         0.00000E+00
    0.96498E-08         0.51167E-11         0.00000E+00
    0.96395E-08         0.78234E-11         0.00000E+00
    0.96355E-08         0.89219E-11         0.00000E+00
    0.96379E-08         0.90452E-11         0.00000E+00
    0.96466E-08         0.86023E-11         0.00000E+00
    0.96615E-08         0.78471E-11         0.00000E+00
    0.96824E-08         0.69400E-11         0.00000E+00
    0.97091E-08         0.59824E-11         0.00000E+00
    0.97415E-08         0.50375E-11         0.00000E+00
    0.97795E-08         0.41427E-11         0.00000E+00
    0.98230E-08         0.33178E-11         0.00000E+00
    0.98719E-08         0.25712E-11         0.00000E+00
    0.99261E-08         0.19039E-11         0.00000E+00
    0.99854E-08         0.13122E-11         0.00000E+00
    0.10050E-07         0.78980E-12         0.00000E+00
    0.10119E-07         0.32927E-12         0.00000E+00
    0.10194E-07        -0.77219E-13         0.00000E+00
    0.10273E-07        -0.43727E-12         0.00000E+00
    0.10357E-07        -0.75795E-12         0.00000E+00
    0.10445E-07        -0.10456E-11         0.00000E+00
    0.10538E-07        -0.13057E-11         0.00000E+00
    0.10636E-07        -0.15432E-11         0.00000E+00
    0.10738E-07        -0.17619E-11         0.00000E+00
    0.10844E-07        -0.19655E-11         0.00000E+00
    0.10955E-07        -0.21565E-11         0.00000E+00
    0.11070E-07        -0.23375E-11         0.00000E+00
    0.11188E-07        -0.25101E-11         0.00000E+00
    0.11311E-07        -0.26760E-11         0.00000E+00
    0.11438E-07        -0.28364E-11         0.00000E+00
    0.11568E-07        -0.29921E-11         0.00000E+00
    0.11702E-07        -0.31440E-11         0.00000E+00
    0.11839E-07        -0.32927E-11         0.00000E+00
    0.11980E-07        -0.34385E-11         0.00000E+00
    0.12124E-07        -0.35818E-11         0.00000E+00
    0.12271E-07        -0.37229E-11         0.00000E+00
    0.12422E-07        -0.38618E-11         0.00000E+00
    0.12575E-07        -0.39986E-11         0.00000E+00
    0.12732E-07        -0.41335E-11         0.00000E+00
    0.12891E-07        -0.42662E-11         0.00000E+00
    0.13052E-07        -0.43969E-11         0.00000E+00
    0.13216E-07        -0.45252E-11         0.00000E+00
    0.13383E-07        -0.46512E-11         0.00000E+00
    0.13551E-07        -0.47746E-11         0.00000E+00
    0.13722E-07        -0.48952E-11         0.00000E+00
    0.13894E-07        -0.50128E-11         0.00000E+00
    0.14068E-07        -0.51271E-11         0.00000E+00
    0.14244E-07        -0.52379E-11         0.00000E+00
    0.14421E-07        -0.53447E-11         0.00000E+00
    0.14599E-07        -0.54474E-11         0.00000E+00
    0.14779E-07        -0.55456E-11         0.00000E+00
    0.14959E-07        -0.56388E-11         0.00000E+00
    0.15140E-07        -0.57268E-11         0.00000E+00
    0.15322E-07        -0.58090E-11         0.00000E+00
    0.15503E-07        -0.58852E-11         0.00000E+00
    0.15685E-07        -0.59548E-11         0.00000E+00
    0.15868E-07        -0.60174E-11         0.00000E+00
    0.16049E-07        -0.60725E-11         0.00000E+00
    0.16231E-07        -0.61197E-11         0.00000E+00
    0.16412E-07        -0.61584E-11         0.00000E+00
    0.16591E-07        -0.61882E-11         0.00000E+00
    0.16770E-07        -0.62085E-11         0.00000E+00
    0.16948E-07        -0.62188E-11         0.00000E+00
    0.17125E-07        -0.62184E-11         0.00000E+00
    0.17299E-07        -0.62069E-11         0.00000E+00
    0.17472E-07        -0.61834E-11         0.00000E+00
    0.17643E-07        -0.61475E-11         0.00000E+00
    0.17811E-07        -0.60982E-11         0.00000E+00
    0.17978E-07        -0.60349E-11         0.00000E+00
    0.18141E-07        -0.59566E-11         0.00000E+00
    0.18301E-07        -0.58624E-11         0.00000E+00
    0.18459E-07        -0.57511E-11         0.00000E+00
    0.18613E-07        -0.56213E-11         0.00000E+00
    0.18763E-07        -0.54716E-11         0.00000E+00
    0.18910E-07        -0.53002E-11         0.00000E+00
    0.19053E-07        -0.51048E-11         0.00000E+00
    0.19191E-07        -0.48829E-11         0.00000E+00
    0.19325E-07        -0.46314E-11         0.00000E+00
    0.19455E-07        -0.43467E-11         0.00000E+00
    0.19579E-07        -0.40243E-11         0.00000E+00
    0.19699E-07        -0.36591E-11         0.00000E+00
    0.19814E-07        -0.32450E-11         0.00000E+00
    0.19923E-07        -0.27750E-11         0.00000E+00
    0.20026E-07        -0.22411E-11         0.00000E+00
    0.20124E-07        -0.16346E-11         0.00000E+00
    0.20215E-07        -0.94601E-12         0.00000E+00
    0.20301E-07        -0.16568E-12         0.00000E+00
    0.20380E-07         0.71545E-12         0.00000E+00
    0.20452E-07         0.17047E-11         0.00000E+00
    0.20518E-07         0.28060E-11         0.00000E+00
    0.20577E-07         0.40169E-11         0.00000E+00
    0.20628E-07         0.53254E-11         0.00000E+00
    0.20673E-07         0.67040E-11         0.00000E+00
    0.20709E-07         0.81026E-11         0.00000E+00
    0.20738E-07         0.94370E-11         0.00000E+00
    0.20760E-07         0.10573E-10         0.00000E+00
    0.20772E-07         0.11298E-10         0.00000E+00
    0.20777E-07         0.11280E-10         0.00000E+00
    0.20773E-07         0.99808E-11         0.00000E+00
    0.20761E-07         0.65704E-11         0.00000E+00
    0.20753E-07         0.00000E+00         0.00000E+00
    0.96575E-08         0.00000E+00         0.00000E+00
    0.96506E-08         0.50011E-11         0.00000E+00
    0.96399E-08         0.75543E-11         0.00000E+00
    0.96356E-08         0.85366E-11         0.00000E+00
    0.96379E-08         0.85992E-11         0.00000E+00
    0.96465E-08         0.81401E-11         0.00000E+00
    0.96613E-08         0.73984E-11         0.00000E+00
    0.96822E-08         0.65230E-11         0.00000E+00
    0.97089E-08         0.56073E-11         0.00000E+00
    0.97413E-08         0.47089E-11         0.00000E+00
    0.97793E-08         0.38615E-11         0.00000E+00
    0.98229E-08         0.30827E-11         0.00000E+00
    0.98718E-08         0.23796E-11         0.00000E+00
    0.99259E-08         0.17525E-11         0.00000E+00
    0.99853E-08         0.11975E-11         0.00000E+00
    0.10050E-07         0.70827E-12         0.00000E+00
    0.10119E-07         0.27757E-12         0.00000E+00
    0.10194E-07        -0.10216E-12         0.00000E+00
    0.10273E-07        -0.43819E-12         0.00000E+00
    0.10357E-07        -0.73725E-12         0.00000E+00
    0.10445E-07        -0.10054E-11         0.00000E+00
    0.10538E-07        -0.12478E-11         0.00000E+00
    0.10636E-07        -0.14690E-11         0.00000E+00
    0.10738E-07        -0.16729E-11         0.00000E+00
    0.10844E-07        -0.18626E-11         0.00000E+00
    0.10955E-07        -0.20408E-11         0.00000E+00
    0.11070E-07        -0.22097E-11         0.00000E+00
    0.11188E-07        -0.23709E-11         0.00000E+00
    0.11311E-07        -0.25259E-11         0.00000E+00
    0.11438E-07        -0.26758E-11         0.00000E+00
    0.11568E-07        -0.28215E-11         0.00000E+00
    0.11702E-07        -0.29637E-11         0.00000E+00
    0.11839E-07        -0.31030E-11         0.00000E+00
    0.11980E-07        -0.32397E-11         0.00000E+00
    0.12124E-07        -0.33741E-11         0.00000E+00
    0.12271E-07        -0.35064E-11         0.00000E+00
    0.12422E-07        -0.36368E-11         0.00000E+00
    0.12575E-07        -0.37653E-11         0.00000E+00
    0.12732E-07        -0.38920E-11         0.00000E+00
    0.12891E-07        -0.40168E-11         0.00000E+00
    0.13052E-07        -0.41396E-11         0.00000E+00
    0.13216E-07        -0.42603E-11         0.00000E+00
    0.13383E-07        -0.43789E-11         0.00000E+00
    0.13551E-07        -0.44950E-11         0.00000E+00
    0.13722E-07        -0.46085E-11         0.00000E+00
    0.13894E-07        -0.47193E-11         0.00000E+00
    0.14068E-07        -0.48269E-11         0.00000E+00
    0.14244E-07        -0.49313E-11         0.00000E+00
    0.14421E-07        -0.50320E-11         0.00000E+00
    0.14599E-07        -0.51288E-11         0.00000E+00
    0.14779E-07        -0.52214E-11         0.00000E+00
    0.14959E-07        -0.53094E-11         0.00000E+00
    0.15140E-07        -0.53924E-11         0.00000E+00
    0.15322E-07        -0.54701E-11         0.00000E+00
    0.15503E-07        -0.55420E-11         0.00000E+00
    0.15685E-07        -0.56079E-11         0.00000E+00
    0.15867E-07        -0.56671E-11         0.00000E+00
    0.16049E-07        -0.57194E-11         0.00000E+00
    0.16231E-07        -0.57642E-11         0.00000E+00
    0.16412E-07        -0.58012E-11         0.00000E+00
    0.16591E-07        -0.58297E-11         0.00000E+00
    0.16770E-07        -0.58493E-11         0.00000E+00
    0.16948E-07        -0.58595E-11         0.00000E+00
    0.17125E-07        -0.58598E-11         0.00000E+00
    0.17299E-07        -0.58496E-11         0.00000E+00
    0.17472E-07        -0.58282E-11         0.00000E+00
    0.17643E-07        -0.57952E-11         0.00000E+00
    0.17811E-07        -0.57497E-11         0.00000E+00
    0.17978E-07        -0.56910E-11         0.00000E+00
    0.18141E-07        -0.56184E-11         0.00000E+00
    0.18301E-07        -0.55308E-11         0.00000E+00
    0.18459E-07        -0.54273E-11         0.00000E+00
    0.18613E-07        -0.53066E-11         0.00000E+00
    0.18763E-07        -0.51673E-11         0.00000E+00
    0.18910E-07        -0.50076E-11         0.00000E+00
    0.19053E-07        -0.48256E-11         0.00000E+00
    0.19191E-07        -0.46189E-11         0.00000E+00
    0.19325E-07        -0.43845E-11         0.00000E+00
    0.19455E-07        -0.41190E-11         0.00000E+00
    0.19579E-07        -0.38183E-11         0.00000E+00
    0.19699E-07        -0.34776E-11         0.00000E+00
    0.19814E-07        -0.30910E-11         0.00000E+00
    0.19923E-07        -0.26519E-11         0.00000E+00
    0.20026E-07        -0.21528E-11         0.00000E+00
    0.20124E-07        -0.15852E-11         0.00000E+00
    0.20216E-07        -0.94023E-12         0.00000E+00
    0.20301E-07        -0.20843E-12         0.00000E+00
    0.20380E-07         0.61902E-12         0.00000E+00
    0.20453E-07         0.15495E-11         0.00000E+00
    0.20518E-07         0.25873E-11         0.00000E+00
    0.20577E-07         0.37309E-11         0.00000E+00
    0.20629E-07         0.49702E-11         0.00000E+00
    0.20673E-07         0.62806E-11         0.00000E+00
    0.20710E-07         0.76169E-11         0.00000E+00
    0.20739E-07         0.89022E-11         0.00000E+00
    0.20760E-07         0.10013E-10         0.00000E+00
    0.20772E-07         0.10752E-10         0.00000E+00
    0.20777E-07         0.10806E-10         0.00000E+00
    0.20773E-07         0.96504E-11         0.00000E+00
    0.20760E-07         0.64316E-11         0.00000E+00
    0.20751E-07         0.18626E-20         0.00000E+00
    0.96585E-08         0.00000E+00         0.00000E+00
    0.96513E-08         0.48588E-11         0.00000E+00
    0.96402E-08         0.72381E-11         0.00000E+00
    0.96357E-08         0.80982E-11         0.00000E+00
    0.96378E-08         0.81028E-11         0.00000E+00
    0.96464E-08         0.76332E-11         0.00000E+00
    0.96612E-08         0.69116E-11         0.00000E+00
    0.96820E-08         0.60745E-11         0.00000E+00
    0.97087E-08         0.52067E-11         0.00000E+00
    0.97411E-08         0.43603E-11         0.00000E+00
    0.97792E-08         0.35651E-11         0.00000E+00
    0.98227E-08         0.28367E-11         0.00000E+00
    0.98716E-08         0.21807E-11         0.00000E+00
    0.99258E-08         0.15969E-11         0.00000E+00
    0.99852E-08         0.10811E-11         0.00000E+00
    0.10050E-07         0.62716E-12         0.00000E+00
    0.10119E-07         0.22810E-12         0.00000E+00
    0.10193E-07        -0.12330E-12         0.00000E+00
    0.10273E-07        -0.43398E-12         0.00000E+00
    0.10357E-07        -0.71028E-12         0.00000E+00
    0.10445E-07        -0.95787E-12         0.00000E+00
    0.10538E-07        -0.11817E-11         0.00000E+00
    0.10636E-07        -0.13859E-11         0.00000E+00
    0.10738E-07        -0.15742E-11         0.00000E+00
    0.10844E-07        -0.17494E-11         0.00000E+00
    0.10955E-07        -0.19141E-11         0.00000E+00
    0.11070E-07        -0.20702E-11         0.00000E+00
    0.11188E-07        -0.22194E-11         0.00000E+00
    0.11311E-07        -0.23629E-11         0.00000E+00
    0.11437E-07        -0.25018E-11         0.00000E+00
    0.11568E-07        -0.26369E-11         0.00000E+00
    0.11702E-07        -0.27688E-11         0.00000E+00
    0.11839E-07        -0.28981E-11         0.00000E+00
    0.11980E-07        -0.30251E-11         0.00000E+00
    0.12124E-07        -0.31500E-11         0.00000E+00
    0.12271E-07        -0.32731E-11         0.00000E+00
    0.12422E-07        -0.33944E-11         0.00000E+00
    0.12575E-07        -0.35140E-11         0.00000E+00
    0.12732E-07        -0.36320E-11         0.00000E+00
    0.12891E-07        -0.37482E-11         0.00000E+00
    0.13052E-07        -0.38626E-11         0.00000E+00
    0.13216E-07        -0.39752E-11         0.00000E+00
    0.13383E-07        -0.40857E-11         0.00000E+00
    0.13551E-07        -0.41940E-11         0.00000E+00
    0.13722E-07        -0.42999E-11         0.00000E+00
    0.13894E-07        -0.44032E-11         0.00000E+00
    0.14068E-07        -0.45037E-11         0.00000E+00
    0.14244E-07        -0.46012E-11         0.00000E+00
    0.14421E-07        -0.46953E-11         0.00000E+00
    0.14599E-07        -0.47857E-11         0.00000E+00
    0.14779E-07        -0.48723E-11         0.00000E+00
    0.14959E-07        -0.49545E-11         0.00000E+00
    0.15140E-07        -0.50322E-11         0.00000E+00
    0.15322E-07        -0.51049E-11         0.00000E+00
    0.15503E-07        -0.51723E-11         0.00000E+00
    0.15685E-07        -0.52340E-11         0.00000E+00
    0.15867E-07        -0.52896E-11         0.00000E+00
    0.16049E-07        -0.53388E-11         0.00000E+00
    0.16231E-07        -0.53810E-11         0.00000E+00
    0.16412E-07        -0.54158E-11         0.00000E+00
    0.16591E-07        -0.54429E-11         0.00000E+00
    0.16770E-07        -0.54617E-11         0.00000E+00
    0.16948E-07        -0.54718E-11         0.00000E+00
    0.17125E-07        -0.54726E-11         0.00000E+00
    0.17299E-07        -0.54637E-11         0.00000E+00
    0.17472E-07        -0.54444E-11         0.00000E+00
    0.17643E-07        -0.54143E-11         0.00000E+00
    0.17811E-07        -0.53727E-11         0.00000E+00
    0.17978E-07        -0.53189E-11         0.00000E+00
    0.18141E-07        -0.52521E-11         0.00000E+00
    0.18301E-07        -0.51715E-11         0.00000E+00
    0.18459E-07        -0.50761E-11         0.00000E+00
    0.18613E-07        -0.49648E-11         0.00000E+00
    0.18763E-07        -0.48363E-11         0.00000E+00
    0.18910E-07        -0.46890E-11         0.00000E+00
    0.19053E-07        -0.45210E-11         0.00000E+00
    0.19191E-07        -0.43302E-11         0.00000E+00
    0.19325E-07        -0.41137E-11         0.00000E+00
    0.19455E-07        -0.38685E-11         0.00000E+00
    0.19580E-07        -0.35907E-11         0.00000E+00
    0.19699E-07        -0.32756E-11         0.00000E+00
    0.19814E-07        -0.29180E-11         0.00000E+00
    0.19923E-07        -0.25116E-11         0.00000E+00
    0.20026E-07        -0.20493E-11         0.00000E+00
    0.20124E-07        -0.15232E-11         0.00000E+00
    0.20216E-07        -0.92464E-12         0.00000E+00
    0.20301E-07        -0.24471E-12         0.00000E+00
    0.20380E-07         0.52516E-12         0.00000E+00
    0.20453E-07         0.13923E-11         0.00000E+00
    0.20518E-07         0.23612E-11         0.00000E+00
    0.20577E-07         0.34315E-11         0.00000E+00
    0.20629E-07         0.45944E-11         0.00000E+00
    0.20673E-07         0.58288E-11         0.00000E+00
    0.20710E-07         0.70940E-11         0.00000E+00
    0.20739E-07         0.83207E-11         0.00000E+00
    0.20760E-07         0.93966E-11         0.00000E+00
    0.20773E-07         0.10141E-10         0.00000E+00
    0.20777E-07         0.10263E-10         0.00000E+00
    0.20772E-07         0.92589E-11         0.00000E+00
    0.20759E-07         0.62581E-11         0.00000E+00
    0.20750E-07         0.13455E-20         0.00000E+00
    0.96595E-08         0.00000E+00         0.00000E+00
    0.96520E-08         0.46852E-11         0.00000E+00
    0.96405E-08         0.68694E-11         0.00000E+00
    0.96358E-08         0.76030E-11         0.00000E+00
    0.96378E-08         0.75540E-11         0.00000E+00
    0.96463E-08         0.70808E-11         0.00000E+00
    0.96610E-08         0.63866E-11         0.00000E+00
    0.96818E-08         0.55948E-11         0.00000E+00
    0.97085E-08         0.47814E-11         0.00000E+00
    0.97410E-08         0.39926E-11         0.00000E+00
    0.97790E-08         0.32545E-11         0.00000E+00
    0.98226E-08         0.25806E-11         0.00000E+00
    0.98715E-08         0.19753E-11         0.00000E+00
    0.99257E-08         0.14377E-11         0.00000E+00
    0.99851E-08         0.96363E-12         0.00000E+00
    0.10050E-07         0.54714E-12         0.00000E+00
    0.10119E-07         0.18150E-12         0.00000E+00
    0.10193E-07        -0.14011E-12         0.00000E+00
    0.10273E-07        -0.42418E-12         0.00000E+00
    0.10357E-07        -0.67663E-12         0.00000E+00
    0.10445E-07        -0.90274E-12         0.00000E+00
    0.10538E-07        -0.11071E-11         0.00000E+00
    0.10636E-07        -0.12936E-11         0.00000E+00
    0.10738E-07        -0.14655E-11         0.00000E+00
    0.10844E-07        -0.16256E-11         0.00000E+00
    0.10955E-07        -0.17762E-11         0.00000E+00
    0.11070E-07        -0.19189E-11         0.00000E+00
    0.11188E-07        -0.20555E-11         0.00000E+00
    0.11311E-07        -0.21869E-11         0.00000E+00
    0.11437E-07        -0.23142E-11         0.00000E+00
    0.11568E-07        -0.24381E-11         0.00000E+00
    0.11702E-07        -0.25592E-11         0.00000E+00
    0.11839E-07        -0.26780E-11         0.00000E+00
    0.11980E-07        -0.27946E-11         0.00000E+00
    0.12124E-07        -0.29095E-11         0.00000E+00
    0.12271E-07        -0.30227E-11         0.00000E+00
    0.12422E-07        -0.31344E-11         0.00000E+00
    0.12575E-07        -0.32446E-11         0.00000E+00
    0.12732E-07        -0.33532E-11         0.00000E+00
    0.12891E-07        -0.34603E-11         0.00000E+00
    0.13052E-07        -0.35658E-11         0.00000E+00
    0.13216E-07        -0.36696E-11         0.00000E+00
    0.13383E-07        -0.37715E-11         0.00000E+00
    0.13551E-07        -0.38715E-11         0.00000E+00
    0.13722E-07        -0.39693E-11         0.00000E+00
    0.13894E-07        -0.40647E-11         0.00000E+00
    0.14068E-07        -0.41575E-11         0.00000E+00
    0.14244E-07        -0.42475E-11         0.00000E+00
    0.14421E-07        -0.43345E-11         0.00000E+00
    0.14599E-07        -0.44181E-11         0.00000E+00
    0.14779E-07        -0.44981E-11         0.00000E+00
    0.14959E-07        -0.45742E-11         0.00000E+00
    0.15140E-07        -0.46461E-11         0.00000E+00
    0.15322E-07        -0.47135E-11         0.00000E+00
    0.15503E-07        -0.47759E-11         0.00000E+00
    0.15685E-07        -0.48332E-11         0.00000E+00
    0.15867E-07        -0.48848E-11         0.00000E+00
    0.16049E-07        -0.49305E-11         0.00000E+00
    0.16231E-07        -0.49698E-11         0.00000E+00
    0.16411E-07        -0.50023E-11         0.00000E+00
    0.16591E-07        -0.50277E-11         0.00000E+00
    0.16770E-07        -0.50455E-11         0.00000E+00
    0.16948E-07        -0.50553E-11         0.00000E+00
    0.17125E-07        -0.50566E-11         0.00000E+00
    0.17299E-07        -0.50490E-11         0.00000E+00
    0.17472E-07        -0.50318E-11         0.00000E+00
    0.17643E-07        -0.50047E-11         0.00000E+00
    0.17811E-07        -0.49671E-11         0.00000E+00
    0.17978E-07        -0.49182E-11         0.00000E+00
    0.18141E-07        -0.48575E-11         0.00000E+00
    0.18301E-07        -0.47841E-11         0.00000E+00
    0.18459E-07        -0.46972E-11         0.00000E+00
    0.18613E-07        -0.45957E-11         0.00000E+00
    0.18763E-07        -0.44785E-11         0.00000E+00
    0.18910E-07        -0.43440E-11         0.00000E+00
    0.19053E-07        -0.41907E-11         0.00000E+00
    0.19191E-07        -0.40164E-11         0.00000E+00
    0.19325E-07        -0.38187E-11         0.00000E+00
    0.19455E-07        -0.35946E-11         0.00000E+00
    0.19580E-07        -0.33407E-11         0.00000E+00
    0.19699E-07        -0.30526E-11         0.00000E+00
    0.19814E-07        -0.27255E-11         0.00000E+00
    0.19923E-07        -0.23535E-11         0.00000E+00
    0.20026E-07        -0.19300E-11         0.00000E+00
    0.20124E-07        -0.14476E-11         0.00000E+00
    0.20216E-07        -0.89826E-12         0.00000E+00
    0.20301E-07        -0.27346E-12         0.00000E+00
    0.20380E-07         0.43498E-12         0.00000E+00
    0.20453E-07         0.12342E-11         0.00000E+00
    0.20519E-07         0.21290E-11         0.00000E+00
    0.20577E-07         0.31196E-11         0.00000E+00
    0.20629E-07         0.41992E-11         0.00000E+00
    0.20673E-07         0.53493E-11         0.00000E+00
    0.20710E-07         0.65342E-11         0.00000E+00
    0.20739E-07         0.76926E-11         0.00000E+00
    0.20760E-07         0.87233E-11         0.00000E+00
    0.20773E-07         0.94637E-11         0.00000E+00
    0.20777E-07         0.96461E-11         0.00000E+00
    0.20772E-07         0.87990E-11         0.00000E+00
    0.20758E-07         0.60437E-11         0.00000E+00
    0.20749E-07        -0.18626E-20         0.00000E+00
    0.96604E-08         0.00000E+00         0.00000E+00
    0.96527E-08         0.44749E-11         0.00000E+00
    0.96408E-08         0.64418E-11         0.00000E+00
    0.96358E-08         0.70470E-11         0.00000E+00
    0.96377E-08         0.69508E-11         0.00000E+00
    0.96461E-08         0.64821E-11         0.00000E+00
    0.96609E-08         0.58235E-11         0.00000E+00
    0.96817E-08         0.50844E-11         0.00000E+00
    0.97084E-08         0.43321E-11         0.00000E+00
    0.97408E-08         0.36066E-11         0.00000E+00
    0.97789E-08         0.29307E-11         0.00000E+00
    0.98225E-08         0.23154E-11         0.00000E+00
    0.98714E-08         0.17642E-11         0.00000E+00
    0.99256E-08         0.12758E-11         0.00000E+00
    0.99850E-08         0.84597E-12         0.00000E+00
    0.10050E-07         0.46893E-12         0.00000E+00
    0.10119E-07         0.13839E-12         0.00000E+00
    0.10193E-07        -0.15201E-12         0.00000E+00
    0.10273E-07        -0.40826E-12         0.00000E+00
    0.10357E-07        -0.63585E-12         0.00000E+00
    0.10445E-07        -0.83959E-12         0.00000E+00
    0.10538E-07        -0.10237E-11         0.00000E+00
    0.10636E-07        -0.11917E-11         0.00000E+00
    0.10738E-07        -0.13466E-11         0.00000E+00
    0.10844E-07        -0.14910E-11         0.00000E+00
    0.10955E-07        -0.16268E-11         0.00000E+00
    0.11070E-07        -0.17556E-11         0.00000E+00
    0.11188E-07        -0.18790E-11         0.00000E+00
    0.11311E-07        -0.19978E-11         0.00000E+00
    0.11437E-07        -0.21130E-11         0.00000E+00
    0.11568E-07        -0.22251E-11         0.00000E+00
    0.11702E-07        -0.23348E-11         0.00000E+00
    0.11839E-07        -0.24425E-11         0.00000E+00
    0.11980E-07        -0.25483E-11         0.00000E+00
    0.12124E-07        -0.26526E-11         0.00000E+00
    0.12271E-07        -0.27554E-11         0.00000E+00
    0.12422E-07        -0.28568E-11         0.00000E+00
    0.12575E-07        -0.29569E-11         0.00000E+00
    0.12732E-07        -0.30557E-11         0.00000E+00
    0.12891E-07        -0.31532E-11         0.00000E+00
    0.13052E-07        -0.32492E-11         0.00000E+00
    0.13216E-07        -0.33436E-11         0.00000E+00
    0.13383E-07        -0.34364E-11         0.00000E+00
    0.13551E-07        -0.35275E-11         0.00000E+00
    0.13722E-07        -0.36166E-11         0.00000E+00
    0.13894E-07        -0.37035E-11         0.00000E+00
    0.14068E-07        -0.37881E-11         0.00000E+00
    0.14244E-07        -0.38702E-11         0.00000E+00
    0.14421E-07        -0.39496E-11         0.00000E+00
    0.14599E-07        -0.40259E-11         0.00000E+00
    0.14779E-07        -0.40989E-11         0.00000E+00
    0.14959E-07        -0.41684E-11         0.00000E+00
    0.15140E-07        -0.42341E-11         0.00000E+00
    0.15321E-07        -0.42957E-11         0.00000E+00
    0.15503E-07        -0.43528E-11         0.00000E+00
    0.15685E-07        -0.44052E-11         0.00000E+00
    0.15867E-07        -0.44525E-11         0.00000E+00
    0.16049E-07        -0.44944E-11         0.00000E+00
    0.16231E-07        -0.45306E-11         0.00000E+00
    0.16411E-07        -0.45606E-11         0.00000E+00
    0.16591E-07        -0.45841E-11         0.00000E+00
    0.16770E-07        -0.46007E-11         0.00000E+00
    0.16948E-07        -0.46101E-11         0.00000E+00
    0.17125E-07        -0.46117E-11         0.00000E+00
    0.17299E-07        -0.46053E-11         0.00000E+00
    0.17472E-07        -0.45903E-11         0.00000E+00
    0.17643E-07        -0.45662E-11         0.00000E+00
    0.17811E-07        -0.45326E-11         0.00000E+00
    0.17978E-07        -0.44888E-11         0.00000E+00
    0.18141E-07        -0.44344E-11         0.00000E+00
    0.18301E-07        -0.43684E-11         0.00000E+00
    0.18459E-07        -0.42903E-11         0.00000E+00
    0.18613E-07        -0.41990E-11         0.00000E+00
    0.18763E-07        -0.40934E-11         0.00000E+00
    0.18910E-07        -0.39723E-11         0.00000E+00
    0.19053E-07        -0.38342E-11         0.00000E+00
    0.19191E-07        -0.36771E-11         0.00000E+00
    0.19325E-07        -0.34989E-11         0.00000E+00
    0.19455E-07        -0.32969E-11         0.00000E+00
    0.19580E-07        -0.30679E-11         0.00000E+00
    0.19699E-07        -0.28080E-11         0.00000E+00
    0.19814E-07        -0.25127E-11         0.00000E+00
    0.19923E-07        -0.21768E-11         0.00000E+00
    0.20027E-07        -0.17940E-11         0.00000E+00
    0.20124E-07        -0.13576E-11         0.00000E+00
    0.20216E-07        -0.86007E-12         0.00000E+00
    0.20301E-07        -0.29357E-12         0.00000E+00
    0.20381E-07         0.34968E-12         0.00000E+00
    0.20453E-07         0.10766E-11         0.00000E+00
    0.20519E-07         0.18919E-11         0.00000E+00
    0.20578E-07         0.27967E-11         0.00000E+00
    0.20629E-07         0.37856E-11         0.00000E+00
    0.20674E-07         0.48431E-11         0.00000E+00
    0.20710E-07         0.59383E-11         0.00000E+00
    0.20739E-07         0.70175E-11         0.00000E+00
    0.20760E-07         0.79919E-11         0.00000E+00
    0.20773E-07         0.87164E-11         0.00000E+00
    0.20777E-07         0.89509E-11         0.00000E+00
    0.20771E-07         0.82622E-11         0.00000E+00
    0.20757E-07         0.57813E-11         0.00000E+00
    0.20748E-07        -0.13455E-20         0.00000E+00
    0.96612E-08         0.00000E+00         0.00000E+00
    0.96533E-08         0.42208E-11         0.00000E+00
    0.96410E-08         0.59481E-11         0.00000E+00
    0.96359E-08         0.64263E-11         0.00000E+00
    0.96377E-08         0.62913E-11         0.00000E+00
    0.96460E-08         0.58365E-11         0.00000E+00
    0.96607E-08         0.52222E-11         0.00000E+00
    0.96815E-08         0.45440E-11         0.00000E+00
    0.97082E-08         0.38595E-11         0.00000E+00
    0.97407E-08         0.32033E-11         0.00000E+00
    0.97788E-08         0.25945E-11         0.00000E+00
    0.98224E-08         0.20421E-11         0.00000E+00
    0.98713E-08         0.15486E-11         0.00000E+00
    0.99255E-08         0.11122E-11         0.00000E+00
    0.99849E-08         0.72891E-12         0.00000E+00
    0.10049E-07         0.39327E-12         0.00000E+00
    0.10119E-07         0.99427E-13         0.00000E+00
    0.10193E-07        -0.15842E-12         0.00000E+00
    0.10273E-07        -0.38574E-12         0.00000E+00
    0.10356E-07        -0.58748E-12         0.00000E+00
    0.10445E-07        -0.76802E-12         0.00000E+00
    0.10538E-07        -0.93112E-12         0.00000E+00
    0.10636E-07        -0.10800E-11         0.00000E+00
    0.10738E-07        -0.12173E-11         0.00000E+00
    0.10844E-07        -0.13453E-11         0.00000E+00
    0.10955E-07        -0.14658E-11         0.00000E+00
    0.11070E-07        -0.15802E-11         0.00000E+00
    0.11188E-07        -0.16898E-11         0.00000E+00
    0.11311E-07        -0.17954E-11         0.00000E+00
    0.11437E-07        -0.18979E-11         0.00000E+00
    0.11568E-07        -0.19978E-11         0.00000E+00
    0.11702E-07        -0.20956E-11         0.00000E+00
    0.11839E-07        -0.21915E-11         0.00000E+00
    0.11980E-07        -0.22860E-11         0.00000E+00
    0.12124E-07        -0.23791E-11         0.00000E+00
    0.12271E-07        -0.24709E-11         0.00000E+00
    0.12422E-07        -0.25616E-11         0.00000E+00
    0.12575E-07        -0.26511E-11         0.00000E+00
    0.12732E-07        -0.27395E-11         0.00000E+00
    0.12891E-07        -0.28267E-11         0.00000E+00
    0.13052E-07        -0.29126E-11         0.00000E+00
    0.13216E-07        -0.29972E-11         0.00000E+00
    0.13383E-07        -0.30803E-11         0.00000E+00
    0.13551E-07        -0.31619E-11         0.00000E+00
    0.13722E-07        -0.32418E-11         0.00000E+00
    0.13894E-07        -0.33197E-11         0.00000E+00
    0.14068E-07        -0.33956E-11         0.00000E+00
    0.14244E-07        -0.34693E-11         0.00000E+00
    0.14421E-07        -0.35404E-11         0.00000E+00
    0.14599E-07        -0.36090E-11         0.00000E+00
    0.14779E-07        -0.36746E-11         0.00000E+00
    0.14959E-07        -0.37370E-11         0.00000E+00
    0.15140E-07        -0.37960E-11         0.00000E+00
    0.15321E-07        -0.38514E-11         0.00000E+00
    0.15503E-07        -0.39028E-11         0.00000E+00
    0.15685E-07        -0.39500E-11         0.00000E+00
    0.15867E-07        -0.39927E-11         0.00000E+00
    0.16049E-07        -0.40305E-11         0.00000E+00
    0.16231E-07        -0.40632E-11         0.00000E+00
    0.16411E-07        -0.40904E-11         0.00000E+00
    0.16591E-07        -0.41118E-11         0.00000E+00
    0.16770E-07        -0.41271E-11         0.00000E+00
    0.16948E-07        -0.41359E-11         0.00000E+00
    0.17125E-07        -0.41378E-11         0.00000E+00
    0.17299E-07        -0.41325E-11         0.00000E+00
    0.17472E-07        -0.41196E-11         0.00000E+00
    0.17643E-07        -0.40986E-11         0.00000E+00
    0.17811E-07        -0.40690E-11         0.00000E+00
    0.17978E-07        -0.40305E-11         0.00000E+00
    0.18141E-07        -0.39824E-11         0.00000E+00
    0.18301E-07        -0.39242E-11         0.00000E+00
    0.18459E-07        -0.38550E-11         0.00000E+00
    0.18613E-07        -0.37742E-11         0.00000E+00
    0.18763E-07        -0.36808E-11         0.00000E+00
    0.18910E-07        -0.35735E-11         0.00000E+00
    0.19053E-07        -0.34511E-11         0.00000E+00
    0.19191E-07        -0.33119E-11         0.00000E+00
    0.19325E-07        -0.31540E-11         0.00000E+00
    0.19455E-07        -0.29749E-11         0.00000E+00
    0.19580E-07        -0.27717E-11         0.00000E+00
    0.19699E-07        -0.25411E-11         0.00000E+00
    0.19814E-07        -0.22790E-11         0.00000E+00
    0.19923E-07        -0.19806E-11         0.00000E+00
    0.20027E-07        -0.16403E-11         0.00000E+00
    0.20124E-07        -0.12521E-11         0.00000E+00
    0.20216E-07        -0.80902E-12         0.00000E+00
    0.20302E-07        -0.30388E-12         0.00000E+00
    0.20381E-07         0.27050E-12         0.00000E+00
    0.20453E-07         0.92065E-12         0.00000E+00
    0.20519E-07         0.16514E-11         0.00000E+00
    0.20578E-07         0.24641E-11         0.00000E+00
    0.20630E-07         0.33550E-11         0.00000E+00
    0.20674E-07         0.43113E-11         0.00000E+00
    0.20711E-07         0.53069E-11         0.00000E+00
    0.20740E-07         0.62958E-11         0.00000E+00
    0.20760E-07         0.72012E-11         0.00000E+00
    0.20773E-07         0.78969E-11         0.00000E+00
    0.20777E-07         0.81716E-11         0.00000E+00
    0.20771E-07         0.76391E-11         0.00000E+00
    0.20756E-07         0.54615E-11         0.00000E+00
    0.20746E-07         0.00000E+00         0.00000E+00
    0.96621E-08         0.00000E+00         0.00000E+00
    0.96539E-08         0.39139E-11         0.00000E+00
    0.96412E-08         0.53803E-11         0.00000E+00
    0.96359E-08         0.57369E-11         0.00000E+00
    0.96376E-08         0.55739E-11         0.00000E+00
    0.96459E-08         0.51435E-11         0.00000E+00
    0.96606E-08         0.45832E-11         0.00000E+00
    0.96814E-08         0.39741E-11         0.00000E+00
    0.97081E-08         0.33647E-11         0.00000E+00
    0.97406E-08         0.27838E-11         0.00000E+00
    0.97787E-08         0.22471E-11         0.00000E+00
    0.98223E-08         0.17618E-11         0.00000E+00
    0.98712E-08         0.13293E-11         0.00000E+00
    0.99255E-08         0.94779E-12         0.00000E+00
    0.99849E-08         0.61331E-12         0.00000E+00
    0.10049E-07         0.32091E-12         0.00000E+00
    0.10119E-07         0.65299E-13         0.00000E+00
    0.10193E-07        -0.15874E-12         0.00000E+00
    0.10272E-07        -0.35606E-12         0.00000E+00
    0.10356E-07        -0.53108E-12         0.00000E+00
    0.10445E-07        -0.68763E-12         0.00000E+00
    0.10538E-07        -0.82905E-12         0.00000E+00
    0.10636E-07        -0.95814E-12         0.00000E+00
    0.10738E-07        -0.10773E-11         0.00000E+00
    0.10844E-07        -0.11883E-11         0.00000E+00
    0.10955E-07        -0.12929E-11         0.00000E+00
    0.11069E-07        -0.13924E-11         0.00000E+00
    0.11188E-07        -0.14877E-11         0.00000E+00
    0.11311E-07        -0.15796E-11         0.00000E+00
    0.11437E-07        -0.16689E-11         0.00000E+00
    0.11568E-07        -0.17560E-11         0.00000E+00
    0.11702E-07        -0.18413E-11         0.00000E+00
    0.11839E-07        -0.19251E-11         0.00000E+00
    0.11980E-07        -0.20076E-11         0.00000E+00
    0.12124E-07        -0.20890E-11         0.00000E+00
    0.12271E-07        -0.21693E-11         0.00000E+00
    0.12422E-07        -0.22486E-11         0.00000E+00
    0.12575E-07        -0.23270E-11         0.00000E+00
    0.12732E-07        -0.24044E-11         0.00000E+00
    0.12891E-07        -0.24808E-11         0.00000E+00
    0.13052E-07        -0.25561E-11         0.00000E+00
    0.13216E-07        -0.26302E-11         0.00000E+00
    0.13383E-07        -0.27031E-11         0.00000E+00
    0.13551E-07        -0.27747E-11         0.00000E+00
    0.13722E-07        -0.28448E-11         0.00000E+00
    0.13894E-07        -0.29132E-11         0.00000E+00
    0.14068E-07        -0.29799E-11         0.00000E+00
    0.14244E-07        -0.30445E-11         0.00000E+00
    0.14421E-07        -0.31071E-11         0.00000E+00
    0.14599E-07        -0.31673E-11         0.00000E+00
    0.14779E-07        -0.32250E-11         0.00000E+00
    0.14959E-07        -0.32799E-11         0.00000E+00
    0.15140E-07        -0.33318E-11         0.00000E+00
    0.15321E-07        -0.33806E-11         0.00000E+00
    0.15503E-07        -0.34259E-11         0.00000E+00
    0.15685E-07        -0.34675E-11         0.00000E+00
    0.15867E-07        -0.35051E-11         0.00000E+00
    0.16049E-07        -0.35386E-11         0.00000E+00
    0.16231E-07        -0.35675E-11         0.00000E+00
    0.16411E-07        -0.35917E-11         0.00000E+00
    0.16591E-07        -0.36108E-11         0.00000E+00
    0.16770E-07        -0.36245E-11         0.00000E+00
    0.16948E-07        -0.36325E-11         0.00000E+00
    0.17125E-07        -0.36346E-11         0.00000E+00
    0.17299E-07        -0.36304E-11         0.00000E+00
    0.17472E-07        -0.36195E-11         0.00000E+00
    0.17643E-07        -0.36016E-11         0.00000E+00
    0.17812E-07        -0.35762E-11         0.00000E+00
    0.17978E-07        -0.35430E-11         0.00000E+00
    0.18141E-07        -0.35015E-11         0.00000E+00
    0.18301E-07        -0.34511E-11         0.00000E+00
    0.18459E-07        -0.33912E-11         0.00000E+00
    0.18613E-07        -0.33212E-11         0.00000E+00
    0.18763E-07        -0.32402E-11         0.00000E+00
    0.18910E-07        -0.31472E-11         0.00000E+00
    0.19053E-07        -0.30411E-11         0.00000E+00
    0.19191E-07        -0.29204E-11         0.00000E+00
    0.19325E-07        -0.27833E-11         0.00000E+00
    0.19455E-07        -0.26279E-11         0.00000E+00
    0.19580E-07        -0.24515E-11         0.00000E+00
    0.19700E-07        -0.22513E-11         0.00000E+00
    0.19814E-07        -0.20236E-11         0.00000E+00
    0.19923E-07        -0.17642E-11         0.00000E+00
    0.20027E-07        -0.14682E-11         0.00000E+00
    0.20124E-07        -0.11302E-11         0.00000E+00
    0.20216E-07        -0.74399E-12         0.00000E+00
    0.20302E-07        -0.30320E-12         0.00000E+00
    0.20381E-07         0.19874E-12         0.00000E+00
    0.20453E-07         0.76784E-12         0.00000E+00
    0.20519E-07         0.14087E-11         0.00000E+00
    0.20578E-07         0.21233E-11         0.00000E+00
    0.20630E-07         0.29088E-11         0.00000E+00
    0.20674E-07         0.37552E-11         0.00000E+00
    0.20711E-07         0.46410E-11         0.00000E+00
    0.20740E-07         0.55277E-11         0.00000E+00
    0.20761E-07         0.63507E-11         0.00000E+00
    0.20773E-07         0.70030E-11         0.00000E+00
    0.20777E-07         0.73031E-11         0.00000E+00
    0.20771E-07         0.69188E-11         0.00000E+00
    0.20755E-07         0.50723E-11         0.00000E+00
    0.20745E-07         0.00000E+00         0.00000E+00
    0.96628E-08         0.00000E+00         0.00000E+00
    0.96544E-08         0.35425E-11         0.00000E+00
    0.96414E-08         0.47298E-11         0.00000E+00
    0.96359E-08         0.49753E-11         0.00000E+00
    0.96375E-08         0.47970E-11         0.00000E+00
    0.96458E-08         0.44027E-11         0.00000E+00
    0.96605E-08         0.39069E-11         0.00000E+00
    0.96813E-08         0.33757E-11         0.00000E+00
    0.97080E-08         0.28488E-11         0.00000E+00
    0.97405E-08         0.23493E-11         0.00000E+00
    0.97786E-08         0.18898E-11         0.00000E+00
    0.98222E-08         0.14756E-11         0.00000E+00
    0.98711E-08         0.11075E-11         0.00000E+00
    0.99254E-08         0.78351E-12         0.00000E+00
    0.99848E-08         0.50004E-12         0.00000E+00
    0.10049E-07         0.25265E-12         0.00000E+00
    0.10119E-07         0.36701E-13         0.00000E+00
    0.10193E-07        -0.15235E-12         0.00000E+00
    0.10272E-07        -0.31871E-12         0.00000E+00
    0.10356E-07        -0.46617E-12         0.00000E+00
    0.10445E-07        -0.59802E-12         0.00000E+00
    0.10538E-07        -0.71712E-12         0.00000E+00
    0.10636E-07        -0.82585E-12         0.00000E+00
    0.10738E-07        -0.92621E-12         0.00000E+00
    0.10844E-07        -0.10198E-11         0.00000E+00
    0.10955E-07        -0.11081E-11         0.00000E+00
    0.11069E-07        -0.11921E-11         0.00000E+00
    0.11188E-07        -0.12726E-11         0.00000E+00
    0.11311E-07        -0.13503E-11         0.00000E+00
    0.11437E-07        -0.14259E-11         0.00000E+00
    0.11568E-07        -0.14997E-11         0.00000E+00
    0.11702E-07        -0.15720E-11         0.00000E+00
    0.11839E-07        -0.16430E-11         0.00000E+00
    0.11980E-07        -0.17131E-11         0.00000E+00
    0.12124E-07        -0.17822E-11         0.00000E+00
    0.12271E-07        -0.18504E-11         0.00000E+00
    0.12422E-07        -0.19179E-11         0.00000E+00
    0.12575E-07        -0.19845E-11         0.00000E+00
    0.12732E-07        -0.20504E-11         0.00000E+00
    0.12891E-07        -0.21154E-11         0.00000E+00
    0.13052E-07        -0.21795E-11         0.00000E+00
    0.13216E-07        -0.22427E-11         0.00000E+00
    0.13383E-07        -0.23048E-11         0.00000E+00
    0.13551E-07        -0.23658E-11         0.00000E+00
    0.13722E-07        -0.24256E-11         0.00000E+00
    0.13894E-07        -0.24839E-11         0.00000E+00
    0.14068E-07        -0.25408E-11         0.00000E+00
    0.14244E-07        -0.25960E-11         0.00000E+00
    0.14421E-07        -0.26494E-11         0.00000E+00
    0.14599E-07        -0.27008E-11         0.00000E+00
    0.14779E-07        -0.27501E-11         0.00000E+00
    0.14959E-07        -0.27970E-11         0.00000E+00
    0.15140E-07        -0.28414E-11         0.00000E+00
    0.15321E-07        -0.28831E-11         0.00000E+00
    0.15503E-07        -0.29219E-11         0.00000E+00
    0.15685E-07        -0.29576E-11         0.00000E+00
    0.15867E-07        -0.29898E-11         0.00000E+00
    0.16049E-07        -0.30185E-11         0.00000E+00
    0.16231E-07        -0.30434E-11         0.00000E+00
    0.16411E-07        -0.30643E-11         0.00000E+00
    0.16591E-07        -0.30808E-11         0.00000E+00
    0.16770E-07        -0.30928E-11         0.00000E+00
    0.16948E-07        -0.31000E-11         0.00000E+00
    0.17125E-07        -0.31021E-11         0.00000E+00
    0.17299E-07        -0.30988E-11         0.00000E+00
    0.17472E-07        -0.30899E-11         0.00000E+00
    0.17643E-07        -0.30750E-11         0.00000E+00
    0.17812E-07        -0.30539E-11         0.00000E+00
    0.17978E-07        -0.30261E-11         0.00000E+00
    0.18141E-07        -0.29912E-11         0.00000E+00
    0.18301E-07        -0.29489E-11         0.00000E+00
    0.18459E-07        -0.28986E-11         0.00000E+00
    0.18613E-07        -0.28397E-11         0.00000E+00
    0.18763E-07        -0.27715E-11         0.00000E+00
    0.18910E-07        -0.26931E-11         0.00000E+00
    0.19053E-07        -0.26037E-11         0.00000E+00
    0.19191E-07        -0.25020E-11         0.00000E+00
    0.19325E-07        -0.23865E-11         0.00000E+00
    0.19455E-07        -0.22555E-11         0.00000E+00
    0.19580E-07        -0.21068E-11         0.00000E+00
    0.19700E-07        -0.19379E-11         0.00000E+00
    0.19814E-07        -0.17457E-11         0.00000E+00
    0.19923E-07        -0.15267E-11         0.00000E+00
    0.20027E-07        -0.12766E-11         0.00000E+00
    0.20124E-07        -0.99076E-12         0.00000E+00
    0.20216E-07        -0.66386E-12         0.00000E+00
    0.20302E-07        -0.29027E-12         0.00000E+00
    0.20381E-07         0.13576E-12         0.00000E+00
    0.20453E-07         0.61962E-12         0.00000E+00
    0.20519E-07         0.11656E-11         0.00000E+00
    0.20578E-07         0.17758E-11         0.00000E+00
    0.20630E-07         0.24485E-11         0.00000E+00
    0.20674E-07         0.31761E-11         0.00000E+00
    0.20711E-07         0.39416E-11         0.00000E+00
    0.20740E-07         0.47137E-11         0.00000E+00
    0.20761E-07         0.54399E-11         0.00000E+00
    0.20773E-07         0.60324E-11         0.00000E+00
    0.20777E-07         0.63403E-11         0.00000E+00
    0.20771E-07         0.60900E-11         0.00000E+00
    0.20755E-07         0.45982E-11         0.00000E+00
    0.20744E-07         0.00000E+00         0.00000E+00
    0.96635E-08         0.00000E+00         0.00000E+00
    0.96548E-08         0.30912E-11         0.00000E+00
    0.96415E-08         0.39875E-11         0.00000E+00
    0.96359E-08         0.41381E-11         0.00000E+00
    0.96375E-08         0.39593E-11         0.00000E+00
    0.96458E-08         0.36142E-11         0.00000E+00
    0.96604E-08         0.31938E-11         0.00000E+00
    0.96812E-08         0.27497E-11         0.00000E+00
    0.97079E-08         0.23128E-11         0.00000E+00
    0.97404E-08         0.19010E-11         0.00000E+00
    0.97785E-08         0.15237E-11         0.00000E+00
    0.98221E-08         0.11847E-11         0.00000E+00
    0.98711E-08         0.88422E-12         0.00000E+00
    0.99253E-08         0.62040E-12         0.00000E+00
    0.99848E-08         0.39002E-12         0.00000E+00
    0.10049E-07         0.18931E-12         0.00000E+00
    0.10119E-07         0.14354E-13         0.00000E+00
    0.10193E-07        -0.13863E-12         0.00000E+00
    0.10272E-07        -0.27313E-12         0.00000E+00
    0.10356E-07        -0.39228E-12         0.00000E+00
    0.10445E-07        -0.49878E-12         0.00000E+00
    0.10538E-07        -0.59497E-12         0.00000E+00
    0.10636E-07        -0.68280E-12         0.00000E+00
    0.10738E-07        -0.76391E-12         0.00000E+00
    0.10844E-07        -0.83963E-12         0.00000E+00
    0.10955E-07        -0.91104E-12         0.00000E+00
    0.11069E-07        -0.97903E-12         0.00000E+00
    0.11188E-07        -0.10443E-11         0.00000E+00
    0.11311E-07        -0.11074E-11         0.00000E+00
    0.11437E-07        -0.11687E-11         0.00000E+00
    0.11568E-07        -0.12287E-11         0.00000E+00
    0.11701E-07        -0.12875E-11         0.00000E+00
    0.11839E-07        -0.13453E-11         0.00000E+00
    0.11980E-07        -0.14023E-11         0.00000E+00
    0.12124E-07        -0.14586E-11         0.00000E+00
    0.12271E-07        -0.15143E-11         0.00000E+00
    0.12422E-07        -0.15693E-11         0.00000E+00
    0.12575E-07        -0.16237E-11         0.00000E+00
    0.12732E-07        -0.16774E-11         0.00000E+00
    0.12891E-07        -0.17305E-11         0.00000E+00
    0.13052E-07        -0.17829E-11         0.00000E+00
    0.13216E-07        -0.18346E-11         0.00000E+00
    0.13383E-07        -0.18854E-11         0.00000E+00
    0.13551E-07        -0.19352E-11         0.00000E+00
    0.13722E-07        -0.19841E-11         0.00000E+00
    0.13894E-07        -0.20319E-11         0.00000E+00
    0.14068E-07        -0.20784E-11         0.00000E+00
    0.14244E-07        -0.21236E-11         0.00000E+00
    0.14421E-07        -0.21673E-11         0.00000E+00
    0.14599E-07        -0.22094E-11         0.00000E+00
    0.14779E-07        -0.22498E-11         0.00000E+00
    0.14959E-07        -0.22883E-11         0.00000E+00
    0.15140E-07        -0.23247E-11         0.00000E+00
    0.15321E-07        -0.23590E-11         0.00000E+00
    0.15503E-07        -0.23908E-11         0.00000E+00
    0.15685E-07        -0.24201E-11         0.00000E+00
    0.15867E-07        -0.24467E-11         0.00000E+00
    0.16049E-07        -0.24703E-11         0.00000E+00
    0.16231E-07        -0.24908E-11         0.00000E+00
    0.16411E-07        -0.25081E-11         0.00000E+00
    0.16591E-07        -0.25218E-11         0.00000E+00
    0.16770E-07        -0.25318E-11         0.00000E+00
    0.16948E-07        -0.25379E-11         0.00000E+00
    0.17125E-07        -0.25399E-11         0.00000E+00
    0.17299E-07        -0.25376E-11         0.00000E+00
    0.17472E-07        -0.25306E-11         0.00000E+00
    0.17643E-07        -0.25188E-11         0.00000E+00
    0.17812E-07        -0.25019E-11         0.00000E+00
    0.17978E-07        -0.24795E-11         0.00000E+00
    0.18141E-07        -0.24515E-11         0.00000E+00
    0.18301E-07        -0.24174E-11         0.00000E+00
    0.18459E-07        -0.23768E-11         0.00000E+00
    0.18613E-07        -0.23292E-11         0.00000E+00
    0.18763E-07        -0.22741E-11         0.00000E+00
    0.18910E-07        -0.22109E-11         0.00000E+00
    0.19053E-07        -0.21386E-11         0.00000E+00
    0.19191E-07        -0.20564E-11         0.00000E+00
    0.19325E-07        -0.19630E-11         0.00000E+00
    0.19455E-07        -0.18571E-11         0.00000E+00
    0.19580E-07        -0.17368E-11         0.00000E+00
    0.19700E-07        -0.16002E-11         0.00000E+00
    0.19814E-07        -0.14447E-11         0.00000E+00
    0.19923E-07        -0.12673E-11         0.00000E+00
    0.20027E-07        -0.10647E-11         0.00000E+00
    0.20125E-07        -0.83284E-12         0.00000E+00
    0.20216E-07        -0.56745E-12         0.00000E+00
    0.20302E-07        -0.26379E-12         0.00000E+00
    0.20381E-07         0.82999E-13         0.00000E+00
    0.20454E-07         0.47752E-12         0.00000E+00
    0.20519E-07         0.92356E-12         0.00000E+00
    0.20578E-07         0.14233E-11         0.00000E+00
    0.20630E-07         0.19758E-11         0.00000E+00
    0.20674E-07         0.25757E-11         0.00000E+00
    0.20711E-07         0.32099E-11         0.00000E+00
    0.20740E-07         0.38546E-11         0.00000E+00
    0.20761E-07         0.44686E-11         0.00000E+00
    0.20773E-07         0.49833E-11         0.00000E+00
    0.20777E-07         0.52790E-11         0.00000E+00
    0.20771E-07         0.51403E-11         0.00000E+00
    0.20754E-07         0.40185E-11         0.00000E+00
    0.20743E-07         0.00000E+00         0.00000E+00
    0.96640E-08         0.00000E+00         0.00000E+00
    0.96552E-08         0.25389E-11         0.00000E+00
    0.96416E-08         0.31447E-11         0.00000E+00
    0.96359E-08         0.32227E-11         0.00000E+00
    0.96374E-08         0.30596E-11         0.00000E+00
    0.96457E-08         0.27780E-11         0.00000E+00
    0.96603E-08         0.24447E-11         0.00000E+00
    0.96811E-08         0.20972E-11         0.00000E+00
    0.97078E-08         0.17581E-11         0.00000E+00
    0.97403E-08         0.14402E-11         0.00000E+00
    0.97784E-08         0.11501E-11         0.00000E+00
    0.98220E-08         0.89033E-12         0.00000E+00
    0.98710E-08         0.66071E-12         0.00000E+00
    0.99253E-08         0.45954E-12         0.00000E+00
    0.99847E-08         0.28422E-12         0.00000E+00
    0.10049E-07         0.13173E-12         0.00000E+00
    0.10119E-07        -0.10039E-14         0.00000E+00
    0.10193E-07        -0.11693E-12         0.00000E+00
    0.10272E-07        -0.21877E-12         0.00000E+00
    0.10356E-07        -0.30892E-12         0.00000E+00
    0.10445E-07        -0.38948E-12         0.00000E+00
    0.10538E-07        -0.46224E-12         0.00000E+00
    0.10636E-07        -0.52870E-12         0.00000E+00
    0.10738E-07        -0.59009E-12         0.00000E+00
    0.10844E-07        -0.64744E-12         0.00000E+00
    0.10955E-07        -0.70157E-12         0.00000E+00
    0.11069E-07        -0.75315E-12         0.00000E+00
    0.11188E-07        -0.80270E-12         0.00000E+00
    0.11311E-07        -0.85065E-12         0.00000E+00
    0.11437E-07        -0.89731E-12         0.00000E+00
    0.11568E-07        -0.94294E-12         0.00000E+00
    0.11701E-07        -0.98773E-12         0.00000E+00
    0.11839E-07        -0.10318E-11         0.00000E+00
    0.11980E-07        -0.10753E-11         0.00000E+00
    0.12124E-07        -0.11183E-11         0.00000E+00
    0.12271E-07        -0.11608E-11         0.00000E+00
    0.12422E-07        -0.12028E-11         0.00000E+00
    0.12575E-07        -0.12444E-11         0.00000E+00
    0.12732E-07        -0.12855E-11         0.00000E+00
    0.12891E-07        -0.13261E-11         0.00000E+00
    0.13052E-07        -0.13662E-11         0.00000E+00
    0.13216E-07        -0.14058E-11         0.00000E+00
    0.13383E-07        -0.14447E-11         0.00000E+00
    0.13551E-07        -0.14829E-11         0.00000E+00
    0.13722E-07        -0.15203E-11         0.00000E+00
    0.13894E-07        -0.15569E-11         0.00000E+00
    0.14068E-07        -0.15926E-11         0.00000E+00
    0.14244E-07        -0.16272E-11         0.00000E+00
    0.14421E-07        -0.16608E-11         0.00000E+00
    0.14599E-07        -0.16931E-11         0.00000E+00
    0.14779E-07        -0.17241E-11         0.00000E+00
    0.14959E-07        -0.17537E-11         0.00000E+00
    0.15140E-07        -0.17817E-11         0.00000E+00
    0.15321E-07        -0.18080E-11         0.00000E+00
    0.15503E-07        -0.18325E-11         0.00000E+00
    0.15685E-07        -0.18550E-11         0.00000E+00
    0.15867E-07        -0.18755E-11         0.00000E+00
    0.16049E-07        -0.18937E-11         0.00000E+00
    0.16231E-07        -0.19096E-11         0.00000E+00
    0.16411E-07        -0.19229E-11         0.00000E+00
    0.16591E-07        -0.19336E-11         0.00000E+00
    0.16770E-07        -0.19415E-11         0.00000E+00
    0.16948E-07        -0.19463E-11         0.00000E+00
    0.17125E-07        -0.19481E-11         0.00000E+00
    0.17299E-07        -0.19465E-11         0.00000E+00
    0.17472E-07        -0.19414E-11         0.00000E+00
    0.17643E-07        -0.19326E-11         0.00000E+00
    0.17812E-07        -0.19199E-11         0.00000E+00
    0.17978E-07        -0.19031E-11         0.00000E+00
    0.18141E-07        -0.18820E-11         0.00000E+00
    0.18301E-07        -0.18562E-11         0.00000E+00
    0.18459E-07        -0.18256E-11         0.00000E+00
    0.18613E-07        -0.17896E-11         0.00000E+00
    0.18763E-07        -0.17479E-11         0.00000E+00
    0.18910E-07        -0.17000E-11         0.00000E+00
    0.19053E-07        -0.16453E-11         0.00000E+00
    0.19191E-07        -0.15831E-11         0.00000E+00
    0.19326E-07        -0.15124E-11         0.00000E+00
    0.19455E-07        -0.14322E-11         0.00000E+00
    0.19580E-07        -0.13411E-11         0.00000E+00
    0.19700E-07        -0.12376E-11         0.00000E+00
    0.19814E-07        -0.11197E-11         0.00000E+00
    0.19923E-07        -0.98517E-12         0.00000E+00
    0.20027E-07        -0.83140E-12         0.00000E+00
    0.20125E-07        -0.65533E-12         0.00000E+00
    0.20216E-07        -0.45356E-12         0.00000E+00
    0.20302E-07        -0.22242E-12         0.00000E+00
    0.20381E-07         0.41923E-13         0.00000E+00
    0.20454E-07         0.34315E-12         0.00000E+00
    0.20519E-07         0.68440E-12         0.00000E+00
    0.20578E-07         0.10676E-11         0.00000E+00
    0.20630E-07         0.14926E-11         0.00000E+00
    0.20674E-07         0.19556E-11         0.00000E+00
    0.20711E-07         0.24476E-11         0.00000E+00
    0.20740E-07         0.29514E-11         0.00000E+00
    0.20761E-07         0.34369E-11         0.00000E+00
    0.20773E-07         0.38543E-11         0.00000E+00
    0.20777E-07         0.41153E-11         0.00000E+00
    0.20770E-07         0.40585E-11         0.00000E+00
    0.20754E-07         0.33056E-11         0.00000E+00
    0.20743E-07        -0.18626E-20         0.00000E+00
    0.96645E-08         0.00000E+00         0.00000E+00
    0.96555E-08         0.18568E-11         0.00000E+00
    0.96417E-08         0.21950E-11         0.00000E+00
    0.96359E-08         0.22264E-11         0.00000E+00
    0.96374E-08         0.20972E-11         0.00000E+00
    0.96456E-08         0.18947E-11         0.00000E+00
    0.96603E-08         0.16605E-11         0.00000E+00
    0.96811E-08         0.14196E-11         0.00000E+00
    0.97078E-08         0.11862E-11         0.00000E+00
    0.97403E-08         0.96847E-12         0.00000E+00
    0.97784E-08         0.77058E-12         0.00000E+00
    0.98220E-08         0.59392E-12         0.00000E+00
    0.98710E-08         0.43818E-12         0.00000E+00
    0.99253E-08         0.30204E-12         0.00000E+00
    0.99847E-08         0.18361E-12         0.00000E+00
    0.10049E-07         0.80775E-13         0.00000E+00
    0.10119E-07        -0.86138E-14         0.00000E+00
    0.10193E-07        -0.86599E-13         0.00000E+00
    0.10272E-07        -0.15505E-12         0.00000E+00
    0.10356E-07        -0.21561E-12         0.00000E+00
    0.10445E-07        -0.26971E-12         0.00000E+00
    0.10538E-07        -0.31858E-12         0.00000E+00
    0.10636E-07        -0.36322E-12         0.00000E+00
    0.10738E-07        -0.40449E-12         0.00000E+00
    0.10844E-07        -0.44306E-12         0.00000E+00
    0.10955E-07        -0.47949E-12         0.00000E+00
    0.11069E-07        -0.51423E-12         0.00000E+00
    0.11188E-07        -0.54764E-12         0.00000E+00
    0.11311E-07        -0.57999E-12         0.00000E+00
    0.11437E-07        -0.61151E-12         0.00000E+00
    0.11568E-07        -0.64235E-12         0.00000E+00
    0.11701E-07        -0.67264E-12         0.00000E+00
    0.11839E-07        -0.70249E-12         0.00000E+00
    0.11980E-07        -0.73195E-12         0.00000E+00
    0.12124E-07        -0.76107E-12         0.00000E+00
    0.12271E-07        -0.78988E-12         0.00000E+00
    0.12422E-07        -0.81839E-12         0.00000E+00
    0.12575E-07        -0.84661E-12         0.00000E+00
    0.12732E-07        -0.87452E-12         0.00000E+00
    0.12891E-07        -0.90211E-12         0.00000E+00
    0.13052E-07        -0.92936E-12         0.00000E+00
    0.13216E-07        -0.95622E-12         0.00000E+00
    0.13383E-07        -0.98266E-12         0.00000E+00
    0.13551E-07        -0.10086E-11         0.00000E+00
    0.13722E-07        -0.10341E-11         0.00000E+00
    0.13894E-07        -0.10590E-11         0.00000E+00
    0.14068E-07        -0.10833E-11         0.00000E+00
    0.14244E-07        -0.11069E-11         0.00000E+00
    0.14421E-07        -0.11297E-11         0.00000E+00
    0.14599E-07        -0.11518E-11         0.00000E+00
    0.14779E-07        -0.11729E-11         0.00000E+00
    0.14959E-07        -0.11930E-11         0.00000E+00
    0.15140E-07        -0.12121E-11         0.00000E+00
    0.15321E-07        -0.12301E-11         0.00000E+00
    0.15503E-07        -0.12468E-11         0.00000E+00
    0.15685E-07        -0.12622E-11         0.00000E+00
    0.15867E-07        -0.12762E-11         0.00000E+00
    0.16049E-07        -0.12887E-11         0.00000E+00
    0.16231E-07        -0.12996E-11         0.00000E+00
    0.16411E-07        -0.13087E-11         0.00000E+00
    0.16591E-07        -0.13161E-11         0.00000E+00
    0.16770E-07        -0.13216E-11         0.00000E+00
    0.16948E-07        -0.13250E-11         0.00000E+00
    0.17125E-07        -0.13263E-11         0.00000E+00
    0.17299E-07        -0.13254E-11         0.00000E+00
    0.17472E-07        -0.13220E-11         0.00000E+00
    0.17643E-07        -0.13162E-11         0.00000E+00
    0.17812E-07        -0.13078E-11         0.00000E+00
    0.17978E-07        -0.12966E-11         0.00000E+00
    0.18141E-07        -0.12824E-11         0.00000E+00
    0.18301E-07        -0.12652E-11         0.00000E+00
    0.18459E-07        -0.12446E-11         0.00000E+00
    0.18613E-07        -0.12204E-11         0.00000E+00
    0.18763E-07        -0.11925E-11         0.00000E+00
    0.18910E-07        -0.11603E-11         0.00000E+00
    0.19053E-07        -0.11235E-11         0.00000E+00
    0.19191E-07        -0.10817E-11         0.00000E+00
    0.19326E-07        -0.10342E-11         0.00000E+00
    0.19455E-07        -0.98021E-12         0.00000E+00
    0.19580E-07        -0.91896E-12         0.00000E+00
    0.19700E-07        -0.84931E-12         0.00000E+00
    0.19814E-07        -0.76997E-12         0.00000E+00
    0.19923E-07        -0.67941E-12         0.00000E+00
    0.20027E-07        -0.57581E-12         0.00000E+00
    0.20125E-07        -0.45710E-12         0.00000E+00
    0.20216E-07        -0.32094E-12         0.00000E+00
    0.20302E-07        -0.16477E-12         0.00000E+00
    0.20381E-07         0.14079E-13         0.00000E+00
    0.20454E-07         0.21821E-12         0.00000E+00
    0.20520E-07         0.44990E-12         0.00000E+00
    0.20578E-07         0.71067E-12         0.00000E+00
    0.20630E-07         0.10007E-11         0.00000E+00
    0.20675E-07         0.13177E-11         0.00000E+00
    0.20711E-07         0.16563E-11         0.00000E+00
    0.20740E-07         0.20052E-11         0.00000E+00
    0.20761E-07         0.23454E-11         0.00000E+00
    0.20773E-07         0.26440E-11         0.00000E+00
    0.20777E-07         0.28458E-11         0.00000E+00
    0.20770E-07         0.28357E-11         0.00000E+00
    0.20753E-07         0.24211E-11         0.00000E+00
    0.20742E-07         0.51733E-21         0.00000E+00
    0.96648E-08        -0.18626E-20         0.00000E+00
    0.96556E-08         0.10046E-11         0.00000E+00
    0.96417E-08         0.11371E-11         0.00000E+00
    0.96359E-08         0.11459E-11         0.00000E+00
    0.96374E-08         0.10720E-11         0.00000E+00
    0.96456E-08         0.96466E-12         0.00000E+00
    0.96602E-08         0.84260E-12         0.00000E+00
    0.96810E-08         0.71828E-12         0.00000E+00
    0.97077E-08         0.59854E-12         0.00000E+00
    0.97402E-08         0.48734E-12         0.00000E+00
    0.97784E-08         0.38658E-12         0.00000E+00
    0.98220E-08         0.29685E-12         0.00000E+00
    0.98710E-08         0.21791E-12         0.00000E+00
    0.99252E-08         0.14903E-12         0.00000E+00
    0.99847E-08         0.89214E-13         0.00000E+00
    0.10049E-07         0.37340E-13         0.00000E+00
    0.10119E-07        -0.77000E-14         0.00000E+00
    0.10193E-07        -0.46959E-13         0.00000E+00
    0.10272E-07        -0.81394E-13         0.00000E+00
    0.10356E-07        -0.11185E-12         0.00000E+00
    0.10445E-07        -0.13905E-12         0.00000E+00
    0.10538E-07        -0.16362E-12         0.00000E+00
    0.10636E-07        -0.18607E-12         0.00000E+00
    0.10738E-07        -0.20683E-12         0.00000E+00
    0.10844E-07        -0.22624E-12         0.00000E+00
    0.10955E-07        -0.24460E-12         0.00000E+00
    0.11069E-07        -0.26211E-12         0.00000E+00
    0.11188E-07        -0.27896E-12         0.00000E+00
    0.11311E-07        -0.29530E-12         0.00000E+00
    0.11437E-07        -0.31122E-12         0.00000E+00
    0.11568E-07        -0.32681E-12         0.00000E+00
    0.11701E-07        -0.34213E-12         0.00000E+00
    0.11839E-07        -0.35723E-12         0.00000E+00
    0.11980E-07        -0.37215E-12         0.00000E+00
    0.12124E-07        -0.38690E-12         0.00000E+00
    0.12271E-07        -0.40151E-12         0.00000E+00
    0.12422E-07        -0.41596E-12         0.00000E+00
    0.12575E-07        -0.43028E-12         0.00000E+00
    0.12732E-07        -0.44444E-12         0.00000E+00
    0.12891E-07        -0.45844E-12         0.00000E+00
    0.13052E-07        -0.47227E-12         0.00000E+00
    0.13216E-07        -0.48591E-12         0.00000E+00
    0.13382E-07        -0.49934E-12         0.00000E+00
    0.13551E-07        -0.51254E-12         0.00000E+00
    0.13722E-07        -0.52549E-12         0.00000E+00
    0.13894E-07        -0.53815E-12         0.00000E+00
    0.14068E-07        -0.55049E-12         0.00000E+00
    0.14244E-07        -0.56249E-12         0.00000E+00
    0.14421E-07        -0.57411E-12         0.00000E+00
    0.14599E-07        -0.58531E-12         0.00000E+00
    0.14779E-07        -0.59606E-12         0.00000E+00
    0.14959E-07        -0.60632E-12         0.00000E+00
    0.15140E-07        -0.61604E-12         0.00000E+00
    0.15321E-07        -0.62519E-12         0.00000E+00
    0.15503E-07        -0.63371E-12         0.00000E+00
    0.15685E-07        -0.64157E-12         0.00000E+00
    0.15867E-07        -0.64871E-12         0.00000E+00
    0.16049E-07        -0.65508E-12         0.00000E+00
    0.16231E-07        -0.66065E-12         0.00000E+00
    0.16411E-07        -0.66535E-12         0.00000E+00
    0.16591E-07        -0.66914E-12         0.00000E+00
    0.16770E-07        -0.67196E-12         0.00000E+00
    0.16948E-07        -0.67375E-12         0.00000E+00
    0.17125E-07        -0.67447E-12         0.00000E+00
    0.17299E-07        -0.67405E-12         0.00000E+00
    0.17472E-07        -0.67243E-12         0.00000E+00
    0.17643E-07        -0.66955E-12         0.00000E+00
    0.17812E-07        -0.66534E-12         0.00000E+00
    0.17978E-07        -0.65973E-12         0.00000E+00
    0.18141E-07        -0.65264E-12         0.00000E+00
    0.18301E-07        -0.64397E-12         0.00000E+00
    0.18459E-07        -0.63363E-12         0.00000E+00
    0.18613E-07        -0.62149E-12         0.00000E+00
    0.18763E-07        -0.60741E-12         0.00000E+00
    0.18910E-07        -0.59122E-12         0.00000E+00
    0.19053E-07        -0.57273E-12         0.00000E+00
    0.19191E-07        -0.55167E-12         0.00000E+00
    0.19326E-07        -0.52776E-12         0.00000E+00
    0.19455E-07        -0.50061E-12         0.00000E+00
    0.19580E-07        -0.46977E-12         0.00000E+00
    0.19700E-07        -0.43471E-12         0.00000E+00
    0.19814E-07        -0.39475E-12         0.00000E+00
    0.19923E-07        -0.34913E-12         0.00000E+00
    0.20027E-07        -0.29691E-12         0.00000E+00
    0.20125E-07        -0.23703E-12         0.00000E+00
    0.20216E-07        -0.16830E-12         0.00000E+00
    0.20302E-07        -0.89394E-13         0.00000E+00
    0.20381E-07         0.10677E-14         0.00000E+00
    0.20454E-07         0.10446E-12         0.00000E+00
    0.20520E-07         0.22199E-12         0.00000E+00
    0.20578E-07         0.35451E-12         0.00000E+00
    0.20630E-07         0.50222E-12         0.00000E+00
    0.20675E-07         0.66419E-12         0.00000E+00
    0.20711E-07         0.83779E-12         0.00000E+00
    0.20740E-07         0.10177E-11         0.00000E+00
    0.20761E-07         0.11947E-11         0.00000E+00
    0.20773E-07         0.13523E-11         0.00000E+00
    0.20777E-07         0.14658E-11         0.00000E+00
    0.20770E-07         0.14702E-11         0.00000E+00
    0.20753E-07         0.13114E-11         0.00000E+00
    0.20742E-07        -0.51734E-21         0.00000E+00
    0.96649E-08        -0.37253E-20         0.00000E+00
    0.96557E-08         0.53002E-12         0.00000E+00
    0.96417E-08         0.58147E-12         0.00000E+00
    0.96359E-08         0.58410E-12         0.00000E+00
    0.96374E-08         0.54375E-12         0.00000E+00
    0.96456E-08         0.48808E-12         0.00000E+00
    0.96602E-08         0.42534E-12         0.00000E+00
    0.96810E-08         0.36190E-12         0.00000E+00
    0.97077E-08         0.30102E-12         0.00000E+00
    0.97402E-08         0.24464E-12         0.00000E+00
    0.97784E-08         0.19365E-12         0.00000E+00
    0.98220E-08         0.14832E-12         0.00000E+00
    0.98710E-08         0.10851E-12         0.00000E+00
    0.99252E-08         0.73806E-13         0.00000E+00
    0.99847E-08         0.43700E-13         0.00000E+00
    0.10049E-07         0.17616E-13         0.00000E+00
    0.10119E-07        -0.50141E-14         0.00000E+00
    0.10193E-07        -0.24728E-13         0.00000E+00
    0.10272E-07        -0.42011E-13         0.00000E+00
    0.10356E-07        -0.57292E-13         0.00000E+00
    0.10445E-07        -0.70940E-13         0.00000E+00
    0.10538E-07        -0.83267E-13         0.00000E+00
    0.10636E-07        -0.94534E-13         0.00000E+00
    0.10738E-07        -0.10495E-12         0.00000E+00
    0.10844E-07        -0.11470E-12         0.00000E+00
    0.10955E-07        -0.12392E-12         0.00000E+00
    0.11069E-07        -0.13273E-12         0.00000E+00
    0.11188E-07        -0.14120E-12         0.00000E+00
    0.11311E-07        -0.14942E-12         0.00000E+00
    0.11437E-07        -0.15743E-12         0.00000E+00
    0.11568E-07        -0.16528E-12         0.00000E+00
    0.11701E-07        -0.17300E-12         0.00000E+00
    0.11839E-07        -0.18062E-12         0.00000E+00
    0.11980E-07        -0.18814E-12         0.00000E+00
    0.12124E-07        -0.19558E-12         0.00000E+00
    0.12271E-07        -0.20294E-12         0.00000E+00
    0.12422E-07        -0.21024E-12         0.00000E+00
    0.12575E-07        -0.21746E-12         0.00000E+00
    0.12732E-07        -0.22461E-12         0.00000E+00
    0.12891E-07        -0.23168E-12         0.00000E+00
    0.13052E-07        -0.23867E-12         0.00000E+00
    0.13216E-07        -0.24556E-12         0.00000E+00
    0.13382E-07        -0.25234E-12         0.00000E+00
    0.13551E-07        -0.25901E-12         0.00000E+00
    0.13722E-07        -0.26556E-12         0.00000E+00
    0.13894E-07        -0.27195E-12         0.00000E+00
    0.14068E-07        -0.27819E-12         0.00000E+00
    0.14244E-07        -0.28426E-12         0.00000E+00
    0.14421E-07        -0.29014E-12         0.00000E+00
    0.14599E-07        -0.29580E-12         0.00000E+00
    0.14779E-07        -0.30124E-12         0.00000E+00
    0.14959E-07        -0.30643E-12         0.00000E+00
    0.15140E-07        -0.31135E-12         0.00000E+00
    0.15321E-07        -0.31598E-12         0.00000E+00
    0.15503E-07        -0.32030E-12         0.00000E+00
    0.15685E-07        -0.32428E-12         0.00000E+00
    0.15867E-07        -0.32789E-12         0.00000E+00
    0.16049E-07        -0.33113E-12         0.00000E+00
    0.16231E-07        -0.33395E-12         0.00000E+00
    0.16411E-07        -0.33634E-12         0.00000E+00
    0.16591E-07        -0.33827E-12         0.00000E+00
    0.16770E-07        -0.33971E-12         0.00000E+00
    0.16948E-07        -0.34063E-12         0.00000E+00
    0.17125E-07        -0.34101E-12         0.00000E+00
    0.17299E-07        -0.34082E-12         0.00000E+00
    0.17472E-07        -0.34003E-12         0.00000E+00
    0.17643E-07        -0.33859E-12         0.00000E+00
    0.17812E-07        -0.33649E-12         0.00000E+00
    0.17978E-07        -0.33369E-12         0.00000E+00
    0.18141E-07        -0.33013E-12         0.00000E+00
    0.18301E-07        -0.32579E-12         0.00000E+00
    0.18459E-07        -0.32060E-12         0.00000E+00
    0.18613E-07        -0.31451E-12         0.00000E+00
    0.18763E-07        -0.30744E-12         0.00000E+00
    0.18910E-07        -0.29932E-12         0.00000E+00
    0.19053E-07        -0.29004E-12         0.00000E+00
    0.19191E-07        -0.27947E-12         0.00000E+00
    0.19326E-07        -0.26746E-12         0.00000E+00
    0.19455E-07        -0.25383E-12         0.00000E+00
    0.19580E-07        -0.23834E-12         0.00000E+00
    0.19700E-07        -0.22073E-12         0.00000E+00
    0.19814E-07        -0.20066E-12         0.00000E+00
    0.19923E-07        -0.17774E-12         0.00000E+00
    0.20027E-07        -0.15150E-12         0.00000E+00
    0.20125E-07        -0.12139E-12         0.00000E+00
    0.20216E-07        -0.86815E-13         0.00000E+00
    0.20302E-07        -0.47096E-13         0.00000E+00
    0.20381E-07        -0.15259E-14         0.00000E+00
    0.20454E-07         0.50602E-13         0.00000E+00
    0.20520E-07         0.10992E-12         0.00000E+00
    0.20578E-07         0.17689E-12         0.00000E+00
    0.20630E-07         0.25165E-12         0.00000E+00
    0.20675E-07         0.33378E-12         0.00000E+00
    0.20711E-07         0.42203E-12         0.00000E+00
    0.20740E-07         0.51377E-12         0.00000E+00
    0.20761E-07         0.60464E-12         0.00000E+00
    0.20773E-07         0.68619E-12         0.00000E+00
    0.20777E-07         0.74753E-12         0.00000E+00
    0.20770E-07         0.75212E-12         0.00000E+00
    0.20753E-07         0.69237E-12         0.00000E+00
    0.20742E-07         0.10347E-20         0.00000E+00
CELL_DATA       5000
TENSORS stressef double 
    0.29516E+05         0.72566E+05         0.00000E+00
    0.72566E+05        -0.47475E+08         0.00000E+00
    0.00000E+00         0.00000E+00        -0.15855E-08
 
    0.18727E+05         0.19173E+06         0.00000E+00
    0.19173E+06        -0.47514E+08         0.00000E+00
    0.00000E+00         0.00000E+00        -0.14265E-08
 
    0.15301E+05         0.27620E+06         0.00000E+00
    0.27620E+06        -0.47573E+08         0.00000E+00
    0.00000E+00         0.00000E+00         0.95133E-09
 
    0.12978E+05         0.34625E+06         0.00000E+00
    0.34625E+06        -0.47645E+08         0.00000E+00
    0.00000E+00         0.00000E+00        -0.31741E-09
 
    0.11487E+05         0.40691E+06         0.00000E+00
    0.40691E+06        -0.47728E+08         0.00000E+00
    0.00000E+00         0.00000E+00         0.19027E-08
 
    0.10418E+05         0.46125E+06         0.00000E+00
    0.46125E+06        -0.47821E+08         0.00000E+00
    0.00000E+00         0.00000E+00        -0.22196E-08
 
    0.96132E+04         0.51101E+06         0.00000E+00
    0.51101E+06        -0.47921E+08         0.00000E+00
    0.00000E+00         0.00000E+00        -0.33301E-08
 
    0.89654E+04         0.55722E+06         0.00000E+00
    0.55722E+06        -0.48026E+08         0.00000E+00
    0.00000E+00         0.00000E+00        -0.22201E-08
 
    0.84129E+04         0.60050E+06         0.00000E+00
    0.60050E+06        -0.48135E+08         0.00000E+00
    0.00000E+00         0.00000E+00         0.14270E-08
 
    0.79190E+04         0.64123E+06         0.00000E+00
    0.64123E+06        -0.48248E+08         0.00000E+00
    0.00000E+00         0.00000E+00        -0.47567E-09
 
    0.74635E+04         0.67962E+06         0.00000E+00
    0.67962E+06        -0.48361E+08         0.00000E+00
    0.00000E+00         0.00000E+00        -0.15857E-08
 
    0.70362E+04         0.71584E+06         0.00000E+00
    0.71584E+06        -0.48476E+08         0.00000E+00
    0.00000E+00         0.00000E+00         0.95133E-09
 
    0.66328E+04         0.75000E+06         0.00000E+00
    0.75000E+06        -0.48591E+08         0.00000E+00
    0.00000E+00         0.00000E+00         0.63392E-09
 
    0.62523E+04         0.78222E+06         0.00000E+00
    0.78222E+06        -0.48706E+08         0.00000E+00
    0.00000E+00         0.00000E+00        -0.17444E-08
 
    0.58949E+04         0.81261E+06         0.00000E+00
    0.81261E+06        -0.48821E+08         0.00000E+00
    0.00000E+00         0.00000E+00         0.19027E-08
 
    0.55618E+04         0.84127E+06         0.00000E+00
    0.84127E+06        -0.48936E+08         0.00000E+00
    0.00000E+00         0.00000E+00        -0.15871E-09
 
    0.52537E+04         0.86833E+06         0.00000E+00
    0.86833E+06        -0.49050E+08         0.00000E+00
    0.00000E+00         0.00000E+00        -0.19027E-08
 
    0.49713E+04         0.89392E+06         0.00000E+00
    0.89392E+06        -0.49163E+08         0.00000E+00
    0.00000E+00         0.00000E+00         0.31714E-08
 
    0.47148E+04         0.91815E+06         0.00000E+00
    0.91815E+06        -0.49276E+08         0.00000E+00
    0.00000E+00         0.00000E+00         0.31696E-09
 
    0.44838E+04         0.94116E+06         0.00000E+00
    0.94116E+06        -0.49389E+08         0.00000E+00
    0.00000E+00         0.00000E+00        -0.95133E-09
 
    0.42776E+04         0.96307E+06         0.00000E+00
    0.96307E+06        -0.49502E+08         0.00000E+00
    0.00000E+00         0.00000E+00        -0.79262E-09
 
    0.40952E+04         0.98400E+06         0.00000E+00
    0.98400E+06        -0.49615E+08         0.00000E+00
    0.00000E+00         0.00000E+00        -0.63392E-09
 
    0.39354E+04         0.10041E+07         0.00000E+00
    0.10041E+07        -0.49727E+08         0.00000E+00
    0.00000E+00         0.00000E+00        -0.15871E-09
 
    0.37966E+04         0.10234E+07         0.00000E+00
    0.10234E+07        -0.49840E+08         0.00000E+00
    0.00000E+00         0.00000E+00         0.47567E-09
 
    0.36774E+04         0.10421E+07         0.00000E+00
    0.10421E+07        -0.49953E+08         0.00000E+00
    0.00000E+00         0.00000E+00        -0.47612E-09
 
    0.35759E+04         0.10602E+07         0.00000E+00
    0.10602E+07        -0.50067E+08         0.00000E+00
    0.00000E+00         0.00000E+00         0.19027E-08
 
    0.34907E+04         0.10778E+07         0.00000E+00
    0.10778E+07        -0.50181E+08         0.00000E+00
    0.00000E+00         0.00000E+00        -0.19027E-08
 
    0.34200E+04         0.10950E+07         0.00000E+00
    0.10950E+07        -0.50296E+08         0.00000E+00
    0.00000E+00         0.00000E+00         0.11096E-08
 
    0.33624E+04         0.11120E+07         0.00000E+00
    0.11120E+07        -0.50411E+08         0.00000E+00
    0.00000E+00         0.00000E+00        -0.19027E-08
 
    0.33162E+04         0.11286E+07         0.00000E+00
    0.11286E+07        -0.50528E+08         0.00000E+00
    0.00000E+00         0.00000E+00         0.79308E-09
 
    0.32802E+04         0.11451E+07         0.00000E+00
    0.11451E+07        -0.50645E+08         0.00000E+00
    0.00000E+00         0.00000E+00         0.15871E-09
 
    0.32529E+04         0.11613E+07         0.00000E+00
    0.11613E+07        -0.50763E+08         0.00000E+00
    0.00000E+00         0.00000E+00         0.11100E-08
 
    0.32332E+04         0.11775E+07         0.00000E+00
    0.11775E+07        -0.50883E+08         0.00000E+00
    0.00000E+00         0.00000E+00        -0.22201E-08
 
    0.32199E+04         0.11936E+07         0.00000E+00
    0.11936E+07        -0.51004E+08         0.00000E+00
    0.00000E+00         0.00000E+00        -0.95133E-09
 
    0.32119E+04         0.12096E+07         0.00000E+00
    0.12096E+07        -0.51126E+08         0.00000E+00
    0.00000E+00         0.00000E+00         0.15857E-08
 
    0.32084E+04         0.12256E+07         0.00000E+00
    0.12256E+07        -0.51249E+08         0.00000E+00
    0.00000E+00         0.00000E+00         0.47567E-09
 
    0.32083E+04         0.12415E+07         0.00000E+00
    0.12415E+07        -0.51373E+08         0.00000E+00
    0.00000E+00         0.00000E+00         0.11100E-08
 
    0.32109E+04         0.12575E+07         0.00000E+00
    0.12575E+07        -0.51499E+08         0.00000E+00
    0.00000E+00         0.00000E+00         0.12683E-08
 
    0.32155E+04         0.12735E+07         0.00000E+00
    0.12735E+07        -0.51627E+08         0.00000E+00
    0.00000E+00         0.00000E+00         0.00000E+00
 
    0.32213E+04         0.12895E+07         0.00000E+00
    0.12895E+07        -0.51756E+08         0.00000E+00
    0.00000E+00         0.00000E+00         0.00000E+00
 
    0.32278E+04         0.13056E+07         0.00000E+00
    0.13056E+07        -0.51887E+08         0.00000E+00
    0.00000E+00         0.00000E+00        -0.79262E-09
 
    0.32342E+04         0.13216E+07         0.00000E+00
    0.13216E+07        -0.52019E+08         0.00000E+00
    0.00000E+00         0.00000E+00         0.20618E-08
 
    0.32402E+04         0.13377E+07         0.00000E+00
    0.13377E+07        -0.52153E+08         0.00000E+00
    0.00000E+00         0.00000E+00         0.00000E+00
 
    0.32451E+04         0.13539E+07         0.00000E+00
    0.13539E+07        -0.52288E+08         0.00000E+00
    0.00000E+00         0.00000E+00         0.12683E-08
 
    0.32484E+04         0.13700E+07         0.00000E+00
    0.13700E+07        -0.52426E+08         0.00000E+00
    0.00000E+00         0.00000E+00         0.31741E-09
 
    0.32497E+04         0.13862E+07         0.00000E+00
    0.13862E+07        -0.52565E+08         0.00000E+00
    0.00000E+00         0.00000E+00        -0.15857E-08
 
    0.32486E+04         0.14023E+07         0.00000E+00
    0.14023E+07        -0.52706E+08         0.00000E+00
    0.00000E+00         0.00000E+00         0.47567E-09
 
    0.32446E+04         0.14185E+07         0.00000E+00
    0.14185E+07        -0.52849E+08         0.00000E+00
    0.00000E+00         0.00000E+00        -0.12683E-08
 
    0.32371E+04         0.14346E+07         0.00000E+00
    0.14346E+07        -0.52993E+08         0.00000E+00
    0.00000E+00         0.00000E+00        -0.17440E-08
 
    0.32259E+04         0.14506E+07         0.00000E+00
    0.14506E+07        -0.53140E+08         0.00000E+00
    0.00000E+00         0.00000E+00        -0.20614E-08
 
    0.32104E+04         0.14666E+07         0.00000E+00
    0.14666E+07        -0.53288E+08         0.00000E+00
    0.00000E+00         0.00000E+00         0.20614E-08
 
    0.31902E+04         0.14825E+07         0.00000E+00
    0.14825E+07        -0.53438E+08         0.00000E+00
    0.00000E+00         0.00000E+00        -0.31741E-09
 
    0.31648E+04         0.14983E+07         0.00000E+00
    0.14983E+07        -0.53591E+08         0.00000E+00
    0.00000E+00         0.00000E+00         0.15857E-08
 
    0.31336E+04         0.15140E+07         0.00000E+00
    0.15140E+07        -0.53745E+08         0.00000E+00
    0.00000E+00         0.00000E+00         0.63392E-09
 
    0.30963E+04         0.15294E+07         0.00000E+00
    0.15294E+07        -0.53901E+08         0.00000E+00
    0.00000E+00         0.00000E+00         0.11096E-08
 
    0.30521E+04         0.15447E+07         0.00000E+00
    0.15447E+07        -0.54059E+08         0.00000E+00
    0.00000E+00         0.00000E+00        -0.31710E-08
 
    0.30004E+04         0.15597E+07         0.00000E+00
    0.15597E+07        -0.54220E+08         0.00000E+00
    0.00000E+00         0.00000E+00        -0.30127E-08
 
    0.29406E+04         0.15745E+07         0.00000E+00
    0.15745E+07        -0.54382E+08         0.00000E+00
    0.00000E+00         0.00000E+00        -0.28540E-08
 
    0.28720E+04         0.15889E+07         0.00000E+00
    0.15889E+07        -0.54546E+08         0.00000E+00
    0.00000E+00         0.00000E+00         0.00000E+00
 
    0.27938E+04         0.16030E+07         0.00000E+00
    0.16030E+07        -0.54713E+08         0.00000E+00
    0.00000E+00         0.00000E+00         0.19018E-08
 
    0.27050E+04         0.16166E+07         0.00000E+00
    0.16166E+07        -0.54881E+08         0.00000E+00
    0.00000E+00         0.00000E+00         0.15825E-09
 
    0.26047E+04         0.16298E+07         0.00000E+00
    0.16298E+07        -0.55052E+08         0.00000E+00
    0.00000E+00         0.00000E+00         0.00000E+00
 
    0.24918E+04         0.16424E+07         0.00000E+00
    0.16424E+07        -0.55225E+08         0.00000E+00
    0.00000E+00         0.00000E+00        -0.31650E-09
 
    0.23652E+04         0.16545E+07         0.00000E+00
    0.16545E+07        -0.55400E+08         0.00000E+00
    0.00000E+00         0.00000E+00         0.00000E+00
 
    0.22235E+04         0.16658E+07         0.00000E+00
    0.16658E+07        -0.55577E+08         0.00000E+00
    0.00000E+00         0.00000E+00        -0.11105E-08
 
    0.20652E+04         0.16764E+07         0.00000E+00
    0.16764E+07        -0.55756E+08         0.00000E+00
    0.00000E+00         0.00000E+00        -0.17444E-08
 
    0.18888E+04         0.16862E+07         0.00000E+00
    0.16862E+07        -0.55938E+08         0.00000E+00
    0.00000E+00         0.00000E+00         0.15852E-08
 
    0.16925E+04         0.16950E+07         0.00000E+00
    0.16950E+07        -0.56122E+08         0.00000E+00
    0.00000E+00         0.00000E+00         0.31650E-09
 
    0.14743E+04         0.17028E+07         0.00000E+00
    0.17028E+07        -0.56308E+08         0.00000E+00
    0.00000E+00         0.00000E+00         0.00000E+00
 
    0.12322E+04         0.17095E+07         0.00000E+00
    0.17095E+07        -0.56496E+08         0.00000E+00
    0.00000E+00         0.00000E+00         0.79217E-09
 
    0.96380E+03         0.17148E+07         0.00000E+00
    0.17148E+07        -0.56688E+08         0.00000E+00
    0.00000E+00         0.00000E+00        -0.47476E-09
 
    0.66666E+03         0.17188E+07         0.00000E+00
    0.17188E+07        -0.56881E+08         0.00000E+00
    0.00000E+00         0.00000E+00        -0.95042E-09
 
    0.33811E+03         0.17212E+07         0.00000E+00
    0.17212E+07        -0.57077E+08         0.00000E+00
    0.00000E+00         0.00000E+00        -0.15852E-08
 
   -0.24654E+02         0.17218E+07         0.00000E+00
    0.17218E+07        -0.57276E+08         0.00000E+00
    0.00000E+00         0.00000E+00         0.47567E-09
 
   -0.42457E+03         0.17206E+07         0.00000E+00
    0.17206E+07        -0.57478E+08         0.00000E+00
    0.00000E+00         0.00000E+00         0.63392E-09
 
   -0.86465E+03         0.17172E+07         0.00000E+00
    0.17172E+07        -0.57682E+08         0.00000E+00
    0.00000E+00         0.00000E+00         0.25375E-08
 
   -0.13479E+04         0.17115E+07         0.00000E+00
    0.17115E+07        -0.57889E+08         0.00000E+00
    0.00000E+00         0.00000E+00         0.00000E+00
 
   -0.18774E+04         0.17033E+07         0.00000E+00
    0.17033E+07        -0.58100E+08         0.00000E+00
    0.00000E+00         0.00000E+00         0.22201E-08
 
   -0.24559E+04         0.16923E+07         0.00000E+00
    0.16923E+07        -0.58313E+08         0.00000E+00
    0.00000E+00         0.00000E+00        -0.63392E-09
 
   -0.30858E+04         0.16783E+07         0.00000E+00
    0.16783E+07        -0.58530E+08         0.00000E+00
    0.00000E+00         0.00000E+00        -0.47567E-09
 
   -0.37694E+04         0.16610E+07         0.00000E+00
    0.16610E+07        -0.58750E+08         0.00000E+00
    0.00000E+00         0.00000E+00        -0.31741E-09
 
   -0.45080E+04         0.16401E+07         0.00000E+00
    0.16401E+07        -0.58974E+08         0.00000E+00
    0.00000E+00         0.00000E+00        -0.31714E-08
 
   -0.53024E+04         0.16154E+07         0.00000E+00
    0.16154E+07        -0.59201E+08         0.00000E+00
    0.00000E+00         0.00000E+00         0.15825E-09
 
   -0.61523E+04         0.15866E+07         0.00000E+00
    0.15866E+07        -0.59431E+08         0.00000E+00
    0.00000E+00         0.00000E+00         0.26948E-08
 
   -0.70566E+04         0.15534E+07         0.00000E+00
    0.15534E+07        -0.59665E+08         0.00000E+00
    0.00000E+00         0.00000E+00         0.00000E+00
 
   -0.80128E+04         0.15156E+07         0.00000E+00
    0.15156E+07        -0.59902E+08         0.00000E+00
    0.00000E+00         0.00000E+00         0.00000E+00
 
   -0.90181E+04         0.14729E+07         0.00000E+00
    0.14729E+07        -0.60142E+08         0.00000E+00
    0.00000E+00         0.00000E+00         0.19027E-08
 
   -0.10069E+05         0.14250E+07         0.00000E+00
    0.14250E+07        -0.60385E+08         0.00000E+00
    0.00000E+00         0.00000E+00         0.00000E+00
 
   -0.11164E+05         0.13719E+07         0.00000E+00
    0.13719E+07        -0.60629E+08         0.00000E+00
    0.00000E+00         0.00000E+00        -0.95133E-09
 
   -0.12303E+05         0.13132E+07         0.00000E+00
    0.13132E+07        -0.60874E+08         0.00000E+00
    0.00000E+00         0.00000E+00        -0.12687E-08
 
   -0.13495E+05         0.12488E+07         0.00000E+00
    0.12488E+07        -0.61118E+08         0.00000E+00
    0.00000E+00         0.00000E+00        -0.31741E-09
 
   -0.14761E+05         0.11784E+07         0.00000E+00
    0.11784E+07        -0.61359E+08         0.00000E+00
    0.00000E+00         0.00000E+00         0.41227E-08
 
   -0.16141E+05         0.11014E+07         0.00000E+00
    0.11014E+07        -0.61595E+08         0.00000E+00
    0.00000E+00         0.00000E+00        -0.15852E-08
 
   -0.17713E+05         0.10173E+07         0.00000E+00
    0.10173E+07        -0.61823E+08         0.00000E+00
    0.00000E+00         0.00000E+00         0.90949E-12
 
   -0.19609E+05         0.92466E+06         0.00000E+00
    0.92466E+06        -0.62039E+08         0.00000E+00
    0.00000E+00         0.00000E+00        -0.28549E-08
 
   -0.22056E+05         0.82139E+06         0.00000E+00
    0.82139E+06        -0.62240E+08         0.00000E+00
    0.00000E+00         0.00000E+00         0.00000E+00
 
   -0.25395E+05         0.70385E+06         0.00000E+00
    0.70385E+06        -0.62421E+08         0.00000E+00
    0.00000E+00         0.00000E+00         0.63392E-09
 
   -0.30506E+05         0.56552E+06         0.00000E+00
    0.56552E+06        -0.62577E+08         0.00000E+00
    0.00000E+00         0.00000E+00         0.22198E-08
 
   -0.37967E+05         0.39564E+06         0.00000E+00
    0.39564E+06        -0.62705E+08         0.00000E+00
    0.00000E+00         0.00000E+00         0.31696E-09
 
   -0.61300E+05         0.15060E+06         0.00000E+00
    0.15060E+06        -0.62790E+08         0.00000E+00
    0.00000E+00         0.00000E+00        -0.28529E-08
 
    0.85635E+05         0.63172E+05         0.00000E+00
    0.63172E+05        -0.47502E+08         0.00000E+00
    0.00000E+00         0.00000E+00        -0.15855E-08
 
    0.56745E+05         0.17361E+06         0.00000E+00
    0.17361E+06        -0.47534E+08         0.00000E+00
    0.00000E+00         0.00000E+00        -0.28542E-08
 
    0.45977E+05         0.25823E+06         0.00000E+00
    0.25823E+06        -0.47588E+08         0.00000E+00
    0.00000E+00         0.00000E+00         0.31696E-09
 
    0.39131E+05         0.32766E+06         0.00000E+00
    0.32766E+06        -0.47658E+08         0.00000E+00
    0.00000E+00         0.00000E+00        -0.41223E-08
 
    0.34606E+05         0.38812E+06         0.00000E+00
    0.38812E+06        -0.47740E+08         0.00000E+00
    0.00000E+00         0.00000E+00         0.25370E-08
 
    0.31377E+05         0.44229E+06         0.00000E+00
    0.44229E+06        -0.47831E+08         0.00000E+00
    0.00000E+00         0.00000E+00         0.12683E-08
 
    0.28930E+05         0.49193E+06         0.00000E+00
    0.49193E+06        -0.47930E+08         0.00000E+00
    0.00000E+00         0.00000E+00        -0.12683E-08
 
    0.26958E+05         0.53805E+06         0.00000E+00
    0.53805E+06        -0.48035E+08         0.00000E+00
    0.00000E+00         0.00000E+00        -0.25375E-08
 
    0.25275E+05         0.58124E+06         0.00000E+00
    0.58124E+06        -0.48144E+08         0.00000E+00
    0.00000E+00         0.00000E+00        -0.31696E-09
 
    0.23773E+05         0.62188E+06         0.00000E+00
    0.62188E+06        -0.48255E+08         0.00000E+00
    0.00000E+00         0.00000E+00        -0.31710E-08
 
    0.22389E+05         0.66018E+06         0.00000E+00
    0.66018E+06        -0.48369E+08         0.00000E+00
    0.00000E+00         0.00000E+00        -0.28540E-08
 
    0.21095E+05         0.69630E+06         0.00000E+00
    0.69630E+06        -0.48483E+08         0.00000E+00
    0.00000E+00         0.00000E+00        -0.31710E-08
 
    0.19875E+05         0.73035E+06         0.00000E+00
    0.73035E+06        -0.48598E+08         0.00000E+00
    0.00000E+00         0.00000E+00        -0.22196E-08
 
    0.18726E+05         0.76245E+06         0.00000E+00
    0.76245E+06        -0.48713E+08         0.00000E+00
    0.00000E+00         0.00000E+00        -0.95179E-09
 
    0.17649E+05         0.79271E+06         0.00000E+00
    0.79271E+06        -0.48827E+08         0.00000E+00
    0.00000E+00         0.00000E+00         0.38053E-08
 
    0.16647E+05         0.82123E+06         0.00000E+00
    0.82123E+06        -0.48941E+08         0.00000E+00
    0.00000E+00         0.00000E+00         0.45475E-12
 
    0.15721E+05         0.84814E+06         0.00000E+00
    0.84814E+06        -0.49055E+08         0.00000E+00
    0.00000E+00         0.00000E+00         0.95133E-09
 
    0.14873E+05         0.87356E+06         0.00000E+00
    0.87356E+06        -0.49168E+08         0.00000E+00
    0.00000E+00         0.00000E+00         0.28540E-08
 
    0.14103E+05         0.89762E+06         0.00000E+00
    0.89762E+06        -0.49281E+08         0.00000E+00
    0.00000E+00         0.00000E+00        -0.25366E-08
 
    0.13410E+05         0.92044E+06         0.00000E+00
    0.92044E+06        -0.49394E+08         0.00000E+00
    0.00000E+00         0.00000E+00        -0.25375E-08
 
    0.12792E+05         0.94216E+06         0.00000E+00
    0.94216E+06        -0.49506E+08         0.00000E+00
    0.00000E+00         0.00000E+00        -0.95133E-09
 
    0.12246E+05         0.96289E+06         0.00000E+00
    0.96289E+06        -0.49619E+08         0.00000E+00
    0.00000E+00         0.00000E+00        -0.95179E-09
 
    0.11768E+05         0.98276E+06         0.00000E+00
    0.98276E+06        -0.49731E+08         0.00000E+00
    0.00000E+00         0.00000E+00         0.95088E-09
 
    0.11352E+05         0.10019E+07         0.00000E+00
    0.10019E+07        -0.49844E+08         0.00000E+00
    0.00000E+00         0.00000E+00         0.00000E+00
 
    0.10995E+05         0.10203E+07         0.00000E+00
    0.10203E+07        -0.49957E+08         0.00000E+00
    0.00000E+00         0.00000E+00        -0.31741E-09
 
    0.10692E+05         0.10382E+07         0.00000E+00
    0.10382E+07        -0.50070E+08         0.00000E+00
    0.00000E+00         0.00000E+00         0.45475E-12
 
    0.10437E+05         0.10556E+07         0.00000E+00
    0.10556E+07        -0.50185E+08         0.00000E+00
    0.00000E+00         0.00000E+00         0.31696E-09
 
    0.10225E+05         0.10726E+07         0.00000E+00
    0.10726E+07        -0.50299E+08         0.00000E+00
    0.00000E+00         0.00000E+00         0.95179E-09
 
    0.10053E+05         0.10892E+07         0.00000E+00
    0.10892E+07        -0.50415E+08         0.00000E+00
    0.00000E+00         0.00000E+00        -0.28540E-08
 
    0.99148E+04         0.11056E+07         0.00000E+00
    0.11056E+07        -0.50531E+08         0.00000E+00
    0.00000E+00         0.00000E+00        -0.22201E-08
 
    0.98071E+04         0.11218E+07         0.00000E+00
    0.11218E+07        -0.50648E+08         0.00000E+00
    0.00000E+00         0.00000E+00         0.47567E-08
 
    0.97255E+04         0.11378E+07         0.00000E+00
    0.11378E+07        -0.50767E+08         0.00000E+00
    0.00000E+00         0.00000E+00         0.15857E-08
 
    0.96665E+04         0.11537E+07         0.00000E+00
    0.11537E+07        -0.50886E+08         0.00000E+00
    0.00000E+00         0.00000E+00        -0.15852E-08
 
    0.96267E+04         0.11695E+07         0.00000E+00
    0.11695E+07        -0.51007E+08         0.00000E+00
    0.00000E+00         0.00000E+00         0.15857E-08
 
    0.96029E+04         0.11852E+07         0.00000E+00
    0.11852E+07        -0.51129E+08         0.00000E+00
    0.00000E+00         0.00000E+00        -0.63437E-09
 
    0.95922E+04         0.12009E+07         0.00000E+00
    0.12009E+07        -0.51252E+08         0.00000E+00
    0.00000E+00         0.00000E+00         0.63437E-09
 
    0.95920E+04         0.12165E+07         0.00000E+00
    0.12165E+07        -0.51377E+08         0.00000E+00
    0.00000E+00         0.00000E+00         0.31741E-09
 
    0.95998E+04         0.12322E+07         0.00000E+00
    0.12322E+07        -0.51503E+08         0.00000E+00
    0.00000E+00         0.00000E+00         0.15857E-08
 
    0.96135E+04         0.12479E+07         0.00000E+00
    0.12479E+07        -0.51630E+08         0.00000E+00
    0.00000E+00         0.00000E+00         0.00000E+00
 
    0.96309E+04         0.12636E+07         0.00000E+00
    0.12636E+07        -0.51759E+08         0.00000E+00
    0.00000E+00         0.00000E+00         0.63437E-09
 
    0.96501E+04         0.12793E+07         0.00000E+00
    0.12793E+07        -0.51890E+08         0.00000E+00
    0.00000E+00         0.00000E+00         0.95179E-09
 
    0.96694E+04         0.12950E+07         0.00000E+00
    0.12950E+07        -0.52022E+08         0.00000E+00
    0.00000E+00         0.00000E+00         0.00000E+00
 
    0.96871E+04         0.13108E+07         0.00000E+00
    0.13108E+07        -0.52156E+08         0.00000E+00
    0.00000E+00         0.00000E+00        -0.22205E-08
 
    0.97017E+04         0.13266E+07         0.00000E+00
    0.13266E+07        -0.52292E+08         0.00000E+00
    0.00000E+00         0.00000E+00         0.12683E-08
 
    0.97117E+04         0.13424E+07         0.00000E+00
    0.13424E+07        -0.52429E+08         0.00000E+00
    0.00000E+00         0.00000E+00         0.95088E-09
 
    0.97157E+04         0.13582E+07         0.00000E+00
    0.13582E+07        -0.52568E+08         0.00000E+00
    0.00000E+00         0.00000E+00        -0.34884E-08
 
    0.97123E+04         0.13740E+07         0.00000E+00
    0.13740E+07        -0.52709E+08         0.00000E+00
    0.00000E+00         0.00000E+00         0.19031E-08
 
    0.97001E+04         0.13898E+07         0.00000E+00
    0.13898E+07        -0.52852E+08         0.00000E+00
    0.00000E+00         0.00000E+00        -0.31696E-09
 
    0.96779E+04         0.14055E+07         0.00000E+00
    0.14055E+07        -0.52996E+08         0.00000E+00
    0.00000E+00         0.00000E+00        -0.95133E-09
 
    0.96443E+04         0.14213E+07         0.00000E+00
    0.14213E+07        -0.53143E+08         0.00000E+00
    0.00000E+00         0.00000E+00        -0.12683E-08
 
    0.95980E+04         0.14369E+07         0.00000E+00
    0.14369E+07        -0.53291E+08         0.00000E+00
    0.00000E+00         0.00000E+00        -0.47567E-08
 
    0.95375E+04         0.14524E+07         0.00000E+00
    0.14524E+07        -0.53442E+08         0.00000E+00
    0.00000E+00         0.00000E+00        -0.12683E-08
 
    0.94615E+04         0.14679E+07         0.00000E+00
    0.14679E+07        -0.53594E+08         0.00000E+00
    0.00000E+00         0.00000E+00         0.95133E-09
 
    0.93684E+04         0.14832E+07         0.00000E+00
    0.14832E+07        -0.53748E+08         0.00000E+00
    0.00000E+00         0.00000E+00         0.95179E-09
 
    0.92566E+04         0.14983E+07         0.00000E+00
    0.14983E+07        -0.53904E+08         0.00000E+00
    0.00000E+00         0.00000E+00         0.12687E-08
 
    0.91244E+04         0.15132E+07         0.00000E+00
    0.15132E+07        -0.54062E+08         0.00000E+00
    0.00000E+00         0.00000E+00        -0.19031E-08
 
    0.89699E+04         0.15278E+07         0.00000E+00
    0.15278E+07        -0.54223E+08         0.00000E+00
    0.00000E+00         0.00000E+00        -0.63437E-09
 
    0.87912E+04         0.15422E+07         0.00000E+00
    0.15422E+07        -0.54385E+08         0.00000E+00
    0.00000E+00         0.00000E+00         0.12683E-08
 
    0.85860E+04         0.15563E+07         0.00000E+00
    0.15563E+07        -0.54549E+08         0.00000E+00
    0.00000E+00         0.00000E+00         0.28540E-08
 
    0.83520E+04         0.15700E+07         0.00000E+00
    0.15700E+07        -0.54715E+08         0.00000E+00
    0.00000E+00         0.00000E+00        -0.19036E-08
 
    0.80866E+04         0.15833E+07         0.00000E+00
    0.15833E+07        -0.54884E+08         0.00000E+00
    0.00000E+00         0.00000E+00        -0.19027E-08
 
    0.77867E+04         0.15961E+07         0.00000E+00
    0.15961E+07        -0.55054E+08         0.00000E+00
    0.00000E+00         0.00000E+00         0.63301E-09
 
    0.74492E+04         0.16084E+07         0.00000E+00
    0.16084E+07        -0.55227E+08         0.00000E+00
    0.00000E+00         0.00000E+00         0.63483E-09
 
    0.70706E+04         0.16201E+07         0.00000E+00
    0.16201E+07        -0.55402E+08         0.00000E+00
    0.00000E+00         0.00000E+00        -0.63483E-09
 
    0.66468E+04         0.16311E+07         0.00000E+00
    0.16311E+07        -0.55579E+08         0.00000E+00
    0.00000E+00         0.00000E+00        -0.28540E-08
 
    0.61736E+04         0.16414E+07         0.00000E+00
    0.16414E+07        -0.55758E+08         0.00000E+00
    0.00000E+00         0.00000E+00         0.34879E-08
 
    0.56462E+04         0.16508E+07         0.00000E+00
    0.16508E+07        -0.55940E+08         0.00000E+00
    0.00000E+00         0.00000E+00         0.00000E+00
 
    0.50593E+04         0.16593E+07         0.00000E+00
    0.16593E+07        -0.56123E+08         0.00000E+00
    0.00000E+00         0.00000E+00        -0.15862E-08
 
    0.44070E+04         0.16668E+07         0.00000E+00
    0.16668E+07        -0.56309E+08         0.00000E+00
    0.00000E+00         0.00000E+00         0.95224E-09
 
    0.36830E+04         0.16731E+07         0.00000E+00
    0.16731E+07        -0.56498E+08         0.00000E+00
    0.00000E+00         0.00000E+00         0.90949E-12
 
    0.28805E+04         0.16782E+07         0.00000E+00
    0.16782E+07        -0.56688E+08         0.00000E+00
    0.00000E+00         0.00000E+00         0.00000E+00
 
    0.19920E+04         0.16819E+07         0.00000E+00
    0.16819E+07        -0.56882E+08         0.00000E+00
    0.00000E+00         0.00000E+00        -0.25375E-08
 
    0.10096E+04         0.16839E+07         0.00000E+00
    0.16839E+07        -0.57078E+08         0.00000E+00
    0.00000E+00         0.00000E+00         0.31650E-09
 
   -0.75240E+02         0.16843E+07         0.00000E+00
    0.16843E+07        -0.57276E+08         0.00000E+00
    0.00000E+00         0.00000E+00         0.44402E-08
 
   -0.12712E+04         0.16828E+07         0.00000E+00
    0.16828E+07        -0.57477E+08         0.00000E+00
    0.00000E+00         0.00000E+00        -0.90949E-12
 
   -0.25875E+04         0.16791E+07         0.00000E+00
    0.16791E+07        -0.57681E+08         0.00000E+00
    0.00000E+00         0.00000E+00         0.41218E-08
 
   -0.40332E+04         0.16732E+07         0.00000E+00
    0.16732E+07        -0.57888E+08         0.00000E+00
    0.00000E+00         0.00000E+00         0.00000E+00
 
   -0.56173E+04         0.16647E+07         0.00000E+00
    0.16647E+07        -0.58098E+08         0.00000E+00
    0.00000E+00         0.00000E+00         0.22210E-08
 
   -0.73484E+04         0.16535E+07         0.00000E+00
    0.16535E+07        -0.58311E+08         0.00000E+00
    0.00000E+00         0.00000E+00         0.34888E-08
 
   -0.92341E+04         0.16393E+07         0.00000E+00
    0.16393E+07        -0.58527E+08         0.00000E+00
    0.00000E+00         0.00000E+00        -0.63392E-09
 
   -0.11281E+05         0.16218E+07         0.00000E+00
    0.16218E+07        -0.58746E+08         0.00000E+00
    0.00000E+00         0.00000E+00        -0.95224E-09
 
   -0.13494E+05         0.16007E+07         0.00000E+00
    0.16007E+07        -0.58969E+08         0.00000E+00
    0.00000E+00         0.00000E+00        -0.63483E-09
 
   -0.15875E+05         0.15758E+07         0.00000E+00
    0.15758E+07        -0.59195E+08         0.00000E+00
    0.00000E+00         0.00000E+00         0.28549E-08
 
   -0.18424E+05         0.15468E+07         0.00000E+00
    0.15468E+07        -0.59425E+08         0.00000E+00
    0.00000E+00         0.00000E+00         0.82455E-08
 
   -0.21137E+05         0.15134E+07         0.00000E+00
    0.15134E+07        -0.59658E+08         0.00000E+00
    0.00000E+00         0.00000E+00        -0.95224E-09
 
   -0.24010E+05         0.14755E+07         0.00000E+00
    0.14755E+07        -0.59894E+08         0.00000E+00
    0.00000E+00         0.00000E+00         0.38044E-08
 
   -0.27033E+05         0.14326E+07         0.00000E+00
    0.14326E+07        -0.60133E+08         0.00000E+00
    0.00000E+00         0.00000E+00         0.19036E-08
 
   -0.30199E+05         0.13846E+07         0.00000E+00
    0.13846E+07        -0.60375E+08         0.00000E+00
    0.00000E+00         0.00000E+00         0.00000E+00
 
   -0.33501E+05         0.13314E+07         0.00000E+00
    0.13314E+07        -0.60618E+08         0.00000E+00
    0.00000E+00         0.00000E+00        -0.19027E-08
 
   -0.36945E+05         0.12726E+07         0.00000E+00
    0.12726E+07        -0.60861E+08         0.00000E+00
    0.00000E+00         0.00000E+00        -0.19027E-08
 
   -0.40554E+05         0.12081E+07         0.00000E+00
    0.12081E+07        -0.61104E+08         0.00000E+00
    0.00000E+00         0.00000E+00         0.25375E-08
 
   -0.44392E+05         0.11376E+07         0.00000E+00
    0.11376E+07        -0.61344E+08         0.00000E+00
    0.00000E+00         0.00000E+00         0.12678E-08
 
   -0.48584E+05         0.10606E+07         0.00000E+00
    0.10606E+07        -0.61579E+08         0.00000E+00
    0.00000E+00         0.00000E+00        -0.12687E-08
 
   -0.53360E+05         0.97651E+06         0.00000E+00
    0.97651E+06        -0.61805E+08         0.00000E+00
    0.00000E+00         0.00000E+00         0.25366E-08
 
   -0.59114E+05         0.88398E+06         0.00000E+00
    0.88398E+06        -0.62020E+08         0.00000E+00
    0.00000E+00         0.00000E+00        -0.12678E-08
 
   -0.66502E+05         0.78097E+06         0.00000E+00
    0.78097E+06        -0.62218E+08         0.00000E+00
    0.00000E+00         0.00000E+00         0.38058E-08
 
   -0.76625E+05         0.66378E+06         0.00000E+00
    0.66378E+06        -0.62396E+08         0.00000E+00
    0.00000E+00         0.00000E+00         0.00000E+00
 
   -0.91686E+05         0.52673E+06         0.00000E+00
    0.52673E+06        -0.62547E+08         0.00000E+00
    0.00000E+00         0.00000E+00         0.63437E-09
 
   -0.11513E+06         0.35652E+06         0.00000E+00
    0.35652E+06        -0.62666E+08         0.00000E+00
    0.00000E+00         0.00000E+00         0.44397E-08
 
   -0.17762E+06         0.13031E+06         0.00000E+00
    0.13031E+06        -0.62735E+08         0.00000E+00
    0.00000E+00         0.00000E+00        -0.19029E-08
 
    0.13664E+06         0.56068E+05         0.00000E+00
    0.56068E+05        -0.47525E+08         0.00000E+00
    0.00000E+00         0.00000E+00         0.25370E-08
 
    0.95295E+05         0.15817E+06         0.00000E+00
    0.15817E+06        -0.47553E+08         0.00000E+00
    0.00000E+00         0.00000E+00        -0.12687E-08
 
    0.76844E+05         0.24115E+06         0.00000E+00
    0.24115E+06        -0.47603E+08         0.00000E+00
    0.00000E+00         0.00000E+00         0.19027E-08
 
    0.65605E+05         0.30984E+06         0.00000E+00
    0.30984E+06        -0.47671E+08         0.00000E+00
    0.00000E+00         0.00000E+00         0.12683E-08
 
    0.58003E+05         0.36981E+06         0.00000E+00
    0.36981E+06        -0.47751E+08         0.00000E+00
    0.00000E+00         0.00000E+00         0.25375E-08
 
    0.52565E+05         0.42371E+06         0.00000E+00
    0.42371E+06        -0.47841E+08         0.00000E+00
    0.00000E+00         0.00000E+00        -0.12687E-08
 
    0.48419E+05         0.47315E+06         0.00000E+00
    0.47315E+06        -0.47940E+08         0.00000E+00
    0.00000E+00         0.00000E+00        -0.31710E-08
 
    0.45068E+05         0.51912E+06         0.00000E+00
    0.51912E+06        -0.48044E+08         0.00000E+00
    0.00000E+00         0.00000E+00         0.19027E-08
 
    0.42207E+05         0.56220E+06         0.00000E+00
    0.56220E+06        -0.48152E+08         0.00000E+00
    0.00000E+00         0.00000E+00         0.25370E-08
 
    0.39655E+05         0.60272E+06         0.00000E+00
    0.60272E+06        -0.48263E+08         0.00000E+00
    0.00000E+00         0.00000E+00         0.12683E-08
 
    0.37311E+05         0.64092E+06         0.00000E+00
    0.64092E+06        -0.48376E+08         0.00000E+00
    0.00000E+00         0.00000E+00         0.12687E-08
 
    0.35123E+05         0.67693E+06         0.00000E+00
    0.67693E+06        -0.48490E+08         0.00000E+00
    0.00000E+00         0.00000E+00         0.12683E-08
 
    0.33067E+05         0.71086E+06         0.00000E+00
    0.71086E+06        -0.48604E+08         0.00000E+00
    0.00000E+00         0.00000E+00         0.19027E-08
 
    0.31137E+05         0.74283E+06         0.00000E+00
    0.74283E+06        -0.48719E+08         0.00000E+00
    0.00000E+00         0.00000E+00         0.00000E+00
 
    0.29331E+05         0.77294E+06         0.00000E+00
    0.77294E+06        -0.48833E+08         0.00000E+00
    0.00000E+00         0.00000E+00         0.12683E-08
 
    0.27653E+05         0.80131E+06         0.00000E+00
    0.80131E+06        -0.48947E+08         0.00000E+00
    0.00000E+00         0.00000E+00         0.63437E-09
 
    0.26105E+05         0.82805E+06         0.00000E+00
    0.82805E+06        -0.49060E+08         0.00000E+00
    0.00000E+00         0.00000E+00         0.31710E-08
 
    0.24690E+05         0.85330E+06         0.00000E+00
    0.85330E+06        -0.49173E+08         0.00000E+00
    0.00000E+00         0.00000E+00        -0.38058E-08
 
    0.23407E+05         0.87718E+06         0.00000E+00
    0.87718E+06        -0.49286E+08         0.00000E+00
    0.00000E+00         0.00000E+00         0.19031E-08
 
    0.22253E+05         0.89981E+06         0.00000E+00
    0.89981E+06        -0.49398E+08         0.00000E+00
    0.00000E+00         0.00000E+00         0.38058E-08
 
    0.21225E+05         0.92133E+06         0.00000E+00
    0.92133E+06        -0.49510E+08         0.00000E+00
    0.00000E+00         0.00000E+00        -0.19031E-08
 
    0.20317E+05         0.94186E+06         0.00000E+00
    0.94186E+06        -0.49623E+08         0.00000E+00
    0.00000E+00         0.00000E+00        -0.12683E-08
 
    0.19521E+05         0.96150E+06         0.00000E+00
    0.96150E+06        -0.49735E+08         0.00000E+00
    0.00000E+00         0.00000E+00         0.12687E-08
 
    0.18831E+05         0.98038E+06         0.00000E+00
    0.98038E+06        -0.49848E+08         0.00000E+00
    0.00000E+00         0.00000E+00         0.25370E-08
 
    0.18238E+05         0.99859E+06         0.00000E+00
    0.99859E+06        -0.49961E+08         0.00000E+00
    0.00000E+00         0.00000E+00        -0.63437E-09
 
    0.17734E+05         0.10162E+07         0.00000E+00
    0.10162E+07        -0.50074E+08         0.00000E+00
    0.00000E+00         0.00000E+00        -0.44397E-08
 
    0.17311E+05         0.10334E+07         0.00000E+00
    0.10334E+07        -0.50188E+08         0.00000E+00
    0.00000E+00         0.00000E+00        -0.63437E-09
 
    0.16960E+05         0.10501E+07         0.00000E+00
    0.10501E+07        -0.50303E+08         0.00000E+00
    0.00000E+00         0.00000E+00         0.12683E-08
 
    0.16674E+05         0.10665E+07         0.00000E+00
    0.10665E+07        -0.50418E+08         0.00000E+00
    0.00000E+00         0.00000E+00         0.31719E-08
 
    0.16445E+05         0.10826E+07         0.00000E+00
    0.10826E+07        -0.50534E+08         0.00000E+00
    0.00000E+00         0.00000E+00         0.44397E-08
 
    0.16266E+05         0.10986E+07         0.00000E+00
    0.10986E+07        -0.50652E+08         0.00000E+00
    0.00000E+00         0.00000E+00         0.00000E+00
 
    0.16131E+05         0.11143E+07         0.00000E+00
    0.11143E+07        -0.50770E+08         0.00000E+00
    0.00000E+00         0.00000E+00         0.12683E-08
 
    0.16033E+05         0.11299E+07         0.00000E+00
    0.11299E+07        -0.50889E+08         0.00000E+00
    0.00000E+00         0.00000E+00        -0.69772E-08
 
    0.15967E+05         0.11454E+07         0.00000E+00
    0.11454E+07        -0.51010E+08         0.00000E+00
    0.00000E+00         0.00000E+00        -0.10148E-07
 
    0.15928E+05         0.11608E+07         0.00000E+00
    0.11608E+07        -0.51132E+08         0.00000E+00
    0.00000E+00         0.00000E+00         0.63437E-09
 
    0.15910E+05         0.11762E+07         0.00000E+00
    0.11762E+07        -0.51255E+08         0.00000E+00
    0.00000E+00         0.00000E+00         0.63392E-09
 
    0.15910E+05         0.11915E+07         0.00000E+00
    0.11915E+07        -0.51380E+08         0.00000E+00
    0.00000E+00         0.00000E+00        -0.38058E-08
 
    0.15923E+05         0.12069E+07         0.00000E+00
    0.12069E+07        -0.51506E+08         0.00000E+00
    0.00000E+00         0.00000E+00        -0.31710E-08
 
    0.15945E+05         0.12222E+07         0.00000E+00
    0.12222E+07        -0.51633E+08         0.00000E+00
    0.00000E+00         0.00000E+00         0.00000E+00
 
    0.15974E+05         0.12376E+07         0.00000E+00
    0.12376E+07        -0.51762E+08         0.00000E+00
    0.00000E+00         0.00000E+00        -0.57084E-08
 
    0.16006E+05         0.12530E+07         0.00000E+00
    0.12530E+07        -0.51893E+08         0.00000E+00
    0.00000E+00         0.00000E+00        -0.63437E-09
 
    0.16038E+05         0.12684E+07         0.00000E+00
    0.12684E+07        -0.52025E+08         0.00000E+00
    0.00000E+00         0.00000E+00        -0.38053E-08
 
    0.16068E+05         0.12839E+07         0.00000E+00
    0.12839E+07        -0.52159E+08         0.00000E+00
    0.00000E+00         0.00000E+00         0.19027E-08
 
    0.16092E+05         0.12993E+07         0.00000E+00
    0.12993E+07        -0.52295E+08         0.00000E+00
    0.00000E+00         0.00000E+00        -0.45475E-12
 
    0.16108E+05         0.13148E+07         0.00000E+00
    0.13148E+07        -0.52432E+08         0.00000E+00
    0.00000E+00         0.00000E+00        -0.63437E-09
 
    0.16115E+05         0.13302E+07         0.00000E+00
    0.13302E+07        -0.52571E+08         0.00000E+00
    0.00000E+00         0.00000E+00         0.38053E-08
 
    0.16109E+05         0.13457E+07         0.00000E+00
    0.13457E+07        -0.52712E+08         0.00000E+00
    0.00000E+00         0.00000E+00         0.44402E-08
 
    0.16089E+05         0.13611E+07         0.00000E+00
    0.13611E+07        -0.52855E+08         0.00000E+00
    0.00000E+00         0.00000E+00        -0.50741E-08
 
    0.16052E+05         0.13765E+07         0.00000E+00
    0.13765E+07        -0.53000E+08         0.00000E+00
    0.00000E+00         0.00000E+00        -0.31714E-08
 
    0.15996E+05         0.13919E+07         0.00000E+00
    0.13919E+07        -0.53146E+08         0.00000E+00
    0.00000E+00         0.00000E+00        -0.12687E-08
 
    0.15919E+05         0.14072E+07         0.00000E+00
    0.14072E+07        -0.53294E+08         0.00000E+00
    0.00000E+00         0.00000E+00         0.25375E-08
 
    0.15819E+05         0.14224E+07         0.00000E+00
    0.14224E+07        -0.53445E+08         0.00000E+00
    0.00000E+00         0.00000E+00         0.63392E-09
 
    0.15693E+05         0.14374E+07         0.00000E+00
    0.14374E+07        -0.53597E+08         0.00000E+00
    0.00000E+00         0.00000E+00         0.19027E-08
 
    0.15538E+05         0.14524E+07         0.00000E+00
    0.14524E+07        -0.53751E+08         0.00000E+00
    0.00000E+00         0.00000E+00         0.12683E-08
 
    0.15353E+05         0.14671E+07         0.00000E+00
    0.14671E+07        -0.53907E+08         0.00000E+00
    0.00000E+00         0.00000E+00         0.19027E-08
 
    0.15134E+05         0.14817E+07         0.00000E+00
    0.14817E+07        -0.54065E+08         0.00000E+00
    0.00000E+00         0.00000E+00        -0.63437E-09
 
    0.14877E+05         0.14960E+07         0.00000E+00
    0.14960E+07        -0.54225E+08         0.00000E+00
    0.00000E+00         0.00000E+00        -0.63392E-09
 
    0.14581E+05         0.15100E+07         0.00000E+00
    0.15100E+07        -0.54388E+08         0.00000E+00
    0.00000E+00         0.00000E+00         0.00000E+00
 
    0.14241E+05         0.15237E+07         0.00000E+00
    0.15237E+07        -0.54552E+08         0.00000E+00
    0.00000E+00         0.00000E+00         0.12687E-08
 
    0.13852E+05         0.15371E+07         0.00000E+00
    0.15371E+07        -0.54718E+08         0.00000E+00
    0.00000E+00         0.00000E+00         0.19027E-08
 
    0.13412E+05         0.15500E+07         0.00000E+00
    0.15500E+07        -0.54886E+08         0.00000E+00
    0.00000E+00         0.00000E+00         0.00000E+00
 
    0.12915E+05         0.15625E+07         0.00000E+00
    0.15625E+07        -0.55057E+08         0.00000E+00
    0.00000E+00         0.00000E+00         0.25375E-08
 
    0.12355E+05         0.15744E+07         0.00000E+00
    0.15744E+07        -0.55229E+08         0.00000E+00
    0.00000E+00         0.00000E+00        -0.12687E-08
 
    0.11727E+05         0.15858E+07         0.00000E+00
    0.15858E+07        -0.55404E+08         0.00000E+00
    0.00000E+00         0.00000E+00         0.63483E-09
 
    0.11024E+05         0.15965E+07         0.00000E+00
    0.15965E+07        -0.55581E+08         0.00000E+00
    0.00000E+00         0.00000E+00         0.38044E-08
 
    0.10239E+05         0.16064E+07         0.00000E+00
    0.16064E+07        -0.55760E+08         0.00000E+00
    0.00000E+00         0.00000E+00        -0.31714E-08
 
    0.93644E+04         0.16155E+07         0.00000E+00
    0.16155E+07        -0.55941E+08         0.00000E+00
    0.00000E+00         0.00000E+00         0.12678E-08
 
    0.83909E+04         0.16237E+07         0.00000E+00
    0.16237E+07        -0.56125E+08         0.00000E+00
    0.00000E+00         0.00000E+00         0.76107E-08
 
    0.73090E+04         0.16309E+07         0.00000E+00
    0.16309E+07        -0.56311E+08         0.00000E+00
    0.00000E+00         0.00000E+00        -0.19036E-08
 
    0.61082E+04         0.16369E+07         0.00000E+00
    0.16369E+07        -0.56499E+08         0.00000E+00
    0.00000E+00         0.00000E+00         0.50741E-08
 
    0.47771E+04         0.16417E+07         0.00000E+00
    0.16417E+07        -0.56689E+08         0.00000E+00
    0.00000E+00         0.00000E+00         0.25366E-08
 
    0.33033E+04         0.16450E+07         0.00000E+00
    0.16450E+07        -0.56882E+08         0.00000E+00
    0.00000E+00         0.00000E+00        -0.25375E-08
 
    0.16736E+04         0.16468E+07         0.00000E+00
    0.16468E+07        -0.57078E+08         0.00000E+00
    0.00000E+00         0.00000E+00         0.50750E-08
 
   -0.12617E+03         0.16469E+07         0.00000E+00
    0.16469E+07        -0.57276E+08         0.00000E+00
    0.00000E+00         0.00000E+00         0.19027E-08
 
   -0.21106E+04         0.16451E+07         0.00000E+00
    0.16451E+07        -0.57477E+08         0.00000E+00
    0.00000E+00         0.00000E+00        -0.38053E-08
 
   -0.42950E+04         0.16413E+07         0.00000E+00
    0.16413E+07        -0.57680E+08         0.00000E+00
    0.00000E+00         0.00000E+00        -0.95133E-08
 
   -0.66946E+04         0.16351E+07         0.00000E+00
    0.16351E+07        -0.57886E+08         0.00000E+00
    0.00000E+00         0.00000E+00         0.31714E-08
 
   -0.93246E+04         0.16264E+07         0.00000E+00
    0.16264E+07        -0.58096E+08         0.00000E+00
    0.00000E+00         0.00000E+00         0.31714E-08
 
   -0.12200E+05         0.16150E+07         0.00000E+00
    0.16150E+07        -0.58308E+08         0.00000E+00
    0.00000E+00         0.00000E+00        -0.19036E-08
 
   -0.15333E+05         0.16005E+07         0.00000E+00
    0.16005E+07        -0.58523E+08         0.00000E+00
    0.00000E+00         0.00000E+00        -0.63419E-08
 
   -0.18735E+05         0.15828E+07         0.00000E+00
    0.15828E+07        -0.58742E+08         0.00000E+00
    0.00000E+00         0.00000E+00        -0.25375E-08
 
   -0.22415E+05         0.15616E+07         0.00000E+00
    0.15616E+07        -0.58964E+08         0.00000E+00
    0.00000E+00         0.00000E+00        -0.63437E-08
 
   -0.26378E+05         0.15365E+07         0.00000E+00
    0.15365E+07        -0.59190E+08         0.00000E+00
    0.00000E+00         0.00000E+00        -0.38053E-08
 
   -0.30624E+05         0.15074E+07         0.00000E+00
    0.15074E+07        -0.59419E+08         0.00000E+00
    0.00000E+00         0.00000E+00        -0.63483E-09
 
   -0.35150E+05         0.14739E+07         0.00000E+00
    0.14739E+07        -0.59651E+08         0.00000E+00
    0.00000E+00         0.00000E+00        -0.44402E-08
 
   -0.39947E+05         0.14357E+07         0.00000E+00
    0.14357E+07        -0.59886E+08         0.00000E+00
    0.00000E+00         0.00000E+00         0.38053E-08
 
   -0.45004E+05         0.13928E+07         0.00000E+00
    0.13928E+07        -0.60124E+08         0.00000E+00
    0.00000E+00         0.00000E+00         0.50741E-08
 
   -0.50309E+05         0.13447E+07         0.00000E+00
    0.13447E+07        -0.60365E+08         0.00000E+00
    0.00000E+00         0.00000E+00        -0.12697E-08
 
   -0.55855E+05         0.12913E+07         0.00000E+00
    0.12913E+07        -0.60607E+08         0.00000E+00
    0.00000E+00         0.00000E+00        -0.38053E-08
 
   -0.61652E+05         0.12325E+07         0.00000E+00
    0.12325E+07        -0.60849E+08         0.00000E+00
    0.00000E+00         0.00000E+00         0.63483E-09
 
   -0.67744E+05         0.11679E+07         0.00000E+00
    0.11679E+07        -0.61091E+08         0.00000E+00
    0.00000E+00         0.00000E+00         0.00000E+00
 
   -0.74236E+05         0.10974E+07         0.00000E+00
    0.10974E+07        -0.61329E+08         0.00000E+00
    0.00000E+00         0.00000E+00        -0.38062E-08
 
   -0.81339E+05         0.10204E+07         0.00000E+00
    0.10204E+07        -0.61563E+08         0.00000E+00
    0.00000E+00         0.00000E+00         0.63483E-09
 
   -0.89429E+05         0.93643E+06         0.00000E+00
    0.93643E+06        -0.61788E+08         0.00000E+00
    0.00000E+00         0.00000E+00         0.38053E-08
 
   -0.99158E+05         0.84418E+06         0.00000E+00
    0.84418E+06        -0.62000E+08         0.00000E+00
    0.00000E+00         0.00000E+00         0.38049E-08
 
   -0.11159E+06         0.74166E+06         0.00000E+00
    0.74166E+06        -0.62196E+08         0.00000E+00
    0.00000E+00         0.00000E+00         0.63437E-09
 
   -0.12858E+06         0.62544E+06         0.00000E+00
    0.62544E+06        -0.62371E+08         0.00000E+00
    0.00000E+00         0.00000E+00        -0.38062E-08
 
   -0.15331E+06         0.48990E+06         0.00000E+00
    0.48990E+06        -0.62517E+08         0.00000E+00
    0.00000E+00         0.00000E+00        -0.12681E-08
 
   -0.19347E+06         0.32319E+06         0.00000E+00
    0.32319E+06        -0.62627E+08         0.00000E+00
    0.00000E+00         0.00000E+00        -0.31717E-08
 
   -0.28291E+06         0.11497E+06         0.00000E+00
    0.11497E+06        -0.62687E+08         0.00000E+00
    0.00000E+00         0.00000E+00         0.19027E-08
 
    0.18371E+06         0.50443E+05         0.00000E+00
    0.50443E+05        -0.47546E+08         0.00000E+00
    0.00000E+00         0.00000E+00         0.25373E-08
 
    0.13349E+06         0.14484E+06         0.00000E+00
    0.14484E+06        -0.47571E+08         0.00000E+00
    0.00000E+00         0.00000E+00        -0.12685E-08
 
    0.10789E+06         0.22512E+06         0.00000E+00
    0.22512E+06        -0.47618E+08         0.00000E+00
    0.00000E+00         0.00000E+00        -0.19031E-08
 
    0.92288E+05         0.29275E+06         0.00000E+00
    0.29275E+06        -0.47683E+08         0.00000E+00
    0.00000E+00         0.00000E+00         0.12683E-08
 
    0.81635E+05         0.35203E+06         0.00000E+00
    0.35203E+06        -0.47762E+08         0.00000E+00
    0.00000E+00         0.00000E+00         0.31714E-08
 
    0.73950E+05         0.40551E+06         0.00000E+00
    0.40551E+06        -0.47852E+08         0.00000E+00
    0.00000E+00         0.00000E+00         0.31710E-08
 
    0.68061E+05         0.45467E+06         0.00000E+00
    0.45467E+06        -0.47949E+08         0.00000E+00
    0.00000E+00         0.00000E+00        -0.25370E-08
 
    0.63284E+05         0.50045E+06         0.00000E+00
    0.50045E+06        -0.48053E+08         0.00000E+00
    0.00000E+00         0.00000E+00        -0.50741E-08
 
    0.59200E+05         0.54338E+06         0.00000E+00
    0.54338E+06        -0.48160E+08         0.00000E+00
    0.00000E+00         0.00000E+00         0.25366E-08
 
    0.55560E+05         0.58378E+06         0.00000E+00
    0.58378E+06        -0.48271E+08         0.00000E+00
    0.00000E+00         0.00000E+00         0.63437E-09
 
    0.52224E+05         0.62185E+06         0.00000E+00
    0.62185E+06        -0.48384E+08         0.00000E+00
    0.00000E+00         0.00000E+00         0.44397E-08
 
    0.49118E+05         0.65773E+06         0.00000E+00
    0.65773E+06        -0.48497E+08         0.00000E+00
    0.00000E+00         0.00000E+00         0.63392E-09
 
    0.46208E+05         0.69153E+06         0.00000E+00
    0.69153E+06        -0.48611E+08         0.00000E+00
    0.00000E+00         0.00000E+00         0.31714E-08
 
    0.43481E+05         0.72336E+06         0.00000E+00
    0.72336E+06        -0.48725E+08         0.00000E+00
    0.00000E+00         0.00000E+00        -0.50741E-08
 
    0.40937E+05         0.75332E+06         0.00000E+00
    0.75332E+06        -0.48839E+08         0.00000E+00
    0.00000E+00         0.00000E+00         0.63392E-09
 
    0.38577E+05         0.78152E+06         0.00000E+00
    0.78152E+06        -0.48952E+08         0.00000E+00
    0.00000E+00         0.00000E+00        -0.63392E-09
 
    0.36405E+05         0.80809E+06         0.00000E+00
    0.80809E+06        -0.49065E+08         0.00000E+00
    0.00000E+00         0.00000E+00        -0.63437E-09
 
    0.34421E+05         0.83316E+06         0.00000E+00
    0.83316E+06        -0.49178E+08         0.00000E+00
    0.00000E+00         0.00000E+00         0.69767E-08
 
    0.32624E+05         0.85684E+06         0.00000E+00
    0.85684E+06        -0.49290E+08         0.00000E+00
    0.00000E+00         0.00000E+00        -0.25375E-08
 
    0.31010E+05         0.87927E+06         0.00000E+00
    0.87927E+06        -0.49403E+08         0.00000E+00
    0.00000E+00         0.00000E+00         0.82450E-08
 
    0.29573E+05         0.90058E+06         0.00000E+00
    0.90058E+06        -0.49515E+08         0.00000E+00
    0.00000E+00         0.00000E+00        -0.63392E-09
 
    0.28304E+05         0.92088E+06         0.00000E+00
    0.92088E+06        -0.49627E+08         0.00000E+00
    0.00000E+00         0.00000E+00        -0.63437E-09
 
    0.27194E+05         0.94030E+06         0.00000E+00
    0.94030E+06        -0.49739E+08         0.00000E+00
    0.00000E+00         0.00000E+00        -0.12687E-08
 
    0.26231E+05         0.95895E+06         0.00000E+00
    0.95895E+06        -0.49851E+08         0.00000E+00
    0.00000E+00         0.00000E+00        -0.50741E-08
 
    0.25404E+05         0.97692E+06         0.00000E+00
    0.97692E+06        -0.49964E+08         0.00000E+00
    0.00000E+00         0.00000E+00         0.25370E-08
 
    0.24702E+05         0.99431E+06         0.00000E+00
    0.99431E+06        -0.50077E+08         0.00000E+00
    0.00000E+00         0.00000E+00         0.12683E-08
 
    0.24112E+05         0.10112E+07         0.00000E+00
    0.10112E+07        -0.50191E+08         0.00000E+00
    0.00000E+00         0.00000E+00         0.00000E+00
 
    0.23623E+05         0.10277E+07         0.00000E+00
    0.10277E+07        -0.50306E+08         0.00000E+00
    0.00000E+00         0.00000E+00        -0.12687E-08
 
    0.23225E+05         0.10438E+07         0.00000E+00
    0.10438E+07        -0.50421E+08         0.00000E+00
    0.00000E+00         0.00000E+00        -0.12683E-08
 
    0.22906E+05         0.10597E+07         0.00000E+00
    0.10597E+07        -0.50537E+08         0.00000E+00
    0.00000E+00         0.00000E+00         0.12687E-08
 
    0.22657E+05         0.10753E+07         0.00000E+00
    0.10753E+07        -0.50655E+08         0.00000E+00
    0.00000E+00         0.00000E+00         0.19027E-08
 
    0.22469E+05         0.10908E+07         0.00000E+00
    0.10908E+07        -0.50773E+08         0.00000E+00
    0.00000E+00         0.00000E+00         0.88794E-08
 
    0.22333E+05         0.11061E+07         0.00000E+00
    0.11061E+07        -0.50892E+08         0.00000E+00
    0.00000E+00         0.00000E+00         0.95138E-08
 
    0.22241E+05         0.11213E+07         0.00000E+00
    0.11213E+07        -0.51013E+08         0.00000E+00
    0.00000E+00         0.00000E+00         0.00000E+00
 
    0.22186E+05         0.11364E+07         0.00000E+00
    0.11364E+07        -0.51135E+08         0.00000E+00
    0.00000E+00         0.00000E+00         0.12683E-08
 
    0.22162E+05         0.11515E+07         0.00000E+00
    0.11515E+07        -0.51258E+08         0.00000E+00
    0.00000E+00         0.00000E+00        -0.31710E-08
 
    0.22161E+05         0.11665E+07         0.00000E+00
    0.11665E+07        -0.51383E+08         0.00000E+00
    0.00000E+00         0.00000E+00        -0.25370E-08
 
    0.22179E+05         0.11816E+07         0.00000E+00
    0.11816E+07        -0.51509E+08         0.00000E+00
    0.00000E+00         0.00000E+00         0.25375E-08
 
    0.22211E+05         0.11966E+07         0.00000E+00
    0.11966E+07        -0.51636E+08         0.00000E+00
    0.00000E+00         0.00000E+00         0.63437E-09
 
    0.22251E+05         0.12117E+07         0.00000E+00
    0.12117E+07        -0.51765E+08         0.00000E+00
    0.00000E+00         0.00000E+00        -0.57080E-08
 
    0.22296E+05         0.12267E+07         0.00000E+00
    0.12267E+07        -0.51896E+08         0.00000E+00
    0.00000E+00         0.00000E+00        -0.50741E-08
 
    0.22340E+05         0.12418E+07         0.00000E+00
    0.12418E+07        -0.52028E+08         0.00000E+00
    0.00000E+00         0.00000E+00        -0.38058E-08
 
    0.22381E+05         0.12569E+07         0.00000E+00
    0.12569E+07        -0.52162E+08         0.00000E+00
    0.00000E+00         0.00000E+00         0.00000E+00
 
    0.22415E+05         0.12720E+07         0.00000E+00
    0.12720E+07        -0.52298E+08         0.00000E+00
    0.00000E+00         0.00000E+00        -0.31714E-08
 
    0.22438E+05         0.12871E+07         0.00000E+00
    0.12871E+07        -0.52435E+08         0.00000E+00
    0.00000E+00         0.00000E+00         0.25370E-08
 
    0.22447E+05         0.13023E+07         0.00000E+00
    0.13023E+07        -0.52574E+08         0.00000E+00
    0.00000E+00         0.00000E+00         0.63428E-08
 
    0.22439E+05         0.13174E+07         0.00000E+00
    0.13174E+07        -0.52715E+08         0.00000E+00
    0.00000E+00         0.00000E+00         0.00000E+00
 
    0.22411E+05         0.13325E+07         0.00000E+00
    0.13325E+07        -0.52858E+08         0.00000E+00
    0.00000E+00         0.00000E+00        -0.25370E-08
 
    0.22360E+05         0.13475E+07         0.00000E+00
    0.13475E+07        -0.53003E+08         0.00000E+00
    0.00000E+00         0.00000E+00        -0.38058E-08
 
    0.22282E+05         0.13625E+07         0.00000E+00
    0.13625E+07        -0.53149E+08         0.00000E+00
    0.00000E+00         0.00000E+00        -0.12683E-08
 
    0.22175E+05         0.13775E+07         0.00000E+00
    0.13775E+07        -0.53297E+08         0.00000E+00
    0.00000E+00         0.00000E+00        -0.69772E-08
 
    0.22035E+05         0.13923E+07         0.00000E+00
    0.13923E+07        -0.53448E+08         0.00000E+00
    0.00000E+00         0.00000E+00        -0.31710E-08
 
    0.21860E+05         0.14070E+07         0.00000E+00
    0.14070E+07        -0.53600E+08         0.00000E+00
    0.00000E+00         0.00000E+00        -0.12687E-08
 
    0.21644E+05         0.14216E+07         0.00000E+00
    0.14216E+07        -0.53754E+08         0.00000E+00
    0.00000E+00         0.00000E+00         0.63437E-09
 
    0.21386E+05         0.14360E+07         0.00000E+00
    0.14360E+07        -0.53910E+08         0.00000E+00
    0.00000E+00         0.00000E+00        -0.38053E-08
 
    0.21081E+05         0.14502E+07         0.00000E+00
    0.14502E+07        -0.54068E+08         0.00000E+00
    0.00000E+00         0.00000E+00         0.63437E-09
 
    0.20724E+05         0.14641E+07         0.00000E+00
    0.14641E+07        -0.54228E+08         0.00000E+00
    0.00000E+00         0.00000E+00        -0.25375E-08
 
    0.20311E+05         0.14778E+07         0.00000E+00
    0.14778E+07        -0.54390E+08         0.00000E+00
    0.00000E+00         0.00000E+00        -0.12683E-08
 
    0.19837E+05         0.14912E+07         0.00000E+00
    0.14912E+07        -0.54554E+08         0.00000E+00
    0.00000E+00         0.00000E+00        -0.12678E-08
 
    0.19296E+05         0.15042E+07         0.00000E+00
    0.15042E+07        -0.54721E+08         0.00000E+00
    0.00000E+00         0.00000E+00        -0.38053E-08
 
    0.18683E+05         0.15168E+07         0.00000E+00
    0.15168E+07        -0.54889E+08         0.00000E+00
    0.00000E+00         0.00000E+00         0.63483E-09
 
    0.17990E+05         0.15289E+07         0.00000E+00
    0.15289E+07        -0.55059E+08         0.00000E+00
    0.00000E+00         0.00000E+00         0.31714E-08
 
    0.17210E+05         0.15405E+07         0.00000E+00
    0.15405E+07        -0.55232E+08         0.00000E+00
    0.00000E+00         0.00000E+00         0.50741E-08
 
    0.16336E+05         0.15515E+07         0.00000E+00
    0.15515E+07        -0.55406E+08         0.00000E+00
    0.00000E+00         0.00000E+00         0.63483E-09
 
    0.15357E+05         0.15619E+07         0.00000E+00
    0.15619E+07        -0.55583E+08         0.00000E+00
    0.00000E+00         0.00000E+00         0.38062E-08
 
    0.14264E+05         0.15715E+07         0.00000E+00
    0.15715E+07        -0.55762E+08         0.00000E+00
    0.00000E+00         0.00000E+00         0.25384E-08
 
    0.13046E+05         0.15803E+07         0.00000E+00
    0.15803E+07        -0.55943E+08         0.00000E+00
    0.00000E+00         0.00000E+00         0.82446E-08
 
    0.11690E+05         0.15882E+07         0.00000E+00
    0.15882E+07        -0.56126E+08         0.00000E+00
    0.00000E+00         0.00000E+00        -0.38053E-08
 
    0.10183E+05         0.15950E+07         0.00000E+00
    0.15950E+07        -0.56312E+08         0.00000E+00
    0.00000E+00         0.00000E+00         0.76107E-08
 
    0.85110E+04         0.16008E+07         0.00000E+00
    0.16008E+07        -0.56500E+08         0.00000E+00
    0.00000E+00         0.00000E+00         0.44392E-08
 
    0.66570E+04         0.16052E+07         0.00000E+00
    0.16052E+07        -0.56690E+08         0.00000E+00
    0.00000E+00         0.00000E+00         0.12687E-08
 
    0.46043E+04         0.16083E+07         0.00000E+00
    0.16083E+07        -0.56883E+08         0.00000E+00
    0.00000E+00         0.00000E+00        -0.12678E-08
 
    0.23341E+04         0.16099E+07         0.00000E+00
    0.16099E+07        -0.57078E+08         0.00000E+00
    0.00000E+00         0.00000E+00         0.82455E-08
 
   -0.17306E+03         0.16097E+07         0.00000E+00
    0.16097E+07        -0.57276E+08         0.00000E+00
    0.00000E+00         0.00000E+00         0.76116E-08
 
   -0.29379E+04         0.16077E+07         0.00000E+00
    0.16077E+07        -0.57476E+08         0.00000E+00
    0.00000E+00         0.00000E+00         0.12687E-08
 
   -0.59819E+04         0.16036E+07         0.00000E+00
    0.16036E+07        -0.57679E+08         0.00000E+00
    0.00000E+00         0.00000E+00         0.63483E-09
 
   -0.93265E+04         0.15972E+07         0.00000E+00
    0.15972E+07        -0.57885E+08         0.00000E+00
    0.00000E+00         0.00000E+00        -0.69767E-08
 
   -0.12993E+05         0.15883E+07         0.00000E+00
    0.15883E+07        -0.58094E+08         0.00000E+00
    0.00000E+00         0.00000E+00         0.50741E-08
 
   -0.17003E+05         0.15767E+07         0.00000E+00
    0.15767E+07        -0.58305E+08         0.00000E+00
    0.00000E+00         0.00000E+00         0.25375E-08
 
   -0.21374E+05         0.15620E+07         0.00000E+00
    0.15620E+07        -0.58520E+08         0.00000E+00
    0.00000E+00         0.00000E+00        -0.19036E-08
 
   -0.26124E+05         0.15442E+07         0.00000E+00
    0.15442E+07        -0.58738E+08         0.00000E+00
    0.00000E+00         0.00000E+00        -0.38053E-08
 
   -0.31265E+05         0.15228E+07         0.00000E+00
    0.15228E+07        -0.58960E+08         0.00000E+00
    0.00000E+00         0.00000E+00         0.63437E-08
 
   -0.36805E+05         0.14976E+07         0.00000E+00
    0.14976E+07        -0.59184E+08         0.00000E+00
    0.00000E+00         0.00000E+00         0.76116E-08
 
   -0.42747E+05         0.14683E+07         0.00000E+00
    0.14683E+07        -0.59412E+08         0.00000E+00
    0.00000E+00         0.00000E+00        -0.38053E-08
 
   -0.49088E+05         0.14346E+07         0.00000E+00
    0.14346E+07        -0.59644E+08         0.00000E+00
    0.00000E+00         0.00000E+00        -0.63392E-09
 
   -0.55818E+05         0.13964E+07         0.00000E+00
    0.13964E+07        -0.59878E+08         0.00000E+00
    0.00000E+00         0.00000E+00        -0.63392E-09
 
   -0.62924E+05         0.13533E+07         0.00000E+00
    0.13533E+07        -0.60115E+08         0.00000E+00
    0.00000E+00         0.00000E+00         0.25366E-08
 
   -0.70392E+05         0.13052E+07         0.00000E+00
    0.13052E+07        -0.60354E+08         0.00000E+00
    0.00000E+00         0.00000E+00         0.25375E-08
 
   -0.78217E+05         0.12517E+07         0.00000E+00
    0.12517E+07        -0.60595E+08         0.00000E+00
    0.00000E+00         0.00000E+00        -0.12687E-08
 
   -0.86416E+05         0.11928E+07         0.00000E+00
    0.11928E+07        -0.60837E+08         0.00000E+00
    0.00000E+00         0.00000E+00         0.12687E-08
 
   -0.95054E+05         0.11282E+07         0.00000E+00
    0.11282E+07        -0.61077E+08         0.00000E+00
    0.00000E+00         0.00000E+00        -0.25375E-08
 
   -0.10428E+06         0.10577E+07         0.00000E+00
    0.10577E+07        -0.61315E+08         0.00000E+00
    0.00000E+00         0.00000E+00         0.12687E-08
 
   -0.11438E+06         0.98085E+06         0.00000E+00
    0.98085E+06        -0.61547E+08         0.00000E+00
    0.00000E+00         0.00000E+00         0.12687E-08
 
   -0.12588E+06         0.89708E+06         0.00000E+00
    0.89708E+06        -0.61770E+08         0.00000E+00
    0.00000E+00         0.00000E+00        -0.25366E-08
 
   -0.13967E+06         0.80528E+06         0.00000E+00
    0.80528E+06        -0.61981E+08         0.00000E+00
    0.00000E+00         0.00000E+00         0.25370E-08
 
   -0.15722E+06         0.70352E+06         0.00000E+00
    0.70352E+06        -0.62175E+08         0.00000E+00
    0.00000E+00         0.00000E+00         0.12687E-08
 
   -0.18102E+06         0.58868E+06         0.00000E+00
    0.58868E+06        -0.62346E+08         0.00000E+00
    0.00000E+00         0.00000E+00         0.00000E+00
 
   -0.21534E+06         0.45538E+06         0.00000E+00
    0.45538E+06        -0.62488E+08         0.00000E+00
    0.00000E+00         0.00000E+00        -0.12685E-08
 
   -0.27106E+06         0.29445E+06         0.00000E+00
    0.29445E+06        -0.62591E+08         0.00000E+00
    0.00000E+00         0.00000E+00        -0.38055E-08
 
   -0.37972E+06         0.10283E+06         0.00000E+00
    0.10283E+06        -0.62644E+08         0.00000E+00
    0.00000E+00         0.00000E+00         0.22737E-12
 
    0.22766E+06         0.45817E+05         0.00000E+00
    0.45817E+05        -0.47565E+08         0.00000E+00
    0.00000E+00         0.00000E+00         0.00000E+00
 
    0.17092E+06         0.13319E+06         0.00000E+00
    0.13319E+06        -0.47588E+08         0.00000E+00
    0.00000E+00         0.00000E+00         0.50741E-08
 
    0.13898E+06         0.21016E+06         0.00000E+00
    0.21016E+06        -0.47632E+08         0.00000E+00
    0.00000E+00         0.00000E+00        -0.88799E-08
 
    0.11911E+06         0.27635E+06         0.00000E+00
    0.27635E+06        -0.47696E+08         0.00000E+00
    0.00000E+00         0.00000E+00         0.25370E-08
 
    0.10545E+06         0.33477E+06         0.00000E+00
    0.33477E+06        -0.47773E+08         0.00000E+00
    0.00000E+00         0.00000E+00         0.25370E-08
 
    0.95504E+05         0.38770E+06         0.00000E+00
    0.38770E+06        -0.47862E+08         0.00000E+00
    0.00000E+00         0.00000E+00        -0.12683E-08
 
    0.87838E+05         0.43651E+06         0.00000E+00
    0.43651E+06        -0.47959E+08         0.00000E+00
    0.00000E+00         0.00000E+00         0.12687E-08
 
    0.81594E+05         0.48205E+06         0.00000E+00
    0.48205E+06        -0.48062E+08         0.00000E+00
    0.00000E+00         0.00000E+00         0.00000E+00
 
    0.76246E+05         0.52479E+06         0.00000E+00
    0.52479E+06        -0.48169E+08         0.00000E+00
    0.00000E+00         0.00000E+00         0.38058E-08
 
    0.71482E+05         0.56504E+06         0.00000E+00
    0.56504E+06        -0.48279E+08         0.00000E+00
    0.00000E+00         0.00000E+00        -0.12687E-08
 
    0.67123E+05         0.60297E+06         0.00000E+00
    0.60297E+06        -0.48391E+08         0.00000E+00
    0.00000E+00         0.00000E+00         0.10148E-07
 
    0.63075E+05         0.63871E+06         0.00000E+00
    0.63871E+06        -0.48504E+08         0.00000E+00
    0.00000E+00         0.00000E+00        -0.50741E-08
 
    0.59291E+05         0.67237E+06         0.00000E+00
    0.67237E+06        -0.48618E+08         0.00000E+00
    0.00000E+00         0.00000E+00         0.63428E-08
 
    0.55755E+05         0.70404E+06         0.00000E+00
    0.70404E+06        -0.48731E+08         0.00000E+00
    0.00000E+00         0.00000E+00         0.00000E+00
 
    0.52463E+05         0.73384E+06         0.00000E+00
    0.73384E+06        -0.48845E+08         0.00000E+00
    0.00000E+00         0.00000E+00         0.00000E+00
 
    0.49415E+05         0.76187E+06         0.00000E+00
    0.76187E+06        -0.48958E+08         0.00000E+00
    0.00000E+00         0.00000E+00        -0.38058E-08
 
    0.46614E+05         0.78825E+06         0.00000E+00
    0.78825E+06        -0.49070E+08         0.00000E+00
    0.00000E+00         0.00000E+00        -0.76111E-08
 
    0.44060E+05         0.81312E+06         0.00000E+00
    0.81312E+06        -0.49183E+08         0.00000E+00
    0.00000E+00         0.00000E+00        -0.25370E-08
 
    0.41750E+05         0.83659E+06         0.00000E+00
    0.83659E+06        -0.49295E+08         0.00000E+00
    0.00000E+00         0.00000E+00         0.11417E-07
 
    0.39677E+05         0.85881E+06         0.00000E+00
    0.85881E+06        -0.49407E+08         0.00000E+00
    0.00000E+00         0.00000E+00        -0.12683E-08
 
    0.37833E+05         0.87990E+06         0.00000E+00
    0.87990E+06        -0.49519E+08         0.00000E+00
    0.00000E+00         0.00000E+00         0.00000E+00
 
    0.36206E+05         0.89998E+06         0.00000E+00
    0.89998E+06        -0.49631E+08         0.00000E+00
    0.00000E+00         0.00000E+00        -0.25370E-08
 
    0.34783E+05         0.91916E+06         0.00000E+00
    0.91916E+06        -0.49743E+08         0.00000E+00
    0.00000E+00         0.00000E+00        -0.63424E-08
 
    0.33549E+05         0.93757E+06         0.00000E+00
    0.93757E+06        -0.49855E+08         0.00000E+00
    0.00000E+00         0.00000E+00         0.50741E-08
 
    0.32491E+05         0.95529E+06         0.00000E+00
    0.95529E+06        -0.49968E+08         0.00000E+00
    0.00000E+00         0.00000E+00         0.00000E+00
 
    0.31592E+05         0.97243E+06         0.00000E+00
    0.97243E+06        -0.50081E+08         0.00000E+00
    0.00000E+00         0.00000E+00         0.12687E-08
 
    0.30837E+05         0.98908E+06         0.00000E+00
    0.98908E+06        -0.50195E+08         0.00000E+00
    0.00000E+00         0.00000E+00        -0.12687E-08
 
    0.30213E+05         0.10053E+07         0.00000E+00
    0.10053E+07        -0.50309E+08         0.00000E+00
    0.00000E+00         0.00000E+00        -0.12683E-08
 
    0.29703E+05         0.10212E+07         0.00000E+00
    0.10212E+07        -0.50424E+08         0.00000E+00
    0.00000E+00         0.00000E+00        -0.88794E-08
 
    0.29296E+05         0.10368E+07         0.00000E+00
    0.10368E+07        -0.50541E+08         0.00000E+00
    0.00000E+00         0.00000E+00         0.38053E-08
 
    0.28978E+05         0.10521E+07         0.00000E+00
    0.10521E+07        -0.50658E+08         0.00000E+00
    0.00000E+00         0.00000E+00         0.25370E-08
 
    0.28738E+05         0.10673E+07         0.00000E+00
    0.10673E+07        -0.50776E+08         0.00000E+00
    0.00000E+00         0.00000E+00         0.12683E-08
 
    0.28564E+05         0.10823E+07         0.00000E+00
    0.10823E+07        -0.50895E+08         0.00000E+00
    0.00000E+00         0.00000E+00         0.25370E-08
 
    0.28447E+05         0.10972E+07         0.00000E+00
    0.10972E+07        -0.51016E+08         0.00000E+00
    0.00000E+00         0.00000E+00         0.00000E+00
 
    0.28378E+05         0.11120E+07         0.00000E+00
    0.11120E+07        -0.51138E+08         0.00000E+00
    0.00000E+00         0.00000E+00         0.25370E-08
 
    0.28346E+05         0.11268E+07         0.00000E+00
    0.11268E+07        -0.51261E+08         0.00000E+00
    0.00000E+00         0.00000E+00         0.00000E+00
 
    0.28346E+05         0.11415E+07         0.00000E+00
    0.11415E+07        -0.51386E+08         0.00000E+00
    0.00000E+00         0.00000E+00        -0.63428E-08
 
    0.28370E+05         0.11563E+07         0.00000E+00
    0.11563E+07        -0.51512E+08         0.00000E+00
    0.00000E+00         0.00000E+00        -0.11417E-07
 
    0.28410E+05         0.11710E+07         0.00000E+00
    0.11710E+07        -0.51639E+08         0.00000E+00
    0.00000E+00         0.00000E+00         0.25370E-08
 
    0.28462E+05         0.11857E+07         0.00000E+00
    0.11857E+07        -0.51768E+08         0.00000E+00
    0.00000E+00         0.00000E+00        -0.25370E-08
 
    0.28519E+05         0.12005E+07         0.00000E+00
    0.12005E+07        -0.51899E+08         0.00000E+00
    0.00000E+00         0.00000E+00        -0.88794E-08
 
    0.28576E+05         0.12152E+07         0.00000E+00
    0.12152E+07        -0.52031E+08         0.00000E+00
    0.00000E+00         0.00000E+00         0.16491E-07
 
    0.28629E+05         0.12300E+07         0.00000E+00
    0.12300E+07        -0.52165E+08         0.00000E+00
    0.00000E+00         0.00000E+00         0.38058E-08
 
    0.28672E+05         0.12447E+07         0.00000E+00
    0.12447E+07        -0.52301E+08         0.00000E+00
    0.00000E+00         0.00000E+00         0.25370E-08
 
    0.28702E+05         0.12595E+07         0.00000E+00
    0.12595E+07        -0.52438E+08         0.00000E+00
    0.00000E+00         0.00000E+00        -0.38058E-08
 
    0.28714E+05         0.12743E+07         0.00000E+00
    0.12743E+07        -0.52577E+08         0.00000E+00
    0.00000E+00         0.00000E+00         0.88794E-08
 
    0.28703E+05         0.12891E+07         0.00000E+00
    0.12891E+07        -0.52718E+08         0.00000E+00
    0.00000E+00         0.00000E+00         0.00000E+00
 
    0.28668E+05         0.13038E+07         0.00000E+00
    0.13038E+07        -0.52861E+08         0.00000E+00
    0.00000E+00         0.00000E+00         0.25370E-08
 
    0.28602E+05         0.13185E+07         0.00000E+00
    0.13185E+07        -0.53006E+08         0.00000E+00
    0.00000E+00         0.00000E+00         0.00000E+00
 
    0.28503E+05         0.13332E+07         0.00000E+00
    0.13332E+07        -0.53152E+08         0.00000E+00
    0.00000E+00         0.00000E+00        -0.25370E-08
 
    0.28366E+05         0.13477E+07         0.00000E+00
    0.13477E+07        -0.53300E+08         0.00000E+00
    0.00000E+00         0.00000E+00         0.16491E-07
 
    0.28187E+05         0.13622E+07         0.00000E+00
    0.13622E+07        -0.53451E+08         0.00000E+00
    0.00000E+00         0.00000E+00         0.38058E-08
 
    0.27962E+05         0.13766E+07         0.00000E+00
    0.13766E+07        -0.53603E+08         0.00000E+00
    0.00000E+00         0.00000E+00         0.00000E+00
 
    0.27687E+05         0.13908E+07         0.00000E+00
    0.13908E+07        -0.53757E+08         0.00000E+00
    0.00000E+00         0.00000E+00        -0.76107E-08
 
    0.27357E+05         0.14048E+07         0.00000E+00
    0.14048E+07        -0.53913E+08         0.00000E+00
    0.00000E+00         0.00000E+00        -0.50745E-08
 
    0.26966E+05         0.14187E+07         0.00000E+00
    0.14187E+07        -0.54071E+08         0.00000E+00
    0.00000E+00         0.00000E+00        -0.12683E-08
 
    0.26510E+05         0.14323E+07         0.00000E+00
    0.14323E+07        -0.54231E+08         0.00000E+00
    0.00000E+00         0.00000E+00         0.12687E-08
 
    0.25982E+05         0.14456E+07         0.00000E+00
    0.14456E+07        -0.54393E+08         0.00000E+00
    0.00000E+00         0.00000E+00         0.12683E-08
 
    0.25376E+05         0.14586E+07         0.00000E+00
    0.14586E+07        -0.54557E+08         0.00000E+00
    0.00000E+00         0.00000E+00        -0.12687E-08
 
    0.24684E+05         0.14713E+07         0.00000E+00
    0.14713E+07        -0.54723E+08         0.00000E+00
    0.00000E+00         0.00000E+00        -0.25375E-08
 
    0.23900E+05         0.14835E+07         0.00000E+00
    0.14835E+07        -0.54891E+08         0.00000E+00
    0.00000E+00         0.00000E+00        -0.12678E-08
 
    0.23014E+05         0.14953E+07         0.00000E+00
    0.14953E+07        -0.55062E+08         0.00000E+00
    0.00000E+00         0.00000E+00         0.10148E-07
 
    0.22018E+05         0.15066E+07         0.00000E+00
    0.15066E+07        -0.55234E+08         0.00000E+00
    0.00000E+00         0.00000E+00         0.50741E-08
 
    0.20899E+05         0.15173E+07         0.00000E+00
    0.15173E+07        -0.55408E+08         0.00000E+00
    0.00000E+00         0.00000E+00        -0.25375E-08
 
    0.19648E+05         0.15273E+07         0.00000E+00
    0.15273E+07        -0.55585E+08         0.00000E+00
    0.00000E+00         0.00000E+00         0.25375E-08
 
    0.18250E+05         0.15366E+07         0.00000E+00
    0.15366E+07        -0.55764E+08         0.00000E+00
    0.00000E+00         0.00000E+00        -0.50741E-08
 
    0.16693E+05         0.15451E+07         0.00000E+00
    0.15451E+07        -0.55945E+08         0.00000E+00
    0.00000E+00         0.00000E+00         0.76107E-08
 
    0.14959E+05         0.15527E+07         0.00000E+00
    0.15527E+07        -0.56128E+08         0.00000E+00
    0.00000E+00         0.00000E+00        -0.63419E-08
 
    0.13033E+05         0.15593E+07         0.00000E+00
    0.15593E+07        -0.56313E+08         0.00000E+00
    0.00000E+00         0.00000E+00         0.88794E-08
 
    0.10894E+05         0.15647E+07         0.00000E+00
    0.15647E+07        -0.56501E+08         0.00000E+00
    0.00000E+00         0.00000E+00        -0.63437E-08
 
    0.85236E+04         0.15689E+07         0.00000E+00
    0.15689E+07        -0.56691E+08         0.00000E+00
    0.00000E+00         0.00000E+00         0.25375E-08
 
    0.58985E+04         0.15718E+07         0.00000E+00
    0.15718E+07        -0.56883E+08         0.00000E+00
    0.00000E+00         0.00000E+00         0.50741E-08
 
    0.29953E+04         0.15730E+07         0.00000E+00
    0.15730E+07        -0.57078E+08         0.00000E+00
    0.00000E+00         0.00000E+00        -0.38053E-08
 
   -0.21154E+03         0.15727E+07         0.00000E+00
    0.15727E+07        -0.57275E+08         0.00000E+00
    0.00000E+00         0.00000E+00         0.38053E-08
 
   -0.37485E+04         0.15704E+07         0.00000E+00
    0.15704E+07        -0.57475E+08         0.00000E+00
    0.00000E+00         0.00000E+00        -0.12687E-08
 
   -0.76431E+04         0.15661E+07         0.00000E+00
    0.15661E+07        -0.57678E+08         0.00000E+00
    0.00000E+00         0.00000E+00        -0.25375E-08
 
   -0.11923E+05         0.15595E+07         0.00000E+00
    0.15595E+07        -0.57883E+08         0.00000E+00
    0.00000E+00         0.00000E+00        -0.25375E-08
 
   -0.16618E+05         0.15504E+07         0.00000E+00
    0.15504E+07        -0.58092E+08         0.00000E+00
    0.00000E+00         0.00000E+00        -0.13954E-07
 
   -0.21752E+05         0.15386E+07         0.00000E+00
    0.15386E+07        -0.58303E+08         0.00000E+00
    0.00000E+00         0.00000E+00        -0.25375E-08
 
   -0.27353E+05         0.15238E+07         0.00000E+00
    0.15238E+07        -0.58517E+08         0.00000E+00
    0.00000E+00         0.00000E+00        -0.10148E-07
 
   -0.33442E+05         0.15058E+07         0.00000E+00
    0.15058E+07        -0.58734E+08         0.00000E+00
    0.00000E+00         0.00000E+00        -0.88803E-08
 
   -0.40037E+05         0.14842E+07         0.00000E+00
    0.14842E+07        -0.58955E+08         0.00000E+00
    0.00000E+00         0.00000E+00         0.88794E-08
 
   -0.47149E+05         0.14589E+07         0.00000E+00
    0.14589E+07        -0.59179E+08         0.00000E+00
    0.00000E+00         0.00000E+00        -0.25375E-08
 
   -0.54786E+05         0.14295E+07         0.00000E+00
    0.14295E+07        -0.59406E+08         0.00000E+00
    0.00000E+00         0.00000E+00         0.76107E-08
 
   -0.62944E+05         0.13958E+07         0.00000E+00
    0.13958E+07        -0.59636E+08         0.00000E+00
    0.00000E+00         0.00000E+00        -0.11416E-07
 
   -0.71614E+05         0.13575E+07         0.00000E+00
    0.13575E+07        -0.59870E+08         0.00000E+00
    0.00000E+00         0.00000E+00         0.25366E-08
 
   -0.80784E+05         0.13143E+07         0.00000E+00
    0.13143E+07        -0.60106E+08         0.00000E+00
    0.00000E+00         0.00000E+00        -0.25357E-08
 
   -0.90440E+05         0.12661E+07         0.00000E+00
    0.12661E+07        -0.60344E+08         0.00000E+00
    0.00000E+00         0.00000E+00         0.12678E-08
 
   -0.10058E+06         0.12126E+07         0.00000E+00
    0.12126E+07        -0.60584E+08         0.00000E+00
    0.00000E+00         0.00000E+00        -0.76116E-08
 
   -0.11123E+06         0.11536E+07         0.00000E+00
    0.11536E+07        -0.60824E+08         0.00000E+00
    0.00000E+00         0.00000E+00         0.50741E-08
 
   -0.12247E+06         0.10890E+07         0.00000E+00
    0.10890E+07        -0.61064E+08         0.00000E+00
    0.00000E+00         0.00000E+00         0.63428E-08
 
   -0.13450E+06         0.10186E+07         0.00000E+00
    0.10186E+07        -0.61300E+08         0.00000E+00
    0.00000E+00         0.00000E+00         0.76116E-08
 
   -0.14768E+06         0.94192E+06         0.00000E+00
    0.94192E+06        -0.61531E+08         0.00000E+00
    0.00000E+00         0.00000E+00        -0.63428E-08
 
   -0.16268E+06         0.85848E+06         0.00000E+00
    0.85848E+06        -0.61753E+08         0.00000E+00
    0.00000E+00         0.00000E+00        -0.12678E-08
 
   -0.18060E+06         0.76727E+06         0.00000E+00
    0.76727E+06        -0.61962E+08         0.00000E+00
    0.00000E+00         0.00000E+00        -0.38062E-08
 
   -0.20329E+06         0.66655E+06         0.00000E+00
    0.66655E+06        -0.62153E+08         0.00000E+00
    0.00000E+00         0.00000E+00        -0.11417E-07
 
   -0.23381E+06         0.55348E+06         0.00000E+00
    0.55348E+06        -0.62322E+08         0.00000E+00
    0.00000E+00         0.00000E+00        -0.11417E-07
 
   -0.27751E+06         0.42319E+06         0.00000E+00
    0.42319E+06        -0.62459E+08         0.00000E+00
    0.00000E+00         0.00000E+00        -0.13953E-07
 
   -0.34702E+06         0.26934E+06         0.00000E+00
    0.26934E+06        -0.62557E+08         0.00000E+00
    0.00000E+00         0.00000E+00         0.25372E-08
 
   -0.46982E+06         0.92858E+05         0.00000E+00
    0.92858E+05        -0.62605E+08         0.00000E+00
    0.00000E+00         0.00000E+00         0.13954E-07
 
    0.26905E+06         0.41895E+05         0.00000E+00
    0.41895E+05        -0.47583E+08         0.00000E+00
    0.00000E+00         0.00000E+00         0.76111E-08
 
    0.20739E+06         0.12287E+06         0.00000E+00
    0.12287E+06        -0.47604E+08         0.00000E+00
    0.00000E+00         0.00000E+00         0.50741E-08
 
    0.16997E+06         0.19621E+06         0.00000E+00
    0.19621E+06        -0.47646E+08         0.00000E+00
    0.00000E+00         0.00000E+00         0.88796E-08
 
    0.14602E+06         0.26064E+06         0.00000E+00
    0.26064E+06        -0.47708E+08         0.00000E+00
    0.00000E+00         0.00000E+00        -0.76111E-08
 
    0.12941E+06         0.31802E+06         0.00000E+00
    0.31802E+06        -0.47784E+08         0.00000E+00
    0.00000E+00         0.00000E+00         0.25366E-08
 
    0.11720E+06         0.37029E+06         0.00000E+00
    0.37029E+06        -0.47872E+08         0.00000E+00
    0.00000E+00         0.00000E+00         0.12687E-08
 
    0.10773E+06         0.41868E+06         0.00000E+00
    0.41868E+06        -0.47968E+08         0.00000E+00
    0.00000E+00         0.00000E+00         0.12683E-08
 
    0.99984E+05         0.46392E+06         0.00000E+00
    0.46392E+06        -0.48070E+08         0.00000E+00
    0.00000E+00         0.00000E+00         0.63428E-08
 
    0.93337E+05         0.50644E+06         0.00000E+00
    0.50644E+06        -0.48177E+08         0.00000E+00
    0.00000E+00         0.00000E+00        -0.76107E-08
 
    0.87415E+05         0.54652E+06         0.00000E+00
    0.54652E+06        -0.48287E+08         0.00000E+00
    0.00000E+00         0.00000E+00         0.50741E-08
 
    0.82004E+05         0.58429E+06         0.00000E+00
    0.58429E+06        -0.48398E+08         0.00000E+00
    0.00000E+00         0.00000E+00         0.45475E-12
 
    0.76989E+05         0.61988E+06         0.00000E+00
    0.61988E+06        -0.48511E+08         0.00000E+00
    0.00000E+00         0.00000E+00        -0.25370E-08
 
    0.72314E+05         0.65338E+06         0.00000E+00
    0.65338E+06        -0.48624E+08         0.00000E+00
    0.00000E+00         0.00000E+00         0.00000E+00
 
    0.67955E+05         0.68489E+06         0.00000E+00
    0.68489E+06        -0.48737E+08         0.00000E+00
    0.00000E+00         0.00000E+00         0.50741E-08
 
    0.63905E+05         0.71450E+06         0.00000E+00
    0.71450E+06        -0.48850E+08         0.00000E+00
    0.00000E+00         0.00000E+00        -0.12687E-08
 
    0.60164E+05         0.74234E+06         0.00000E+00
    0.74234E+06        -0.48963E+08         0.00000E+00
    0.00000E+00         0.00000E+00         0.00000E+00
 
    0.56732E+05         0.76853E+06         0.00000E+00
    0.76853E+06        -0.49076E+08         0.00000E+00
    0.00000E+00         0.00000E+00        -0.25370E-08
 
    0.53606E+05         0.79319E+06         0.00000E+00
    0.79319E+06        -0.49188E+08         0.00000E+00
    0.00000E+00         0.00000E+00         0.63424E-08
 
    0.50782E+05         0.81645E+06         0.00000E+00
    0.81645E+06        -0.49300E+08         0.00000E+00
    0.00000E+00         0.00000E+00        -0.10148E-07
 
    0.48251E+05         0.83844E+06         0.00000E+00
    0.83844E+06        -0.49411E+08         0.00000E+00
    0.00000E+00         0.00000E+00         0.50741E-08
 
    0.46002E+05         0.85930E+06         0.00000E+00
    0.85930E+06        -0.49523E+08         0.00000E+00
    0.00000E+00         0.00000E+00         0.12685E-07
 
    0.44018E+05         0.87914E+06         0.00000E+00
    0.87914E+06        -0.49635E+08         0.00000E+00
    0.00000E+00         0.00000E+00         0.13953E-07
 
    0.42285E+05         0.89808E+06         0.00000E+00
    0.89808E+06        -0.49746E+08         0.00000E+00
    0.00000E+00         0.00000E+00        -0.17759E-07
 
    0.40784E+05         0.91624E+06         0.00000E+00
    0.91624E+06        -0.49859E+08         0.00000E+00
    0.00000E+00         0.00000E+00        -0.63428E-08
 
    0.39496E+05         0.93371E+06         0.00000E+00
    0.93371E+06        -0.49971E+08         0.00000E+00
    0.00000E+00         0.00000E+00         0.63428E-08
 
    0.38403E+05         0.95059E+06         0.00000E+00
    0.95059E+06        -0.50084E+08         0.00000E+00
    0.00000E+00         0.00000E+00         0.50741E-08
 
    0.37486E+05         0.96697E+06         0.00000E+00
    0.96697E+06        -0.50198E+08         0.00000E+00
    0.00000E+00         0.00000E+00         0.63428E-08
 
    0.36727E+05         0.98292E+06         0.00000E+00
    0.98292E+06        -0.50312E+08         0.00000E+00
    0.00000E+00         0.00000E+00         0.63428E-08
 
    0.36109E+05         0.99852E+06         0.00000E+00
    0.99852E+06        -0.50427E+08         0.00000E+00
    0.00000E+00         0.00000E+00         0.12683E-08
 
    0.35614E+05         0.10138E+07         0.00000E+00
    0.10138E+07        -0.50544E+08         0.00000E+00
    0.00000E+00         0.00000E+00        -0.12687E-08
 
    0.35229E+05         0.10289E+07         0.00000E+00
    0.10289E+07        -0.50661E+08         0.00000E+00
    0.00000E+00         0.00000E+00         0.12683E-08
 
    0.34937E+05         0.10438E+07         0.00000E+00
    0.10438E+07        -0.50779E+08         0.00000E+00
    0.00000E+00         0.00000E+00         0.25370E-08
 
    0.34727E+05         0.10585E+07         0.00000E+00
    0.10585E+07        -0.50898E+08         0.00000E+00
    0.00000E+00         0.00000E+00         0.00000E+00
 
    0.34585E+05         0.10731E+07         0.00000E+00
    0.10731E+07        -0.51019E+08         0.00000E+00
    0.00000E+00         0.00000E+00         0.00000E+00
 
    0.34501E+05         0.10876E+07         0.00000E+00
    0.10876E+07        -0.51141E+08         0.00000E+00
    0.00000E+00         0.00000E+00         0.25370E-08
 
    0.34464E+05         0.11021E+07         0.00000E+00
    0.11021E+07        -0.51264E+08         0.00000E+00
    0.00000E+00         0.00000E+00         0.12683E-08
 
    0.34464E+05         0.11165E+07         0.00000E+00
    0.11165E+07        -0.51389E+08         0.00000E+00
    0.00000E+00         0.00000E+00         0.12687E-08
 
    0.34493E+05         0.11309E+07         0.00000E+00
    0.11309E+07        -0.51515E+08         0.00000E+00
    0.00000E+00         0.00000E+00         0.10148E-07
 
    0.34543E+05         0.11454E+07         0.00000E+00
    0.11454E+07        -0.51642E+08         0.00000E+00
    0.00000E+00         0.00000E+00         0.25370E-08
 
    0.34606E+05         0.11598E+07         0.00000E+00
    0.11598E+07        -0.51771E+08         0.00000E+00
    0.00000E+00         0.00000E+00         0.12683E-08
 
    0.34676E+05         0.11742E+07         0.00000E+00
    0.11742E+07        -0.51902E+08         0.00000E+00
    0.00000E+00         0.00000E+00        -0.12687E-08
 
    0.34746E+05         0.11886E+07         0.00000E+00
    0.11886E+07        -0.52034E+08         0.00000E+00
    0.00000E+00         0.00000E+00         0.50741E-08
 
    0.34810E+05         0.12030E+07         0.00000E+00
    0.12030E+07        -0.52168E+08         0.00000E+00
    0.00000E+00         0.00000E+00        -0.88794E-08
 
    0.34863E+05         0.12175E+07         0.00000E+00
    0.12175E+07        -0.52304E+08         0.00000E+00
    0.00000E+00         0.00000E+00         0.25375E-08
 
    0.34899E+05         0.12319E+07         0.00000E+00
    0.12319E+07        -0.52441E+08         0.00000E+00
    0.00000E+00         0.00000E+00         0.38053E-08
 
    0.34914E+05         0.12463E+07         0.00000E+00
    0.12463E+07        -0.52580E+08         0.00000E+00
    0.00000E+00         0.00000E+00         0.50741E-08
 
    0.34902E+05         0.12608E+07         0.00000E+00
    0.12608E+07        -0.52721E+08         0.00000E+00
    0.00000E+00         0.00000E+00        -0.38053E-08
 
    0.34858E+05         0.12752E+07         0.00000E+00
    0.12752E+07        -0.52864E+08         0.00000E+00
    0.00000E+00         0.00000E+00        -0.12683E-08
 
    0.34779E+05         0.12895E+07         0.00000E+00
    0.12895E+07        -0.53008E+08         0.00000E+00
    0.00000E+00         0.00000E+00         0.00000E+00
 
    0.34658E+05         0.13038E+07         0.00000E+00
    0.13038E+07        -0.53155E+08         0.00000E+00
    0.00000E+00         0.00000E+00        -0.50741E-08
 
    0.34492E+05         0.13180E+07         0.00000E+00
    0.13180E+07        -0.53303E+08         0.00000E+00
    0.00000E+00         0.00000E+00        -0.38058E-08
 
    0.34275E+05         0.13322E+07         0.00000E+00
    0.13322E+07        -0.53453E+08         0.00000E+00
    0.00000E+00         0.00000E+00        -0.88794E-08
 
    0.34002E+05         0.13462E+07         0.00000E+00
    0.13462E+07        -0.53605E+08         0.00000E+00
    0.00000E+00         0.00000E+00         0.12687E-08
 
    0.33667E+05         0.13600E+07         0.00000E+00
    0.13600E+07        -0.53760E+08         0.00000E+00
    0.00000E+00         0.00000E+00        -0.50741E-08
 
    0.33266E+05         0.13737E+07         0.00000E+00
    0.13737E+07        -0.53916E+08         0.00000E+00
    0.00000E+00         0.00000E+00         0.17759E-07
 
    0.32791E+05         0.13872E+07         0.00000E+00
    0.13872E+07        -0.54074E+08         0.00000E+00
    0.00000E+00         0.00000E+00         0.50741E-08
 
    0.32237E+05         0.14005E+07         0.00000E+00
    0.14005E+07        -0.54234E+08         0.00000E+00
    0.00000E+00         0.00000E+00        -0.50741E-08
 
    0.31595E+05         0.14135E+07         0.00000E+00
    0.14135E+07        -0.54396E+08         0.00000E+00
    0.00000E+00         0.00000E+00        -0.25370E-08
 
    0.30858E+05         0.14261E+07         0.00000E+00
    0.14261E+07        -0.54560E+08         0.00000E+00
    0.00000E+00         0.00000E+00        -0.76107E-08
 
    0.30018E+05         0.14385E+07         0.00000E+00
    0.14385E+07        -0.54726E+08         0.00000E+00
    0.00000E+00         0.00000E+00         0.38062E-08
 
    0.29065E+05         0.14504E+07         0.00000E+00
    0.14504E+07        -0.54894E+08         0.00000E+00
    0.00000E+00         0.00000E+00        -0.63419E-08
 
    0.27989E+05         0.14618E+07         0.00000E+00
    0.14618E+07        -0.55064E+08         0.00000E+00
    0.00000E+00         0.00000E+00         0.12687E-08
 
    0.26778E+05         0.14728E+07         0.00000E+00
    0.14728E+07        -0.55236E+08         0.00000E+00
    0.00000E+00         0.00000E+00         0.12687E-08
 
    0.25419E+05         0.14831E+07         0.00000E+00
    0.14831E+07        -0.55410E+08         0.00000E+00
    0.00000E+00         0.00000E+00         0.10148E-07
 
    0.23898E+05         0.14928E+07         0.00000E+00
    0.14928E+07        -0.55587E+08         0.00000E+00
    0.00000E+00         0.00000E+00         0.20296E-07
 
    0.22200E+05         0.15018E+07         0.00000E+00
    0.15018E+07        -0.55765E+08         0.00000E+00
    0.00000E+00         0.00000E+00        -0.50750E-08
 
    0.20307E+05         0.15100E+07         0.00000E+00
    0.15100E+07        -0.55946E+08         0.00000E+00
    0.00000E+00         0.00000E+00        -0.88794E-08
 
    0.18201E+05         0.15173E+07         0.00000E+00
    0.15173E+07        -0.56129E+08         0.00000E+00
    0.00000E+00         0.00000E+00         0.00000E+00
 
    0.15860E+05         0.15236E+07         0.00000E+00
    0.15236E+07        -0.56314E+08         0.00000E+00
    0.00000E+00         0.00000E+00         0.00000E+00
 
    0.13261E+05         0.15288E+07         0.00000E+00
    0.15288E+07        -0.56502E+08         0.00000E+00
    0.00000E+00         0.00000E+00         0.00000E+00
 
    0.10380E+05         0.15327E+07         0.00000E+00
    0.15327E+07        -0.56691E+08         0.00000E+00
    0.00000E+00         0.00000E+00         0.63428E-08
 
    0.71897E+04         0.15353E+07         0.00000E+00
    0.15353E+07        -0.56884E+08         0.00000E+00
    0.00000E+00         0.00000E+00         0.25375E-08
 
    0.36609E+04         0.15364E+07         0.00000E+00
    0.15364E+07        -0.57078E+08         0.00000E+00
    0.00000E+00         0.00000E+00        -0.12678E-08
 
   -0.23731E+03         0.15357E+07         0.00000E+00
    0.15357E+07        -0.57275E+08         0.00000E+00
    0.00000E+00         0.00000E+00         0.50741E-08
 
   -0.45375E+04         0.15333E+07         0.00000E+00
    0.15333E+07        -0.57475E+08         0.00000E+00
    0.00000E+00         0.00000E+00         0.00000E+00
 
   -0.92735E+04         0.15287E+07         0.00000E+00
    0.15287E+07        -0.57677E+08         0.00000E+00
    0.00000E+00         0.00000E+00         0.25366E-08
 
   -0.14480E+05         0.15220E+07         0.00000E+00
    0.15220E+07        -0.57882E+08         0.00000E+00
    0.00000E+00         0.00000E+00        -0.38062E-08
 
   -0.20192E+05         0.15127E+07         0.00000E+00
    0.15127E+07        -0.58089E+08         0.00000E+00
    0.00000E+00         0.00000E+00        -0.38053E-08
 
   -0.26442E+05         0.15007E+07         0.00000E+00
    0.15007E+07        -0.58300E+08         0.00000E+00
    0.00000E+00         0.00000E+00         0.88794E-08
 
   -0.33262E+05         0.14858E+07         0.00000E+00
    0.14858E+07        -0.58514E+08         0.00000E+00
    0.00000E+00         0.00000E+00         0.10148E-07
 
   -0.40682E+05         0.14677E+07         0.00000E+00
    0.14677E+07        -0.58730E+08         0.00000E+00
    0.00000E+00         0.00000E+00        -0.17759E-07
 
   -0.48723E+05         0.14460E+07         0.00000E+00
    0.14460E+07        -0.58950E+08         0.00000E+00
    0.00000E+00         0.00000E+00         0.00000E+00
 
   -0.57403E+05         0.14206E+07         0.00000E+00
    0.14206E+07        -0.59173E+08         0.00000E+00
    0.00000E+00         0.00000E+00         0.13954E-07
 
   -0.66731E+05         0.13911E+07         0.00000E+00
    0.13911E+07        -0.59400E+08         0.00000E+00
    0.00000E+00         0.00000E+00        -0.76116E-08
 
   -0.76709E+05         0.13574E+07         0.00000E+00
    0.13574E+07        -0.59629E+08         0.00000E+00
    0.00000E+00         0.00000E+00         0.76107E-08
 
   -0.87328E+05         0.13190E+07         0.00000E+00
    0.13190E+07        -0.59862E+08         0.00000E+00
    0.00000E+00         0.00000E+00         0.15222E-07
 
   -0.98578E+05         0.12757E+07         0.00000E+00
    0.12757E+07        -0.60097E+08         0.00000E+00
    0.00000E+00         0.00000E+00         0.00000E+00
 
   -0.11045E+06         0.12275E+07         0.00000E+00
    0.12275E+07        -0.60334E+08         0.00000E+00
    0.00000E+00         0.00000E+00        -0.12687E-08
 
   -0.12293E+06         0.11739E+07         0.00000E+00
    0.11739E+07        -0.60573E+08         0.00000E+00
    0.00000E+00         0.00000E+00         0.10149E-07
 
   -0.13608E+06         0.11150E+07         0.00000E+00
    0.11150E+07        -0.60812E+08         0.00000E+00
    0.00000E+00         0.00000E+00         0.12686E-07
 
   -0.14999E+06         0.10504E+07         0.00000E+00
    0.10504E+07        -0.61050E+08         0.00000E+00
    0.00000E+00         0.00000E+00        -0.13953E-07
 
   -0.16489E+06         0.98007E+06         0.00000E+00
    0.98007E+06        -0.61285E+08         0.00000E+00
    0.00000E+00         0.00000E+00        -0.25366E-08
 
   -0.18122E+06         0.90364E+06         0.00000E+00
    0.90364E+06        -0.61515E+08         0.00000E+00
    0.00000E+00         0.00000E+00         0.10148E-07
 
   -0.19979E+06         0.82063E+06         0.00000E+00
    0.82063E+06        -0.61735E+08         0.00000E+00
    0.00000E+00         0.00000E+00         0.50732E-08
 
   -0.22189E+06         0.73017E+06         0.00000E+00
    0.73017E+06        -0.61943E+08         0.00000E+00
    0.00000E+00         0.00000E+00        -0.63424E-08
 
   -0.24972E+06         0.63073E+06         0.00000E+00
    0.63073E+06        -0.62132E+08         0.00000E+00
    0.00000E+00         0.00000E+00         0.10148E-07
 
   -0.28682E+06         0.51979E+06         0.00000E+00
    0.51979E+06        -0.62298E+08         0.00000E+00
    0.00000E+00         0.00000E+00         0.76111E-08
 
   -0.33948E+06         0.39323E+06         0.00000E+00
    0.39323E+06        -0.62432E+08         0.00000E+00
    0.00000E+00         0.00000E+00         0.38056E-08
 
   -0.42095E+06         0.24712E+06         0.00000E+00
    0.24712E+06        -0.62524E+08         0.00000E+00
    0.00000E+00         0.00000E+00        -0.76111E-08
 
   -0.55443E+06         0.84411E+05         0.00000E+00
    0.84411E+05        -0.62570E+08         0.00000E+00
    0.00000E+00         0.00000E+00        -0.63426E-08
 
    0.30832E+06         0.38486E+05         0.00000E+00
    0.38486E+05        -0.47599E+08         0.00000E+00
    0.00000E+00         0.00000E+00        -0.12685E-08
 
    0.24286E+06         0.11360E+06         0.00000E+00
    0.11360E+06        -0.47619E+08         0.00000E+00
    0.00000E+00         0.00000E+00        -0.63426E-08
 
    0.20073E+06         0.18321E+06         0.00000E+00
    0.18321E+06        -0.47660E+08         0.00000E+00
    0.00000E+00         0.00000E+00         0.25370E-08
 
    0.17295E+06         0.24559E+06         0.00000E+00
    0.24559E+06        -0.47720E+08         0.00000E+00
    0.00000E+00         0.00000E+00        -0.25370E-08
 
    0.15346E+06         0.30177E+06         0.00000E+00
    0.30177E+06        -0.47795E+08         0.00000E+00
    0.00000E+00         0.00000E+00         0.11417E-07
 
    0.13901E+06         0.35328E+06         0.00000E+00
    0.35328E+06        -0.47882E+08         0.00000E+00
    0.00000E+00         0.00000E+00         0.12687E-08
 
    0.12772E+06         0.40117E+06         0.00000E+00
    0.40117E+06        -0.47977E+08         0.00000E+00
    0.00000E+00         0.00000E+00         0.12683E-08
 
    0.11844E+06         0.44607E+06         0.00000E+00
    0.44607E+06        -0.48079E+08         0.00000E+00
    0.00000E+00         0.00000E+00         0.50741E-08
 
    0.11046E+06         0.48835E+06         0.00000E+00
    0.48835E+06        -0.48185E+08         0.00000E+00
    0.00000E+00         0.00000E+00         0.25370E-08
 
    0.10335E+06         0.52822E+06         0.00000E+00
    0.52822E+06        -0.48295E+08         0.00000E+00
    0.00000E+00         0.00000E+00        -0.12687E-08
 
    0.96860E+05         0.56582E+06         0.00000E+00
    0.56582E+06        -0.48406E+08         0.00000E+00
    0.00000E+00         0.00000E+00         0.00000E+00
 
    0.90856E+05         0.60123E+06         0.00000E+00
    0.60123E+06        -0.48518E+08         0.00000E+00
    0.00000E+00         0.00000E+00        -0.25370E-08
 
    0.85272E+05         0.63456E+06         0.00000E+00
    0.63456E+06        -0.48631E+08         0.00000E+00
    0.00000E+00         0.00000E+00        -0.63428E-08
 
    0.80077E+05         0.66589E+06         0.00000E+00
    0.66589E+06        -0.48743E+08         0.00000E+00
    0.00000E+00         0.00000E+00        -0.12685E-07
 
    0.75260E+05         0.69531E+06         0.00000E+00
    0.69531E+06        -0.48856E+08         0.00000E+00
    0.00000E+00         0.00000E+00         0.13953E-07
 
    0.70820E+05         0.72295E+06         0.00000E+00
    0.72295E+06        -0.48968E+08         0.00000E+00
    0.00000E+00         0.00000E+00        -0.76111E-08
 
    0.66752E+05         0.74893E+06         0.00000E+00
    0.74893E+06        -0.49081E+08         0.00000E+00
    0.00000E+00         0.00000E+00        -0.12685E-07
 
    0.63054E+05         0.77337E+06         0.00000E+00
    0.77337E+06        -0.49192E+08         0.00000E+00
    0.00000E+00         0.00000E+00        -0.10148E-07
 
    0.59717E+05         0.79640E+06         0.00000E+00
    0.79640E+06        -0.49304E+08         0.00000E+00
    0.00000E+00         0.00000E+00         0.25366E-08
 
    0.56729E+05         0.81816E+06         0.00000E+00
    0.81816E+06        -0.49416E+08         0.00000E+00
    0.00000E+00         0.00000E+00         0.88794E-08
 
    0.54077E+05         0.83877E+06         0.00000E+00
    0.83877E+06        -0.49527E+08         0.00000E+00
    0.00000E+00         0.00000E+00        -0.76116E-08
 
    0.51740E+05         0.85837E+06         0.00000E+00
    0.85837E+06        -0.49638E+08         0.00000E+00
    0.00000E+00         0.00000E+00         0.25366E-08
 
    0.49699E+05         0.87706E+06         0.00000E+00
    0.87706E+06        -0.49750E+08         0.00000E+00
    0.00000E+00         0.00000E+00         0.38053E-08
 
    0.47933E+05         0.89496E+06         0.00000E+00
    0.89496E+06        -0.49862E+08         0.00000E+00
    0.00000E+00         0.00000E+00         0.25370E-08
 
    0.46419E+05         0.91217E+06         0.00000E+00
    0.91217E+06        -0.49975E+08         0.00000E+00
    0.00000E+00         0.00000E+00         0.25366E-08
 
    0.45134E+05         0.92878E+06         0.00000E+00
    0.92878E+06        -0.50087E+08         0.00000E+00
    0.00000E+00         0.00000E+00         0.00000E+00
 
    0.44057E+05         0.94489E+06         0.00000E+00
    0.94489E+06        -0.50201E+08         0.00000E+00
    0.00000E+00         0.00000E+00         0.22834E-07
 
    0.43166E+05         0.96057E+06         0.00000E+00
    0.96057E+06        -0.50315E+08         0.00000E+00
    0.00000E+00         0.00000E+00         0.38058E-08
 
    0.42440E+05         0.97589E+06         0.00000E+00
    0.97589E+06        -0.50431E+08         0.00000E+00
    0.00000E+00         0.00000E+00         0.50741E-08
 
    0.41860E+05         0.99091E+06         0.00000E+00
    0.99091E+06        -0.50547E+08         0.00000E+00
    0.00000E+00         0.00000E+00        -0.16491E-07
 
    0.41408E+05         0.10057E+07         0.00000E+00
    0.10057E+07        -0.50664E+08         0.00000E+00
    0.00000E+00         0.00000E+00         0.12687E-08
 
    0.41066E+05         0.10203E+07         0.00000E+00
    0.10203E+07        -0.50782E+08         0.00000E+00
    0.00000E+00         0.00000E+00        -0.25370E-08
 
    0.40820E+05         0.10347E+07         0.00000E+00
    0.10347E+07        -0.50901E+08         0.00000E+00
    0.00000E+00         0.00000E+00        -0.12685E-07
 
    0.40655E+05         0.10490E+07         0.00000E+00
    0.10490E+07        -0.51022E+08         0.00000E+00
    0.00000E+00         0.00000E+00         0.10148E-07
 
    0.40557E+05         0.10632E+07         0.00000E+00
    0.10632E+07        -0.51144E+08         0.00000E+00
    0.00000E+00         0.00000E+00        -0.11417E-07
 
    0.40514E+05         0.10774E+07         0.00000E+00
    0.10774E+07        -0.51267E+08         0.00000E+00
    0.00000E+00         0.00000E+00        -0.25366E-08
 
    0.40515E+05         0.10915E+07         0.00000E+00
    0.10915E+07        -0.51391E+08         0.00000E+00
    0.00000E+00         0.00000E+00         0.38058E-08
 
    0.40550E+05         0.11056E+07         0.00000E+00
    0.11056E+07        -0.51517E+08         0.00000E+00
    0.00000E+00         0.00000E+00        -0.12683E-08
 
    0.40610E+05         0.11197E+07         0.00000E+00
    0.11197E+07        -0.51645E+08         0.00000E+00
    0.00000E+00         0.00000E+00         0.13954E-07
 
    0.40684E+05         0.11338E+07         0.00000E+00
    0.11338E+07        -0.51774E+08         0.00000E+00
    0.00000E+00         0.00000E+00        -0.38058E-08
 
    0.40767E+05         0.11479E+07         0.00000E+00
    0.11479E+07        -0.51905E+08         0.00000E+00
    0.00000E+00         0.00000E+00        -0.76111E-08
 
    0.40850E+05         0.11620E+07         0.00000E+00
    0.11620E+07        -0.52037E+08         0.00000E+00
    0.00000E+00         0.00000E+00        -0.76111E-08
 
    0.40925E+05         0.11761E+07         0.00000E+00
    0.11761E+07        -0.52171E+08         0.00000E+00
    0.00000E+00         0.00000E+00         0.25366E-08
 
    0.40988E+05         0.11902E+07         0.00000E+00
    0.11902E+07        -0.52307E+08         0.00000E+00
    0.00000E+00         0.00000E+00         0.12683E-08
 
    0.41031E+05         0.12043E+07         0.00000E+00
    0.12043E+07        -0.52444E+08         0.00000E+00
    0.00000E+00         0.00000E+00        -0.25366E-08
 
    0.41048E+05         0.12184E+07         0.00000E+00
    0.12184E+07        -0.52583E+08         0.00000E+00
    0.00000E+00         0.00000E+00         0.12683E-08
 
    0.41034E+05         0.12325E+07         0.00000E+00
    0.12325E+07        -0.52724E+08         0.00000E+00
    0.00000E+00         0.00000E+00         0.12685E-07
 
    0.40984E+05         0.12465E+07         0.00000E+00
    0.12465E+07        -0.52867E+08         0.00000E+00
    0.00000E+00         0.00000E+00        -0.50741E-08
 
    0.40890E+05         0.12605E+07         0.00000E+00
    0.12605E+07        -0.53011E+08         0.00000E+00
    0.00000E+00         0.00000E+00         0.25370E-08
 
    0.40749E+05         0.12745E+07         0.00000E+00
    0.12745E+07        -0.53158E+08         0.00000E+00
    0.00000E+00         0.00000E+00        -0.11416E-07
 
    0.40554E+05         0.12883E+07         0.00000E+00
    0.12883E+07        -0.53306E+08         0.00000E+00
    0.00000E+00         0.00000E+00        -0.38053E-08
 
    0.40299E+05         0.13021E+07         0.00000E+00
    0.13021E+07        -0.53456E+08         0.00000E+00
    0.00000E+00         0.00000E+00        -0.38053E-08
 
    0.39978E+05         0.13158E+07         0.00000E+00
    0.13158E+07        -0.53608E+08         0.00000E+00
    0.00000E+00         0.00000E+00        -0.38058E-08
 
    0.39586E+05         0.13293E+07         0.00000E+00
    0.13293E+07        -0.53762E+08         0.00000E+00
    0.00000E+00         0.00000E+00        -0.76116E-08
 
    0.39114E+05         0.13426E+07         0.00000E+00
    0.13426E+07        -0.53918E+08         0.00000E+00
    0.00000E+00         0.00000E+00         0.63424E-08
 
    0.38556E+05         0.13558E+07         0.00000E+00
    0.13558E+07        -0.54076E+08         0.00000E+00
    0.00000E+00         0.00000E+00         0.16491E-07
 
    0.37905E+05         0.13687E+07         0.00000E+00
    0.13687E+07        -0.54236E+08         0.00000E+00
    0.00000E+00         0.00000E+00         0.12687E-08
 
    0.37151E+05         0.13813E+07         0.00000E+00
    0.13813E+07        -0.54398E+08         0.00000E+00
    0.00000E+00         0.00000E+00        -0.25366E-08
 
    0.36286E+05         0.13937E+07         0.00000E+00
    0.13937E+07        -0.54562E+08         0.00000E+00
    0.00000E+00         0.00000E+00        -0.38053E-08
 
    0.35299E+05         0.14056E+07         0.00000E+00
    0.14056E+07        -0.54728E+08         0.00000E+00
    0.00000E+00         0.00000E+00        -0.88803E-08
 
    0.34180E+05         0.14172E+07         0.00000E+00
    0.14172E+07        -0.54896E+08         0.00000E+00
    0.00000E+00         0.00000E+00         0.25366E-08
 
    0.32915E+05         0.14284E+07         0.00000E+00
    0.14284E+07        -0.55066E+08         0.00000E+00
    0.00000E+00         0.00000E+00        -0.12686E-07
 
    0.31493E+05         0.14390E+07         0.00000E+00
    0.14390E+07        -0.55238E+08         0.00000E+00
    0.00000E+00         0.00000E+00         0.63419E-08
 
    0.29896E+05         0.14490E+07         0.00000E+00
    0.14490E+07        -0.55412E+08         0.00000E+00
    0.00000E+00         0.00000E+00        -0.17760E-07
 
    0.28110E+05         0.14584E+07         0.00000E+00
    0.14584E+07        -0.55589E+08         0.00000E+00
    0.00000E+00         0.00000E+00        -0.76116E-08
 
    0.26115E+05         0.14671E+07         0.00000E+00
    0.14671E+07        -0.55767E+08         0.00000E+00
    0.00000E+00         0.00000E+00        -0.22833E-07
 
    0.23892E+05         0.14750E+07         0.00000E+00
    0.14750E+07        -0.55948E+08         0.00000E+00
    0.00000E+00         0.00000E+00        -0.38053E-08
 
    0.21417E+05         0.14820E+07         0.00000E+00
    0.14820E+07        -0.56130E+08         0.00000E+00
    0.00000E+00         0.00000E+00        -0.10148E-07
 
    0.18667E+05         0.14880E+07         0.00000E+00
    0.14880E+07        -0.56315E+08         0.00000E+00
    0.00000E+00         0.00000E+00         0.50732E-08
 
    0.15614E+05         0.14929E+07         0.00000E+00
    0.14929E+07        -0.56503E+08         0.00000E+00
    0.00000E+00         0.00000E+00        -0.38053E-08
 
    0.12230E+05         0.14966E+07         0.00000E+00
    0.14966E+07        -0.56692E+08         0.00000E+00
    0.00000E+00         0.00000E+00        -0.88794E-08
 
    0.84814E+04         0.14990E+07         0.00000E+00
    0.14990E+07        -0.56884E+08         0.00000E+00
    0.00000E+00         0.00000E+00        -0.90949E-12
 
    0.43350E+04         0.14998E+07         0.00000E+00
    0.14998E+07        -0.57078E+08         0.00000E+00
    0.00000E+00         0.00000E+00        -0.25366E-08
 
   -0.24608E+03         0.14989E+07         0.00000E+00
    0.14989E+07        -0.57275E+08         0.00000E+00
    0.00000E+00         0.00000E+00        -0.50741E-08
 
   -0.53004E+04         0.14963E+07         0.00000E+00
    0.14963E+07        -0.57474E+08         0.00000E+00
    0.00000E+00         0.00000E+00        -0.50750E-08
 
   -0.10868E+05         0.14916E+07         0.00000E+00
    0.14916E+07        -0.57676E+08         0.00000E+00
    0.00000E+00         0.00000E+00         0.12678E-08
 
   -0.16991E+05         0.14846E+07         0.00000E+00
    0.14846E+07        -0.57880E+08         0.00000E+00
    0.00000E+00         0.00000E+00        -0.20296E-07
 
   -0.23709E+05         0.14752E+07         0.00000E+00
    0.14752E+07        -0.58087E+08         0.00000E+00
    0.00000E+00         0.00000E+00        -0.11417E-07
 
   -0.31065E+05         0.14631E+07         0.00000E+00
    0.14631E+07        -0.58297E+08         0.00000E+00
    0.00000E+00         0.00000E+00        -0.38053E-08
 
   -0.39095E+05         0.14481E+07         0.00000E+00
    0.14481E+07        -0.58510E+08         0.00000E+00
    0.00000E+00         0.00000E+00         0.88794E-08
 
   -0.47836E+05         0.14299E+07         0.00000E+00
    0.14299E+07        -0.58726E+08         0.00000E+00
    0.00000E+00         0.00000E+00         0.50741E-08
 
   -0.57316E+05         0.14081E+07         0.00000E+00
    0.14081E+07        -0.58946E+08         0.00000E+00
    0.00000E+00         0.00000E+00         0.50741E-08
 
   -0.67558E+05         0.13826E+07         0.00000E+00
    0.13826E+07        -0.59168E+08         0.00000E+00
    0.00000E+00         0.00000E+00        -0.76107E-08
 
   -0.78576E+05         0.13531E+07         0.00000E+00
    0.13531E+07        -0.59393E+08         0.00000E+00
    0.00000E+00         0.00000E+00         0.76107E-08
 
   -0.90375E+05         0.13193E+07         0.00000E+00
    0.13193E+07        -0.59622E+08         0.00000E+00
    0.00000E+00         0.00000E+00         0.90949E-12
 
   -0.10295E+06         0.12808E+07         0.00000E+00
    0.12808E+07        -0.59854E+08         0.00000E+00
    0.00000E+00         0.00000E+00        -0.76116E-08
 
   -0.11630E+06         0.12376E+07         0.00000E+00
    0.12376E+07        -0.60088E+08         0.00000E+00
    0.00000E+00         0.00000E+00        -0.25375E-08
 
   -0.13040E+06         0.11893E+07         0.00000E+00
    0.11893E+07        -0.60324E+08         0.00000E+00
    0.00000E+00         0.00000E+00         0.12687E-08
 
   -0.14527E+06         0.11358E+07         0.00000E+00
    0.11358E+07        -0.60562E+08         0.00000E+00
    0.00000E+00         0.00000E+00        -0.12697E-08
 
   -0.16095E+06         0.10769E+07         0.00000E+00
    0.10769E+07        -0.60800E+08         0.00000E+00
    0.00000E+00         0.00000E+00         0.76107E-08
 
   -0.17758E+06         0.10124E+07         0.00000E+00
    0.10124E+07        -0.61037E+08         0.00000E+00
    0.00000E+00         0.00000E+00        -0.38053E-08
 
   -0.19541E+06         0.94217E+06         0.00000E+00
    0.94217E+06        -0.61271E+08         0.00000E+00
    0.00000E+00         0.00000E+00         0.00000E+00
 
   -0.21497E+06         0.86604E+06         0.00000E+00
    0.86604E+06        -0.61499E+08         0.00000E+00
    0.00000E+00         0.00000E+00        -0.88794E-08
 
   -0.23716E+06         0.78356E+06         0.00000E+00
    0.78356E+06        -0.61718E+08         0.00000E+00
    0.00000E+00         0.00000E+00        -0.12678E-08
 
   -0.26348E+06         0.69400E+06         0.00000E+00
    0.69400E+06        -0.61924E+08         0.00000E+00
    0.00000E+00         0.00000E+00        -0.11416E-07
 
   -0.29640E+06         0.59606E+06         0.00000E+00
    0.59606E+06        -0.62112E+08         0.00000E+00
    0.00000E+00         0.00000E+00         0.12683E-08
 
   -0.33991E+06         0.48757E+06         0.00000E+00
    0.48757E+06        -0.62275E+08         0.00000E+00
    0.00000E+00         0.00000E+00        -0.90949E-12
 
   -0.40101E+06         0.36532E+06         0.00000E+00
    0.36532E+06        -0.62405E+08         0.00000E+00
    0.00000E+00         0.00000E+00         0.00000E+00
 
   -0.49275E+06         0.22722E+06         0.00000E+00
    0.22722E+06        -0.62494E+08         0.00000E+00
    0.00000E+00         0.00000E+00        -0.12685E-08
 
   -0.63447E+06         0.77078E+05         0.00000E+00
    0.77078E+05        -0.62538E+08         0.00000E+00
    0.00000E+00         0.00000E+00         0.38058E-08
 
    0.34578E+06         0.35463E+05         0.00000E+00
    0.35463E+05        -0.47614E+08         0.00000E+00
    0.00000E+00         0.00000E+00        -0.25370E-08
 
    0.27733E+06         0.10520E+06         0.00000E+00
    0.10520E+06        -0.47633E+08         0.00000E+00
    0.00000E+00         0.00000E+00        -0.63426E-08
 
    0.23117E+06         0.17104E+06         0.00000E+00
    0.17104E+06        -0.47673E+08         0.00000E+00
    0.00000E+00         0.00000E+00        -0.38056E-08
 
    0.19985E+06         0.23119E+06         0.00000E+00
    0.23119E+06        -0.47732E+08         0.00000E+00
    0.00000E+00         0.00000E+00         0.12687E-08
 
    0.17758E+06         0.28602E+06         0.00000E+00
    0.28602E+06        -0.47806E+08         0.00000E+00
    0.00000E+00         0.00000E+00         0.76111E-08
 
    0.16090E+06         0.33667E+06         0.00000E+00
    0.33667E+06        -0.47892E+08         0.00000E+00
    0.00000E+00         0.00000E+00        -0.10149E-07
 
    0.14779E+06         0.38399E+06         0.00000E+00
    0.38399E+06        -0.47987E+08         0.00000E+00
    0.00000E+00         0.00000E+00        -0.63424E-08
 
    0.13695E+06         0.42850E+06         0.00000E+00
    0.42850E+06        -0.48088E+08         0.00000E+00
    0.00000E+00         0.00000E+00         0.15222E-07
 
    0.12761E+06         0.47050E+06         0.00000E+00
    0.47050E+06        -0.48194E+08         0.00000E+00
    0.00000E+00         0.00000E+00        -0.88794E-08
 
    0.11928E+06         0.51015E+06         0.00000E+00
    0.51015E+06        -0.48302E+08         0.00000E+00
    0.00000E+00         0.00000E+00         0.12683E-08
 
    0.11168E+06         0.54755E+06         0.00000E+00
    0.54755E+06        -0.48413E+08         0.00000E+00
    0.00000E+00         0.00000E+00         0.12687E-08
 
    0.10467E+06         0.58278E+06         0.00000E+00
    0.58278E+06        -0.48525E+08         0.00000E+00
    0.00000E+00         0.00000E+00         0.19028E-07
 
    0.98159E+05         0.61592E+06         0.00000E+00
    0.61592E+06        -0.48637E+08         0.00000E+00
    0.00000E+00         0.00000E+00         0.12687E-08
 
    0.92115E+05         0.64705E+06         0.00000E+00
    0.64705E+06        -0.48749E+08         0.00000E+00
    0.00000E+00         0.00000E+00        -0.63424E-08
 
    0.86523E+05         0.67627E+06         0.00000E+00
    0.67627E+06        -0.48862E+08         0.00000E+00
    0.00000E+00         0.00000E+00        -0.76107E-08
 
    0.81377E+05         0.70370E+06         0.00000E+00
    0.70370E+06        -0.48974E+08         0.00000E+00
    0.00000E+00         0.00000E+00        -0.15222E-07
 
    0.76672E+05         0.72945E+06         0.00000E+00
    0.72945E+06        -0.49086E+08         0.00000E+00
    0.00000E+00         0.00000E+00         0.10148E-07
 
    0.72400E+05         0.75365E+06         0.00000E+00
    0.75365E+06        -0.49197E+08         0.00000E+00
    0.00000E+00         0.00000E+00        -0.24102E-07
 
    0.68551E+05         0.77645E+06         0.00000E+00
    0.77645E+06        -0.49308E+08         0.00000E+00
    0.00000E+00         0.00000E+00        -0.10148E-07
 
    0.65108E+05         0.79796E+06         0.00000E+00
    0.79796E+06        -0.49420E+08         0.00000E+00
    0.00000E+00         0.00000E+00         0.25370E-08
 
    0.62055E+05         0.81832E+06         0.00000E+00
    0.81832E+06        -0.49531E+08         0.00000E+00
    0.00000E+00         0.00000E+00         0.63424E-08
 
    0.59367E+05         0.83766E+06         0.00000E+00
    0.83766E+06        -0.49642E+08         0.00000E+00
    0.00000E+00         0.00000E+00         0.76111E-08
 
    0.57022E+05         0.85609E+06         0.00000E+00
    0.85609E+06        -0.49754E+08         0.00000E+00
    0.00000E+00         0.00000E+00        -0.76116E-08
 
    0.54994E+05         0.87373E+06         0.00000E+00
    0.87373E+06        -0.49866E+08         0.00000E+00
    0.00000E+00         0.00000E+00         0.12686E-07
 
    0.53256E+05         0.89067E+06         0.00000E+00
    0.89067E+06        -0.49978E+08         0.00000E+00
    0.00000E+00         0.00000E+00        -0.88799E-08
 
    0.51782E+05         0.90701E+06         0.00000E+00
    0.90701E+06        -0.50091E+08         0.00000E+00
    0.00000E+00         0.00000E+00        -0.38053E-08
 
    0.50547E+05         0.92284E+06         0.00000E+00
    0.92284E+06        -0.50204E+08         0.00000E+00
    0.00000E+00         0.00000E+00        -0.25370E-08
 
    0.49526E+05         0.93824E+06         0.00000E+00
    0.93824E+06        -0.50318E+08         0.00000E+00
    0.00000E+00         0.00000E+00         0.11416E-07
 
    0.48695E+05         0.95328E+06         0.00000E+00
    0.95328E+06        -0.50434E+08         0.00000E+00
    0.00000E+00         0.00000E+00         0.12687E-08
 
    0.48031E+05         0.96802E+06         0.00000E+00
    0.96802E+06        -0.50550E+08         0.00000E+00
    0.00000E+00         0.00000E+00         0.00000E+00
 
    0.47514E+05         0.98251E+06         0.00000E+00
    0.98251E+06        -0.50667E+08         0.00000E+00
    0.00000E+00         0.00000E+00        -0.38058E-08
 
    0.47124E+05         0.99680E+06         0.00000E+00
    0.99680E+06        -0.50785E+08         0.00000E+00
    0.00000E+00         0.00000E+00         0.00000E+00
 
    0.46844E+05         0.10109E+07         0.00000E+00
    0.10109E+07        -0.50904E+08         0.00000E+00
    0.00000E+00         0.00000E+00         0.17759E-07
 
    0.46655E+05         0.10249E+07         0.00000E+00
    0.10249E+07        -0.51025E+08         0.00000E+00
    0.00000E+00         0.00000E+00         0.00000E+00
 
    0.46544E+05         0.10389E+07         0.00000E+00
    0.10389E+07        -0.51146E+08         0.00000E+00
    0.00000E+00         0.00000E+00         0.63424E-08
 
    0.46496E+05         0.10527E+07         0.00000E+00
    0.10527E+07        -0.51270E+08         0.00000E+00
    0.00000E+00         0.00000E+00        -0.76107E-08
 
    0.46499E+05         0.10665E+07         0.00000E+00
    0.10665E+07        -0.51394E+08         0.00000E+00
    0.00000E+00         0.00000E+00        -0.12687E-08
 
    0.46540E+05         0.10803E+07         0.00000E+00
    0.10803E+07        -0.51520E+08         0.00000E+00
    0.00000E+00         0.00000E+00         0.12683E-08
 
    0.46609E+05         0.10941E+07         0.00000E+00
    0.10941E+07        -0.51648E+08         0.00000E+00
    0.00000E+00         0.00000E+00         0.38053E-08
 
    0.46696E+05         0.11078E+07         0.00000E+00
    0.11078E+07        -0.51777E+08         0.00000E+00
    0.00000E+00         0.00000E+00         0.88794E-08
 
    0.46791E+05         0.11216E+07         0.00000E+00
    0.11216E+07        -0.51908E+08         0.00000E+00
    0.00000E+00         0.00000E+00         0.25375E-08
 
    0.46887E+05         0.11354E+07         0.00000E+00
    0.11354E+07        -0.52040E+08         0.00000E+00
    0.00000E+00         0.00000E+00        -0.38053E-08
 
    0.46975E+05         0.11491E+07         0.00000E+00
    0.11491E+07        -0.52174E+08         0.00000E+00
    0.00000E+00         0.00000E+00        -0.25375E-08
 
    0.47047E+05         0.11629E+07         0.00000E+00
    0.11629E+07        -0.52309E+08         0.00000E+00
    0.00000E+00         0.00000E+00        -0.76111E-08
 
    0.47097E+05         0.11767E+07         0.00000E+00
    0.11767E+07        -0.52447E+08         0.00000E+00
    0.00000E+00         0.00000E+00        -0.88794E-08
 
    0.47117E+05         0.11904E+07         0.00000E+00
    0.11904E+07        -0.52586E+08         0.00000E+00
    0.00000E+00         0.00000E+00         0.88799E-08
 
    0.47102E+05         0.12042E+07         0.00000E+00
    0.12042E+07        -0.52727E+08         0.00000E+00
    0.00000E+00         0.00000E+00         0.11417E-07
 
    0.47044E+05         0.12179E+07         0.00000E+00
    0.12179E+07        -0.52869E+08         0.00000E+00
    0.00000E+00         0.00000E+00         0.16491E-07
 
    0.46938E+05         0.12315E+07         0.00000E+00
    0.12315E+07        -0.53014E+08         0.00000E+00
    0.00000E+00         0.00000E+00         0.00000E+00
 
    0.46776E+05         0.12451E+07         0.00000E+00
    0.12451E+07        -0.53160E+08         0.00000E+00
    0.00000E+00         0.00000E+00        -0.10148E-07
 
    0.46552E+05         0.12586E+07         0.00000E+00
    0.12586E+07        -0.53309E+08         0.00000E+00
    0.00000E+00         0.00000E+00         0.50741E-08
 
    0.46260E+05         0.12721E+07         0.00000E+00
    0.12721E+07        -0.53459E+08         0.00000E+00
    0.00000E+00         0.00000E+00         0.88794E-08
 
    0.45893E+05         0.12854E+07         0.00000E+00
    0.12854E+07        -0.53611E+08         0.00000E+00
    0.00000E+00         0.00000E+00        -0.50741E-08
 
    0.45443E+05         0.12986E+07         0.00000E+00
    0.12986E+07        -0.53765E+08         0.00000E+00
    0.00000E+00         0.00000E+00         0.25375E-08
 
    0.44902E+05         0.13116E+07         0.00000E+00
    0.13116E+07        -0.53921E+08         0.00000E+00
    0.00000E+00         0.00000E+00         0.12683E-08
 
    0.44263E+05         0.13244E+07         0.00000E+00
    0.13244E+07        -0.54079E+08         0.00000E+00
    0.00000E+00         0.00000E+00        -0.63424E-08
 
    0.43516E+05         0.13369E+07         0.00000E+00
    0.13369E+07        -0.54239E+08         0.00000E+00
    0.00000E+00         0.00000E+00         0.50736E-08
 
    0.42652E+05         0.13492E+07         0.00000E+00
    0.13492E+07        -0.54401E+08         0.00000E+00
    0.00000E+00         0.00000E+00         0.50741E-08
 
    0.41660E+05         0.13612E+07         0.00000E+00
    0.13612E+07        -0.54564E+08         0.00000E+00
    0.00000E+00         0.00000E+00        -0.11417E-07
 
    0.40528E+05         0.13729E+07         0.00000E+00
    0.13729E+07        -0.54730E+08         0.00000E+00
    0.00000E+00         0.00000E+00        -0.76107E-08
 
    0.39245E+05         0.13841E+07         0.00000E+00
    0.13841E+07        -0.54898E+08         0.00000E+00
    0.00000E+00         0.00000E+00         0.12687E-08
 
    0.37795E+05         0.13949E+07         0.00000E+00
    0.13949E+07        -0.55068E+08         0.00000E+00
    0.00000E+00         0.00000E+00         0.00000E+00
 
    0.36163E+05         0.14052E+07         0.00000E+00
    0.14052E+07        -0.55240E+08         0.00000E+00
    0.00000E+00         0.00000E+00         0.19028E-07
 
    0.34333E+05         0.14150E+07         0.00000E+00
    0.14150E+07        -0.55414E+08         0.00000E+00
    0.00000E+00         0.00000E+00         0.50741E-08
 
    0.32285E+05         0.14241E+07         0.00000E+00
    0.14241E+07        -0.55590E+08         0.00000E+00
    0.00000E+00         0.00000E+00        -0.12687E-08
 
    0.29998E+05         0.14325E+07         0.00000E+00
    0.14325E+07        -0.55769E+08         0.00000E+00
    0.00000E+00         0.00000E+00         0.12678E-08
 
    0.27448E+05         0.14401E+07         0.00000E+00
    0.14401E+07        -0.55949E+08         0.00000E+00
    0.00000E+00         0.00000E+00         0.15222E-07
 
    0.24611E+05         0.14468E+07         0.00000E+00
    0.14468E+07        -0.56132E+08         0.00000E+00
    0.00000E+00         0.00000E+00         0.16491E-07
 
    0.21458E+05         0.14525E+07         0.00000E+00
    0.14525E+07        -0.56317E+08         0.00000E+00
    0.00000E+00         0.00000E+00        -0.63428E-08
 
    0.17957E+05         0.14572E+07         0.00000E+00
    0.14572E+07        -0.56503E+08         0.00000E+00
    0.00000E+00         0.00000E+00        -0.63428E-08
 
    0.14076E+05         0.14606E+07         0.00000E+00
    0.14606E+07        -0.56693E+08         0.00000E+00
    0.00000E+00         0.00000E+00        -0.20296E-07
 
    0.97772E+04         0.14627E+07         0.00000E+00
    0.14627E+07        -0.56884E+08         0.00000E+00
    0.00000E+00         0.00000E+00         0.12687E-08
 
    0.50214E+04         0.14633E+07         0.00000E+00
    0.14633E+07        -0.57078E+08         0.00000E+00
    0.00000E+00         0.00000E+00        -0.25366E-08
 
   -0.23363E+03         0.14623E+07         0.00000E+00
    0.14623E+07        -0.57274E+08         0.00000E+00
    0.00000E+00         0.00000E+00         0.10147E-07
 
   -0.60325E+04         0.14595E+07         0.00000E+00
    0.14595E+07        -0.57473E+08         0.00000E+00
    0.00000E+00         0.00000E+00        -0.12678E-08
 
   -0.12422E+05         0.14546E+07         0.00000E+00
    0.14546E+07        -0.57675E+08         0.00000E+00
    0.00000E+00         0.00000E+00         0.88794E-08
 
   -0.19450E+05         0.14475E+07         0.00000E+00
    0.14475E+07        -0.57878E+08         0.00000E+00
    0.00000E+00         0.00000E+00        -0.19028E-07
 
   -0.27165E+05         0.14380E+07         0.00000E+00
    0.14380E+07        -0.58085E+08         0.00000E+00
    0.00000E+00         0.00000E+00         0.11416E-07
 
   -0.35615E+05         0.14258E+07         0.00000E+00
    0.14258E+07        -0.58295E+08         0.00000E+00
    0.00000E+00         0.00000E+00         0.25366E-08
 
   -0.44845E+05         0.14106E+07         0.00000E+00
    0.14106E+07        -0.58507E+08         0.00000E+00
    0.00000E+00         0.00000E+00         0.38053E-08
 
   -0.54897E+05         0.13923E+07         0.00000E+00
    0.13923E+07        -0.58722E+08         0.00000E+00
    0.00000E+00         0.00000E+00        -0.10148E-07
 
   -0.65808E+05         0.13705E+07         0.00000E+00
    0.13705E+07        -0.58941E+08         0.00000E+00
    0.00000E+00         0.00000E+00         0.38053E-08
 
   -0.77606E+05         0.13450E+07         0.00000E+00
    0.13450E+07        -0.59163E+08         0.00000E+00
    0.00000E+00         0.00000E+00         0.11416E-07
 
   -0.90312E+05         0.13154E+07         0.00000E+00
    0.13154E+07        -0.59387E+08         0.00000E+00
    0.00000E+00         0.00000E+00        -0.90949E-12
 
   -0.10393E+06         0.12816E+07         0.00000E+00
    0.12816E+07        -0.59615E+08         0.00000E+00
    0.00000E+00         0.00000E+00        -0.10147E-07
 
   -0.11848E+06         0.12431E+07         0.00000E+00
    0.12431E+07        -0.59845E+08         0.00000E+00
    0.00000E+00         0.00000E+00         0.76107E-08
 
   -0.13393E+06         0.11999E+07         0.00000E+00
    0.11999E+07        -0.60079E+08         0.00000E+00
    0.00000E+00         0.00000E+00        -0.17760E-07
 
   -0.15029E+06         0.11516E+07         0.00000E+00
    0.11516E+07        -0.60314E+08         0.00000E+00
    0.00000E+00         0.00000E+00        -0.20296E-07
 
   -0.16758E+06         0.10981E+07         0.00000E+00
    0.10981E+07        -0.60550E+08         0.00000E+00
    0.00000E+00         0.00000E+00        -0.22834E-07
 
   -0.18584E+06         0.10392E+07         0.00000E+00
    0.10392E+07        -0.60787E+08         0.00000E+00
    0.00000E+00         0.00000E+00         0.17760E-07
 
   -0.20524E+06         0.97488E+06         0.00000E+00
    0.97488E+06        -0.61023E+08         0.00000E+00
    0.00000E+00         0.00000E+00        -0.12685E-07
 
   -0.22607E+06         0.90489E+06         0.00000E+00
    0.90489E+06        -0.61256E+08         0.00000E+00
    0.00000E+00         0.00000E+00        -0.20296E-07
 
   -0.24891E+06         0.82912E+06         0.00000E+00
    0.82912E+06        -0.61483E+08         0.00000E+00
    0.00000E+00         0.00000E+00         0.25366E-08
 
   -0.27476E+06         0.74726E+06         0.00000E+00
    0.74726E+06        -0.61701E+08         0.00000E+00
    0.00000E+00         0.00000E+00         0.12685E-07
 
   -0.30530E+06         0.65874E+06         0.00000E+00
    0.65874E+06        -0.61906E+08         0.00000E+00
    0.00000E+00         0.00000E+00        -0.15222E-07
 
   -0.34325E+06         0.56250E+06         0.00000E+00
    0.56250E+06        -0.62091E+08         0.00000E+00
    0.00000E+00         0.00000E+00         0.10148E-07
 
   -0.39298E+06         0.45679E+06         0.00000E+00
    0.45679E+06        -0.62252E+08         0.00000E+00
    0.00000E+00         0.00000E+00         0.50745E-08
 
   -0.46188E+06         0.33925E+06         0.00000E+00
    0.33925E+06        -0.62380E+08         0.00000E+00
    0.00000E+00         0.00000E+00         0.25368E-08
 
   -0.56243E+06         0.20919E+06         0.00000E+00
    0.20919E+06        -0.62466E+08         0.00000E+00
    0.00000E+00         0.00000E+00        -0.76112E-08
 
   -0.71066E+06         0.70584E+05         0.00000E+00
    0.70584E+05        -0.62508E+08         0.00000E+00
    0.00000E+00         0.00000E+00         0.22737E-12
 
    0.38169E+06         0.32738E+05         0.00000E+00
    0.32738E+05        -0.47627E+08         0.00000E+00
    0.00000E+00         0.00000E+00        -0.22737E-12
 
    0.31084E+06         0.97505E+05         0.00000E+00
    0.97505E+05        -0.47646E+08         0.00000E+00
    0.00000E+00         0.00000E+00        -0.10148E-07
 
    0.26123E+06         0.15962E+06         0.00000E+00
    0.15962E+06        -0.47685E+08         0.00000E+00
    0.00000E+00         0.00000E+00        -0.15222E-07
 
    0.22666E+06         0.21740E+06         0.00000E+00
    0.21740E+06        -0.47743E+08         0.00000E+00
    0.00000E+00         0.00000E+00         0.88794E-08
 
    0.20172E+06         0.27076E+06         0.00000E+00
    0.27076E+06        -0.47816E+08         0.00000E+00
    0.00000E+00         0.00000E+00        -0.63428E-08
 
    0.18286E+06         0.32046E+06         0.00000E+00
    0.32046E+06        -0.47902E+08         0.00000E+00
    0.00000E+00         0.00000E+00         0.38053E-08
 
    0.16792E+06         0.36716E+06         0.00000E+00
    0.36716E+06        -0.47996E+08         0.00000E+00
    0.00000E+00         0.00000E+00         0.12683E-08
 
    0.15551E+06         0.41123E+06         0.00000E+00
    0.41123E+06        -0.48096E+08         0.00000E+00
    0.00000E+00         0.00000E+00         0.63424E-08
 
    0.14478E+06         0.45292E+06         0.00000E+00
    0.45292E+06        -0.48202E+08         0.00000E+00
    0.00000E+00         0.00000E+00         0.25370E-08
 
    0.13520E+06         0.49231E+06         0.00000E+00
    0.49231E+06        -0.48310E+08         0.00000E+00
    0.00000E+00         0.00000E+00        -0.12683E-08
 
    0.12647E+06         0.52950E+06         0.00000E+00
    0.52950E+06        -0.48420E+08         0.00000E+00
    0.00000E+00         0.00000E+00         0.00000E+00
 
    0.11842E+06         0.56452E+06         0.00000E+00
    0.56452E+06        -0.48532E+08         0.00000E+00
    0.00000E+00         0.00000E+00        -0.10148E-07
 
    0.11097E+06         0.59746E+06         0.00000E+00
    0.59746E+06        -0.48643E+08         0.00000E+00
    0.00000E+00         0.00000E+00        -0.63428E-08
 
    0.10407E+06         0.62837E+06         0.00000E+00
    0.62837E+06        -0.48755E+08         0.00000E+00
    0.00000E+00         0.00000E+00         0.00000E+00
 
    0.97690E+05         0.65738E+06         0.00000E+00
    0.65738E+06        -0.48867E+08         0.00000E+00
    0.00000E+00         0.00000E+00        -0.63424E-08
 
    0.91833E+05         0.68457E+06         0.00000E+00
    0.68457E+06        -0.48979E+08         0.00000E+00
    0.00000E+00         0.00000E+00        -0.50741E-08
 
    0.86487E+05         0.71009E+06         0.00000E+00
    0.71009E+06        -0.49091E+08         0.00000E+00
    0.00000E+00         0.00000E+00         0.13953E-07
 
    0.81641E+05         0.73405E+06         0.00000E+00
    0.73405E+06        -0.49202E+08         0.00000E+00
    0.00000E+00         0.00000E+00         0.88799E-08
 
    0.77280E+05         0.75659E+06         0.00000E+00
    0.75659E+06        -0.49313E+08         0.00000E+00
    0.00000E+00         0.00000E+00         0.12685E-07
 
    0.73385E+05         0.77785E+06         0.00000E+00
    0.77785E+06        -0.49424E+08         0.00000E+00
    0.00000E+00         0.00000E+00        -0.76111E-08
 
    0.69933E+05         0.79795E+06         0.00000E+00
    0.79795E+06        -0.49535E+08         0.00000E+00
    0.00000E+00         0.00000E+00         0.88794E-08
 
    0.66898E+05         0.81702E+06         0.00000E+00
    0.81702E+06        -0.49646E+08         0.00000E+00
    0.00000E+00         0.00000E+00        -0.16491E-07
 
    0.64251E+05         0.83518E+06         0.00000E+00
    0.83518E+06        -0.49757E+08         0.00000E+00
    0.00000E+00         0.00000E+00         0.12685E-07
 
    0.61964E+05         0.85254E+06         0.00000E+00
    0.85254E+06        -0.49869E+08         0.00000E+00
    0.00000E+00         0.00000E+00        -0.15222E-07
 
    0.60005E+05         0.86921E+06         0.00000E+00
    0.86921E+06        -0.49981E+08         0.00000E+00
    0.00000E+00         0.00000E+00        -0.50741E-08
 
    0.58346E+05         0.88527E+06         0.00000E+00
    0.88527E+06        -0.50094E+08         0.00000E+00
    0.00000E+00         0.00000E+00        -0.25370E-08
 
    0.56956E+05         0.90083E+06         0.00000E+00
    0.90083E+06        -0.50207E+08         0.00000E+00
    0.00000E+00         0.00000E+00         0.76111E-08
 
    0.55807E+05         0.91594E+06         0.00000E+00
    0.91594E+06        -0.50321E+08         0.00000E+00
    0.00000E+00         0.00000E+00        -0.12683E-08
 
    0.54873E+05         0.93069E+06         0.00000E+00
    0.93069E+06        -0.50436E+08         0.00000E+00
    0.00000E+00         0.00000E+00        -0.25370E-08
 
    0.54127E+05         0.94514E+06         0.00000E+00
    0.94514E+06        -0.50552E+08         0.00000E+00
    0.00000E+00         0.00000E+00         0.15222E-07
 
    0.53547E+05         0.95933E+06         0.00000E+00
    0.95933E+06        -0.50669E+08         0.00000E+00
    0.00000E+00         0.00000E+00         0.25370E-08
 
    0.53110E+05         0.97333E+06         0.00000E+00
    0.97333E+06        -0.50788E+08         0.00000E+00
    0.00000E+00         0.00000E+00         0.38058E-08
 
    0.52796E+05         0.98716E+06         0.00000E+00
    0.98716E+06        -0.50907E+08         0.00000E+00
    0.00000E+00         0.00000E+00        -0.15221E-07
 
    0.52586E+05         0.10009E+07         0.00000E+00
    0.10009E+07        -0.51027E+08         0.00000E+00
    0.00000E+00         0.00000E+00         0.19028E-07
 
    0.52463E+05         0.10145E+07         0.00000E+00
    0.10145E+07        -0.51149E+08         0.00000E+00
    0.00000E+00         0.00000E+00        -0.16491E-07
 
    0.52410E+05         0.10280E+07         0.00000E+00
    0.10280E+07        -0.51272E+08         0.00000E+00
    0.00000E+00         0.00000E+00        -0.15222E-07
 
    0.52415E+05         0.10415E+07         0.00000E+00
    0.10415E+07        -0.51397E+08         0.00000E+00
    0.00000E+00         0.00000E+00        -0.11416E-07
 
    0.52463E+05         0.10550E+07         0.00000E+00
    0.10550E+07        -0.51523E+08         0.00000E+00
    0.00000E+00         0.00000E+00         0.50741E-08
 
    0.52542E+05         0.10684E+07         0.00000E+00
    0.10684E+07        -0.51650E+08         0.00000E+00
    0.00000E+00         0.00000E+00         0.15222E-07
 
    0.52641E+05         0.10819E+07         0.00000E+00
    0.10819E+07        -0.51780E+08         0.00000E+00
    0.00000E+00         0.00000E+00         0.16491E-07
 
    0.52749E+05         0.10953E+07         0.00000E+00
    0.10953E+07        -0.51910E+08         0.00000E+00
    0.00000E+00         0.00000E+00         0.25370E-08
 
    0.52858E+05         0.11087E+07         0.00000E+00
    0.11087E+07        -0.52043E+08         0.00000E+00
    0.00000E+00         0.00000E+00         0.25366E-08
 
    0.52958E+05         0.11222E+07         0.00000E+00
    0.11222E+07        -0.52176E+08         0.00000E+00
    0.00000E+00         0.00000E+00         0.13954E-07
 
    0.53040E+05         0.11356E+07         0.00000E+00
    0.11356E+07        -0.52312E+08         0.00000E+00
    0.00000E+00         0.00000E+00         0.25370E-08
 
    0.53097E+05         0.11490E+07         0.00000E+00
    0.11490E+07        -0.52449E+08         0.00000E+00
    0.00000E+00         0.00000E+00         0.10148E-07
 
    0.53121E+05         0.11624E+07         0.00000E+00
    0.11624E+07        -0.52589E+08         0.00000E+00
    0.00000E+00         0.00000E+00        -0.50741E-08
 
    0.53105E+05         0.11758E+07         0.00000E+00
    0.11758E+07        -0.52729E+08         0.00000E+00
    0.00000E+00         0.00000E+00         0.50741E-08
 
    0.53040E+05         0.11892E+07         0.00000E+00
    0.11892E+07        -0.52872E+08         0.00000E+00
    0.00000E+00         0.00000E+00         0.19028E-07
 
    0.52921E+05         0.12025E+07         0.00000E+00
    0.12025E+07        -0.53017E+08         0.00000E+00
    0.00000E+00         0.00000E+00        -0.76111E-08
 
    0.52739E+05         0.12158E+07         0.00000E+00
    0.12158E+07        -0.53163E+08         0.00000E+00
    0.00000E+00         0.00000E+00        -0.17759E-07
 
    0.52488E+05         0.12290E+07         0.00000E+00
    0.12290E+07        -0.53311E+08         0.00000E+00
    0.00000E+00         0.00000E+00         0.38058E-08
 
    0.52159E+05         0.12420E+07         0.00000E+00
    0.12420E+07        -0.53461E+08         0.00000E+00
    0.00000E+00         0.00000E+00        -0.12685E-07
 
    0.51746E+05         0.12550E+07         0.00000E+00
    0.12550E+07        -0.53614E+08         0.00000E+00
    0.00000E+00         0.00000E+00         0.00000E+00
 
    0.51240E+05         0.12678E+07         0.00000E+00
    0.12678E+07        -0.53767E+08         0.00000E+00
    0.00000E+00         0.00000E+00         0.12685E-07
 
    0.50631E+05         0.12805E+07         0.00000E+00
    0.12805E+07        -0.53923E+08         0.00000E+00
    0.00000E+00         0.00000E+00         0.50741E-08
 
    0.49912E+05         0.12930E+07         0.00000E+00
    0.12930E+07        -0.54081E+08         0.00000E+00
    0.00000E+00         0.00000E+00        -0.76111E-08
 
    0.49071E+05         0.13052E+07         0.00000E+00
    0.13052E+07        -0.54241E+08         0.00000E+00
    0.00000E+00         0.00000E+00         0.15222E-07
 
    0.48098E+05         0.13171E+07         0.00000E+00
    0.13171E+07        -0.54403E+08         0.00000E+00
    0.00000E+00         0.00000E+00         0.76111E-08
 
    0.46981E+05         0.13288E+07         0.00000E+00
    0.13288E+07        -0.54567E+08         0.00000E+00
    0.00000E+00         0.00000E+00        -0.25370E-08
 
    0.45707E+05         0.13401E+07         0.00000E+00
    0.13401E+07        -0.54733E+08         0.00000E+00
    0.00000E+00         0.00000E+00        -0.22834E-07
 
    0.44262E+05         0.13510E+07         0.00000E+00
    0.13510E+07        -0.54900E+08         0.00000E+00
    0.00000E+00         0.00000E+00         0.25375E-08
 
    0.42629E+05         0.13615E+07         0.00000E+00
    0.13615E+07        -0.55070E+08         0.00000E+00
    0.00000E+00         0.00000E+00         0.25375E-08
 
    0.40792E+05         0.13715E+07         0.00000E+00
    0.13715E+07        -0.55242E+08         0.00000E+00
    0.00000E+00         0.00000E+00         0.15222E-07
 
    0.38731E+05         0.13809E+07         0.00000E+00
    0.13809E+07        -0.55416E+08         0.00000E+00
    0.00000E+00         0.00000E+00        -0.12685E-07
 
    0.36425E+05         0.13897E+07         0.00000E+00
    0.13897E+07        -0.55592E+08         0.00000E+00
    0.00000E+00         0.00000E+00        -0.76107E-08
 
    0.33850E+05         0.13979E+07         0.00000E+00
    0.13979E+07        -0.55770E+08         0.00000E+00
    0.00000E+00         0.00000E+00        -0.17759E-07
 
    0.30979E+05         0.14052E+07         0.00000E+00
    0.14052E+07        -0.55951E+08         0.00000E+00
    0.00000E+00         0.00000E+00        -0.20296E-07
 
    0.27785E+05         0.14116E+07         0.00000E+00
    0.14116E+07        -0.56133E+08         0.00000E+00
    0.00000E+00         0.00000E+00        -0.25375E-08
 
    0.24234E+05         0.14171E+07         0.00000E+00
    0.14171E+07        -0.56318E+08         0.00000E+00
    0.00000E+00         0.00000E+00         0.25370E-07
 
    0.20292E+05         0.14215E+07         0.00000E+00
    0.14215E+07        -0.56504E+08         0.00000E+00
    0.00000E+00         0.00000E+00         0.50741E-08
 
    0.15922E+05         0.14247E+07         0.00000E+00
    0.14247E+07        -0.56693E+08         0.00000E+00
    0.00000E+00         0.00000E+00        -0.10148E-07
 
    0.11080E+05         0.14266E+07         0.00000E+00
    0.14266E+07        -0.56884E+08         0.00000E+00
    0.00000E+00         0.00000E+00        -0.50741E-08
 
    0.57239E+04         0.14270E+07         0.00000E+00
    0.14270E+07        -0.57078E+08         0.00000E+00
    0.00000E+00         0.00000E+00         0.76116E-08
 
   -0.19577E+03         0.14258E+07         0.00000E+00
    0.14258E+07        -0.57274E+08         0.00000E+00
    0.00000E+00         0.00000E+00        -0.12686E-07
 
   -0.67293E+04         0.14228E+07         0.00000E+00
    0.14228E+07        -0.57472E+08         0.00000E+00
    0.00000E+00         0.00000E+00        -0.17759E-07
 
   -0.13930E+05         0.14178E+07         0.00000E+00
    0.14178E+07        -0.57673E+08         0.00000E+00
    0.00000E+00         0.00000E+00        -0.30444E-07
 
   -0.21852E+05         0.14105E+07         0.00000E+00
    0.14105E+07        -0.57877E+08         0.00000E+00
    0.00000E+00         0.00000E+00         0.17759E-07
 
   -0.30553E+05         0.14009E+07         0.00000E+00
    0.14009E+07        -0.58083E+08         0.00000E+00
    0.00000E+00         0.00000E+00        -0.10148E-07
 
   -0.40085E+05         0.13886E+07         0.00000E+00
    0.13886E+07        -0.58292E+08         0.00000E+00
    0.00000E+00         0.00000E+00        -0.25366E-08
 
   -0.50504E+05         0.13734E+07         0.00000E+00
    0.13734E+07        -0.58504E+08         0.00000E+00
    0.00000E+00         0.00000E+00         0.00000E+00
 
   -0.61858E+05         0.13550E+07         0.00000E+00
    0.13550E+07        -0.58718E+08         0.00000E+00
    0.00000E+00         0.00000E+00        -0.22833E-07
 
   -0.74192E+05         0.13332E+07         0.00000E+00
    0.13332E+07        -0.58936E+08         0.00000E+00
    0.00000E+00         0.00000E+00         0.10148E-07
 
   -0.87540E+05         0.13077E+07         0.00000E+00
    0.13077E+07        -0.59157E+08         0.00000E+00
    0.00000E+00         0.00000E+00        -0.25375E-08
 
   -0.10193E+06         0.12781E+07         0.00000E+00
    0.12781E+07        -0.59381E+08         0.00000E+00
    0.00000E+00         0.00000E+00        -0.20296E-07
 
   -0.11738E+06         0.12442E+07         0.00000E+00
    0.12442E+07        -0.59608E+08         0.00000E+00
    0.00000E+00         0.00000E+00         0.00000E+00
 
   -0.13389E+06         0.12058E+07         0.00000E+00
    0.12058E+07        -0.59837E+08         0.00000E+00
    0.00000E+00         0.00000E+00        -0.25366E-08
 
   -0.15147E+06         0.11626E+07         0.00000E+00
    0.11626E+07        -0.60069E+08         0.00000E+00
    0.00000E+00         0.00000E+00         0.50732E-08
 
   -0.17011E+06         0.11144E+07         0.00000E+00
    0.11144E+07        -0.60304E+08         0.00000E+00
    0.00000E+00         0.00000E+00         0.25366E-08
 
   -0.18984E+06         0.10610E+07         0.00000E+00
    0.10610E+07        -0.60539E+08         0.00000E+00
    0.00000E+00         0.00000E+00        -0.17759E-07
 
   -0.21073E+06         0.10022E+07         0.00000E+00
    0.10022E+07        -0.60775E+08         0.00000E+00
    0.00000E+00         0.00000E+00        -0.20296E-07
 
   -0.23294E+06         0.93797E+06         0.00000E+00
    0.93797E+06        -0.61010E+08         0.00000E+00
    0.00000E+00         0.00000E+00        -0.50741E-08
 
   -0.25682E+06         0.86824E+06         0.00000E+00
    0.86824E+06        -0.61242E+08         0.00000E+00
    0.00000E+00         0.00000E+00         0.00000E+00
 
   -0.28299E+06         0.79290E+06         0.00000E+00
    0.79290E+06        -0.61467E+08         0.00000E+00
    0.00000E+00         0.00000E+00        -0.25375E-08
 
   -0.31255E+06         0.71175E+06         0.00000E+00
    0.71175E+06        -0.61684E+08         0.00000E+00
    0.00000E+00         0.00000E+00         0.50741E-08
 
   -0.34732E+06         0.62439E+06         0.00000E+00
    0.62439E+06        -0.61887E+08         0.00000E+00
    0.00000E+00         0.00000E+00        -0.12685E-07
 
   -0.39022E+06         0.53004E+06         0.00000E+00
    0.53004E+06        -0.62072E+08         0.00000E+00
    0.00000E+00         0.00000E+00        -0.10148E-07
 
   -0.44591E+06         0.42736E+06         0.00000E+00
    0.42736E+06        -0.62230E+08         0.00000E+00
    0.00000E+00         0.00000E+00        -0.12686E-07
 
   -0.52199E+06         0.31482E+06         0.00000E+00
    0.31482E+06        -0.62355E+08         0.00000E+00
    0.00000E+00         0.00000E+00         0.00000E+00
 
   -0.63007E+06         0.19269E+06         0.00000E+00
    0.19269E+06        -0.62440E+08         0.00000E+00
    0.00000E+00         0.00000E+00         0.25369E-08
 
   -0.78352E+06         0.64739E+05         0.00000E+00
    0.64739E+05        -0.62481E+08         0.00000E+00
    0.00000E+00         0.00000E+00         0.76111E-08
 
    0.41624E+06         0.30248E+05         0.00000E+00
    0.30248E+05        -0.47640E+08         0.00000E+00
    0.00000E+00         0.00000E+00         0.00000E+00
 
    0.34344E+06         0.90388E+05         0.00000E+00
    0.90388E+05        -0.47659E+08         0.00000E+00
    0.00000E+00         0.00000E+00         0.25370E-08
 
    0.29088E+06         0.14886E+06         0.00000E+00
    0.14886E+06        -0.47697E+08         0.00000E+00
    0.00000E+00         0.00000E+00        -0.25370E-08
 
    0.25334E+06         0.20418E+06         0.00000E+00
    0.20418E+06        -0.47754E+08         0.00000E+00
    0.00000E+00         0.00000E+00        -0.20296E-07
 
    0.22585E+06         0.25597E+06         0.00000E+00
    0.25597E+06        -0.47826E+08         0.00000E+00
    0.00000E+00         0.00000E+00         0.00000E+00
 
    0.20486E+06         0.30465E+06         0.00000E+00
    0.30465E+06        -0.47911E+08         0.00000E+00
    0.00000E+00         0.00000E+00        -0.25370E-08
 
    0.18809E+06         0.35065E+06         0.00000E+00
    0.35065E+06        -0.48005E+08         0.00000E+00
    0.00000E+00         0.00000E+00         0.25370E-08
 
    0.17409E+06         0.39426E+06         0.00000E+00
    0.39426E+06        -0.48105E+08         0.00000E+00
    0.00000E+00         0.00000E+00         0.00000E+00
 
    0.16194E+06         0.43560E+06         0.00000E+00
    0.43560E+06        -0.48210E+08         0.00000E+00
    0.00000E+00         0.00000E+00         0.76111E-08
 
    0.15109E+06         0.47472E+06         0.00000E+00
    0.47472E+06        -0.48318E+08         0.00000E+00
    0.00000E+00         0.00000E+00         0.12685E-07
 
    0.14121E+06         0.51166E+06         0.00000E+00
    0.51166E+06        -0.48427E+08         0.00000E+00
    0.00000E+00         0.00000E+00        -0.50741E-08
 
    0.13211E+06         0.54646E+06         0.00000E+00
    0.54646E+06        -0.48538E+08         0.00000E+00
    0.00000E+00         0.00000E+00        -0.50741E-08
 
    0.12370E+06         0.57917E+06         0.00000E+00
    0.57917E+06        -0.48650E+08         0.00000E+00
    0.00000E+00         0.00000E+00         0.00000E+00
 
    0.11592E+06         0.60986E+06         0.00000E+00
    0.60986E+06        -0.48761E+08         0.00000E+00
    0.00000E+00         0.00000E+00         0.25370E-08
 
    0.10875E+06         0.63863E+06         0.00000E+00
    0.63863E+06        -0.48873E+08         0.00000E+00
    0.00000E+00         0.00000E+00         0.50741E-08
 
    0.10218E+06         0.66559E+06         0.00000E+00
    0.66559E+06        -0.48984E+08         0.00000E+00
    0.00000E+00         0.00000E+00        -0.17759E-07
 
    0.96194E+05         0.69085E+06         0.00000E+00
    0.69085E+06        -0.49095E+08         0.00000E+00
    0.00000E+00         0.00000E+00         0.25370E-08
 
    0.90773E+05         0.71456E+06         0.00000E+00
    0.71456E+06        -0.49206E+08         0.00000E+00
    0.00000E+00         0.00000E+00         0.00000E+00
 
    0.85902E+05         0.73683E+06         0.00000E+00
    0.73683E+06        -0.49317E+08         0.00000E+00
    0.00000E+00         0.00000E+00         0.15222E-07
 
    0.81556E+05         0.75782E+06         0.00000E+00
    0.75782E+06        -0.49428E+08         0.00000E+00
    0.00000E+00         0.00000E+00         0.50741E-08
 
    0.77708E+05         0.77765E+06         0.00000E+00
    0.77765E+06        -0.49539E+08         0.00000E+00
    0.00000E+00         0.00000E+00         0.10148E-07
 
    0.74328E+05         0.79644E+06         0.00000E+00
    0.79644E+06        -0.49650E+08         0.00000E+00
    0.00000E+00         0.00000E+00         0.10148E-07
 
    0.71384E+05         0.81433E+06         0.00000E+00
    0.81433E+06        -0.49761E+08         0.00000E+00
    0.00000E+00         0.00000E+00        -0.17759E-07
 
    0.68841E+05         0.83141E+06         0.00000E+00
    0.83141E+06        -0.49872E+08         0.00000E+00
    0.00000E+00         0.00000E+00         0.00000E+00
 
    0.66665E+05         0.84779E+06         0.00000E+00
    0.84779E+06        -0.49984E+08         0.00000E+00
    0.00000E+00         0.00000E+00         0.12685E-07
 
    0.64823E+05         0.86357E+06         0.00000E+00
    0.86357E+06        -0.50097E+08         0.00000E+00
    0.00000E+00         0.00000E+00         0.50741E-08
 
    0.63281E+05         0.87883E+06         0.00000E+00
    0.87883E+06        -0.50210E+08         0.00000E+00
    0.00000E+00         0.00000E+00         0.76111E-08
 
    0.62007E+05         0.89366E+06         0.00000E+00
    0.89366E+06        -0.50324E+08         0.00000E+00
    0.00000E+00         0.00000E+00        -0.50741E-08
 
    0.60972E+05         0.90812E+06         0.00000E+00
    0.90812E+06        -0.50439E+08         0.00000E+00
    0.00000E+00         0.00000E+00        -0.76111E-08
 
    0.60147E+05         0.92227E+06         0.00000E+00
    0.92227E+06        -0.50555E+08         0.00000E+00
    0.00000E+00         0.00000E+00         0.76111E-08
 
    0.59506E+05         0.93617E+06         0.00000E+00
    0.93617E+06        -0.50672E+08         0.00000E+00
    0.00000E+00         0.00000E+00        -0.25370E-08
 
    0.59023E+05         0.94986E+06         0.00000E+00
    0.94986E+06        -0.50790E+08         0.00000E+00
    0.00000E+00         0.00000E+00         0.50741E-08
 
    0.58677E+05         0.96340E+06         0.00000E+00
    0.96340E+06        -0.50910E+08         0.00000E+00
    0.00000E+00         0.00000E+00        -0.76111E-08
 
    0.58446E+05         0.97680E+06         0.00000E+00
    0.97680E+06        -0.51030E+08         0.00000E+00
    0.00000E+00         0.00000E+00        -0.76111E-08
 
    0.58312E+05         0.99011E+06         0.00000E+00
    0.99011E+06        -0.51152E+08         0.00000E+00
    0.00000E+00         0.00000E+00        -0.10148E-07
 
    0.58256E+05         0.10033E+07         0.00000E+00
    0.10033E+07        -0.51275E+08         0.00000E+00
    0.00000E+00         0.00000E+00         0.20296E-07
 
    0.58263E+05         0.10165E+07         0.00000E+00
    0.10165E+07        -0.51400E+08         0.00000E+00
    0.00000E+00         0.00000E+00         0.10148E-07
 
    0.58318E+05         0.10297E+07         0.00000E+00
    0.10297E+07        -0.51526E+08         0.00000E+00
    0.00000E+00         0.00000E+00         0.76111E-08
 
    0.58408E+05         0.10428E+07         0.00000E+00
    0.10428E+07        -0.51653E+08         0.00000E+00
    0.00000E+00         0.00000E+00         0.50741E-08
 
    0.58519E+05         0.10559E+07         0.00000E+00
    0.10559E+07        -0.51782E+08         0.00000E+00
    0.00000E+00         0.00000E+00         0.50741E-08
 
    0.58641E+05         0.10690E+07         0.00000E+00
    0.10690E+07        -0.51913E+08         0.00000E+00
    0.00000E+00         0.00000E+00         0.15222E-07
 
    0.58764E+05         0.10821E+07         0.00000E+00
    0.10821E+07        -0.52045E+08         0.00000E+00
    0.00000E+00         0.00000E+00         0.22833E-07
 
    0.58876E+05         0.10952E+07         0.00000E+00
    0.10952E+07        -0.52179E+08         0.00000E+00
    0.00000E+00         0.00000E+00        -0.50741E-08
 
    0.58968E+05         0.11083E+07         0.00000E+00
    0.11083E+07        -0.52315E+08         0.00000E+00
    0.00000E+00         0.00000E+00         0.10148E-07
 
    0.59033E+05         0.11214E+07         0.00000E+00
    0.11214E+07        -0.52452E+08         0.00000E+00
    0.00000E+00         0.00000E+00         0.12685E-07
 
    0.59060E+05         0.11345E+07         0.00000E+00
    0.11345E+07        -0.52591E+08         0.00000E+00
    0.00000E+00         0.00000E+00        -0.25370E-08
 
    0.59043E+05         0.11475E+07         0.00000E+00
    0.11475E+07        -0.52732E+08         0.00000E+00
    0.00000E+00         0.00000E+00         0.20296E-07
 
    0.58972E+05         0.11606E+07         0.00000E+00
    0.11606E+07        -0.52875E+08         0.00000E+00
    0.00000E+00         0.00000E+00         0.00000E+00
 
    0.58840E+05         0.11735E+07         0.00000E+00
    0.11735E+07        -0.53019E+08         0.00000E+00
    0.00000E+00         0.00000E+00         0.50741E-08
 
    0.58639E+05         0.11864E+07         0.00000E+00
    0.11864E+07        -0.53166E+08         0.00000E+00
    0.00000E+00         0.00000E+00        -0.10148E-07
 
    0.58361E+05         0.11993E+07         0.00000E+00
    0.11993E+07        -0.53314E+08         0.00000E+00
    0.00000E+00         0.00000E+00        -0.10148E-07
 
    0.57997E+05         0.12120E+07         0.00000E+00
    0.12120E+07        -0.53464E+08         0.00000E+00
    0.00000E+00         0.00000E+00        -0.12685E-07
 
    0.57539E+05         0.12246E+07         0.00000E+00
    0.12246E+07        -0.53616E+08         0.00000E+00
    0.00000E+00         0.00000E+00         0.00000E+00
 
    0.56977E+05         0.12371E+07         0.00000E+00
    0.12371E+07        -0.53770E+08         0.00000E+00
    0.00000E+00         0.00000E+00         0.50741E-08
 
    0.56301E+05         0.12494E+07         0.00000E+00
    0.12494E+07        -0.53926E+08         0.00000E+00
    0.00000E+00         0.00000E+00         0.50741E-08
 
    0.55503E+05         0.12616E+07         0.00000E+00
    0.12616E+07        -0.54084E+08         0.00000E+00
    0.00000E+00         0.00000E+00         0.25370E-08
 
    0.54570E+05         0.12735E+07         0.00000E+00
    0.12735E+07        -0.54243E+08         0.00000E+00
    0.00000E+00         0.00000E+00         0.25370E-08
 
    0.53490E+05         0.12851E+07         0.00000E+00
    0.12851E+07        -0.54405E+08         0.00000E+00
    0.00000E+00         0.00000E+00        -0.76111E-08
 
    0.52250E+05         0.12964E+07         0.00000E+00
    0.12964E+07        -0.54569E+08         0.00000E+00
    0.00000E+00         0.00000E+00         0.10148E-07
 
    0.50836E+05         0.13074E+07         0.00000E+00
    0.13074E+07        -0.54735E+08         0.00000E+00
    0.00000E+00         0.00000E+00         0.10149E-07
 
    0.49231E+05         0.13180E+07         0.00000E+00
    0.13180E+07        -0.54903E+08         0.00000E+00
    0.00000E+00         0.00000E+00        -0.17760E-07
 
    0.47419E+05         0.13282E+07         0.00000E+00
    0.13282E+07        -0.55072E+08         0.00000E+00
    0.00000E+00         0.00000E+00        -0.25375E-08
 
    0.45380E+05         0.13379E+07         0.00000E+00
    0.13379E+07        -0.55244E+08         0.00000E+00
    0.00000E+00         0.00000E+00         0.12686E-07
 
    0.43092E+05         0.13470E+07         0.00000E+00
    0.13470E+07        -0.55418E+08         0.00000E+00
    0.00000E+00         0.00000E+00         0.50741E-08
 
    0.40532E+05         0.13555E+07         0.00000E+00
    0.13555E+07        -0.55594E+08         0.00000E+00
    0.00000E+00         0.00000E+00         0.10148E-07
 
    0.37673E+05         0.13633E+07         0.00000E+00
    0.13633E+07        -0.55772E+08         0.00000E+00
    0.00000E+00         0.00000E+00         0.00000E+00
 
    0.34487E+05         0.13704E+07         0.00000E+00
    0.13704E+07        -0.55952E+08         0.00000E+00
    0.00000E+00         0.00000E+00         0.10148E-07
 
    0.30940E+05         0.13766E+07         0.00000E+00
    0.13766E+07        -0.56134E+08         0.00000E+00
    0.00000E+00         0.00000E+00        -0.17759E-07
 
    0.26999E+05         0.13818E+07         0.00000E+00
    0.13818E+07        -0.56318E+08         0.00000E+00
    0.00000E+00         0.00000E+00         0.76116E-08
 
    0.22623E+05         0.13860E+07         0.00000E+00
    0.13860E+07        -0.56505E+08         0.00000E+00
    0.00000E+00         0.00000E+00         0.20295E-07
 
    0.17770E+05         0.13890E+07         0.00000E+00
    0.13890E+07        -0.56694E+08         0.00000E+00
    0.00000E+00         0.00000E+00        -0.15222E-07
 
    0.12395E+05         0.13906E+07         0.00000E+00
    0.13906E+07        -0.56885E+08         0.00000E+00
    0.00000E+00         0.00000E+00        -0.50741E-08
 
    0.64463E+04         0.13908E+07         0.00000E+00
    0.13908E+07        -0.57078E+08         0.00000E+00
    0.00000E+00         0.00000E+00        -0.25366E-08
 
   -0.12836E+03         0.13895E+07         0.00000E+00
    0.13895E+07        -0.57274E+08         0.00000E+00
    0.00000E+00         0.00000E+00        -0.50741E-08
 
   -0.73863E+04         0.13863E+07         0.00000E+00
    0.13863E+07        -0.57472E+08         0.00000E+00
    0.00000E+00         0.00000E+00         0.76116E-08
 
   -0.15387E+05         0.13811E+07         0.00000E+00
    0.13811E+07        -0.57672E+08         0.00000E+00
    0.00000E+00         0.00000E+00         0.12686E-07
 
   -0.24193E+05         0.13738E+07         0.00000E+00
    0.13738E+07        -0.57875E+08         0.00000E+00
    0.00000E+00         0.00000E+00         0.10149E-07
 
   -0.33866E+05         0.13641E+07         0.00000E+00
    0.13641E+07        -0.58081E+08         0.00000E+00
    0.00000E+00         0.00000E+00        -0.17759E-07
 
   -0.44471E+05         0.13517E+07         0.00000E+00
    0.13517E+07        -0.58289E+08         0.00000E+00
    0.00000E+00         0.00000E+00         0.00000E+00
 
   -0.56067E+05         0.13364E+07         0.00000E+00
    0.13364E+07        -0.58500E+08         0.00000E+00
    0.00000E+00         0.00000E+00        -0.50741E-08
 
   -0.68712E+05         0.13180E+07         0.00000E+00
    0.13180E+07        -0.58714E+08         0.00000E+00
    0.00000E+00         0.00000E+00        -0.76116E-08
 
   -0.82459E+05         0.12962E+07         0.00000E+00
    0.12962E+07        -0.58931E+08         0.00000E+00
    0.00000E+00         0.00000E+00         0.25366E-08
 
   -0.97351E+05         0.12706E+07         0.00000E+00
    0.12706E+07        -0.59152E+08         0.00000E+00
    0.00000E+00         0.00000E+00         0.15222E-07
 
   -0.11342E+06         0.12411E+07         0.00000E+00
    0.12411E+07        -0.59375E+08         0.00000E+00
    0.00000E+00         0.00000E+00         0.10148E-07
 
   -0.13069E+06         0.12073E+07         0.00000E+00
    0.12073E+07        -0.59600E+08         0.00000E+00
    0.00000E+00         0.00000E+00        -0.25366E-08
 
   -0.14918E+06         0.11689E+07         0.00000E+00
    0.11689E+07        -0.59829E+08         0.00000E+00
    0.00000E+00         0.00000E+00         0.12686E-07
 
   -0.16890E+06         0.11258E+07         0.00000E+00
    0.11258E+07        -0.60060E+08         0.00000E+00
    0.00000E+00         0.00000E+00         0.00000E+00
 
   -0.18984E+06         0.10776E+07         0.00000E+00
    0.10776E+07        -0.60293E+08         0.00000E+00
    0.00000E+00         0.00000E+00         0.90949E-12
 
   -0.21205E+06         0.10243E+07         0.00000E+00
    0.10243E+07        -0.60528E+08         0.00000E+00
    0.00000E+00         0.00000E+00        -0.12685E-07
 
   -0.23560E+06         0.96567E+06         0.00000E+00
    0.96567E+06        -0.60763E+08         0.00000E+00
    0.00000E+00         0.00000E+00        -0.20296E-07
 
   -0.26068E+06         0.90165E+06         0.00000E+00
    0.90165E+06        -0.60997E+08         0.00000E+00
    0.00000E+00         0.00000E+00         0.15222E-07
 
   -0.28766E+06         0.83223E+06         0.00000E+00
    0.83223E+06        -0.61227E+08         0.00000E+00
    0.00000E+00         0.00000E+00        -0.12685E-07
 
   -0.31721E+06         0.75737E+06         0.00000E+00
    0.75737E+06        -0.61452E+08         0.00000E+00
    0.00000E+00         0.00000E+00        -0.10148E-07
 
   -0.35051E+06         0.67702E+06         0.00000E+00
    0.67702E+06        -0.61667E+08         0.00000E+00
    0.00000E+00         0.00000E+00         0.00000E+00
 
   -0.38948E+06         0.59095E+06         0.00000E+00
    0.59095E+06        -0.61869E+08         0.00000E+00
    0.00000E+00         0.00000E+00         0.76116E-08
 
   -0.43723E+06         0.49864E+06         0.00000E+00
    0.49864E+06        -0.62052E+08         0.00000E+00
    0.00000E+00         0.00000E+00        -0.10148E-07
 
   -0.49861E+06         0.39921E+06         0.00000E+00
    0.39921E+06        -0.62209E+08         0.00000E+00
    0.00000E+00         0.00000E+00         0.22834E-07
 
   -0.58124E+06         0.29184E+06         0.00000E+00
    0.29184E+06        -0.62332E+08         0.00000E+00
    0.00000E+00         0.00000E+00        -0.25370E-08
 
   -0.69581E+06         0.17746E+06         0.00000E+00
    0.17746E+06        -0.62416E+08         0.00000E+00
    0.00000E+00         0.00000E+00         0.25370E-08
 
   -0.85351E+06         0.59407E+05         0.00000E+00
    0.59407E+05        -0.62456E+08         0.00000E+00
    0.00000E+00         0.00000E+00        -0.45667E-07
 
    0.44961E+06         0.27947E+05         0.00000E+00
    0.27947E+05        -0.47651E+08         0.00000E+00
    0.00000E+00         0.00000E+00        -0.50740E-08
 
    0.37520E+06         0.83753E+05         0.00000E+00
    0.83753E+05        -0.47670E+08         0.00000E+00
    0.00000E+00         0.00000E+00         0.76111E-08
 
    0.32009E+06         0.13869E+06         0.00000E+00
    0.13869E+06        -0.47708E+08         0.00000E+00
    0.00000E+00         0.00000E+00         0.50741E-08
 
    0.27986E+06         0.19151E+06         0.00000E+00
    0.19151E+06        -0.47764E+08         0.00000E+00
    0.00000E+00         0.00000E+00         0.25370E-08
 
    0.24995E+06         0.24164E+06         0.00000E+00
    0.24164E+06        -0.47836E+08         0.00000E+00
    0.00000E+00         0.00000E+00         0.76111E-08
 
    0.22687E+06         0.28922E+06         0.00000E+00
    0.28922E+06        -0.47920E+08         0.00000E+00
    0.00000E+00         0.00000E+00        -0.15222E-07
 
    0.20829E+06         0.33449E+06         0.00000E+00
    0.33449E+06        -0.48014E+08         0.00000E+00
    0.00000E+00         0.00000E+00        -0.76111E-08
 
    0.19268E+06         0.37759E+06         0.00000E+00
    0.37759E+06        -0.48113E+08         0.00000E+00
    0.00000E+00         0.00000E+00        -0.10148E-07
 
    0.17911E+06         0.41855E+06         0.00000E+00
    0.41855E+06        -0.48218E+08         0.00000E+00
    0.00000E+00         0.00000E+00        -0.20296E-07
 
    0.16696E+06         0.45737E+06         0.00000E+00
    0.45737E+06        -0.48325E+08         0.00000E+00
    0.00000E+00         0.00000E+00        -0.50741E-08
 
    0.15590E+06         0.49405E+06         0.00000E+00
    0.49405E+06        -0.48435E+08         0.00000E+00
    0.00000E+00         0.00000E+00        -0.76111E-08
 
    0.14573E+06         0.52861E+06         0.00000E+00
    0.52861E+06        -0.48545E+08         0.00000E+00
    0.00000E+00         0.00000E+00         0.00000E+00
 
    0.13634E+06         0.56108E+06         0.00000E+00
    0.56108E+06        -0.48656E+08         0.00000E+00
    0.00000E+00         0.00000E+00        -0.10148E-07
 
    0.12768E+06         0.59152E+06         0.00000E+00
    0.59152E+06        -0.48767E+08         0.00000E+00
    0.00000E+00         0.00000E+00         0.25370E-08
 
    0.11971E+06         0.62004E+06         0.00000E+00
    0.62004E+06        -0.48878E+08         0.00000E+00
    0.00000E+00         0.00000E+00        -0.50741E-08
 
    0.11242E+06         0.64674E+06         0.00000E+00
    0.64674E+06        -0.48990E+08         0.00000E+00
    0.00000E+00         0.00000E+00        -0.76111E-08
 
    0.10579E+06         0.67174E+06         0.00000E+00
    0.67174E+06        -0.49100E+08         0.00000E+00
    0.00000E+00         0.00000E+00        -0.22833E-07
 
    0.99792E+05         0.69517E+06         0.00000E+00
    0.69517E+06        -0.49211E+08         0.00000E+00
    0.00000E+00         0.00000E+00         0.00000E+00
 
    0.94411E+05         0.71717E+06         0.00000E+00
    0.71717E+06        -0.49322E+08         0.00000E+00
    0.00000E+00         0.00000E+00         0.50741E-08
 
    0.89617E+05         0.73788E+06         0.00000E+00
    0.73788E+06        -0.49432E+08         0.00000E+00
    0.00000E+00         0.00000E+00         0.12685E-07
 
    0.85377E+05         0.75742E+06         0.00000E+00
    0.75742E+06        -0.49543E+08         0.00000E+00
    0.00000E+00         0.00000E+00         0.00000E+00
 
    0.81656E+05         0.77593E+06         0.00000E+00
    0.77593E+06        -0.49653E+08         0.00000E+00
    0.00000E+00         0.00000E+00         0.10148E-07
 
    0.78418E+05         0.79353E+06         0.00000E+00
    0.79353E+06        -0.49764E+08         0.00000E+00
    0.00000E+00         0.00000E+00        -0.25370E-08
 
    0.75623E+05         0.81032E+06         0.00000E+00
    0.81032E+06        -0.49876E+08         0.00000E+00
    0.00000E+00         0.00000E+00         0.00000E+00
 
    0.73234E+05         0.82641E+06         0.00000E+00
    0.82641E+06        -0.49988E+08         0.00000E+00
    0.00000E+00         0.00000E+00         0.25370E-08
 
    0.71212E+05         0.84190E+06         0.00000E+00
    0.84190E+06        -0.50100E+08         0.00000E+00
    0.00000E+00         0.00000E+00         0.25370E-08
 
    0.69521E+05         0.85687E+06         0.00000E+00
    0.85687E+06        -0.50213E+08         0.00000E+00
    0.00000E+00         0.00000E+00        -0.25370E-08
 
    0.68126E+05         0.87140E+06         0.00000E+00
    0.87140E+06        -0.50327E+08         0.00000E+00
    0.00000E+00         0.00000E+00        -0.76111E-08
 
    0.66992E+05         0.88556E+06         0.00000E+00
    0.88556E+06        -0.50442E+08         0.00000E+00
    0.00000E+00         0.00000E+00        -0.76111E-08
 
    0.66090E+05         0.89942E+06         0.00000E+00
    0.89942E+06        -0.50558E+08         0.00000E+00
    0.00000E+00         0.00000E+00         0.25370E-08
 
    0.65389E+05         0.91302E+06         0.00000E+00
    0.91302E+06        -0.50675E+08         0.00000E+00
    0.00000E+00         0.00000E+00        -0.12685E-07
 
    0.64862E+05         0.92641E+06         0.00000E+00
    0.92641E+06        -0.50793E+08         0.00000E+00
    0.00000E+00         0.00000E+00        -0.50741E-08
 
    0.64485E+05         0.93964E+06         0.00000E+00
    0.93964E+06        -0.50912E+08         0.00000E+00
    0.00000E+00         0.00000E+00         0.76111E-08
 
    0.64235E+05         0.95273E+06         0.00000E+00
    0.95273E+06        -0.51033E+08         0.00000E+00
    0.00000E+00         0.00000E+00         0.25370E-08
 
    0.64091E+05         0.96573E+06         0.00000E+00
    0.96573E+06        -0.51154E+08         0.00000E+00
    0.00000E+00         0.00000E+00         0.25370E-08
 
    0.64032E+05         0.97865E+06         0.00000E+00
    0.97865E+06        -0.51278E+08         0.00000E+00
    0.00000E+00         0.00000E+00        -0.27907E-07
 
    0.64043E+05         0.99152E+06         0.00000E+00
    0.99152E+06        -0.51402E+08         0.00000E+00
    0.00000E+00         0.00000E+00        -0.15222E-07
 
    0.64106E+05         0.10043E+07         0.00000E+00
    0.10043E+07        -0.51528E+08         0.00000E+00
    0.00000E+00         0.00000E+00        -0.25370E-08
 
    0.64206E+05         0.10172E+07         0.00000E+00
    0.10172E+07        -0.51656E+08         0.00000E+00
    0.00000E+00         0.00000E+00        -0.50741E-08
 
    0.64331E+05         0.10299E+07         0.00000E+00
    0.10299E+07        -0.51785E+08         0.00000E+00
    0.00000E+00         0.00000E+00        -0.76111E-08
 
    0.64467E+05         0.10427E+07         0.00000E+00
    0.10427E+07        -0.51915E+08         0.00000E+00
    0.00000E+00         0.00000E+00        -0.25370E-08
 
    0.64603E+05         0.10555E+07         0.00000E+00
    0.10555E+07        -0.52048E+08         0.00000E+00
    0.00000E+00         0.00000E+00         0.50741E-08
 
    0.64728E+05         0.10683E+07         0.00000E+00
    0.10683E+07        -0.52182E+08         0.00000E+00
    0.00000E+00         0.00000E+00         0.50741E-08
 
    0.64831E+05         0.10810E+07         0.00000E+00
    0.10810E+07        -0.52317E+08         0.00000E+00
    0.00000E+00         0.00000E+00         0.10148E-07
 
    0.64903E+05         0.10938E+07         0.00000E+00
    0.10938E+07        -0.52455E+08         0.00000E+00
    0.00000E+00         0.00000E+00        -0.50741E-08
 
    0.64935E+05         0.11065E+07         0.00000E+00
    0.11065E+07        -0.52594E+08         0.00000E+00
    0.00000E+00         0.00000E+00        -0.25370E-08
 
    0.64917E+05         0.11192E+07         0.00000E+00
    0.11192E+07        -0.52735E+08         0.00000E+00
    0.00000E+00         0.00000E+00        -0.25370E-08
 
    0.64840E+05         0.11319E+07         0.00000E+00
    0.11319E+07        -0.52877E+08         0.00000E+00
    0.00000E+00         0.00000E+00        -0.76111E-08
 
    0.64697E+05         0.11445E+07         0.00000E+00
    0.11445E+07        -0.53022E+08         0.00000E+00
    0.00000E+00         0.00000E+00        -0.76111E-08
 
    0.64477E+05         0.11571E+07         0.00000E+00
    0.11571E+07        -0.53168E+08         0.00000E+00
    0.00000E+00         0.00000E+00         0.50741E-08
 
    0.64172E+05         0.11696E+07         0.00000E+00
    0.11696E+07        -0.53316E+08         0.00000E+00
    0.00000E+00         0.00000E+00         0.50741E-08
 
    0.63773E+05         0.11820E+07         0.00000E+00
    0.11820E+07        -0.53467E+08         0.00000E+00
    0.00000E+00         0.00000E+00        -0.76111E-08
 
    0.63271E+05         0.11943E+07         0.00000E+00
    0.11943E+07        -0.53619E+08         0.00000E+00
    0.00000E+00         0.00000E+00         0.76111E-08
 
    0.62655E+05         0.12064E+07         0.00000E+00
    0.12064E+07        -0.53772E+08         0.00000E+00
    0.00000E+00         0.00000E+00        -0.10148E-07
 
    0.61914E+05         0.12184E+07         0.00000E+00
    0.12184E+07        -0.53928E+08         0.00000E+00
    0.00000E+00         0.00000E+00         0.50741E-08
 
    0.61038E+05         0.12302E+07         0.00000E+00
    0.12302E+07        -0.54086E+08         0.00000E+00
    0.00000E+00         0.00000E+00        -0.12685E-07
 
    0.60014E+05         0.12417E+07         0.00000E+00
    0.12417E+07        -0.54246E+08         0.00000E+00
    0.00000E+00         0.00000E+00         0.50741E-08
 
    0.58829E+05         0.12530E+07         0.00000E+00
    0.12530E+07        -0.54408E+08         0.00000E+00
    0.00000E+00         0.00000E+00         0.00000E+00
 
    0.57468E+05         0.12640E+07         0.00000E+00
    0.12640E+07        -0.54571E+08         0.00000E+00
    0.00000E+00         0.00000E+00         0.10148E-07
 
    0.55916E+05         0.12747E+07         0.00000E+00
    0.12747E+07        -0.54737E+08         0.00000E+00
    0.00000E+00         0.00000E+00         0.00000E+00
 
    0.54155E+05         0.12850E+07         0.00000E+00
    0.12850E+07        -0.54905E+08         0.00000E+00
    0.00000E+00         0.00000E+00         0.50741E-08
 
    0.52167E+05         0.12949E+07         0.00000E+00
    0.12949E+07        -0.55074E+08         0.00000E+00
    0.00000E+00         0.00000E+00         0.50741E-08
 
    0.49928E+05         0.13042E+07         0.00000E+00
    0.13042E+07        -0.55246E+08         0.00000E+00
    0.00000E+00         0.00000E+00         0.00000E+00
 
    0.47418E+05         0.13131E+07         0.00000E+00
    0.13131E+07        -0.55420E+08         0.00000E+00
    0.00000E+00         0.00000E+00        -0.76107E-08
 
    0.44608E+05         0.13213E+07         0.00000E+00
    0.13213E+07        -0.55595E+08         0.00000E+00
    0.00000E+00         0.00000E+00        -0.25366E-08
 
    0.41470E+05         0.13288E+07         0.00000E+00
    0.13288E+07        -0.55773E+08         0.00000E+00
    0.00000E+00         0.00000E+00        -0.12685E-07
 
    0.37973E+05         0.13356E+07         0.00000E+00
    0.13356E+07        -0.55953E+08         0.00000E+00
    0.00000E+00         0.00000E+00         0.00000E+00
 
    0.34080E+05         0.13415E+07         0.00000E+00
    0.13415E+07        -0.56135E+08         0.00000E+00
    0.00000E+00         0.00000E+00         0.76107E-08
 
    0.29754E+05         0.13465E+07         0.00000E+00
    0.13465E+07        -0.56319E+08         0.00000E+00
    0.00000E+00         0.00000E+00        -0.25366E-08
 
    0.24951E+05         0.13505E+07         0.00000E+00
    0.13505E+07        -0.56506E+08         0.00000E+00
    0.00000E+00         0.00000E+00        -0.50741E-08
 
    0.19624E+05         0.13533E+07         0.00000E+00
    0.13533E+07        -0.56694E+08         0.00000E+00
    0.00000E+00         0.00000E+00         0.25366E-08
 
    0.13723E+05         0.13547E+07         0.00000E+00
    0.13547E+07        -0.56885E+08         0.00000E+00
    0.00000E+00         0.00000E+00        -0.30444E-07
 
    0.71924E+04         0.13548E+07         0.00000E+00
    0.13548E+07        -0.57078E+08         0.00000E+00
    0.00000E+00         0.00000E+00         0.10148E-07
 
   -0.27299E+02         0.13532E+07         0.00000E+00
    0.13532E+07        -0.57273E+08         0.00000E+00
    0.00000E+00         0.00000E+00         0.12685E-07
 
   -0.79988E+04         0.13499E+07         0.00000E+00
    0.13499E+07        -0.57471E+08         0.00000E+00
    0.00000E+00         0.00000E+00         0.00000E+00
 
   -0.16789E+05         0.13446E+07         0.00000E+00
    0.13446E+07        -0.57671E+08         0.00000E+00
    0.00000E+00         0.00000E+00        -0.76116E-08
 
   -0.26466E+05         0.13372E+07         0.00000E+00
    0.13372E+07        -0.57873E+08         0.00000E+00
    0.00000E+00         0.00000E+00         0.12685E-07
 
   -0.37100E+05         0.13274E+07         0.00000E+00
    0.13274E+07        -0.58079E+08         0.00000E+00
    0.00000E+00         0.00000E+00        -0.15222E-07
 
   -0.48764E+05         0.13150E+07         0.00000E+00
    0.13150E+07        -0.58286E+08         0.00000E+00
    0.00000E+00         0.00000E+00         0.00000E+00
 
   -0.61526E+05         0.12997E+07         0.00000E+00
    0.12997E+07        -0.58497E+08         0.00000E+00
    0.00000E+00         0.00000E+00         0.50750E-08
 
   -0.75451E+05         0.12813E+07         0.00000E+00
    0.12813E+07        -0.58710E+08         0.00000E+00
    0.00000E+00         0.00000E+00        -0.20296E-07
 
   -0.90602E+05         0.12595E+07         0.00000E+00
    0.12595E+07        -0.58927E+08         0.00000E+00
    0.00000E+00         0.00000E+00         0.22834E-07
 
   -0.10703E+06         0.12340E+07         0.00000E+00
    0.12340E+07        -0.59146E+08         0.00000E+00
    0.00000E+00         0.00000E+00        -0.25375E-08
 
   -0.12478E+06         0.12045E+07         0.00000E+00
    0.12045E+07        -0.59368E+08         0.00000E+00
    0.00000E+00         0.00000E+00         0.12686E-07
 
   -0.14388E+06         0.11707E+07         0.00000E+00
    0.11707E+07        -0.59593E+08         0.00000E+00
    0.00000E+00         0.00000E+00         0.25366E-08
 
   -0.16435E+06         0.11324E+07         0.00000E+00
    0.11324E+07        -0.59821E+08         0.00000E+00
    0.00000E+00         0.00000E+00        -0.10148E-07
 
   -0.18621E+06         0.10894E+07         0.00000E+00
    0.10894E+07        -0.60051E+08         0.00000E+00
    0.00000E+00         0.00000E+00        -0.30444E-07
 
   -0.20947E+06         0.10414E+07         0.00000E+00
    0.10414E+07        -0.60283E+08         0.00000E+00
    0.00000E+00         0.00000E+00        -0.20296E-07
 
   -0.23419E+06         0.98816E+06         0.00000E+00
    0.98816E+06        -0.60517E+08         0.00000E+00
    0.00000E+00         0.00000E+00        -0.12686E-07
 
   -0.26044E+06         0.92971E+06         0.00000E+00
    0.92971E+06        -0.60751E+08         0.00000E+00
    0.00000E+00         0.00000E+00         0.00000E+00
 
   -0.28843E+06         0.86593E+06         0.00000E+00
    0.86593E+06        -0.60983E+08         0.00000E+00
    0.00000E+00         0.00000E+00         0.76116E-08
 
   -0.31856E+06         0.79687E+06         0.00000E+00
    0.79687E+06        -0.61213E+08         0.00000E+00
    0.00000E+00         0.00000E+00         0.76107E-08
 
   -0.35153E+06         0.72257E+06         0.00000E+00
    0.72257E+06        -0.61436E+08         0.00000E+00
    0.00000E+00         0.00000E+00         0.27907E-07
 
   -0.38859E+06         0.64308E+06         0.00000E+00
    0.64308E+06        -0.61651E+08         0.00000E+00
    0.00000E+00         0.00000E+00        -0.50741E-08
 
   -0.43174E+06         0.55839E+06         0.00000E+00
    0.55839E+06        -0.61852E+08         0.00000E+00
    0.00000E+00         0.00000E+00        -0.20297E-07
 
   -0.48422E+06         0.46827E+06         0.00000E+00
    0.46827E+06        -0.62033E+08         0.00000E+00
    0.00000E+00         0.00000E+00         0.50736E-08
 
   -0.55102E+06         0.37225E+06         0.00000E+00
    0.37225E+06        -0.62189E+08         0.00000E+00
    0.00000E+00         0.00000E+00         0.50736E-08
 
   -0.63961E+06         0.27016E+06         0.00000E+00
    0.27016E+06        -0.62311E+08         0.00000E+00
    0.00000E+00         0.00000E+00         0.10148E-07
 
   -0.75977E+06         0.16330E+06         0.00000E+00
    0.16330E+06        -0.62393E+08         0.00000E+00
    0.00000E+00         0.00000E+00        -0.76113E-08
 
   -0.92098E+06         0.54488E+05         0.00000E+00
    0.54488E+05        -0.62434E+08         0.00000E+00
    0.00000E+00         0.00000E+00         0.00000E+00
 
    0.48193E+06         0.25799E+05         0.00000E+00
    0.25799E+05        -0.47662E+08         0.00000E+00
    0.00000E+00         0.00000E+00        -0.12685E-07
 
    0.40617E+06         0.77524E+05         0.00000E+00
    0.77524E+05        -0.47681E+08         0.00000E+00
    0.00000E+00         0.00000E+00        -0.76111E-08
 
    0.34886E+06         0.12903E+06         0.00000E+00
    0.12903E+06        -0.47719E+08         0.00000E+00
    0.00000E+00         0.00000E+00         0.25370E-08
 
    0.30618E+06         0.17933E+06         0.00000E+00
    0.17933E+06        -0.47775E+08         0.00000E+00
    0.00000E+00         0.00000E+00        -0.10148E-07
 
    0.27399E+06         0.22775E+06         0.00000E+00
    0.22775E+06        -0.47846E+08         0.00000E+00
    0.00000E+00         0.00000E+00         0.25370E-08
 
    0.24888E+06         0.27418E+06         0.00000E+00
    0.27418E+06        -0.47930E+08         0.00000E+00
    0.00000E+00         0.00000E+00         0.15222E-07
 
    0.22850E+06         0.31867E+06         0.00000E+00
    0.31867E+06        -0.48022E+08         0.00000E+00
    0.00000E+00         0.00000E+00        -0.20296E-07
 
    0.21128E+06         0.36122E+06         0.00000E+00
    0.36122E+06        -0.48122E+08         0.00000E+00
    0.00000E+00         0.00000E+00         0.50741E-08
 
    0.19625E+06         0.40177E+06         0.00000E+00
    0.40177E+06        -0.48226E+08         0.00000E+00
    0.00000E+00         0.00000E+00        -0.50741E-08
 
    0.18279E+06         0.44027E+06         0.00000E+00
    0.44027E+06        -0.48333E+08         0.00000E+00
    0.00000E+00         0.00000E+00         0.00000E+00
 
    0.17053E+06         0.47667E+06         0.00000E+00
    0.47667E+06        -0.48442E+08         0.00000E+00
    0.00000E+00         0.00000E+00        -0.50741E-08
 
    0.15927E+06         0.51096E+06         0.00000E+00
    0.51096E+06        -0.48552E+08         0.00000E+00
    0.00000E+00         0.00000E+00        -0.25370E-08
 
    0.14889E+06         0.54317E+06         0.00000E+00
    0.54317E+06        -0.48662E+08         0.00000E+00
    0.00000E+00         0.00000E+00         0.17759E-07
 
    0.13933E+06         0.57335E+06         0.00000E+00
    0.57335E+06        -0.48773E+08         0.00000E+00
    0.00000E+00         0.00000E+00        -0.76111E-08
 
    0.13056E+06         0.60160E+06         0.00000E+00
    0.60160E+06        -0.48884E+08         0.00000E+00
    0.00000E+00         0.00000E+00         0.15222E-07
 
    0.12254E+06         0.62802E+06         0.00000E+00
    0.62802E+06        -0.48995E+08         0.00000E+00
    0.00000E+00         0.00000E+00         0.10148E-07
 
    0.11526E+06         0.65274E+06         0.00000E+00
    0.65274E+06        -0.49105E+08         0.00000E+00
    0.00000E+00         0.00000E+00         0.50741E-08
 
    0.10869E+06         0.67589E+06         0.00000E+00
    0.67589E+06        -0.49216E+08         0.00000E+00
    0.00000E+00         0.00000E+00         0.00000E+00
 
    0.10281E+06         0.69760E+06         0.00000E+00
    0.69760E+06        -0.49326E+08         0.00000E+00
    0.00000E+00         0.00000E+00         0.12685E-07
 
    0.97566E+05         0.71802E+06         0.00000E+00
    0.71802E+06        -0.49436E+08         0.00000E+00
    0.00000E+00         0.00000E+00        -0.76111E-08
 
    0.92937E+05         0.73727E+06         0.00000E+00
    0.73727E+06        -0.49546E+08         0.00000E+00
    0.00000E+00         0.00000E+00        -0.17759E-07
 
    0.88879E+05         0.75548E+06         0.00000E+00
    0.75548E+06        -0.49657E+08         0.00000E+00
    0.00000E+00         0.00000E+00        -0.32981E-07
 
    0.85350E+05         0.77278E+06         0.00000E+00
    0.77278E+06        -0.49768E+08         0.00000E+00
    0.00000E+00         0.00000E+00        -0.27907E-07
 
    0.82308E+05         0.78927E+06         0.00000E+00
    0.78927E+06        -0.49879E+08         0.00000E+00
    0.00000E+00         0.00000E+00         0.10148E-07
 
    0.79709E+05         0.80507E+06         0.00000E+00
    0.80507E+06        -0.49991E+08         0.00000E+00
    0.00000E+00         0.00000E+00         0.00000E+00
 
    0.77511E+05         0.82026E+06         0.00000E+00
    0.82026E+06        -0.50103E+08         0.00000E+00
    0.00000E+00         0.00000E+00        -0.76111E-08
 
    0.75675E+05         0.83493E+06         0.00000E+00
    0.83493E+06        -0.50216E+08         0.00000E+00
    0.00000E+00         0.00000E+00        -0.15222E-07
 
    0.74160E+05         0.84916E+06         0.00000E+00
    0.84916E+06        -0.50330E+08         0.00000E+00
    0.00000E+00         0.00000E+00         0.50741E-08
 
    0.72932E+05         0.86302E+06         0.00000E+00
    0.86302E+06        -0.50445E+08         0.00000E+00
    0.00000E+00         0.00000E+00         0.50741E-08
 
    0.71954E+05         0.87658E+06         0.00000E+00
    0.87658E+06        -0.50561E+08         0.00000E+00
    0.00000E+00         0.00000E+00         0.15222E-07
 
    0.71196E+05         0.88987E+06         0.00000E+00
    0.88987E+06        -0.50678E+08         0.00000E+00
    0.00000E+00         0.00000E+00         0.76111E-08
 
    0.70627E+05         0.90296E+06         0.00000E+00
    0.90296E+06        -0.50796E+08         0.00000E+00
    0.00000E+00         0.00000E+00         0.20296E-07
 
    0.70221E+05         0.91588E+06         0.00000E+00
    0.91588E+06        -0.50915E+08         0.00000E+00
    0.00000E+00         0.00000E+00         0.25370E-08
 
    0.69953E+05         0.92867E+06         0.00000E+00
    0.92867E+06        -0.51035E+08         0.00000E+00
    0.00000E+00         0.00000E+00        -0.20296E-07
 
    0.69799E+05         0.94135E+06         0.00000E+00
    0.94135E+06        -0.51157E+08         0.00000E+00
    0.00000E+00         0.00000E+00        -0.76107E-08
 
    0.69739E+05         0.95396E+06         0.00000E+00
    0.95396E+06        -0.51280E+08         0.00000E+00
    0.00000E+00         0.00000E+00        -0.12685E-07
 
    0.69754E+05         0.96651E+06         0.00000E+00
    0.96651E+06        -0.51405E+08         0.00000E+00
    0.00000E+00         0.00000E+00         0.00000E+00
 
    0.69825E+05         0.97902E+06         0.00000E+00
    0.97902E+06        -0.51531E+08         0.00000E+00
    0.00000E+00         0.00000E+00        -0.10148E-07
 
    0.69938E+05         0.99150E+06         0.00000E+00
    0.99150E+06        -0.51658E+08         0.00000E+00
    0.00000E+00         0.00000E+00        -0.25370E-08
 
    0.70076E+05         0.10040E+07         0.00000E+00
    0.10040E+07        -0.51787E+08         0.00000E+00
    0.00000E+00         0.00000E+00        -0.76111E-08
 
    0.70227E+05         0.10164E+07         0.00000E+00
    0.10164E+07        -0.51918E+08         0.00000E+00
    0.00000E+00         0.00000E+00         0.17759E-07
 
    0.70377E+05         0.10289E+07         0.00000E+00
    0.10289E+07        -0.52050E+08         0.00000E+00
    0.00000E+00         0.00000E+00        -0.12685E-07
 
    0.70515E+05         0.10413E+07         0.00000E+00
    0.10413E+07        -0.52184E+08         0.00000E+00
    0.00000E+00         0.00000E+00        -0.50741E-08
 
    0.70629E+05         0.10537E+07         0.00000E+00
    0.10537E+07        -0.52320E+08         0.00000E+00
    0.00000E+00         0.00000E+00         0.50741E-08
 
    0.70709E+05         0.10662E+07         0.00000E+00
    0.10662E+07        -0.52457E+08         0.00000E+00
    0.00000E+00         0.00000E+00        -0.17759E-07
 
    0.70745E+05         0.10786E+07         0.00000E+00
    0.10786E+07        -0.52596E+08         0.00000E+00
    0.00000E+00         0.00000E+00         0.25370E-08
 
    0.70727E+05         0.10909E+07         0.00000E+00
    0.10909E+07        -0.52737E+08         0.00000E+00
    0.00000E+00         0.00000E+00        -0.10148E-07
 
    0.70645E+05         0.11033E+07         0.00000E+00
    0.11033E+07        -0.52880E+08         0.00000E+00
    0.00000E+00         0.00000E+00         0.25370E-08
 
    0.70490E+05         0.11156E+07         0.00000E+00
    0.11156E+07        -0.53024E+08         0.00000E+00
    0.00000E+00         0.00000E+00         0.10148E-07
 
    0.70253E+05         0.11278E+07         0.00000E+00
    0.11278E+07        -0.53171E+08         0.00000E+00
    0.00000E+00         0.00000E+00         0.17759E-07
 
    0.69922E+05         0.11399E+07         0.00000E+00
    0.11399E+07        -0.53319E+08         0.00000E+00
    0.00000E+00         0.00000E+00        -0.50741E-08
 
    0.69489E+05         0.11520E+07         0.00000E+00
    0.11520E+07        -0.53469E+08         0.00000E+00
    0.00000E+00         0.00000E+00        -0.76111E-08
 
    0.68944E+05         0.11639E+07         0.00000E+00
    0.11639E+07        -0.53621E+08         0.00000E+00
    0.00000E+00         0.00000E+00         0.00000E+00
 
    0.68274E+05         0.11757E+07         0.00000E+00
    0.11757E+07        -0.53775E+08         0.00000E+00
    0.00000E+00         0.00000E+00        -0.27907E-07
 
    0.67469E+05         0.11874E+07         0.00000E+00
    0.11874E+07        -0.53931E+08         0.00000E+00
    0.00000E+00         0.00000E+00        -0.50741E-08
 
    0.66517E+05         0.11988E+07         0.00000E+00
    0.11988E+07        -0.54088E+08         0.00000E+00
    0.00000E+00         0.00000E+00        -0.30444E-07
 
    0.65404E+05         0.12101E+07         0.00000E+00
    0.12101E+07        -0.54248E+08         0.00000E+00
    0.00000E+00         0.00000E+00         0.00000E+00
 
    0.64116E+05         0.12210E+07         0.00000E+00
    0.12210E+07        -0.54410E+08         0.00000E+00
    0.00000E+00         0.00000E+00         0.76111E-08
 
    0.62637E+05         0.12317E+07         0.00000E+00
    0.12317E+07        -0.54573E+08         0.00000E+00
    0.00000E+00         0.00000E+00         0.10148E-07
 
    0.60949E+05         0.12421E+07         0.00000E+00
    0.12421E+07        -0.54739E+08         0.00000E+00
    0.00000E+00         0.00000E+00         0.25366E-08
 
    0.59035E+05         0.12520E+07         0.00000E+00
    0.12520E+07        -0.54907E+08         0.00000E+00
    0.00000E+00         0.00000E+00         0.25366E-08
 
    0.56872E+05         0.12616E+07         0.00000E+00
    0.12616E+07        -0.55076E+08         0.00000E+00
    0.00000E+00         0.00000E+00         0.25366E-08
 
    0.54439E+05         0.12707E+07         0.00000E+00
    0.12707E+07        -0.55248E+08         0.00000E+00
    0.00000E+00         0.00000E+00        -0.12685E-07
 
    0.51709E+05         0.12792E+07         0.00000E+00
    0.12792E+07        -0.55421E+08         0.00000E+00
    0.00000E+00         0.00000E+00         0.50741E-08
 
    0.48654E+05         0.12871E+07         0.00000E+00
    0.12871E+07        -0.55597E+08         0.00000E+00
    0.00000E+00         0.00000E+00        -0.76107E-08
 
    0.45242E+05         0.12944E+07         0.00000E+00
    0.12944E+07        -0.55775E+08         0.00000E+00
    0.00000E+00         0.00000E+00        -0.25366E-08
 
    0.41440E+05         0.13009E+07         0.00000E+00
    0.13009E+07        -0.55954E+08         0.00000E+00
    0.00000E+00         0.00000E+00        -0.76116E-08
 
    0.37207E+05         0.13066E+07         0.00000E+00
    0.13066E+07        -0.56136E+08         0.00000E+00
    0.00000E+00         0.00000E+00        -0.10148E-07
 
    0.32503E+05         0.13114E+07         0.00000E+00
    0.13114E+07        -0.56320E+08         0.00000E+00
    0.00000E+00         0.00000E+00        -0.12686E-07
 
    0.27280E+05         0.13151E+07         0.00000E+00
    0.13151E+07        -0.56506E+08         0.00000E+00
    0.00000E+00         0.00000E+00         0.20297E-07
 
    0.21487E+05         0.13177E+07         0.00000E+00
    0.13177E+07        -0.56695E+08         0.00000E+00
    0.00000E+00         0.00000E+00        -0.15222E-07
 
    0.15069E+05         0.13190E+07         0.00000E+00
    0.13190E+07        -0.56885E+08         0.00000E+00
    0.00000E+00         0.00000E+00         0.27908E-07
 
    0.79657E+04         0.13188E+07         0.00000E+00
    0.13188E+07        -0.57078E+08         0.00000E+00
    0.00000E+00         0.00000E+00         0.50750E-08
 
    0.11145E+03         0.13171E+07         0.00000E+00
    0.13171E+07        -0.57273E+08         0.00000E+00
    0.00000E+00         0.00000E+00         0.00000E+00
 
   -0.85626E+04         0.13137E+07         0.00000E+00
    0.13137E+07        -0.57470E+08         0.00000E+00
    0.00000E+00         0.00000E+00        -0.15223E-07
 
   -0.18130E+05         0.13083E+07         0.00000E+00
    0.13083E+07        -0.57670E+08         0.00000E+00
    0.00000E+00         0.00000E+00         0.20296E-07
 
   -0.28666E+05         0.13008E+07         0.00000E+00
    0.13008E+07        -0.57872E+08         0.00000E+00
    0.00000E+00         0.00000E+00        -0.76116E-08
 
   -0.40249E+05         0.12910E+07         0.00000E+00
    0.12910E+07        -0.58076E+08         0.00000E+00
    0.00000E+00         0.00000E+00        -0.25366E-08
 
   -0.52959E+05         0.12785E+07         0.00000E+00
    0.12785E+07        -0.58284E+08         0.00000E+00
    0.00000E+00         0.00000E+00         0.00000E+00
 
   -0.66874E+05         0.12632E+07         0.00000E+00
    0.12632E+07        -0.58494E+08         0.00000E+00
    0.00000E+00         0.00000E+00         0.76116E-08
 
   -0.82068E+05         0.12448E+07         0.00000E+00
    0.12448E+07        -0.58706E+08         0.00000E+00
    0.00000E+00         0.00000E+00        -0.17760E-07
 
   -0.98612E+05         0.12230E+07         0.00000E+00
    0.12230E+07        -0.58922E+08         0.00000E+00
    0.00000E+00         0.00000E+00        -0.12686E-07
 
   -0.11657E+06         0.11976E+07         0.00000E+00
    0.11976E+07        -0.59141E+08         0.00000E+00
    0.00000E+00         0.00000E+00         0.12685E-07
 
   -0.13599E+06         0.11682E+07         0.00000E+00
    0.11682E+07        -0.59362E+08         0.00000E+00
    0.00000E+00         0.00000E+00        -0.20297E-07
 
   -0.15691E+06         0.11345E+07         0.00000E+00
    0.11345E+07        -0.59586E+08         0.00000E+00
    0.00000E+00         0.00000E+00        -0.12686E-07
 
   -0.17937E+06         0.10964E+07         0.00000E+00
    0.10964E+07        -0.59813E+08         0.00000E+00
    0.00000E+00         0.00000E+00         0.76116E-08
 
   -0.20339E+06         0.10535E+07         0.00000E+00
    0.10535E+07        -0.60042E+08         0.00000E+00
    0.00000E+00         0.00000E+00         0.35518E-07
 
   -0.22900E+06         0.10056E+07         0.00000E+00
    0.10056E+07        -0.60273E+08         0.00000E+00
    0.00000E+00         0.00000E+00        -0.50741E-08
 
   -0.25624E+06         0.95255E+06         0.00000E+00
    0.95255E+06        -0.60506E+08         0.00000E+00
    0.00000E+00         0.00000E+00        -0.32982E-07
 
   -0.28523E+06         0.89431E+06         0.00000E+00
    0.89431E+06        -0.60738E+08         0.00000E+00
    0.00000E+00         0.00000E+00        -0.22834E-07
 
   -0.31618E+06         0.83082E+06         0.00000E+00
    0.83082E+06        -0.60970E+08         0.00000E+00
    0.00000E+00         0.00000E+00         0.17760E-07
 
   -0.34950E+06         0.76217E+06         0.00000E+00
    0.76217E+06        -0.61198E+08         0.00000E+00
    0.00000E+00         0.00000E+00         0.15222E-07
 
   -0.38593E+06         0.68847E+06         0.00000E+00
    0.68847E+06        -0.61421E+08         0.00000E+00
    0.00000E+00         0.00000E+00        -0.35518E-07
 
   -0.42676E+06         0.60994E+06         0.00000E+00
    0.60994E+06        -0.61635E+08         0.00000E+00
    0.00000E+00         0.00000E+00        -0.25375E-08
 
   -0.47406E+06         0.52672E+06         0.00000E+00
    0.52672E+06        -0.61835E+08         0.00000E+00
    0.00000E+00         0.00000E+00        -0.25370E-08
 
   -0.53116E+06         0.43889E+06         0.00000E+00
    0.43889E+06        -0.62015E+08         0.00000E+00
    0.00000E+00         0.00000E+00        -0.17759E-07
 
   -0.60308E+06         0.34641E+06         0.00000E+00
    0.34641E+06        -0.62169E+08         0.00000E+00
    0.00000E+00         0.00000E+00         0.50741E-08
 
   -0.69708E+06         0.24961E+06         0.00000E+00
    0.24961E+06        -0.62291E+08         0.00000E+00
    0.00000E+00         0.00000E+00        -0.22737E-12
 
   -0.82209E+06         0.15002E+06         0.00000E+00
    0.15002E+06        -0.62372E+08         0.00000E+00
    0.00000E+00         0.00000E+00        -0.50740E-08
 
   -0.98623E+06         0.49907E+05         0.00000E+00
    0.49907E+05        -0.62413E+08         0.00000E+00
    0.00000E+00         0.00000E+00        -0.17759E-07
 
    0.51331E+06         0.23780E+05         0.00000E+00
    0.23780E+05        -0.47672E+08         0.00000E+00
    0.00000E+00         0.00000E+00         0.22833E-07
 
    0.43643E+06         0.71639E+05         0.00000E+00
    0.71639E+05        -0.47691E+08         0.00000E+00
    0.00000E+00         0.00000E+00        -0.76111E-08
 
    0.37719E+06         0.11983E+06         0.00000E+00
    0.11983E+06        -0.47729E+08         0.00000E+00
    0.00000E+00         0.00000E+00         0.10148E-07
 
    0.33231E+06         0.16762E+06         0.00000E+00
    0.16762E+06        -0.47784E+08         0.00000E+00
    0.00000E+00         0.00000E+00        -0.25370E-08
 
    0.29795E+06         0.21428E+06         0.00000E+00
    0.21428E+06        -0.47855E+08         0.00000E+00
    0.00000E+00         0.00000E+00        -0.10148E-07
 
    0.27087E+06         0.25952E+06         0.00000E+00
    0.25952E+06        -0.47939E+08         0.00000E+00
    0.00000E+00         0.00000E+00         0.50741E-08
 
    0.24870E+06         0.30319E+06         0.00000E+00
    0.30319E+06        -0.48031E+08         0.00000E+00
    0.00000E+00         0.00000E+00         0.50741E-08
 
    0.22987E+06         0.34516E+06         0.00000E+00
    0.34516E+06        -0.48130E+08         0.00000E+00
    0.00000E+00         0.00000E+00        -0.50741E-08
 
    0.21337E+06         0.38528E+06         0.00000E+00
    0.38528E+06        -0.48234E+08         0.00000E+00
    0.00000E+00         0.00000E+00         0.25370E-08
 
    0.19856E+06         0.42342E+06         0.00000E+00
    0.42342E+06        -0.48340E+08         0.00000E+00
    0.00000E+00         0.00000E+00        -0.15222E-07
 
    0.18508E+06         0.45952E+06         0.00000E+00
    0.45952E+06        -0.48449E+08         0.00000E+00
    0.00000E+00         0.00000E+00        -0.25370E-08
 
    0.17272E+06         0.49352E+06         0.00000E+00
    0.49352E+06        -0.48558E+08         0.00000E+00
    0.00000E+00         0.00000E+00         0.20296E-07
 
    0.16134E+06         0.52545E+06         0.00000E+00
    0.52545E+06        -0.48669E+08         0.00000E+00
    0.00000E+00         0.00000E+00        -0.25370E-08
 
    0.15087E+06         0.55535E+06         0.00000E+00
    0.55535E+06        -0.48779E+08         0.00000E+00
    0.00000E+00         0.00000E+00        -0.76111E-08
 
    0.14129E+06         0.58331E+06         0.00000E+00
    0.58331E+06        -0.48889E+08         0.00000E+00
    0.00000E+00         0.00000E+00         0.76111E-08
 
    0.13254E+06         0.60945E+06         0.00000E+00
    0.60945E+06        -0.49000E+08         0.00000E+00
    0.00000E+00         0.00000E+00         0.12685E-07
 
    0.12462E+06         0.63387E+06         0.00000E+00
    0.63387E+06        -0.49110E+08         0.00000E+00
    0.00000E+00         0.00000E+00        -0.20296E-07
 
    0.11747E+06         0.65672E+06         0.00000E+00
    0.65672E+06        -0.49220E+08         0.00000E+00
    0.00000E+00         0.00000E+00        -0.27907E-07
 
    0.11108E+06         0.67813E+06         0.00000E+00
    0.67813E+06        -0.49330E+08         0.00000E+00
    0.00000E+00         0.00000E+00         0.25370E-08
 
    0.10540E+06         0.69824E+06         0.00000E+00
    0.69824E+06        -0.49440E+08         0.00000E+00
    0.00000E+00         0.00000E+00        -0.12685E-07
 
    0.10038E+06         0.71719E+06         0.00000E+00
    0.71719E+06        -0.49550E+08         0.00000E+00
    0.00000E+00         0.00000E+00         0.25370E-08
 
    0.95994E+05         0.73509E+06         0.00000E+00
    0.73509E+06        -0.49660E+08         0.00000E+00
    0.00000E+00         0.00000E+00        -0.40593E-07
 
    0.92179E+05         0.75209E+06         0.00000E+00
    0.75209E+06        -0.49771E+08         0.00000E+00
    0.00000E+00         0.00000E+00         0.50741E-08
 
    0.88893E+05         0.76827E+06         0.00000E+00
    0.76827E+06        -0.49882E+08         0.00000E+00
    0.00000E+00         0.00000E+00         0.50741E-08
 
    0.86089E+05         0.78376E+06         0.00000E+00
    0.78376E+06        -0.49994E+08         0.00000E+00
    0.00000E+00         0.00000E+00        -0.15222E-07
 
    0.83719E+05         0.79865E+06         0.00000E+00
    0.79865E+06        -0.50106E+08         0.00000E+00
    0.00000E+00         0.00000E+00         0.50741E-08
 
    0.81741E+05         0.81302E+06         0.00000E+00
    0.81302E+06        -0.50219E+08         0.00000E+00
    0.00000E+00         0.00000E+00        -0.50741E-08
 
    0.80110E+05         0.82695E+06         0.00000E+00
    0.82695E+06        -0.50333E+08         0.00000E+00
    0.00000E+00         0.00000E+00         0.00000E+00
 
    0.78789E+05         0.84050E+06         0.00000E+00
    0.84050E+06        -0.50448E+08         0.00000E+00
    0.00000E+00         0.00000E+00         0.32981E-07
 
    0.77739E+05         0.85375E+06         0.00000E+00
    0.85375E+06        -0.50563E+08         0.00000E+00
    0.00000E+00         0.00000E+00         0.20296E-07
 
    0.76926E+05         0.86674E+06         0.00000E+00
    0.86674E+06        -0.50680E+08         0.00000E+00
    0.00000E+00         0.00000E+00         0.22833E-07
 
    0.76317E+05         0.87952E+06         0.00000E+00
    0.87952E+06        -0.50798E+08         0.00000E+00
    0.00000E+00         0.00000E+00        -0.50741E-08
 
    0.75884E+05         0.89213E+06         0.00000E+00
    0.89213E+06        -0.50917E+08         0.00000E+00
    0.00000E+00         0.00000E+00        -0.22833E-07
 
    0.75599E+05         0.90461E+06         0.00000E+00
    0.90461E+06        -0.51038E+08         0.00000E+00
    0.00000E+00         0.00000E+00         0.10148E-07
 
    0.75438E+05         0.91698E+06         0.00000E+00
    0.91698E+06        -0.51160E+08         0.00000E+00
    0.00000E+00         0.00000E+00        -0.10148E-07
 
    0.75377E+05         0.92927E+06         0.00000E+00
    0.92927E+06        -0.51283E+08         0.00000E+00
    0.00000E+00         0.00000E+00        -0.25370E-08
 
    0.75397E+05         0.94150E+06         0.00000E+00
    0.94150E+06        -0.51407E+08         0.00000E+00
    0.00000E+00         0.00000E+00         0.25370E-08
 
    0.75477E+05         0.95369E+06         0.00000E+00
    0.95369E+06        -0.51533E+08         0.00000E+00
    0.00000E+00         0.00000E+00        -0.76111E-08
 
    0.75602E+05         0.96585E+06         0.00000E+00
    0.96585E+06        -0.51661E+08         0.00000E+00
    0.00000E+00         0.00000E+00         0.10148E-07
 
    0.75754E+05         0.97799E+06         0.00000E+00
    0.97799E+06        -0.51790E+08         0.00000E+00
    0.00000E+00         0.00000E+00        -0.25370E-08
 
    0.75920E+05         0.99012E+06         0.00000E+00
    0.99012E+06        -0.51920E+08         0.00000E+00
    0.00000E+00         0.00000E+00        -0.25370E-07
 
    0.76085E+05         0.10022E+07         0.00000E+00
    0.10022E+07        -0.52053E+08         0.00000E+00
    0.00000E+00         0.00000E+00        -0.17759E-07
 
    0.76236E+05         0.10143E+07         0.00000E+00
    0.10143E+07        -0.52187E+08         0.00000E+00
    0.00000E+00         0.00000E+00         0.25370E-07
 
    0.76362E+05         0.10264E+07         0.00000E+00
    0.10264E+07        -0.52322E+08         0.00000E+00
    0.00000E+00         0.00000E+00        -0.10148E-07
 
    0.76451E+05         0.10385E+07         0.00000E+00
    0.10385E+07        -0.52460E+08         0.00000E+00
    0.00000E+00         0.00000E+00         0.10148E-07
 
    0.76492E+05         0.10506E+07         0.00000E+00
    0.10506E+07        -0.52599E+08         0.00000E+00
    0.00000E+00         0.00000E+00         0.12685E-07
 
    0.76474E+05         0.10626E+07         0.00000E+00
    0.10626E+07        -0.52740E+08         0.00000E+00
    0.00000E+00         0.00000E+00        -0.25370E-08
 
    0.76387E+05         0.10746E+07         0.00000E+00
    0.10746E+07        -0.52882E+08         0.00000E+00
    0.00000E+00         0.00000E+00        -0.12685E-07
 
    0.76222E+05         0.10866E+07         0.00000E+00
    0.10866E+07        -0.53027E+08         0.00000E+00
    0.00000E+00         0.00000E+00         0.00000E+00
 
    0.75966E+05         0.10985E+07         0.00000E+00
    0.10985E+07        -0.53173E+08         0.00000E+00
    0.00000E+00         0.00000E+00        -0.25370E-08
 
    0.75611E+05         0.11103E+07         0.00000E+00
    0.11103E+07        -0.53321E+08         0.00000E+00
    0.00000E+00         0.00000E+00         0.50741E-08
 
    0.75145E+05         0.11220E+07         0.00000E+00
    0.11220E+07        -0.53471E+08         0.00000E+00
    0.00000E+00         0.00000E+00        -0.50741E-08
 
    0.74557E+05         0.11336E+07         0.00000E+00
    0.11336E+07        -0.53623E+08         0.00000E+00
    0.00000E+00         0.00000E+00        -0.30444E-07
 
    0.73836E+05         0.11451E+07         0.00000E+00
    0.11451E+07        -0.53777E+08         0.00000E+00
    0.00000E+00         0.00000E+00         0.00000E+00
 
    0.72969E+05         0.11564E+07         0.00000E+00
    0.11564E+07        -0.53933E+08         0.00000E+00
    0.00000E+00         0.00000E+00         0.25370E-08
 
    0.71942E+05         0.11675E+07         0.00000E+00
    0.11675E+07        -0.54091E+08         0.00000E+00
    0.00000E+00         0.00000E+00         0.30444E-07
 
    0.70741E+05         0.11784E+07         0.00000E+00
    0.11784E+07        -0.54250E+08         0.00000E+00
    0.00000E+00         0.00000E+00         0.10148E-07
 
    0.69352E+05         0.11890E+07         0.00000E+00
    0.11890E+07        -0.54412E+08         0.00000E+00
    0.00000E+00         0.00000E+00         0.40593E-07
 
    0.67756E+05         0.11994E+07         0.00000E+00
    0.11994E+07        -0.54575E+08         0.00000E+00
    0.00000E+00         0.00000E+00         0.50741E-08
 
    0.65936E+05         0.12094E+07         0.00000E+00
    0.12094E+07        -0.54741E+08         0.00000E+00
    0.00000E+00         0.00000E+00        -0.15221E-07
 
    0.63871E+05         0.12191E+07         0.00000E+00
    0.12191E+07        -0.54908E+08         0.00000E+00
    0.00000E+00         0.00000E+00        -0.76107E-08
 
    0.61538E+05         0.12283E+07         0.00000E+00
    0.12283E+07        -0.55078E+08         0.00000E+00
    0.00000E+00         0.00000E+00         0.00000E+00
 
    0.58913E+05         0.12371E+07         0.00000E+00
    0.12371E+07        -0.55249E+08         0.00000E+00
    0.00000E+00         0.00000E+00         0.76116E-08
 
    0.55968E+05         0.12454E+07         0.00000E+00
    0.12454E+07        -0.55423E+08         0.00000E+00
    0.00000E+00         0.00000E+00        -0.50741E-08
 
    0.52672E+05         0.12530E+07         0.00000E+00
    0.12530E+07        -0.55598E+08         0.00000E+00
    0.00000E+00         0.00000E+00        -0.22834E-07
 
    0.48992E+05         0.12600E+07         0.00000E+00
    0.12600E+07        -0.55776E+08         0.00000E+00
    0.00000E+00         0.00000E+00         0.17759E-07
 
    0.44889E+05         0.12663E+07         0.00000E+00
    0.12663E+07        -0.55956E+08         0.00000E+00
    0.00000E+00         0.00000E+00        -0.76116E-08
 
    0.40323E+05         0.12718E+07         0.00000E+00
    0.12718E+07        -0.56137E+08         0.00000E+00
    0.00000E+00         0.00000E+00         0.76107E-08
 
    0.35248E+05         0.12763E+07         0.00000E+00
    0.12763E+07        -0.56321E+08         0.00000E+00
    0.00000E+00         0.00000E+00        -0.32981E-07
 
    0.29613E+05         0.12798E+07         0.00000E+00
    0.12798E+07        -0.56507E+08         0.00000E+00
    0.00000E+00         0.00000E+00         0.22833E-07
 
    0.23362E+05         0.12822E+07         0.00000E+00
    0.12822E+07        -0.56695E+08         0.00000E+00
    0.00000E+00         0.00000E+00        -0.25375E-08
 
    0.16437E+05         0.12833E+07         0.00000E+00
    0.12833E+07        -0.56885E+08         0.00000E+00
    0.00000E+00         0.00000E+00         0.50750E-08
 
    0.87700E+04         0.12830E+07         0.00000E+00
    0.12830E+07        -0.57077E+08         0.00000E+00
    0.00000E+00         0.00000E+00         0.00000E+00
 
    0.29190E+03         0.12812E+07         0.00000E+00
    0.12812E+07        -0.57272E+08         0.00000E+00
    0.00000E+00         0.00000E+00         0.10148E-07
 
   -0.90731E+04         0.12776E+07         0.00000E+00
    0.12776E+07        -0.57469E+08         0.00000E+00
    0.00000E+00         0.00000E+00         0.55815E-07
 
   -0.19405E+05         0.12722E+07         0.00000E+00
    0.12722E+07        -0.57668E+08         0.00000E+00
    0.00000E+00         0.00000E+00        -0.15221E-07
 
   -0.30787E+05         0.12646E+07         0.00000E+00
    0.12646E+07        -0.57870E+08         0.00000E+00
    0.00000E+00         0.00000E+00         0.00000E+00
 
   -0.43306E+05         0.12547E+07         0.00000E+00
    0.12547E+07        -0.58074E+08         0.00000E+00
    0.00000E+00         0.00000E+00        -0.10148E-07
 
   -0.57049E+05         0.12422E+07         0.00000E+00
    0.12422E+07        -0.58281E+08         0.00000E+00
    0.00000E+00         0.00000E+00        -0.50741E-08
 
   -0.72104E+05         0.12270E+07         0.00000E+00
    0.12270E+07        -0.58490E+08         0.00000E+00
    0.00000E+00         0.00000E+00         0.50741E-08
 
   -0.88554E+05         0.12086E+07         0.00000E+00
    0.12086E+07        -0.58702E+08         0.00000E+00
    0.00000E+00         0.00000E+00        -0.76107E-08
 
   -0.10648E+06         0.11869E+07         0.00000E+00
    0.11869E+07        -0.58917E+08         0.00000E+00
    0.00000E+00         0.00000E+00        -0.35518E-07
 
   -0.12595E+06         0.11615E+07         0.00000E+00
    0.11615E+07        -0.59135E+08         0.00000E+00
    0.00000E+00         0.00000E+00         0.20295E-07
 
   -0.14704E+06         0.11322E+07         0.00000E+00
    0.11322E+07        -0.59356E+08         0.00000E+00
    0.00000E+00         0.00000E+00         0.50741E-08
 
   -0.16979E+06         0.10987E+07         0.00000E+00
    0.10987E+07        -0.59579E+08         0.00000E+00
    0.00000E+00         0.00000E+00        -0.10148E-07
 
   -0.19424E+06         0.10607E+07         0.00000E+00
    0.10607E+07        -0.59805E+08         0.00000E+00
    0.00000E+00         0.00000E+00         0.50741E-08
 
   -0.22043E+06         0.10180E+07         0.00000E+00
    0.10180E+07        -0.60033E+08         0.00000E+00
    0.00000E+00         0.00000E+00        -0.25371E-07
 
   -0.24839E+06         0.97027E+06         0.00000E+00
    0.97027E+06        -0.60263E+08         0.00000E+00
    0.00000E+00         0.00000E+00        -0.20295E-07
 
   -0.27820E+06         0.91747E+06         0.00000E+00
    0.91747E+06        -0.60495E+08         0.00000E+00
    0.00000E+00         0.00000E+00        -0.50750E-08
 
   -0.30996E+06         0.85948E+06         0.00000E+00
    0.85948E+06        -0.60726E+08         0.00000E+00
    0.00000E+00         0.00000E+00         0.00000E+00
 
   -0.34390E+06         0.79633E+06         0.00000E+00
    0.79633E+06        -0.60957E+08         0.00000E+00
    0.00000E+00         0.00000E+00        -0.50750E-08
 
   -0.38045E+06         0.72813E+06         0.00000E+00
    0.72813E+06        -0.61184E+08         0.00000E+00
    0.00000E+00         0.00000E+00        -0.76107E-08
 
   -0.42038E+06         0.65511E+06         0.00000E+00
    0.65511E+06        -0.61406E+08         0.00000E+00
    0.00000E+00         0.00000E+00        -0.40592E-07
 
   -0.46499E+06         0.57758E+06         0.00000E+00
    0.57758E+06        -0.61619E+08         0.00000E+00
    0.00000E+00         0.00000E+00        -0.17759E-07
 
   -0.51641E+06         0.49591E+06         0.00000E+00
    0.49591E+06        -0.61818E+08         0.00000E+00
    0.00000E+00         0.00000E+00        -0.15222E-07
 
   -0.57799E+06         0.41046E+06         0.00000E+00
    0.41046E+06        -0.61997E+08         0.00000E+00
    0.00000E+00         0.00000E+00        -0.50732E-08
 
   -0.65475E+06         0.32160E+06         0.00000E+00
    0.32160E+06        -0.62151E+08         0.00000E+00
    0.00000E+00         0.00000E+00        -0.12685E-07
 
   -0.75367E+06         0.23008E+06         0.00000E+00
    0.23008E+06        -0.62271E+08         0.00000E+00
    0.00000E+00         0.00000E+00         0.25370E-08
 
   -0.88290E+06         0.13750E+06         0.00000E+00
    0.13750E+06        -0.62353E+08         0.00000E+00
    0.00000E+00         0.00000E+00         0.27907E-07
 
   -0.10495E+07         0.45606E+05         0.00000E+00
    0.45606E+05        -0.62394E+08         0.00000E+00
    0.00000E+00         0.00000E+00         0.50743E-08
 
    0.54386E+06         0.21866E+05         0.00000E+00
    0.21866E+05        -0.47681E+08         0.00000E+00
    0.00000E+00         0.00000E+00         0.76110E-08
 
    0.46602E+06         0.66048E+05         0.00000E+00
    0.66048E+05        -0.47700E+08         0.00000E+00
    0.00000E+00         0.00000E+00        -0.17759E-07
 
    0.40511E+06         0.11104E+06         0.00000E+00
    0.11104E+06        -0.47738E+08         0.00000E+00
    0.00000E+00         0.00000E+00         0.50741E-08
 
    0.35821E+06         0.15633E+06         0.00000E+00
    0.15633E+06        -0.47794E+08         0.00000E+00
    0.00000E+00         0.00000E+00         0.76111E-08
 
    0.32183E+06         0.20122E+06         0.00000E+00
    0.20122E+06        -0.47864E+08         0.00000E+00
    0.00000E+00         0.00000E+00         0.12685E-07
 
    0.29283E+06         0.24523E+06         0.00000E+00
    0.24523E+06        -0.47948E+08         0.00000E+00
    0.00000E+00         0.00000E+00        -0.10148E-07
 
    0.26889E+06         0.28805E+06         0.00000E+00
    0.28805E+06        -0.48040E+08         0.00000E+00
    0.00000E+00         0.00000E+00         0.38056E-07
 
    0.24843E+06         0.32941E+06         0.00000E+00
    0.32941E+06        -0.48138E+08         0.00000E+00
    0.00000E+00         0.00000E+00         0.38056E-07
 
    0.23044E+06         0.36906E+06         0.00000E+00
    0.36906E+06        -0.48241E+08         0.00000E+00
    0.00000E+00         0.00000E+00        -0.15222E-07
 
    0.21428E+06         0.40683E+06         0.00000E+00
    0.40683E+06        -0.48348E+08         0.00000E+00
    0.00000E+00         0.00000E+00        -0.17759E-07
 
    0.19956E+06         0.44260E+06         0.00000E+00
    0.44260E+06        -0.48456E+08         0.00000E+00
    0.00000E+00         0.00000E+00         0.12685E-07
 
    0.18607E+06         0.47629E+06         0.00000E+00
    0.47629E+06        -0.48565E+08         0.00000E+00
    0.00000E+00         0.00000E+00         0.50741E-08
 
    0.17367E+06         0.50792E+06         0.00000E+00
    0.50792E+06        -0.48675E+08         0.00000E+00
    0.00000E+00         0.00000E+00         0.76111E-08
 
    0.16230E+06         0.53752E+06         0.00000E+00
    0.53752E+06        -0.48785E+08         0.00000E+00
    0.00000E+00         0.00000E+00         0.20296E-07
 
    0.15189E+06         0.56518E+06         0.00000E+00
    0.56518E+06        -0.48895E+08         0.00000E+00
    0.00000E+00         0.00000E+00         0.30444E-07
 
    0.14242E+06         0.59101E+06         0.00000E+00
    0.59101E+06        -0.49005E+08         0.00000E+00
    0.00000E+00         0.00000E+00         0.10148E-07
 
    0.13384E+06         0.61512E+06         0.00000E+00
    0.61512E+06        -0.49115E+08         0.00000E+00
    0.00000E+00         0.00000E+00        -0.25370E-08
 
    0.12613E+06         0.63766E+06         0.00000E+00
    0.63766E+06        -0.49224E+08         0.00000E+00
    0.00000E+00         0.00000E+00        -0.10148E-07
 
    0.11923E+06         0.65875E+06         0.00000E+00
    0.65875E+06        -0.49334E+08         0.00000E+00
    0.00000E+00         0.00000E+00         0.12685E-07
 
    0.11311E+06         0.67855E+06         0.00000E+00
    0.67855E+06        -0.49444E+08         0.00000E+00
    0.00000E+00         0.00000E+00         0.25370E-08
 
    0.10772E+06         0.69718E+06         0.00000E+00
    0.69718E+06        -0.49554E+08         0.00000E+00
    0.00000E+00         0.00000E+00         0.10148E-07
 
    0.10300E+06         0.71477E+06         0.00000E+00
    0.71477E+06        -0.49664E+08         0.00000E+00
    0.00000E+00         0.00000E+00         0.20296E-07
 
    0.98902E+05         0.73145E+06         0.00000E+00
    0.73145E+06        -0.49774E+08         0.00000E+00
    0.00000E+00         0.00000E+00        -0.25370E-08
 
    0.95377E+05         0.74732E+06         0.00000E+00
    0.74732E+06        -0.49885E+08         0.00000E+00
    0.00000E+00         0.00000E+00         0.12685E-07
 
    0.92371E+05         0.76250E+06         0.00000E+00
    0.76250E+06        -0.49997E+08         0.00000E+00
    0.00000E+00         0.00000E+00        -0.12685E-07
 
    0.89834E+05         0.77707E+06         0.00000E+00
    0.77707E+06        -0.50109E+08         0.00000E+00
    0.00000E+00         0.00000E+00         0.00000E+00
 
    0.87717E+05         0.79113E+06         0.00000E+00
    0.79113E+06        -0.50222E+08         0.00000E+00
    0.00000E+00         0.00000E+00        -0.25370E-08
 
    0.85974E+05         0.80475E+06         0.00000E+00
    0.80475E+06        -0.50336E+08         0.00000E+00
    0.00000E+00         0.00000E+00         0.50741E-08
 
    0.84563E+05         0.81800E+06         0.00000E+00
    0.81800E+06        -0.50450E+08         0.00000E+00
    0.00000E+00         0.00000E+00         0.15222E-07
 
    0.83444E+05         0.83094E+06         0.00000E+00
    0.83094E+06        -0.50566E+08         0.00000E+00
    0.00000E+00         0.00000E+00        -0.25370E-08
 
    0.82578E+05         0.84362E+06         0.00000E+00
    0.84362E+06        -0.50683E+08         0.00000E+00
    0.00000E+00         0.00000E+00         0.10148E-07
 
    0.81931E+05         0.85608E+06         0.00000E+00
    0.85608E+06        -0.50801E+08         0.00000E+00
    0.00000E+00         0.00000E+00         0.20296E-07
 
    0.81473E+05         0.86838E+06         0.00000E+00
    0.86838E+06        -0.50920E+08         0.00000E+00
    0.00000E+00         0.00000E+00         0.45667E-07
 
    0.81173E+05         0.88055E+06         0.00000E+00
    0.88055E+06        -0.51040E+08         0.00000E+00
    0.00000E+00         0.00000E+00         0.12685E-07
 
    0.81005E+05         0.89260E+06         0.00000E+00
    0.89260E+06        -0.51162E+08         0.00000E+00
    0.00000E+00         0.00000E+00        -0.45667E-07
 
    0.80945E+05         0.90458E+06         0.00000E+00
    0.90458E+06        -0.51285E+08         0.00000E+00
    0.00000E+00         0.00000E+00        -0.12685E-07
 
    0.80970E+05         0.91649E+06         0.00000E+00
    0.91649E+06        -0.51410E+08         0.00000E+00
    0.00000E+00         0.00000E+00         0.27907E-07
 
    0.81061E+05         0.92836E+06         0.00000E+00
    0.92836E+06        -0.51536E+08         0.00000E+00
    0.00000E+00         0.00000E+00         0.27907E-07
 
    0.81199E+05         0.94020E+06         0.00000E+00
    0.94020E+06        -0.51663E+08         0.00000E+00
    0.00000E+00         0.00000E+00         0.25370E-08
 
    0.81366E+05         0.95202E+06         0.00000E+00
    0.95202E+06        -0.51792E+08         0.00000E+00
    0.00000E+00         0.00000E+00         0.00000E+00
 
    0.81547E+05         0.96382E+06         0.00000E+00
    0.96382E+06        -0.51923E+08         0.00000E+00
    0.00000E+00         0.00000E+00         0.22833E-07
 
    0.81727E+05         0.97560E+06         0.00000E+00
    0.97560E+06        -0.52055E+08         0.00000E+00
    0.00000E+00         0.00000E+00         0.25370E-07
 
    0.81892E+05         0.98738E+06         0.00000E+00
    0.98738E+06        -0.52189E+08         0.00000E+00
    0.00000E+00         0.00000E+00        -0.22833E-07
 
    0.82030E+05         0.99914E+06         0.00000E+00
    0.99914E+06        -0.52325E+08         0.00000E+00
    0.00000E+00         0.00000E+00         0.17759E-07
 
    0.82128E+05         0.10109E+07         0.00000E+00
    0.10109E+07        -0.52462E+08         0.00000E+00
    0.00000E+00         0.00000E+00        -0.43130E-07
 
    0.82174E+05         0.10226E+07         0.00000E+00
    0.10226E+07        -0.52601E+08         0.00000E+00
    0.00000E+00         0.00000E+00         0.12685E-07
 
    0.82157E+05         0.10343E+07         0.00000E+00
    0.10343E+07        -0.52742E+08         0.00000E+00
    0.00000E+00         0.00000E+00        -0.12685E-07
 
    0.82067E+05         0.10460E+07         0.00000E+00
    0.10460E+07        -0.52885E+08         0.00000E+00
    0.00000E+00         0.00000E+00         0.76111E-08
 
    0.81891E+05         0.10576E+07         0.00000E+00
    0.10576E+07        -0.53029E+08         0.00000E+00
    0.00000E+00         0.00000E+00        -0.22833E-07
 
    0.81619E+05         0.10692E+07         0.00000E+00
    0.10692E+07        -0.53175E+08         0.00000E+00
    0.00000E+00         0.00000E+00         0.25370E-08
 
    0.81240E+05         0.10806E+07         0.00000E+00
    0.10806E+07        -0.53324E+08         0.00000E+00
    0.00000E+00         0.00000E+00         0.15222E-07
 
    0.80742E+05         0.10920E+07         0.00000E+00
    0.10920E+07        -0.53474E+08         0.00000E+00
    0.00000E+00         0.00000E+00         0.76111E-08
 
    0.80113E+05         0.11033E+07         0.00000E+00
    0.11033E+07        -0.53626E+08         0.00000E+00
    0.00000E+00         0.00000E+00        -0.27907E-07
 
    0.79341E+05         0.11144E+07         0.00000E+00
    0.11144E+07        -0.53779E+08         0.00000E+00
    0.00000E+00         0.00000E+00        -0.50741E-08
 
    0.78412E+05         0.11254E+07         0.00000E+00
    0.11254E+07        -0.53935E+08         0.00000E+00
    0.00000E+00         0.00000E+00        -0.25370E-08
 
    0.77312E+05         0.11362E+07         0.00000E+00
    0.11362E+07        -0.54093E+08         0.00000E+00
    0.00000E+00         0.00000E+00        -0.76111E-08
 
    0.76026E+05         0.11467E+07         0.00000E+00
    0.11467E+07        -0.54252E+08         0.00000E+00
    0.00000E+00         0.00000E+00         0.17759E-07
 
    0.74538E+05         0.11571E+07         0.00000E+00
    0.11571E+07        -0.54414E+08         0.00000E+00
    0.00000E+00         0.00000E+00         0.20296E-07
 
    0.72828E+05         0.11671E+07         0.00000E+00
    0.11671E+07        -0.54577E+08         0.00000E+00
    0.00000E+00         0.00000E+00         0.25370E-08
 
    0.70878E+05         0.11768E+07         0.00000E+00
    0.11768E+07        -0.54743E+08         0.00000E+00
    0.00000E+00         0.00000E+00         0.00000E+00
 
    0.68665E+05         0.11862E+07         0.00000E+00
    0.11862E+07        -0.54910E+08         0.00000E+00
    0.00000E+00         0.00000E+00        -0.50741E-08
 
    0.66165E+05         0.11951E+07         0.00000E+00
    0.11951E+07        -0.55080E+08         0.00000E+00
    0.00000E+00         0.00000E+00        -0.20296E-07
 
    0.63352E+05         0.12036E+07         0.00000E+00
    0.12036E+07        -0.55251E+08         0.00000E+00
    0.00000E+00         0.00000E+00        -0.32981E-07
 
    0.60196E+05         0.12116E+07         0.00000E+00
    0.12116E+07        -0.55425E+08         0.00000E+00
    0.00000E+00         0.00000E+00         0.38056E-07
 
    0.56664E+05         0.12190E+07         0.00000E+00
    0.12190E+07        -0.55600E+08         0.00000E+00
    0.00000E+00         0.00000E+00         0.50750E-08
 
    0.52720E+05         0.12257E+07         0.00000E+00
    0.12257E+07        -0.55777E+08         0.00000E+00
    0.00000E+00         0.00000E+00        -0.76116E-08
 
    0.48323E+05         0.12317E+07         0.00000E+00
    0.12317E+07        -0.55957E+08         0.00000E+00
    0.00000E+00         0.00000E+00         0.50740E-07
 
    0.43430E+05         0.12370E+07         0.00000E+00
    0.12370E+07        -0.56138E+08         0.00000E+00
    0.00000E+00         0.00000E+00         0.76116E-08
 
    0.37991E+05         0.12413E+07         0.00000E+00
    0.12413E+07        -0.56322E+08         0.00000E+00
    0.00000E+00         0.00000E+00        -0.17760E-07
 
    0.31951E+05         0.12446E+07         0.00000E+00
    0.12446E+07        -0.56507E+08         0.00000E+00
    0.00000E+00         0.00000E+00         0.17760E-07
 
    0.25252E+05         0.12468E+07         0.00000E+00
    0.12468E+07        -0.56695E+08         0.00000E+00
    0.00000E+00         0.00000E+00        -0.20296E-07
 
    0.17828E+05         0.12477E+07         0.00000E+00
    0.12477E+07        -0.56885E+08         0.00000E+00
    0.00000E+00         0.00000E+00        -0.25375E-08
 
    0.96088E+04         0.12473E+07         0.00000E+00
    0.12473E+07        -0.57077E+08         0.00000E+00
    0.00000E+00         0.00000E+00        -0.38055E-07
 
    0.51798E+03         0.12454E+07         0.00000E+00
    0.12454E+07        -0.57271E+08         0.00000E+00
    0.00000E+00         0.00000E+00         0.30444E-07
 
   -0.95261E+04         0.12417E+07         0.00000E+00
    0.12417E+07        -0.57468E+08         0.00000E+00
    0.00000E+00         0.00000E+00         0.35518E-07
 
   -0.20610E+05         0.12362E+07         0.00000E+00
    0.12362E+07        -0.57667E+08         0.00000E+00
    0.00000E+00         0.00000E+00         0.20296E-07
 
   -0.32825E+05         0.12286E+07         0.00000E+00
    0.12286E+07        -0.57868E+08         0.00000E+00
    0.00000E+00         0.00000E+00         0.10148E-07
 
   -0.46266E+05         0.12186E+07         0.00000E+00
    0.12186E+07        -0.58072E+08         0.00000E+00
    0.00000E+00         0.00000E+00         0.17760E-07
 
   -0.61028E+05         0.12062E+07         0.00000E+00
    0.12062E+07        -0.58278E+08         0.00000E+00
    0.00000E+00         0.00000E+00         0.00000E+00
 
   -0.77209E+05         0.11910E+07         0.00000E+00
    0.11910E+07        -0.58487E+08         0.00000E+00
    0.00000E+00         0.00000E+00         0.25366E-08
 
   -0.94902E+05         0.11727E+07         0.00000E+00
    0.11727E+07        -0.58698E+08         0.00000E+00
    0.00000E+00         0.00000E+00         0.50741E-08
 
   -0.11420E+06         0.11510E+07         0.00000E+00
    0.11510E+07        -0.58913E+08         0.00000E+00
    0.00000E+00         0.00000E+00        -0.50741E-08
 
   -0.13518E+06         0.11258E+07         0.00000E+00
    0.11258E+07        -0.59130E+08         0.00000E+00
    0.00000E+00         0.00000E+00        -0.35518E-07
 
   -0.15793E+06         0.10967E+07         0.00000E+00
    0.10967E+07        -0.59349E+08         0.00000E+00
    0.00000E+00         0.00000E+00         0.00000E+00
 
   -0.18249E+06         0.10633E+07         0.00000E+00
    0.10633E+07        -0.59572E+08         0.00000E+00
    0.00000E+00         0.00000E+00        -0.27907E-07
 
   -0.20894E+06         0.10255E+07         0.00000E+00
    0.10255E+07        -0.59797E+08         0.00000E+00
    0.00000E+00         0.00000E+00        -0.90949E-12
 
   -0.23731E+06         0.98294E+06         0.00000E+00
    0.98294E+06        -0.60024E+08         0.00000E+00
    0.00000E+00         0.00000E+00         0.50741E-08
 
   -0.26765E+06         0.93546E+06         0.00000E+00
    0.93546E+06        -0.60253E+08         0.00000E+00
    0.00000E+00         0.00000E+00        -0.22834E-07
 
   -0.30004E+06         0.88292E+06         0.00000E+00
    0.88292E+06        -0.60484E+08         0.00000E+00
    0.00000E+00         0.00000E+00        -0.17759E-07
 
   -0.33460E+06         0.82524E+06         0.00000E+00
    0.82524E+06        -0.60714E+08         0.00000E+00
    0.00000E+00         0.00000E+00        -0.50741E-08
 
   -0.37158E+06         0.76247E+06         0.00000E+00
    0.76247E+06        -0.60944E+08         0.00000E+00
    0.00000E+00         0.00000E+00         0.55815E-07
 
   -0.41140E+06         0.69477E+06         0.00000E+00
    0.69477E+06        -0.61170E+08         0.00000E+00
    0.00000E+00         0.00000E+00         0.22834E-07
 
   -0.45486E+06         0.62247E+06         0.00000E+00
    0.62247E+06        -0.61391E+08         0.00000E+00
    0.00000E+00         0.00000E+00        -0.76116E-08
 
   -0.50325E+06         0.54601E+06         0.00000E+00
    0.54601E+06        -0.61603E+08         0.00000E+00
    0.00000E+00         0.00000E+00        -0.22834E-07
 
   -0.55875E+06         0.46595E+06         0.00000E+00
    0.46595E+06        -0.61801E+08         0.00000E+00
    0.00000E+00         0.00000E+00        -0.25366E-08
 
   -0.62468E+06         0.38295E+06         0.00000E+00
    0.38295E+06        -0.61980E+08         0.00000E+00
    0.00000E+00         0.00000E+00         0.12686E-07
 
   -0.70601E+06         0.29775E+06         0.00000E+00
    0.29775E+06        -0.62133E+08         0.00000E+00
    0.00000E+00         0.00000E+00        -0.50736E-08
 
   -0.80940E+06         0.21144E+06         0.00000E+00
    0.21144E+06        -0.62254E+08         0.00000E+00
    0.00000E+00         0.00000E+00         0.10148E-07
 
   -0.94234E+06         0.12563E+06         0.00000E+00
    0.12563E+06        -0.62335E+08         0.00000E+00
    0.00000E+00         0.00000E+00         0.20296E-07
 
   -0.11111E+07         0.41541E+05         0.00000E+00
    0.41541E+05        -0.62376E+08         0.00000E+00
    0.00000E+00         0.00000E+00        -0.76113E-08
 
    0.57367E+06         0.20043E+05         0.00000E+00
    0.20043E+05        -0.47690E+08         0.00000E+00
    0.00000E+00         0.00000E+00         0.25370E-08
 
    0.49500E+06         0.60709E+05         0.00000E+00
    0.60709E+05        -0.47709E+08         0.00000E+00
    0.00000E+00         0.00000E+00         0.32981E-07
 
    0.43262E+06         0.10261E+06         0.00000E+00
    0.10261E+06        -0.47747E+08         0.00000E+00
    0.00000E+00         0.00000E+00        -0.17759E-07
 
    0.38389E+06         0.14544E+06         0.00000E+00
    0.14544E+06        -0.47802E+08         0.00000E+00
    0.00000E+00         0.00000E+00         0.00000E+00
 
    0.34559E+06         0.18855E+06         0.00000E+00
    0.18855E+06        -0.47873E+08         0.00000E+00
    0.00000E+00         0.00000E+00        -0.15222E-07
 
    0.31473E+06         0.23131E+06         0.00000E+00
    0.23131E+06        -0.47956E+08         0.00000E+00
    0.00000E+00         0.00000E+00         0.25370E-08
 
    0.28905E+06         0.27325E+06         0.00000E+00
    0.27325E+06        -0.48048E+08         0.00000E+00
    0.00000E+00         0.00000E+00         0.50741E-08
 
    0.26696E+06         0.31397E+06         0.00000E+00
    0.31397E+06        -0.48146E+08         0.00000E+00
    0.00000E+00         0.00000E+00         0.27907E-07
 
    0.24747E+06         0.35314E+06         0.00000E+00
    0.35314E+06        -0.48249E+08         0.00000E+00
    0.00000E+00         0.00000E+00         0.17759E-07
 
    0.22993E+06         0.39051E+06         0.00000E+00
    0.39051E+06        -0.48355E+08         0.00000E+00
    0.00000E+00         0.00000E+00         0.12685E-07
 
    0.21395E+06         0.42592E+06         0.00000E+00
    0.42592E+06        -0.48463E+08         0.00000E+00
    0.00000E+00         0.00000E+00        -0.25370E-08
 
    0.19932E+06         0.45928E+06         0.00000E+00
    0.45928E+06        -0.48571E+08         0.00000E+00
    0.00000E+00         0.00000E+00         0.25370E-08
 
    0.18589E+06         0.49059E+06         0.00000E+00
    0.49059E+06        -0.48681E+08         0.00000E+00
    0.00000E+00         0.00000E+00        -0.10148E-07
 
    0.17359E+06         0.51987E+06         0.00000E+00
    0.51987E+06        -0.48790E+08         0.00000E+00
    0.00000E+00         0.00000E+00         0.17759E-07
 
    0.16236E+06         0.54721E+06         0.00000E+00
    0.54721E+06        -0.48900E+08         0.00000E+00
    0.00000E+00         0.00000E+00         0.12685E-07
 
    0.15216E+06         0.57271E+06         0.00000E+00
    0.57271E+06        -0.49010E+08         0.00000E+00
    0.00000E+00         0.00000E+00         0.25370E-07
 
    0.14293E+06         0.59649E+06         0.00000E+00
    0.59649E+06        -0.49119E+08         0.00000E+00
    0.00000E+00         0.00000E+00        -0.32981E-07
 
    0.13465E+06         0.61870E+06         0.00000E+00
    0.61870E+06        -0.49229E+08         0.00000E+00
    0.00000E+00         0.00000E+00        -0.25370E-08
 
    0.12726E+06         0.63947E+06         0.00000E+00
    0.63947E+06        -0.49338E+08         0.00000E+00
    0.00000E+00         0.00000E+00         0.00000E+00
 
    0.12070E+06         0.65893E+06         0.00000E+00
    0.65893E+06        -0.49448E+08         0.00000E+00
    0.00000E+00         0.00000E+00         0.22833E-07
 
    0.11493E+06         0.67724E+06         0.00000E+00
    0.67724E+06        -0.49557E+08         0.00000E+00
    0.00000E+00         0.00000E+00         0.22833E-07
 
    0.10989E+06         0.69450E+06         0.00000E+00
    0.69450E+06        -0.49667E+08         0.00000E+00
    0.00000E+00         0.00000E+00         0.22833E-07
 
    0.10552E+06         0.71086E+06         0.00000E+00
    0.71086E+06        -0.49778E+08         0.00000E+00
    0.00000E+00         0.00000E+00         0.17759E-07
 
    0.10176E+06         0.72641E+06         0.00000E+00
    0.72641E+06        -0.49888E+08         0.00000E+00
    0.00000E+00         0.00000E+00         0.50741E-07
 
    0.98554E+05         0.74127E+06         0.00000E+00
    0.74127E+06        -0.50000E+08         0.00000E+00
    0.00000E+00         0.00000E+00        -0.25370E-08
 
    0.95853E+05         0.75553E+06         0.00000E+00
    0.75553E+06        -0.50112E+08         0.00000E+00
    0.00000E+00         0.00000E+00         0.00000E+00
 
    0.93602E+05         0.76927E+06         0.00000E+00
    0.76927E+06        -0.50225E+08         0.00000E+00
    0.00000E+00         0.00000E+00        -0.10148E-07
 
    0.91751E+05         0.78258E+06         0.00000E+00
    0.78258E+06        -0.50338E+08         0.00000E+00
    0.00000E+00         0.00000E+00        -0.50741E-08
 
    0.90253E+05         0.79551E+06         0.00000E+00
    0.79551E+06        -0.50453E+08         0.00000E+00
    0.00000E+00         0.00000E+00        -0.12685E-07
 
    0.89067E+05         0.80813E+06         0.00000E+00
    0.80813E+06        -0.50569E+08         0.00000E+00
    0.00000E+00         0.00000E+00         0.25370E-08
 
    0.88151E+05         0.82050E+06         0.00000E+00
    0.82050E+06        -0.50685E+08         0.00000E+00
    0.00000E+00         0.00000E+00        -0.15222E-07
 
    0.87469E+05         0.83266E+06         0.00000E+00
    0.83266E+06        -0.50803E+08         0.00000E+00
    0.00000E+00         0.00000E+00        -0.25370E-07
 
    0.86987E+05         0.84464E+06         0.00000E+00
    0.84464E+06        -0.50922E+08         0.00000E+00
    0.00000E+00         0.00000E+00        -0.12685E-07
 
    0.86673E+05         0.85649E+06         0.00000E+00
    0.85649E+06        -0.51043E+08         0.00000E+00
    0.00000E+00         0.00000E+00        -0.76111E-08
 
    0.86501E+05         0.86823E+06         0.00000E+00
    0.86823E+06        -0.51164E+08         0.00000E+00
    0.00000E+00         0.00000E+00         0.00000E+00
 
    0.86442E+05         0.87989E+06         0.00000E+00
    0.87989E+06        -0.51287E+08         0.00000E+00
    0.00000E+00         0.00000E+00         0.45666E-07
 
    0.86475E+05         0.89148E+06         0.00000E+00
    0.89148E+06        -0.51412E+08         0.00000E+00
    0.00000E+00         0.00000E+00        -0.22833E-07
 
    0.86577E+05         0.90303E+06         0.00000E+00
    0.90303E+06        -0.51538E+08         0.00000E+00
    0.00000E+00         0.00000E+00         0.25370E-08
 
    0.86729E+05         0.91455E+06         0.00000E+00
    0.91455E+06        -0.51665E+08         0.00000E+00
    0.00000E+00         0.00000E+00        -0.50741E-08
 
    0.86911E+05         0.92604E+06         0.00000E+00
    0.92604E+06        -0.51794E+08         0.00000E+00
    0.00000E+00         0.00000E+00        -0.22833E-07
 
    0.87108E+05         0.93751E+06         0.00000E+00
    0.93751E+06        -0.51925E+08         0.00000E+00
    0.00000E+00         0.00000E+00        -0.25370E-08
 
    0.87304E+05         0.94897E+06         0.00000E+00
    0.94897E+06        -0.52057E+08         0.00000E+00
    0.00000E+00         0.00000E+00        -0.25370E-07
 
    0.87484E+05         0.96041E+06         0.00000E+00
    0.96041E+06        -0.52191E+08         0.00000E+00
    0.00000E+00         0.00000E+00         0.50741E-08
 
    0.87634E+05         0.97185E+06         0.00000E+00
    0.97185E+06        -0.52327E+08         0.00000E+00
    0.00000E+00         0.00000E+00         0.76111E-08
 
    0.87741E+05         0.98326E+06         0.00000E+00
    0.98326E+06        -0.52464E+08         0.00000E+00
    0.00000E+00         0.00000E+00         0.32981E-07
 
    0.87793E+05         0.99466E+06         0.00000E+00
    0.99466E+06        -0.52603E+08         0.00000E+00
    0.00000E+00         0.00000E+00        -0.15222E-07
 
    0.87778E+05         0.10060E+07         0.00000E+00
    0.10060E+07        -0.52744E+08         0.00000E+00
    0.00000E+00         0.00000E+00         0.25370E-07
 
    0.87684E+05         0.10174E+07         0.00000E+00
    0.10174E+07        -0.52887E+08         0.00000E+00
    0.00000E+00         0.00000E+00        -0.20296E-07
 
    0.87499E+05         0.10286E+07         0.00000E+00
    0.10286E+07        -0.53031E+08         0.00000E+00
    0.00000E+00         0.00000E+00         0.15222E-07
 
    0.87211E+05         0.10398E+07         0.00000E+00
    0.10398E+07        -0.53178E+08         0.00000E+00
    0.00000E+00         0.00000E+00        -0.12685E-07
 
    0.86809E+05         0.10510E+07         0.00000E+00
    0.10510E+07        -0.53326E+08         0.00000E+00
    0.00000E+00         0.00000E+00         0.17759E-07
 
    0.86280E+05         0.10620E+07         0.00000E+00
    0.10620E+07        -0.53476E+08         0.00000E+00
    0.00000E+00         0.00000E+00         0.45667E-07
 
    0.85611E+05         0.10730E+07         0.00000E+00
    0.10730E+07        -0.53628E+08         0.00000E+00
    0.00000E+00         0.00000E+00        -0.30444E-07
 
    0.84789E+05         0.10838E+07         0.00000E+00
    0.10838E+07        -0.53782E+08         0.00000E+00
    0.00000E+00         0.00000E+00         0.17759E-07
 
    0.83800E+05         0.10944E+07         0.00000E+00
    0.10944E+07        -0.53937E+08         0.00000E+00
    0.00000E+00         0.00000E+00         0.25370E-08
 
    0.82629E+05         0.11049E+07         0.00000E+00
    0.11049E+07        -0.54095E+08         0.00000E+00
    0.00000E+00         0.00000E+00         0.25370E-07
 
    0.81260E+05         0.11151E+07         0.00000E+00
    0.11151E+07        -0.54254E+08         0.00000E+00
    0.00000E+00         0.00000E+00        -0.15222E-07
 
    0.79674E+05         0.11251E+07         0.00000E+00
    0.11251E+07        -0.54416E+08         0.00000E+00
    0.00000E+00         0.00000E+00        -0.25370E-08
 
    0.77853E+05         0.11348E+07         0.00000E+00
    0.11348E+07        -0.54579E+08         0.00000E+00
    0.00000E+00         0.00000E+00         0.12685E-07
 
    0.75775E+05         0.11443E+07         0.00000E+00
    0.11443E+07        -0.54745E+08         0.00000E+00
    0.00000E+00         0.00000E+00        -0.15222E-07
 
    0.73418E+05         0.11533E+07         0.00000E+00
    0.11533E+07        -0.54912E+08         0.00000E+00
    0.00000E+00         0.00000E+00        -0.50741E-08
 
    0.70754E+05         0.11620E+07         0.00000E+00
    0.11620E+07        -0.55081E+08         0.00000E+00
    0.00000E+00         0.00000E+00         0.25370E-07
 
    0.67757E+05         0.11702E+07         0.00000E+00
    0.11702E+07        -0.55253E+08         0.00000E+00
    0.00000E+00         0.00000E+00         0.25371E-07
 
    0.64394E+05         0.11779E+07         0.00000E+00
    0.11779E+07        -0.55426E+08         0.00000E+00
    0.00000E+00         0.00000E+00        -0.38055E-07
 
    0.60631E+05         0.11850E+07         0.00000E+00
    0.11850E+07        -0.55601E+08         0.00000E+00
    0.00000E+00         0.00000E+00         0.76116E-08
 
    0.56429E+05         0.11915E+07         0.00000E+00
    0.11915E+07        -0.55779E+08         0.00000E+00
    0.00000E+00         0.00000E+00         0.10148E-07
 
    0.51744E+05         0.11973E+07         0.00000E+00
    0.11973E+07        -0.55958E+08         0.00000E+00
    0.00000E+00         0.00000E+00         0.38055E-07
 
    0.46530E+05         0.12022E+07         0.00000E+00
    0.12022E+07        -0.56139E+08         0.00000E+00
    0.00000E+00         0.00000E+00         0.25375E-08
 
    0.40735E+05         0.12063E+07         0.00000E+00
    0.12063E+07        -0.56323E+08         0.00000E+00
    0.00000E+00         0.00000E+00        -0.38056E-07
 
    0.34299E+05         0.12095E+07         0.00000E+00
    0.12095E+07        -0.56508E+08         0.00000E+00
    0.00000E+00         0.00000E+00         0.10147E-07
 
    0.27159E+05         0.12115E+07         0.00000E+00
    0.12115E+07        -0.56696E+08         0.00000E+00
    0.00000E+00         0.00000E+00        -0.10148E-07
 
    0.19247E+05         0.12123E+07         0.00000E+00
    0.12123E+07        -0.56885E+08         0.00000E+00
    0.00000E+00         0.00000E+00         0.32982E-07
 
    0.10486E+05         0.12117E+07         0.00000E+00
    0.12117E+07        -0.57077E+08         0.00000E+00
    0.00000E+00         0.00000E+00        -0.25371E-07
 
    0.79358E+03         0.12097E+07         0.00000E+00
    0.12097E+07        -0.57271E+08         0.00000E+00
    0.00000E+00         0.00000E+00         0.22834E-07
 
   -0.99172E+04         0.12059E+07         0.00000E+00
    0.12059E+07        -0.57467E+08         0.00000E+00
    0.00000E+00         0.00000E+00        -0.20296E-07
 
   -0.21740E+05         0.12003E+07         0.00000E+00
    0.12003E+07        -0.57666E+08         0.00000E+00
    0.00000E+00         0.00000E+00        -0.45666E-07
 
   -0.34774E+05         0.11927E+07         0.00000E+00
    0.11927E+07        -0.57866E+08         0.00000E+00
    0.00000E+00         0.00000E+00        -0.40593E-07
 
   -0.49122E+05         0.11828E+07         0.00000E+00
    0.11828E+07        -0.58070E+08         0.00000E+00
    0.00000E+00         0.00000E+00        -0.10148E-07
 
   -0.64889E+05         0.11704E+07         0.00000E+00
    0.11704E+07        -0.58275E+08         0.00000E+00
    0.00000E+00         0.00000E+00         0.10149E-07
 
   -0.82181E+05         0.11552E+07         0.00000E+00
    0.11552E+07        -0.58484E+08         0.00000E+00
    0.00000E+00         0.00000E+00        -0.20296E-07
 
   -0.10110E+06         0.11370E+07         0.00000E+00
    0.11370E+07        -0.58694E+08         0.00000E+00
    0.00000E+00         0.00000E+00         0.76107E-08
 
   -0.12176E+06         0.11155E+07         0.00000E+00
    0.11155E+07        -0.58908E+08         0.00000E+00
    0.00000E+00         0.00000E+00         0.15223E-07
 
   -0.14424E+06         0.10904E+07         0.00000E+00
    0.10904E+07        -0.59124E+08         0.00000E+00
    0.00000E+00         0.00000E+00         0.12686E-07
 
   -0.16864E+06         0.10614E+07         0.00000E+00
    0.10614E+07        -0.59343E+08         0.00000E+00
    0.00000E+00         0.00000E+00         0.90949E-12
 
   -0.19502E+06         0.10283E+07         0.00000E+00
    0.10283E+07        -0.59565E+08         0.00000E+00
    0.00000E+00         0.00000E+00        -0.25375E-08
 
   -0.22346E+06         0.99066E+06         0.00000E+00
    0.99066E+06        -0.59789E+08         0.00000E+00
    0.00000E+00         0.00000E+00        -0.17760E-07
 
   -0.25402E+06         0.94836E+06         0.00000E+00
    0.94836E+06        -0.60015E+08         0.00000E+00
    0.00000E+00         0.00000E+00        -0.76107E-08
 
   -0.28675E+06         0.90115E+06         0.00000E+00
    0.90115E+06        -0.60243E+08         0.00000E+00
    0.00000E+00         0.00000E+00        -0.30444E-07
 
   -0.32175E+06         0.84891E+06         0.00000E+00
    0.84891E+06        -0.60473E+08         0.00000E+00
    0.00000E+00         0.00000E+00         0.25375E-08
 
   -0.35914E+06         0.79158E+06         0.00000E+00
    0.79158E+06        -0.60702E+08         0.00000E+00
    0.00000E+00         0.00000E+00         0.50741E-08
 
   -0.39919E+06         0.72923E+06         0.00000E+00
    0.72923E+06        -0.60931E+08         0.00000E+00
    0.00000E+00         0.00000E+00        -0.15223E-07
 
   -0.44232E+06         0.66210E+06         0.00000E+00
    0.66210E+06        -0.61156E+08         0.00000E+00
    0.00000E+00         0.00000E+00         0.27907E-07
 
   -0.48933E+06         0.59056E+06         0.00000E+00
    0.59056E+06        -0.61376E+08         0.00000E+00
    0.00000E+00         0.00000E+00         0.32981E-07
 
   -0.54153E+06         0.51522E+06         0.00000E+00
    0.51522E+06        -0.61587E+08         0.00000E+00
    0.00000E+00         0.00000E+00         0.50741E-08
 
   -0.60105E+06         0.43683E+06         0.00000E+00
    0.43683E+06        -0.61785E+08         0.00000E+00
    0.00000E+00         0.00000E+00         0.30445E-07
 
   -0.67122E+06         0.35632E+06         0.00000E+00
    0.35632E+06        -0.61964E+08         0.00000E+00
    0.00000E+00         0.00000E+00        -0.50736E-08
 
   -0.75686E+06         0.27479E+06         0.00000E+00
    0.27479E+06        -0.62117E+08         0.00000E+00
    0.00000E+00         0.00000E+00        -0.20296E-07
 
   -0.86433E+06         0.19360E+06         0.00000E+00
    0.19360E+06        -0.62237E+08         0.00000E+00
    0.00000E+00         0.00000E+00        -0.50743E-08
 
   -0.10005E+07         0.11432E+06         0.00000E+00
    0.11432E+06        -0.62319E+08         0.00000E+00
    0.00000E+00         0.00000E+00        -0.50739E-08
 
   -0.11710E+07         0.37674E+05         0.00000E+00
    0.37674E+05        -0.62360E+08         0.00000E+00
    0.00000E+00         0.00000E+00         0.50742E-08
 
    0.60281E+06         0.18296E+05         0.00000E+00
    0.18296E+05        -0.47697E+08         0.00000E+00
    0.00000E+00         0.00000E+00         0.00000E+00
 
    0.52342E+06         0.55589E+05         0.00000E+00
    0.55589E+05        -0.47717E+08         0.00000E+00
    0.00000E+00         0.00000E+00         0.76111E-08
 
    0.45974E+06         0.94492E+05         0.00000E+00
    0.94492E+05        -0.47755E+08         0.00000E+00
    0.00000E+00         0.00000E+00        -0.76111E-08
 
    0.40935E+06         0.13493E+06         0.00000E+00
    0.13493E+06        -0.47811E+08         0.00000E+00
    0.00000E+00         0.00000E+00         0.76111E-08
 
    0.36924E+06         0.17625E+06         0.00000E+00
    0.17625E+06        -0.47882E+08         0.00000E+00
    0.00000E+00         0.00000E+00        -0.12685E-07
 
    0.33658E+06         0.21774E+06         0.00000E+00
    0.21774E+06        -0.47965E+08         0.00000E+00
    0.00000E+00         0.00000E+00         0.25370E-08
 
    0.30916E+06         0.25878E+06         0.00000E+00
    0.25878E+06        -0.48056E+08         0.00000E+00
    0.00000E+00         0.00000E+00        -0.25370E-07
 
    0.28545E+06         0.29884E+06         0.00000E+00
    0.29884E+06        -0.48154E+08         0.00000E+00
    0.00000E+00         0.00000E+00        -0.76111E-08
 
    0.26443E+06         0.33750E+06         0.00000E+00
    0.33750E+06        -0.48257E+08         0.00000E+00
    0.00000E+00         0.00000E+00         0.25370E-08
 
    0.24549E+06         0.37445E+06         0.00000E+00
    0.37445E+06        -0.48362E+08         0.00000E+00
    0.00000E+00         0.00000E+00         0.15222E-07
 
    0.22824E+06         0.40948E+06         0.00000E+00
    0.40948E+06        -0.48469E+08         0.00000E+00
    0.00000E+00         0.00000E+00         0.76111E-08
 
    0.21246E+06         0.44249E+06         0.00000E+00
    0.44249E+06        -0.48578E+08         0.00000E+00
    0.00000E+00         0.00000E+00         0.22833E-07
 
    0.19799E+06         0.47345E+06         0.00000E+00
    0.47345E+06        -0.48687E+08         0.00000E+00
    0.00000E+00         0.00000E+00         0.15222E-07
 
    0.18476E+06         0.50239E+06         0.00000E+00
    0.50239E+06        -0.48796E+08         0.00000E+00
    0.00000E+00         0.00000E+00         0.17759E-07
 
    0.17270E+06         0.52939E+06         0.00000E+00
    0.52939E+06        -0.48905E+08         0.00000E+00
    0.00000E+00         0.00000E+00        -0.10148E-07
 
    0.16176E+06         0.55454E+06         0.00000E+00
    0.55454E+06        -0.49015E+08         0.00000E+00
    0.00000E+00         0.00000E+00         0.32981E-07
 
    0.15189E+06         0.57799E+06         0.00000E+00
    0.57799E+06        -0.49124E+08         0.00000E+00
    0.00000E+00         0.00000E+00        -0.25370E-08
 
    0.14304E+06         0.59985E+06         0.00000E+00
    0.59985E+06        -0.49233E+08         0.00000E+00
    0.00000E+00         0.00000E+00        -0.25370E-07
 
    0.13515E+06         0.62027E+06         0.00000E+00
    0.62027E+06        -0.49342E+08         0.00000E+00
    0.00000E+00         0.00000E+00         0.25370E-07
 
    0.12816E+06         0.63940E+06         0.00000E+00
    0.63940E+06        -0.49451E+08         0.00000E+00
    0.00000E+00         0.00000E+00         0.76111E-08
 
    0.12202E+06         0.65736E+06         0.00000E+00
    0.65736E+06        -0.49561E+08         0.00000E+00
    0.00000E+00         0.00000E+00        -0.27907E-07
 
    0.11666E+06         0.67430E+06         0.00000E+00
    0.67430E+06        -0.49671E+08         0.00000E+00
    0.00000E+00         0.00000E+00        -0.50741E-08
 
    0.11202E+06         0.69032E+06         0.00000E+00
    0.69032E+06        -0.49781E+08         0.00000E+00
    0.00000E+00         0.00000E+00        -0.20296E-07
 
    0.10803E+06         0.70554E+06         0.00000E+00
    0.70554E+06        -0.49891E+08         0.00000E+00
    0.00000E+00         0.00000E+00         0.17759E-07
 
    0.10464E+06         0.72008E+06         0.00000E+00
    0.72008E+06        -0.50003E+08         0.00000E+00
    0.00000E+00         0.00000E+00         0.50741E-08
 
    0.10178E+06         0.73401E+06         0.00000E+00
    0.73401E+06        -0.50115E+08         0.00000E+00
    0.00000E+00         0.00000E+00         0.12685E-07
 
    0.99394E+05         0.74743E+06         0.00000E+00
    0.74743E+06        -0.50227E+08         0.00000E+00
    0.00000E+00         0.00000E+00        -0.50741E-08
 
    0.97438E+05         0.76042E+06         0.00000E+00
    0.76042E+06        -0.50341E+08         0.00000E+00
    0.00000E+00         0.00000E+00        -0.25370E-08
 
    0.95858E+05         0.77304E+06         0.00000E+00
    0.77304E+06        -0.50455E+08         0.00000E+00
    0.00000E+00         0.00000E+00         0.50741E-08
 
    0.94608E+05         0.78534E+06         0.00000E+00
    0.78534E+06        -0.50571E+08         0.00000E+00
    0.00000E+00         0.00000E+00        -0.76111E-08
 
    0.93645E+05         0.79739E+06         0.00000E+00
    0.79739E+06        -0.50688E+08         0.00000E+00
    0.00000E+00         0.00000E+00         0.76111E-08
 
    0.92929E+05         0.80923E+06         0.00000E+00
    0.80923E+06        -0.50806E+08         0.00000E+00
    0.00000E+00         0.00000E+00         0.00000E+00
 
    0.92426E+05         0.82090E+06         0.00000E+00
    0.82090E+06        -0.50925E+08         0.00000E+00
    0.00000E+00         0.00000E+00        -0.17759E-07
 
    0.92101E+05         0.83243E+06         0.00000E+00
    0.83243E+06        -0.51045E+08         0.00000E+00
    0.00000E+00         0.00000E+00         0.76111E-08
 
    0.91925E+05         0.84386E+06         0.00000E+00
    0.84386E+06        -0.51167E+08         0.00000E+00
    0.00000E+00         0.00000E+00        -0.53278E-07
 
    0.91869E+05         0.85520E+06         0.00000E+00
    0.85520E+06        -0.51290E+08         0.00000E+00
    0.00000E+00         0.00000E+00        -0.25370E-08
 
    0.91910E+05         0.86647E+06         0.00000E+00
    0.86647E+06        -0.51414E+08         0.00000E+00
    0.00000E+00         0.00000E+00         0.25370E-08
 
    0.92025E+05         0.87770E+06         0.00000E+00
    0.87770E+06        -0.51540E+08         0.00000E+00
    0.00000E+00         0.00000E+00        -0.27907E-07
 
    0.92191E+05         0.88889E+06         0.00000E+00
    0.88889E+06        -0.51668E+08         0.00000E+00
    0.00000E+00         0.00000E+00        -0.27907E-07
 
    0.92390E+05         0.90005E+06         0.00000E+00
    0.90005E+06        -0.51797E+08         0.00000E+00
    0.00000E+00         0.00000E+00         0.15222E-07
 
    0.92603E+05         0.91120E+06         0.00000E+00
    0.91120E+06        -0.51927E+08         0.00000E+00
    0.00000E+00         0.00000E+00        -0.27907E-07
 
    0.92815E+05         0.92233E+06         0.00000E+00
    0.92233E+06        -0.52060E+08         0.00000E+00
    0.00000E+00         0.00000E+00         0.00000E+00
 
    0.93010E+05         0.93344E+06         0.00000E+00
    0.93344E+06        -0.52194E+08         0.00000E+00
    0.00000E+00         0.00000E+00         0.50741E-08
 
    0.93173E+05         0.94455E+06         0.00000E+00
    0.94455E+06        -0.52329E+08         0.00000E+00
    0.00000E+00         0.00000E+00        -0.10148E-07
 
    0.93291E+05         0.95563E+06         0.00000E+00
    0.95563E+06        -0.52467E+08         0.00000E+00
    0.00000E+00         0.00000E+00         0.12685E-07
 
    0.93349E+05         0.96669E+06         0.00000E+00
    0.96669E+06        -0.52606E+08         0.00000E+00
    0.00000E+00         0.00000E+00        -0.27907E-07
 
    0.93336E+05         0.97772E+06         0.00000E+00
    0.97772E+06        -0.52746E+08         0.00000E+00
    0.00000E+00         0.00000E+00        -0.40593E-07
 
    0.93239E+05         0.98871E+06         0.00000E+00
    0.98871E+06        -0.52889E+08         0.00000E+00
    0.00000E+00         0.00000E+00         0.76111E-08
 
    0.93046E+05         0.99966E+06         0.00000E+00
    0.99966E+06        -0.53034E+08         0.00000E+00
    0.00000E+00         0.00000E+00         0.15222E-07
 
    0.92743E+05         0.10105E+07         0.00000E+00
    0.10105E+07        -0.53180E+08         0.00000E+00
    0.00000E+00         0.00000E+00        -0.10148E-07
 
    0.92318E+05         0.10213E+07         0.00000E+00
    0.10213E+07        -0.53328E+08         0.00000E+00
    0.00000E+00         0.00000E+00         0.30444E-07
 
    0.91759E+05         0.10321E+07         0.00000E+00
    0.10321E+07        -0.53478E+08         0.00000E+00
    0.00000E+00         0.00000E+00        -0.25370E-07
 
    0.91052E+05         0.10427E+07         0.00000E+00
    0.10427E+07        -0.53630E+08         0.00000E+00
    0.00000E+00         0.00000E+00         0.00000E+00
 
    0.90182E+05         0.10531E+07         0.00000E+00
    0.10531E+07        -0.53784E+08         0.00000E+00
    0.00000E+00         0.00000E+00         0.30444E-07
 
    0.89135E+05         0.10634E+07         0.00000E+00
    0.10634E+07        -0.53939E+08         0.00000E+00
    0.00000E+00         0.00000E+00        -0.50741E-08
 
    0.87894E+05         0.10736E+07         0.00000E+00
    0.10736E+07        -0.54097E+08         0.00000E+00
    0.00000E+00         0.00000E+00         0.22833E-07
 
    0.86443E+05         0.10835E+07         0.00000E+00
    0.10835E+07        -0.54256E+08         0.00000E+00
    0.00000E+00         0.00000E+00        -0.25370E-08
 
    0.84763E+05         0.10932E+07         0.00000E+00
    0.10932E+07        -0.54418E+08         0.00000E+00
    0.00000E+00         0.00000E+00        -0.22833E-07
 
    0.82832E+05         0.11026E+07         0.00000E+00
    0.11026E+07        -0.54581E+08         0.00000E+00
    0.00000E+00         0.00000E+00        -0.17759E-07
 
    0.80630E+05         0.11117E+07         0.00000E+00
    0.11117E+07        -0.54747E+08         0.00000E+00
    0.00000E+00         0.00000E+00         0.17759E-07
 
    0.78130E+05         0.11205E+07         0.00000E+00
    0.11205E+07        -0.54914E+08         0.00000E+00
    0.00000E+00         0.00000E+00         0.76116E-08
 
    0.75307E+05         0.11288E+07         0.00000E+00
    0.11288E+07        -0.55083E+08         0.00000E+00
    0.00000E+00         0.00000E+00        -0.50750E-08
 
    0.72129E+05         0.11367E+07         0.00000E+00
    0.11367E+07        -0.55254E+08         0.00000E+00
    0.00000E+00         0.00000E+00         0.76116E-08
 
    0.68564E+05         0.11442E+07         0.00000E+00
    0.11442E+07        -0.55427E+08         0.00000E+00
    0.00000E+00         0.00000E+00         0.20296E-07
 
    0.64575E+05         0.11510E+07         0.00000E+00
    0.11510E+07        -0.55603E+08         0.00000E+00
    0.00000E+00         0.00000E+00        -0.76116E-08
 
    0.60120E+05         0.11573E+07         0.00000E+00
    0.11573E+07        -0.55780E+08         0.00000E+00
    0.00000E+00         0.00000E+00         0.27907E-07
 
    0.55154E+05         0.11628E+07         0.00000E+00
    0.11628E+07        -0.55959E+08         0.00000E+00
    0.00000E+00         0.00000E+00         0.00000E+00
 
    0.49626E+05         0.11676E+07         0.00000E+00
    0.11676E+07        -0.56140E+08         0.00000E+00
    0.00000E+00         0.00000E+00         0.43130E-07
 
    0.43481E+05         0.11715E+07         0.00000E+00
    0.11715E+07        -0.56323E+08         0.00000E+00
    0.00000E+00         0.00000E+00         0.30444E-07
 
    0.36657E+05         0.11744E+07         0.00000E+00
    0.11744E+07        -0.56509E+08         0.00000E+00
    0.00000E+00         0.00000E+00        -0.40593E-07
 
    0.29087E+05         0.11763E+07         0.00000E+00
    0.11763E+07        -0.56696E+08         0.00000E+00
    0.00000E+00         0.00000E+00        -0.50741E-08
 
    0.20696E+05         0.11769E+07         0.00000E+00
    0.11769E+07        -0.56885E+08         0.00000E+00
    0.00000E+00         0.00000E+00         0.43129E-07
 
    0.11404E+05         0.11763E+07         0.00000E+00
    0.11763E+07        -0.57077E+08         0.00000E+00
    0.00000E+00         0.00000E+00        -0.45666E-07
 
    0.11225E+04         0.11741E+07         0.00000E+00
    0.11741E+07        -0.57270E+08         0.00000E+00
    0.00000E+00         0.00000E+00        -0.12686E-07
 
   -0.10242E+05         0.11703E+07         0.00000E+00
    0.11703E+07        -0.57466E+08         0.00000E+00
    0.00000E+00         0.00000E+00         0.15222E-07
 
   -0.22791E+05         0.11647E+07         0.00000E+00
    0.11647E+07        -0.57664E+08         0.00000E+00
    0.00000E+00         0.00000E+00         0.20297E-07
 
   -0.36629E+05         0.11570E+07         0.00000E+00
    0.11570E+07        -0.57865E+08         0.00000E+00
    0.00000E+00         0.00000E+00        -0.30444E-07
 
   -0.51870E+05         0.11471E+07         0.00000E+00
    0.11471E+07        -0.58067E+08         0.00000E+00
    0.00000E+00         0.00000E+00        -0.10149E-07
 
   -0.68626E+05         0.11347E+07         0.00000E+00
    0.11347E+07        -0.58273E+08         0.00000E+00
    0.00000E+00         0.00000E+00        -0.40593E-07
 
   -0.87015E+05         0.11196E+07         0.00000E+00
    0.11196E+07        -0.58480E+08         0.00000E+00
    0.00000E+00         0.00000E+00         0.00000E+00
 
   -0.10715E+06         0.11016E+07         0.00000E+00
    0.11016E+07        -0.58691E+08         0.00000E+00
    0.00000E+00         0.00000E+00         0.25370E-07
 
   -0.12915E+06         0.10802E+07         0.00000E+00
    0.10802E+07        -0.58903E+08         0.00000E+00
    0.00000E+00         0.00000E+00         0.15222E-07
 
   -0.15312E+06         0.10553E+07         0.00000E+00
    0.10553E+07        -0.59119E+08         0.00000E+00
    0.00000E+00         0.00000E+00        -0.25375E-08
 
   -0.17916E+06         0.10265E+07         0.00000E+00
    0.10265E+07        -0.59337E+08         0.00000E+00
    0.00000E+00         0.00000E+00         0.50741E-08
 
   -0.20735E+06         0.99360E+06         0.00000E+00
    0.99360E+06        -0.59558E+08         0.00000E+00
    0.00000E+00         0.00000E+00         0.45667E-07
 
   -0.23779E+06         0.95625E+06         0.00000E+00
    0.95625E+06        -0.59781E+08         0.00000E+00
    0.00000E+00         0.00000E+00        -0.30444E-07
 
   -0.27054E+06         0.91424E+06         0.00000E+00
    0.91424E+06        -0.60006E+08         0.00000E+00
    0.00000E+00         0.00000E+00        -0.45667E-07
 
   -0.30568E+06         0.86735E+06         0.00000E+00
    0.86735E+06        -0.60233E+08         0.00000E+00
    0.00000E+00         0.00000E+00        -0.10148E-07
 
   -0.34330E+06         0.81545E+06         0.00000E+00
    0.81545E+06        -0.60462E+08         0.00000E+00
    0.00000E+00         0.00000E+00        -0.40593E-07
 
   -0.38356E+06         0.75851E+06         0.00000E+00
    0.75851E+06        -0.60690E+08         0.00000E+00
    0.00000E+00         0.00000E+00         0.25370E-07
 
   -0.42671E+06         0.69664E+06         0.00000E+00
    0.69664E+06        -0.60918E+08         0.00000E+00
    0.00000E+00         0.00000E+00        -0.50741E-07
 
   -0.47319E+06         0.63011E+06         0.00000E+00
    0.63011E+06        -0.61142E+08         0.00000E+00
    0.00000E+00         0.00000E+00         0.15222E-07
 
   -0.52378E+06         0.55939E+06         0.00000E+00
    0.55939E+06        -0.61362E+08         0.00000E+00
    0.00000E+00         0.00000E+00         0.25370E-07
 
   -0.57978E+06         0.48521E+06         0.00000E+00
    0.48521E+06        -0.61572E+08         0.00000E+00
    0.00000E+00         0.00000E+00         0.50741E-08
 
   -0.64330E+06         0.40853E+06         0.00000E+00
    0.40853E+06        -0.61769E+08         0.00000E+00
    0.00000E+00         0.00000E+00         0.25370E-07
 
   -0.71757E+06         0.33054E+06         0.00000E+00
    0.33054E+06        -0.61948E+08         0.00000E+00
    0.00000E+00         0.00000E+00        -0.25370E-07
 
   -0.80730E+06         0.25265E+06         0.00000E+00
    0.25265E+06        -0.62101E+08         0.00000E+00
    0.00000E+00         0.00000E+00        -0.10148E-07
 
   -0.91850E+06         0.17648E+06         0.00000E+00
    0.17648E+06        -0.62221E+08         0.00000E+00
    0.00000E+00         0.00000E+00         0.10148E-07
 
   -0.10576E+07         0.10350E+06         0.00000E+00
    0.10350E+06        -0.62304E+08         0.00000E+00
    0.00000E+00         0.00000E+00        -0.50741E-07
 
   -0.12297E+07         0.33978E+05         0.00000E+00
    0.33978E+05        -0.62346E+08         0.00000E+00
    0.00000E+00         0.00000E+00        -0.40592E-07
 
    0.63135E+06         0.16615E+05         0.00000E+00
    0.16615E+05        -0.47704E+08         0.00000E+00
    0.00000E+00         0.00000E+00        -0.11369E-12
 
    0.55134E+06         0.50659E+05         0.00000E+00
    0.50659E+05        -0.47724E+08         0.00000E+00
    0.00000E+00         0.00000E+00         0.00000E+00
 
    0.48651E+06         0.86666E+05         0.00000E+00
    0.86666E+05        -0.47763E+08         0.00000E+00
    0.00000E+00         0.00000E+00        -0.10148E-07
 
    0.43459E+06         0.12475E+06         0.00000E+00
    0.12475E+06        -0.47819E+08         0.00000E+00
    0.00000E+00         0.00000E+00        -0.25370E-08
 
    0.39277E+06         0.16430E+06         0.00000E+00
    0.16430E+06        -0.47890E+08         0.00000E+00
    0.00000E+00         0.00000E+00         0.30444E-07
 
    0.35836E+06         0.20453E+06         0.00000E+00
    0.20453E+06        -0.47973E+08         0.00000E+00
    0.00000E+00         0.00000E+00        -0.50741E-08
 
    0.32922E+06         0.24465E+06         0.00000E+00
    0.24465E+06        -0.48064E+08         0.00000E+00
    0.00000E+00         0.00000E+00         0.25370E-07
 
    0.30387E+06         0.28403E+06         0.00000E+00
    0.28403E+06        -0.48162E+08         0.00000E+00
    0.00000E+00         0.00000E+00        -0.30444E-07
 
    0.28132E+06         0.32216E+06         0.00000E+00
    0.32216E+06        -0.48264E+08         0.00000E+00
    0.00000E+00         0.00000E+00        -0.25370E-07
 
    0.26097E+06         0.35865E+06         0.00000E+00
    0.35865E+06        -0.48369E+08         0.00000E+00
    0.00000E+00         0.00000E+00         0.50741E-08
 
    0.24243E+06         0.39328E+06         0.00000E+00
    0.39328E+06        -0.48476E+08         0.00000E+00
    0.00000E+00         0.00000E+00        -0.25370E-08
 
    0.22547E+06         0.42592E+06         0.00000E+00
    0.42592E+06        -0.48584E+08         0.00000E+00
    0.00000E+00         0.00000E+00        -0.25370E-07
 
    0.20996E+06         0.45651E+06         0.00000E+00
    0.45651E+06        -0.48693E+08         0.00000E+00
    0.00000E+00         0.00000E+00         0.00000E+00
 
    0.19579E+06         0.48509E+06         0.00000E+00
    0.48509E+06        -0.48802E+08         0.00000E+00
    0.00000E+00         0.00000E+00         0.10148E-07
 
    0.18290E+06         0.51172E+06         0.00000E+00
    0.51172E+06        -0.48911E+08         0.00000E+00
    0.00000E+00         0.00000E+00        -0.22833E-07
 
    0.17122E+06         0.53652E+06         0.00000E+00
    0.53652E+06        -0.49019E+08         0.00000E+00
    0.00000E+00         0.00000E+00         0.35518E-07
 
    0.16070E+06         0.55960E+06         0.00000E+00
    0.55960E+06        -0.49128E+08         0.00000E+00
    0.00000E+00         0.00000E+00        -0.76111E-08
 
    0.15129E+06         0.58111E+06         0.00000E+00
    0.58111E+06        -0.49237E+08         0.00000E+00
    0.00000E+00         0.00000E+00         0.50741E-08
 
    0.14290E+06         0.60117E+06         0.00000E+00
    0.60117E+06        -0.49346E+08         0.00000E+00
    0.00000E+00         0.00000E+00         0.76111E-08
 
    0.13549E+06         0.61995E+06         0.00000E+00
    0.61995E+06        -0.49455E+08         0.00000E+00
    0.00000E+00         0.00000E+00        -0.17759E-07
 
    0.12899E+06         0.63756E+06         0.00000E+00
    0.63756E+06        -0.49564E+08         0.00000E+00
    0.00000E+00         0.00000E+00        -0.15222E-07
 
    0.12331E+06         0.65415E+06         0.00000E+00
    0.65415E+06        -0.49674E+08         0.00000E+00
    0.00000E+00         0.00000E+00         0.12685E-07
 
    0.11841E+06         0.66983E+06         0.00000E+00
    0.66983E+06        -0.49784E+08         0.00000E+00
    0.00000E+00         0.00000E+00         0.76107E-08
 
    0.11419E+06         0.68472E+06         0.00000E+00
    0.68472E+06        -0.49894E+08         0.00000E+00
    0.00000E+00         0.00000E+00        -0.12685E-07
 
    0.11061E+06         0.69892E+06         0.00000E+00
    0.69892E+06        -0.50005E+08         0.00000E+00
    0.00000E+00         0.00000E+00         0.50741E-08
 
    0.10760E+06         0.71252E+06         0.00000E+00
    0.71252E+06        -0.50117E+08         0.00000E+00
    0.00000E+00         0.00000E+00         0.10148E-07
 
    0.10509E+06         0.72562E+06         0.00000E+00
    0.72562E+06        -0.50230E+08         0.00000E+00
    0.00000E+00         0.00000E+00        -0.25370E-07
 
    0.10304E+06         0.73828E+06         0.00000E+00
    0.73828E+06        -0.50343E+08         0.00000E+00
    0.00000E+00         0.00000E+00        -0.15222E-07
 
    0.10138E+06         0.75057E+06         0.00000E+00
    0.75057E+06        -0.50458E+08         0.00000E+00
    0.00000E+00         0.00000E+00         0.25370E-08
 
    0.10007E+06         0.76256E+06         0.00000E+00
    0.76256E+06        -0.50573E+08         0.00000E+00
    0.00000E+00         0.00000E+00         0.00000E+00
 
    0.99058E+05         0.77429E+06         0.00000E+00
    0.77429E+06        -0.50690E+08         0.00000E+00
    0.00000E+00         0.00000E+00         0.12685E-07
 
    0.98312E+05         0.78582E+06         0.00000E+00
    0.78582E+06        -0.50808E+08         0.00000E+00
    0.00000E+00         0.00000E+00         0.50741E-08
 
    0.97789E+05         0.79717E+06         0.00000E+00
    0.79717E+06        -0.50927E+08         0.00000E+00
    0.00000E+00         0.00000E+00        -0.25370E-08
 
    0.97454E+05         0.80838E+06         0.00000E+00
    0.80838E+06        -0.51047E+08         0.00000E+00
    0.00000E+00         0.00000E+00        -0.40593E-07
 
    0.97276E+05         0.81948E+06         0.00000E+00
    0.81948E+06        -0.51169E+08         0.00000E+00
    0.00000E+00         0.00000E+00         0.22833E-07
 
    0.97226E+05         0.83050E+06         0.00000E+00
    0.83050E+06        -0.51292E+08         0.00000E+00
    0.00000E+00         0.00000E+00        -0.15222E-07
 
    0.97276E+05         0.84145E+06         0.00000E+00
    0.84145E+06        -0.51416E+08         0.00000E+00
    0.00000E+00         0.00000E+00         0.20296E-07
 
    0.97404E+05         0.85236E+06         0.00000E+00
    0.85236E+06        -0.51542E+08         0.00000E+00
    0.00000E+00         0.00000E+00        -0.10148E-07
 
    0.97585E+05         0.86323E+06         0.00000E+00
    0.86323E+06        -0.51670E+08         0.00000E+00
    0.00000E+00         0.00000E+00         0.17759E-07
 
    0.97801E+05         0.87406E+06         0.00000E+00
    0.87406E+06        -0.51799E+08         0.00000E+00
    0.00000E+00         0.00000E+00         0.25370E-08
 
    0.98032E+05         0.88488E+06         0.00000E+00
    0.88488E+06        -0.51930E+08         0.00000E+00
    0.00000E+00         0.00000E+00         0.22833E-07
 
    0.98261E+05         0.89569E+06         0.00000E+00
    0.89569E+06        -0.52062E+08         0.00000E+00
    0.00000E+00         0.00000E+00         0.20296E-07
 
    0.98472E+05         0.90647E+06         0.00000E+00
    0.90647E+06        -0.52196E+08         0.00000E+00
    0.00000E+00         0.00000E+00         0.15222E-07
 
    0.98649E+05         0.91724E+06         0.00000E+00
    0.91724E+06        -0.52331E+08         0.00000E+00
    0.00000E+00         0.00000E+00         0.17759E-07
 
    0.98777E+05         0.92799E+06         0.00000E+00
    0.92799E+06        -0.52469E+08         0.00000E+00
    0.00000E+00         0.00000E+00         0.50741E-08
 
    0.98843E+05         0.93872E+06         0.00000E+00
    0.93872E+06        -0.52608E+08         0.00000E+00
    0.00000E+00         0.00000E+00        -0.10148E-07
 
    0.98832E+05         0.94942E+06         0.00000E+00
    0.94942E+06        -0.52749E+08         0.00000E+00
    0.00000E+00         0.00000E+00         0.00000E+00
 
    0.98733E+05         0.96008E+06         0.00000E+00
    0.96008E+06        -0.52891E+08         0.00000E+00
    0.00000E+00         0.00000E+00         0.22833E-07
 
    0.98532E+05         0.97069E+06         0.00000E+00
    0.97069E+06        -0.53036E+08         0.00000E+00
    0.00000E+00         0.00000E+00        -0.15222E-07
 
    0.98215E+05         0.98123E+06         0.00000E+00
    0.98123E+06        -0.53182E+08         0.00000E+00
    0.00000E+00         0.00000E+00         0.00000E+00
 
    0.97769E+05         0.99171E+06         0.00000E+00
    0.99171E+06        -0.53330E+08         0.00000E+00
    0.00000E+00         0.00000E+00        -0.10148E-07
 
    0.97181E+05         0.10021E+07         0.00000E+00
    0.10021E+07        -0.53480E+08         0.00000E+00
    0.00000E+00         0.00000E+00         0.10148E-07
 
    0.96436E+05         0.10124E+07         0.00000E+00
    0.10124E+07        -0.53632E+08         0.00000E+00
    0.00000E+00         0.00000E+00        -0.76111E-08
 
    0.95519E+05         0.10225E+07         0.00000E+00
    0.10225E+07        -0.53786E+08         0.00000E+00
    0.00000E+00         0.00000E+00        -0.32981E-07
 
    0.94415E+05         0.10325E+07         0.00000E+00
    0.10325E+07        -0.53941E+08         0.00000E+00
    0.00000E+00         0.00000E+00         0.50741E-08
 
    0.93107E+05         0.10423E+07         0.00000E+00
    0.10423E+07        -0.54099E+08         0.00000E+00
    0.00000E+00         0.00000E+00        -0.76111E-08
 
    0.91576E+05         0.10519E+07         0.00000E+00
    0.10519E+07        -0.54258E+08         0.00000E+00
    0.00000E+00         0.00000E+00        -0.17759E-07
 
    0.89803E+05         0.10613E+07         0.00000E+00
    0.10613E+07        -0.54420E+08         0.00000E+00
    0.00000E+00         0.00000E+00        -0.50741E-08
 
    0.87766E+05         0.10704E+07         0.00000E+00
    0.10704E+07        -0.54583E+08         0.00000E+00
    0.00000E+00         0.00000E+00         0.17759E-07
 
    0.85442E+05         0.10792E+07         0.00000E+00
    0.10792E+07        -0.54748E+08         0.00000E+00
    0.00000E+00         0.00000E+00        -0.15222E-07
 
    0.82804E+05         0.10876E+07         0.00000E+00
    0.10876E+07        -0.54915E+08         0.00000E+00
    0.00000E+00         0.00000E+00         0.25369E-07
 
    0.79825E+05         0.10957E+07         0.00000E+00
    0.10957E+07        -0.55085E+08         0.00000E+00
    0.00000E+00         0.00000E+00         0.00000E+00
 
    0.76471E+05         0.11034E+07         0.00000E+00
    0.11034E+07        -0.55256E+08         0.00000E+00
    0.00000E+00         0.00000E+00         0.50741E-08
 
    0.72708E+05         0.11105E+07         0.00000E+00
    0.11105E+07        -0.55429E+08         0.00000E+00
    0.00000E+00         0.00000E+00         0.22833E-07
 
    0.68497E+05         0.11171E+07         0.00000E+00
    0.11171E+07        -0.55604E+08         0.00000E+00
    0.00000E+00         0.00000E+00         0.00000E+00
 
    0.63795E+05         0.11231E+07         0.00000E+00
    0.11231E+07        -0.55781E+08         0.00000E+00
    0.00000E+00         0.00000E+00        -0.25370E-07
 
    0.58554E+05         0.11284E+07         0.00000E+00
    0.11284E+07        -0.55960E+08         0.00000E+00
    0.00000E+00         0.00000E+00        -0.17759E-07
 
    0.52719E+05         0.11330E+07         0.00000E+00
    0.11330E+07        -0.56141E+08         0.00000E+00
    0.00000E+00         0.00000E+00        -0.20296E-07
 
    0.46233E+05         0.11367E+07         0.00000E+00
    0.11367E+07        -0.56324E+08         0.00000E+00
    0.00000E+00         0.00000E+00         0.76107E-08
 
    0.39030E+05         0.11395E+07         0.00000E+00
    0.11395E+07        -0.56509E+08         0.00000E+00
    0.00000E+00         0.00000E+00        -0.25375E-08
 
    0.31038E+05         0.11412E+07         0.00000E+00
    0.11412E+07        -0.56696E+08         0.00000E+00
    0.00000E+00         0.00000E+00        -0.25370E-07
 
    0.22179E+05         0.11417E+07         0.00000E+00
    0.11417E+07        -0.56885E+08         0.00000E+00
    0.00000E+00         0.00000E+00         0.50741E-08
 
    0.12367E+05         0.11409E+07         0.00000E+00
    0.11409E+07        -0.57076E+08         0.00000E+00
    0.00000E+00         0.00000E+00        -0.20296E-07
 
    0.15086E+04         0.11386E+07         0.00000E+00
    0.11386E+07        -0.57270E+08         0.00000E+00
    0.00000E+00         0.00000E+00         0.00000E+00
 
   -0.10497E+05         0.11348E+07         0.00000E+00
    0.11348E+07        -0.57465E+08         0.00000E+00
    0.00000E+00         0.00000E+00         0.50741E-07
 
   -0.23757E+05         0.11291E+07         0.00000E+00
    0.11291E+07        -0.57663E+08         0.00000E+00
    0.00000E+00         0.00000E+00         0.50741E-08
 
   -0.38385E+05         0.11215E+07         0.00000E+00
    0.11215E+07        -0.57863E+08         0.00000E+00
    0.00000E+00         0.00000E+00         0.50741E-08
 
   -0.54502E+05         0.11116E+07         0.00000E+00
    0.11116E+07        -0.58065E+08         0.00000E+00
    0.00000E+00         0.00000E+00         0.15222E-07
 
   -0.72232E+05         0.10993E+07         0.00000E+00
    0.10993E+07        -0.58270E+08         0.00000E+00
    0.00000E+00         0.00000E+00         0.25370E-07
 
   -0.91702E+05         0.10843E+07         0.00000E+00
    0.10843E+07        -0.58477E+08         0.00000E+00
    0.00000E+00         0.00000E+00         0.60889E-07
 
   -0.11304E+06         0.10664E+07         0.00000E+00
    0.10664E+07        -0.58687E+08         0.00000E+00
    0.00000E+00         0.00000E+00         0.50741E-07
 
   -0.13637E+06         0.10452E+07         0.00000E+00
    0.10452E+07        -0.58899E+08         0.00000E+00
    0.00000E+00         0.00000E+00         0.50741E-07
 
   -0.16181E+06         0.10205E+07         0.00000E+00
    0.10205E+07        -0.59113E+08         0.00000E+00
    0.00000E+00         0.00000E+00         0.00000E+00
 
   -0.18948E+06         0.99196E+06         0.00000E+00
    0.99196E+06        -0.59331E+08         0.00000E+00
    0.00000E+00         0.00000E+00        -0.50741E-08
 
   -0.21948E+06         0.95931E+06         0.00000E+00
    0.95931E+06        -0.59551E+08         0.00000E+00
    0.00000E+00         0.00000E+00         0.20296E-07
 
   -0.25191E+06         0.92227E+06         0.00000E+00
    0.92227E+06        -0.59773E+08         0.00000E+00
    0.00000E+00         0.00000E+00         0.45667E-07
 
   -0.28686E+06         0.88058E+06         0.00000E+00
    0.88058E+06        -0.59997E+08         0.00000E+00
    0.00000E+00         0.00000E+00         0.50741E-08
 
   -0.32442E+06         0.83404E+06         0.00000E+00
    0.83404E+06        -0.60223E+08         0.00000E+00
    0.00000E+00         0.00000E+00         0.50740E-07
 
   -0.36469E+06         0.78254E+06         0.00000E+00
    0.78254E+06        -0.60451E+08         0.00000E+00
    0.00000E+00         0.00000E+00        -0.50741E-08
 
   -0.40784E+06         0.72605E+06         0.00000E+00
    0.72605E+06        -0.60678E+08         0.00000E+00
    0.00000E+00         0.00000E+00        -0.15222E-07
 
   -0.45412E+06         0.66470E+06         0.00000E+00
    0.66470E+06        -0.60905E+08         0.00000E+00
    0.00000E+00         0.00000E+00         0.15222E-07
 
   -0.50398E+06         0.59882E+06         0.00000E+00
    0.59882E+06        -0.61129E+08         0.00000E+00
    0.00000E+00         0.00000E+00         0.15222E-07
 
   -0.55819E+06         0.52897E+06         0.00000E+00
    0.52897E+06        -0.61347E+08         0.00000E+00
    0.00000E+00         0.00000E+00         0.50741E-08
 
   -0.61800E+06         0.45599E+06         0.00000E+00
    0.45599E+06        -0.61557E+08         0.00000E+00
    0.00000E+00         0.00000E+00        -0.20296E-07
 
   -0.68546E+06         0.38103E+06         0.00000E+00
    0.38103E+06        -0.61754E+08         0.00000E+00
    0.00000E+00         0.00000E+00         0.25370E-07
 
   -0.76374E+06         0.30557E+06         0.00000E+00
    0.30557E+06        -0.61932E+08         0.00000E+00
    0.00000E+00         0.00000E+00        -0.50741E-08
 
   -0.85733E+06         0.23129E+06         0.00000E+00
    0.23129E+06        -0.62086E+08         0.00000E+00
    0.00000E+00         0.00000E+00         0.20296E-07
 
   -0.97195E+06         0.16001E+06         0.00000E+00
    0.16001E+06        -0.62207E+08         0.00000E+00
    0.00000E+00         0.00000E+00         0.15222E-07
 
   -0.11136E+07         0.93103E+05         0.00000E+00
    0.93103E+05        -0.62291E+08         0.00000E+00
    0.00000E+00         0.00000E+00         0.20296E-07
 
   -0.12870E+07         0.30429E+05         0.00000E+00
    0.30429E+05        -0.62333E+08         0.00000E+00
    0.00000E+00         0.00000E+00        -0.11369E-12
 
    0.65935E+06         0.14990E+05         0.00000E+00
    0.14990E+05        -0.47711E+08         0.00000E+00
    0.00000E+00         0.00000E+00         0.00000E+00
 
    0.57880E+06         0.45896E+05         0.00000E+00
    0.45896E+05        -0.47731E+08         0.00000E+00
    0.00000E+00         0.00000E+00         0.40592E-07
 
    0.51295E+06         0.79099E+05         0.00000E+00
    0.79099E+05        -0.47770E+08         0.00000E+00
    0.00000E+00         0.00000E+00         0.27907E-07
 
    0.45962E+06         0.11489E+06         0.00000E+00
    0.11489E+06        -0.47826E+08         0.00000E+00
    0.00000E+00         0.00000E+00         0.50741E-08
 
    0.41618E+06         0.15270E+06         0.00000E+00
    0.15270E+06        -0.47898E+08         0.00000E+00
    0.00000E+00         0.00000E+00         0.12685E-07
 
    0.38005E+06         0.19166E+06         0.00000E+00
    0.19166E+06        -0.47981E+08         0.00000E+00
    0.00000E+00         0.00000E+00        -0.15222E-07
 
    0.34921E+06         0.23086E+06         0.00000E+00
    0.23086E+06        -0.48072E+08         0.00000E+00
    0.00000E+00         0.00000E+00         0.30444E-07
 
    0.32222E+06         0.26955E+06         0.00000E+00
    0.26955E+06        -0.48170E+08         0.00000E+00
    0.00000E+00         0.00000E+00        -0.10148E-07
 
    0.29813E+06         0.30711E+06         0.00000E+00
    0.30711E+06        -0.48272E+08         0.00000E+00
    0.00000E+00         0.00000E+00        -0.15222E-07
 
    0.27634E+06         0.34314E+06         0.00000E+00
    0.34314E+06        -0.48376E+08         0.00000E+00
    0.00000E+00         0.00000E+00         0.12685E-07
 
    0.25650E+06         0.37734E+06         0.00000E+00
    0.37734E+06        -0.48483E+08         0.00000E+00
    0.00000E+00         0.00000E+00         0.00000E+00
 
    0.23836E+06         0.40957E+06         0.00000E+00
    0.40957E+06        -0.48591E+08         0.00000E+00
    0.00000E+00         0.00000E+00        -0.25370E-07
 
    0.22178E+06         0.43977E+06         0.00000E+00
    0.43977E+06        -0.48699E+08         0.00000E+00
    0.00000E+00         0.00000E+00         0.43129E-07
 
    0.20667E+06         0.46796E+06         0.00000E+00
    0.46796E+06        -0.48807E+08         0.00000E+00
    0.00000E+00         0.00000E+00         0.22833E-07
 
    0.19294E+06         0.49422E+06         0.00000E+00
    0.49422E+06        -0.48916E+08         0.00000E+00
    0.00000E+00         0.00000E+00         0.32981E-07
 
    0.18053E+06         0.51863E+06         0.00000E+00
    0.51863E+06        -0.49024E+08         0.00000E+00
    0.00000E+00         0.00000E+00        -0.30444E-07
 
    0.16937E+06         0.54134E+06         0.00000E+00
    0.54134E+06        -0.49133E+08         0.00000E+00
    0.00000E+00         0.00000E+00         0.32981E-07
 
    0.15939E+06         0.56247E+06         0.00000E+00
    0.56247E+06        -0.49241E+08         0.00000E+00
    0.00000E+00         0.00000E+00        -0.27907E-07
 
    0.15052E+06         0.58217E+06         0.00000E+00
    0.58217E+06        -0.49350E+08         0.00000E+00
    0.00000E+00         0.00000E+00        -0.76111E-08
 
    0.14269E+06         0.60057E+06         0.00000E+00
    0.60057E+06        -0.49459E+08         0.00000E+00
    0.00000E+00         0.00000E+00        -0.10148E-07
 
    0.13583E+06         0.61783E+06         0.00000E+00
    0.61783E+06        -0.49568E+08         0.00000E+00
    0.00000E+00         0.00000E+00        -0.10148E-07
 
    0.12985E+06         0.63406E+06         0.00000E+00
    0.63406E+06        -0.49677E+08         0.00000E+00
    0.00000E+00         0.00000E+00        -0.76111E-08
 
    0.12468E+06         0.64939E+06         0.00000E+00
    0.64939E+06        -0.49787E+08         0.00000E+00
    0.00000E+00         0.00000E+00         0.38056E-07
 
    0.12025E+06         0.66393E+06         0.00000E+00
    0.66393E+06        -0.49897E+08         0.00000E+00
    0.00000E+00         0.00000E+00        -0.76111E-08
 
    0.11649E+06         0.67779E+06         0.00000E+00
    0.67779E+06        -0.50008E+08         0.00000E+00
    0.00000E+00         0.00000E+00        -0.76111E-08
 
    0.11332E+06         0.69106E+06         0.00000E+00
    0.69106E+06        -0.50120E+08         0.00000E+00
    0.00000E+00         0.00000E+00         0.25370E-08
 
    0.11070E+06         0.70383E+06         0.00000E+00
    0.70383E+06        -0.50232E+08         0.00000E+00
    0.00000E+00         0.00000E+00         0.25370E-08
 
    0.10854E+06         0.71616E+06         0.00000E+00
    0.71616E+06        -0.50346E+08         0.00000E+00
    0.00000E+00         0.00000E+00         0.22833E-07
 
    0.10681E+06         0.72813E+06         0.00000E+00
    0.72813E+06        -0.50460E+08         0.00000E+00
    0.00000E+00         0.00000E+00         0.25370E-07
 
    0.10544E+06         0.73979E+06         0.00000E+00
    0.73979E+06        -0.50576E+08         0.00000E+00
    0.00000E+00         0.00000E+00         0.50741E-08
 
    0.10439E+06         0.75120E+06         0.00000E+00
    0.75120E+06        -0.50692E+08         0.00000E+00
    0.00000E+00         0.00000E+00         0.30444E-07
 
    0.10362E+06         0.76240E+06         0.00000E+00
    0.76240E+06        -0.50810E+08         0.00000E+00
    0.00000E+00         0.00000E+00        -0.10148E-07
 
    0.10308E+06         0.77343E+06         0.00000E+00
    0.77343E+06        -0.50929E+08         0.00000E+00
    0.00000E+00         0.00000E+00        -0.20296E-07
 
    0.10273E+06         0.78433E+06         0.00000E+00
    0.78433E+06        -0.51049E+08         0.00000E+00
    0.00000E+00         0.00000E+00        -0.35518E-07
 
    0.10256E+06         0.79511E+06         0.00000E+00
    0.79511E+06        -0.51171E+08         0.00000E+00
    0.00000E+00         0.00000E+00         0.22833E-07
 
    0.10251E+06         0.80581E+06         0.00000E+00
    0.80581E+06        -0.51294E+08         0.00000E+00
    0.00000E+00         0.00000E+00         0.20296E-07
 
    0.10257E+06         0.81644E+06         0.00000E+00
    0.81644E+06        -0.51419E+08         0.00000E+00
    0.00000E+00         0.00000E+00        -0.25370E-08
 
    0.10271E+06         0.82702E+06         0.00000E+00
    0.82702E+06        -0.51544E+08         0.00000E+00
    0.00000E+00         0.00000E+00         0.00000E+00
 
    0.10291E+06         0.83756E+06         0.00000E+00
    0.83756E+06        -0.51672E+08         0.00000E+00
    0.00000E+00         0.00000E+00         0.20296E-07
 
    0.10315E+06         0.84807E+06         0.00000E+00
    0.84807E+06        -0.51801E+08         0.00000E+00
    0.00000E+00         0.00000E+00         0.50741E-08
 
    0.10340E+06         0.85857E+06         0.00000E+00
    0.85857E+06        -0.51932E+08         0.00000E+00
    0.00000E+00         0.00000E+00        -0.76111E-08
 
    0.10364E+06         0.86904E+06         0.00000E+00
    0.86904E+06        -0.52064E+08         0.00000E+00
    0.00000E+00         0.00000E+00         0.76111E-08
 
    0.10387E+06         0.87950E+06         0.00000E+00
    0.87950E+06        -0.52198E+08         0.00000E+00
    0.00000E+00         0.00000E+00        -0.76111E-08
 
    0.10406E+06         0.88994E+06         0.00000E+00
    0.88994E+06        -0.52333E+08         0.00000E+00
    0.00000E+00         0.00000E+00         0.17759E-07
 
    0.10420E+06         0.90036E+06         0.00000E+00
    0.90036E+06        -0.52471E+08         0.00000E+00
    0.00000E+00         0.00000E+00        -0.35518E-07
 
    0.10427E+06         0.91075E+06         0.00000E+00
    0.91075E+06        -0.52610E+08         0.00000E+00
    0.00000E+00         0.00000E+00         0.00000E+00
 
    0.10427E+06         0.92112E+06         0.00000E+00
    0.92112E+06        -0.52751E+08         0.00000E+00
    0.00000E+00         0.00000E+00         0.30444E-07
 
    0.10417E+06         0.93144E+06         0.00000E+00
    0.93144E+06        -0.52893E+08         0.00000E+00
    0.00000E+00         0.00000E+00        -0.10148E-07
 
    0.10396E+06         0.94172E+06         0.00000E+00
    0.94172E+06        -0.53038E+08         0.00000E+00
    0.00000E+00         0.00000E+00         0.20296E-07
 
    0.10363E+06         0.95193E+06         0.00000E+00
    0.95193E+06        -0.53184E+08         0.00000E+00
    0.00000E+00         0.00000E+00         0.10148E-07
 
    0.10316E+06         0.96207E+06         0.00000E+00
    0.96207E+06        -0.53332E+08         0.00000E+00
    0.00000E+00         0.00000E+00        -0.10148E-07
 
    0.10255E+06         0.97212E+06         0.00000E+00
    0.97212E+06        -0.53482E+08         0.00000E+00
    0.00000E+00         0.00000E+00        -0.30444E-07
 
    0.10176E+06         0.98206E+06         0.00000E+00
    0.98206E+06        -0.53634E+08         0.00000E+00
    0.00000E+00         0.00000E+00         0.00000E+00
 
    0.10080E+06         0.99188E+06         0.00000E+00
    0.99188E+06        -0.53788E+08         0.00000E+00
    0.00000E+00         0.00000E+00         0.00000E+00
 
    0.99643E+05         0.10015E+07         0.00000E+00
    0.10015E+07        -0.53943E+08         0.00000E+00
    0.00000E+00         0.00000E+00        -0.60889E-07
 
    0.98269E+05         0.10110E+07         0.00000E+00
    0.10110E+07        -0.54101E+08         0.00000E+00
    0.00000E+00         0.00000E+00         0.25370E-07
 
    0.96661E+05         0.10203E+07         0.00000E+00
    0.10203E+07        -0.54260E+08         0.00000E+00
    0.00000E+00         0.00000E+00        -0.15222E-07
 
    0.94797E+05         0.10294E+07         0.00000E+00
    0.10294E+07        -0.54421E+08         0.00000E+00
    0.00000E+00         0.00000E+00        -0.20296E-07
 
    0.92657E+05         0.10382E+07         0.00000E+00
    0.10382E+07        -0.54585E+08         0.00000E+00
    0.00000E+00         0.00000E+00         0.50741E-08
 
    0.90213E+05         0.10467E+07         0.00000E+00
    0.10467E+07        -0.54750E+08         0.00000E+00
    0.00000E+00         0.00000E+00        -0.35518E-07
 
    0.87441E+05         0.10549E+07         0.00000E+00
    0.10549E+07        -0.54917E+08         0.00000E+00
    0.00000E+00         0.00000E+00        -0.15222E-07
 
    0.84308E+05         0.10626E+07         0.00000E+00
    0.10626E+07        -0.55086E+08         0.00000E+00
    0.00000E+00         0.00000E+00         0.00000E+00
 
    0.80782E+05         0.10700E+07         0.00000E+00
    0.10700E+07        -0.55257E+08         0.00000E+00
    0.00000E+00         0.00000E+00         0.00000E+00
 
    0.76827E+05         0.10769E+07         0.00000E+00
    0.10769E+07        -0.55430E+08         0.00000E+00
    0.00000E+00         0.00000E+00        -0.20296E-07
 
    0.72400E+05         0.10833E+07         0.00000E+00
    0.10833E+07        -0.55605E+08         0.00000E+00
    0.00000E+00         0.00000E+00         0.50741E-08
 
    0.67457E+05         0.10890E+07         0.00000E+00
    0.10890E+07        -0.55782E+08         0.00000E+00
    0.00000E+00         0.00000E+00         0.25370E-07
 
    0.61946E+05         0.10941E+07         0.00000E+00
    0.10941E+07        -0.55961E+08         0.00000E+00
    0.00000E+00         0.00000E+00        -0.20296E-07
 
    0.55812E+05         0.10985E+07         0.00000E+00
    0.10985E+07        -0.56142E+08         0.00000E+00
    0.00000E+00         0.00000E+00         0.15222E-07
 
    0.48992E+05         0.11020E+07         0.00000E+00
    0.11020E+07        -0.56325E+08         0.00000E+00
    0.00000E+00         0.00000E+00         0.00000E+00
 
    0.41419E+05         0.11046E+07         0.00000E+00
    0.11046E+07        -0.56509E+08         0.00000E+00
    0.00000E+00         0.00000E+00         0.60889E-07
 
    0.33015E+05         0.11061E+07         0.00000E+00
    0.11061E+07        -0.56696E+08         0.00000E+00
    0.00000E+00         0.00000E+00        -0.40593E-07
 
    0.23699E+05         0.11065E+07         0.00000E+00
    0.11065E+07        -0.56885E+08         0.00000E+00
    0.00000E+00         0.00000E+00        -0.50741E-08
 
    0.13378E+05         0.11056E+07         0.00000E+00
    0.11056E+07        -0.57076E+08         0.00000E+00
    0.00000E+00         0.00000E+00         0.15222E-07
 
    0.19555E+04         0.11033E+07         0.00000E+00
    0.11033E+07        -0.57269E+08         0.00000E+00
    0.00000E+00         0.00000E+00        -0.10148E-07
 
   -0.10677E+05         0.10994E+07         0.00000E+00
    0.10994E+07        -0.57464E+08         0.00000E+00
    0.00000E+00         0.00000E+00        -0.20296E-07
 
   -0.24634E+05         0.10937E+07         0.00000E+00
    0.10937E+07        -0.57662E+08         0.00000E+00
    0.00000E+00         0.00000E+00         0.45667E-07
 
   -0.40037E+05         0.10861E+07         0.00000E+00
    0.10861E+07        -0.57861E+08         0.00000E+00
    0.00000E+00         0.00000E+00        -0.10148E-07
 
   -0.57014E+05         0.10763E+07         0.00000E+00
    0.10763E+07        -0.58063E+08         0.00000E+00
    0.00000E+00         0.00000E+00        -0.20296E-07
 
   -0.75701E+05         0.10641E+07         0.00000E+00
    0.10641E+07        -0.58267E+08         0.00000E+00
    0.00000E+00         0.00000E+00        -0.50741E-08
 
   -0.96235E+05         0.10492E+07         0.00000E+00
    0.10492E+07        -0.58474E+08         0.00000E+00
    0.00000E+00         0.00000E+00        -0.20296E-07
 
   -0.11875E+06         0.10315E+07         0.00000E+00
    0.10315E+07        -0.58683E+08         0.00000E+00
    0.00000E+00         0.00000E+00        -0.50741E-08
 
   -0.14340E+06         0.10105E+07         0.00000E+00
    0.10105E+07        -0.58894E+08         0.00000E+00
    0.00000E+00         0.00000E+00        -0.30444E-07
 
   -0.17030E+06         0.98601E+06         0.00000E+00
    0.98601E+06        -0.59108E+08         0.00000E+00
    0.00000E+00         0.00000E+00         0.25370E-07
 
   -0.19959E+06         0.95775E+06         0.00000E+00
    0.95775E+06        -0.59325E+08         0.00000E+00
    0.00000E+00         0.00000E+00         0.20296E-07
 
   -0.23139E+06         0.92541E+06         0.00000E+00
    0.92541E+06        -0.59544E+08         0.00000E+00
    0.00000E+00         0.00000E+00        -0.25370E-07
 
   -0.26582E+06         0.88870E+06         0.00000E+00
    0.88870E+06        -0.59765E+08         0.00000E+00
    0.00000E+00         0.00000E+00         0.00000E+00
 
   -0.30296E+06         0.84738E+06         0.00000E+00
    0.84738E+06        -0.59989E+08         0.00000E+00
    0.00000E+00         0.00000E+00        -0.10148E-07
 
   -0.34295E+06         0.80124E+06         0.00000E+00
    0.80124E+06        -0.60214E+08         0.00000E+00
    0.00000E+00         0.00000E+00         0.50741E-08
 
   -0.38588E+06         0.75018E+06         0.00000E+00
    0.75018E+06        -0.60440E+08         0.00000E+00
    0.00000E+00         0.00000E+00         0.00000E+00
 
   -0.43195E+06         0.69419E+06         0.00000E+00
    0.69419E+06        -0.60667E+08         0.00000E+00
    0.00000E+00         0.00000E+00        -0.30444E-07
 
   -0.48140E+06         0.63341E+06         0.00000E+00
    0.63341E+06        -0.60892E+08         0.00000E+00
    0.00000E+00         0.00000E+00         0.20296E-07
 
   -0.53468E+06         0.56823E+06         0.00000E+00
    0.56823E+06        -0.61115E+08         0.00000E+00
    0.00000E+00         0.00000E+00         0.10148E-07
 
   -0.59252E+06         0.49928E+06         0.00000E+00
    0.49928E+06        -0.61333E+08         0.00000E+00
    0.00000E+00         0.00000E+00         0.10148E-07
 
   -0.65615E+06         0.42754E+06         0.00000E+00
    0.42754E+06        -0.61542E+08         0.00000E+00
    0.00000E+00         0.00000E+00        -0.20296E-07
 
   -0.72754E+06         0.35433E+06         0.00000E+00
    0.35433E+06        -0.61739E+08         0.00000E+00
    0.00000E+00         0.00000E+00         0.15222E-07
 
   -0.80971E+06         0.28137E+06         0.00000E+00
    0.28137E+06        -0.61918E+08         0.00000E+00
    0.00000E+00         0.00000E+00        -0.15222E-07
 
   -0.90698E+06         0.21064E+06         0.00000E+00
    0.21064E+06        -0.62071E+08         0.00000E+00
    0.00000E+00         0.00000E+00        -0.10148E-07
 
   -0.10248E+07         0.14412E+06         0.00000E+00
    0.14412E+06        -0.62194E+08         0.00000E+00
    0.00000E+00         0.00000E+00        -0.20296E-07
 
   -0.11687E+07         0.83080E+05         0.00000E+00
    0.83080E+05        -0.62278E+08         0.00000E+00
    0.00000E+00         0.00000E+00         0.10148E-07
 
   -0.13434E+07         0.27007E+05         0.00000E+00
    0.27007E+05        -0.62321E+08         0.00000E+00
    0.00000E+00         0.00000E+00        -0.50740E-08
 
    0.68688E+06         0.13415E+05         0.00000E+00
    0.13415E+05        -0.47716E+08         0.00000E+00
    0.00000E+00         0.00000E+00        -0.11369E-12
 
    0.60586E+06         0.41280E+05         0.00000E+00
    0.41280E+05        -0.47737E+08         0.00000E+00
    0.00000E+00         0.00000E+00         0.00000E+00
 
    0.53907E+06         0.71767E+05         0.00000E+00
    0.71767E+05        -0.47776E+08         0.00000E+00
    0.00000E+00         0.00000E+00         0.30444E-07
 
    0.48445E+06         0.10533E+06         0.00000E+00
    0.10533E+06        -0.47834E+08         0.00000E+00
    0.00000E+00         0.00000E+00        -0.10148E-07
 
    0.43946E+06         0.14144E+06         0.00000E+00
    0.14144E+06        -0.47905E+08         0.00000E+00
    0.00000E+00         0.00000E+00        -0.76111E-08
 
    0.40166E+06         0.17913E+06         0.00000E+00
    0.17913E+06        -0.47988E+08         0.00000E+00
    0.00000E+00         0.00000E+00         0.10148E-07
 
    0.36913E+06         0.21741E+06         0.00000E+00
    0.21741E+06        -0.48080E+08         0.00000E+00
    0.00000E+00         0.00000E+00         0.17759E-07
 
    0.34048E+06         0.25538E+06         0.00000E+00
    0.25538E+06        -0.48177E+08         0.00000E+00
    0.00000E+00         0.00000E+00        -0.25370E-08
 
    0.31483E+06         0.29237E+06         0.00000E+00
    0.29237E+06        -0.48279E+08         0.00000E+00
    0.00000E+00         0.00000E+00         0.10148E-07
 
    0.29160E+06         0.32789E+06         0.00000E+00
    0.32789E+06        -0.48383E+08         0.00000E+00
    0.00000E+00         0.00000E+00         0.32981E-07
 
    0.27043E+06         0.36164E+06         0.00000E+00
    0.36164E+06        -0.48490E+08         0.00000E+00
    0.00000E+00         0.00000E+00        -0.25370E-08
 
    0.25110E+06         0.39344E+06         0.00000E+00
    0.39344E+06        -0.48597E+08         0.00000E+00
    0.00000E+00         0.00000E+00         0.76111E-08
 
    0.23346E+06         0.42323E+06         0.00000E+00
    0.42323E+06        -0.48704E+08         0.00000E+00
    0.00000E+00         0.00000E+00        -0.17759E-07
 
    0.21739E+06         0.45102E+06         0.00000E+00
    0.45102E+06        -0.48813E+08         0.00000E+00
    0.00000E+00         0.00000E+00         0.00000E+00
 
    0.20283E+06         0.47687E+06         0.00000E+00
    0.47687E+06        -0.48921E+08         0.00000E+00
    0.00000E+00         0.00000E+00        -0.50741E-08
 
    0.18968E+06         0.50089E+06         0.00000E+00
    0.50089E+06        -0.49029E+08         0.00000E+00
    0.00000E+00         0.00000E+00         0.15222E-07
 
    0.17788E+06         0.52319E+06         0.00000E+00
    0.52319E+06        -0.49137E+08         0.00000E+00
    0.00000E+00         0.00000E+00         0.25370E-08
 
    0.16734E+06         0.54393E+06         0.00000E+00
    0.54393E+06        -0.49245E+08         0.00000E+00
    0.00000E+00         0.00000E+00        -0.25370E-07
 
    0.15799E+06         0.56325E+06         0.00000E+00
    0.56325E+06        -0.49354E+08         0.00000E+00
    0.00000E+00         0.00000E+00        -0.76111E-08
 
    0.14975E+06         0.58128E+06         0.00000E+00
    0.58128E+06        -0.49462E+08         0.00000E+00
    0.00000E+00         0.00000E+00         0.17759E-07
 
    0.14253E+06         0.59816E+06         0.00000E+00
    0.59816E+06        -0.49571E+08         0.00000E+00
    0.00000E+00         0.00000E+00         0.10148E-07
 
    0.13625E+06         0.61402E+06         0.00000E+00
    0.61402E+06        -0.49680E+08         0.00000E+00
    0.00000E+00         0.00000E+00        -0.22833E-07
 
    0.13083E+06         0.62899E+06         0.00000E+00
    0.62899E+06        -0.49790E+08         0.00000E+00
    0.00000E+00         0.00000E+00         0.55815E-07
 
    0.12619E+06         0.64319E+06         0.00000E+00
    0.64319E+06        -0.49900E+08         0.00000E+00
    0.00000E+00         0.00000E+00        -0.10148E-07
 
    0.12225E+06         0.65670E+06         0.00000E+00
    0.65670E+06        -0.50011E+08         0.00000E+00
    0.00000E+00         0.00000E+00        -0.30444E-07
 
    0.11895E+06         0.66963E+06         0.00000E+00
    0.66963E+06        -0.50122E+08         0.00000E+00
    0.00000E+00         0.00000E+00         0.76111E-08
 
    0.11620E+06         0.68205E+06         0.00000E+00
    0.68205E+06        -0.50235E+08         0.00000E+00
    0.00000E+00         0.00000E+00         0.20296E-07
 
    0.11396E+06         0.69406E+06         0.00000E+00
    0.69406E+06        -0.50348E+08         0.00000E+00
    0.00000E+00         0.00000E+00        -0.25370E-08
 
    0.11215E+06         0.70569E+06         0.00000E+00
    0.70569E+06        -0.50463E+08         0.00000E+00
    0.00000E+00         0.00000E+00         0.76111E-08
 
    0.11073E+06         0.71703E+06         0.00000E+00
    0.71703E+06        -0.50578E+08         0.00000E+00
    0.00000E+00         0.00000E+00         0.50741E-07
 
    0.10964E+06         0.72812E+06         0.00000E+00
    0.72812E+06        -0.50695E+08         0.00000E+00
    0.00000E+00         0.00000E+00        -0.20296E-07
 
    0.10884E+06         0.73899E+06         0.00000E+00
    0.73899E+06        -0.50812E+08         0.00000E+00
    0.00000E+00         0.00000E+00        -0.20296E-07
 
    0.10829E+06         0.74970E+06         0.00000E+00
    0.74970E+06        -0.50931E+08         0.00000E+00
    0.00000E+00         0.00000E+00         0.10148E-07
 
    0.10794E+06         0.76027E+06         0.00000E+00
    0.76027E+06        -0.51051E+08         0.00000E+00
    0.00000E+00         0.00000E+00         0.00000E+00
 
    0.10776E+06         0.77073E+06         0.00000E+00
    0.77073E+06        -0.51173E+08         0.00000E+00
    0.00000E+00         0.00000E+00         0.00000E+00
 
    0.10773E+06         0.78111E+06         0.00000E+00
    0.78111E+06        -0.51296E+08         0.00000E+00
    0.00000E+00         0.00000E+00         0.10148E-07
 
    0.10780E+06         0.79142E+06         0.00000E+00
    0.79142E+06        -0.51421E+08         0.00000E+00
    0.00000E+00         0.00000E+00        -0.30444E-07
 
    0.10796E+06         0.80167E+06         0.00000E+00
    0.80167E+06        -0.51547E+08         0.00000E+00
    0.00000E+00         0.00000E+00         0.00000E+00
 
    0.10817E+06         0.81189E+06         0.00000E+00
    0.81189E+06        -0.51674E+08         0.00000E+00
    0.00000E+00         0.00000E+00        -0.50741E-08
 
    0.10842E+06         0.82208E+06         0.00000E+00
    0.82208E+06        -0.51803E+08         0.00000E+00
    0.00000E+00         0.00000E+00        -0.45667E-07
 
    0.10869E+06         0.83225E+06         0.00000E+00
    0.83225E+06        -0.51934E+08         0.00000E+00
    0.00000E+00         0.00000E+00        -0.10148E-07
 
    0.10896E+06         0.84239E+06         0.00000E+00
    0.84239E+06        -0.52066E+08         0.00000E+00
    0.00000E+00         0.00000E+00         0.10148E-07
 
    0.10920E+06         0.85252E+06         0.00000E+00
    0.85252E+06        -0.52200E+08         0.00000E+00
    0.00000E+00         0.00000E+00        -0.20296E-07
 
    0.10941E+06         0.86263E+06         0.00000E+00
    0.86263E+06        -0.52336E+08         0.00000E+00
    0.00000E+00         0.00000E+00        -0.50741E-08
 
    0.10956E+06         0.87272E+06         0.00000E+00
    0.87272E+06        -0.52473E+08         0.00000E+00
    0.00000E+00         0.00000E+00        -0.60889E-07
 
    0.10964E+06         0.88278E+06         0.00000E+00
    0.88278E+06        -0.52612E+08         0.00000E+00
    0.00000E+00         0.00000E+00        -0.30444E-07
 
    0.10964E+06         0.89281E+06         0.00000E+00
    0.89281E+06        -0.52753E+08         0.00000E+00
    0.00000E+00         0.00000E+00        -0.20296E-07
 
    0.10954E+06         0.90281E+06         0.00000E+00
    0.90281E+06        -0.52895E+08         0.00000E+00
    0.00000E+00         0.00000E+00         0.00000E+00
 
    0.10932E+06         0.91275E+06         0.00000E+00
    0.91275E+06        -0.53040E+08         0.00000E+00
    0.00000E+00         0.00000E+00        -0.35518E-07
 
    0.10898E+06         0.92264E+06         0.00000E+00
    0.92264E+06        -0.53186E+08         0.00000E+00
    0.00000E+00         0.00000E+00         0.00000E+00
 
    0.10850E+06         0.93244E+06         0.00000E+00
    0.93244E+06        -0.53334E+08         0.00000E+00
    0.00000E+00         0.00000E+00         0.15222E-07
 
    0.10785E+06         0.94216E+06         0.00000E+00
    0.94216E+06        -0.53484E+08         0.00000E+00
    0.00000E+00         0.00000E+00         0.30444E-07
 
    0.10704E+06         0.95178E+06         0.00000E+00
    0.95178E+06        -0.53636E+08         0.00000E+00
    0.00000E+00         0.00000E+00         0.10148E-07
 
    0.10603E+06         0.96127E+06         0.00000E+00
    0.96127E+06        -0.53790E+08         0.00000E+00
    0.00000E+00         0.00000E+00        -0.10148E-07
 
    0.10482E+06         0.97061E+06         0.00000E+00
    0.97061E+06        -0.53945E+08         0.00000E+00
    0.00000E+00         0.00000E+00         0.50741E-07
 
    0.10338E+06         0.97978E+06         0.00000E+00
    0.97978E+06        -0.54103E+08         0.00000E+00
    0.00000E+00         0.00000E+00         0.30444E-07
 
    0.10170E+06         0.98876E+06         0.00000E+00
    0.98876E+06        -0.54262E+08         0.00000E+00
    0.00000E+00         0.00000E+00        -0.40593E-07
 
    0.99746E+05         0.99751E+06         0.00000E+00
    0.99751E+06        -0.54423E+08         0.00000E+00
    0.00000E+00         0.00000E+00         0.00000E+00
 
    0.97503E+05         0.10060E+07         0.00000E+00
    0.10060E+07        -0.54586E+08         0.00000E+00
    0.00000E+00         0.00000E+00        -0.30444E-07
 
    0.94945E+05         0.10142E+07         0.00000E+00
    0.10142E+07        -0.54752E+08         0.00000E+00
    0.00000E+00         0.00000E+00        -0.15222E-07
 
    0.92040E+05         0.10221E+07         0.00000E+00
    0.10221E+07        -0.54919E+08         0.00000E+00
    0.00000E+00         0.00000E+00         0.15222E-07
 
    0.88759E+05         0.10296E+07         0.00000E+00
    0.10296E+07        -0.55088E+08         0.00000E+00
    0.00000E+00         0.00000E+00         0.50741E-08
 
    0.85065E+05         0.10367E+07         0.00000E+00
    0.10367E+07        -0.55259E+08         0.00000E+00
    0.00000E+00         0.00000E+00        -0.50741E-08
 
    0.80921E+05         0.10433E+07         0.00000E+00
    0.10433E+07        -0.55431E+08         0.00000E+00
    0.00000E+00         0.00000E+00        -0.15222E-07
 
    0.76284E+05         0.10495E+07         0.00000E+00
    0.10495E+07        -0.55606E+08         0.00000E+00
    0.00000E+00         0.00000E+00        -0.50741E-08
 
    0.71105E+05         0.10550E+07         0.00000E+00
    0.10550E+07        -0.55783E+08         0.00000E+00
    0.00000E+00         0.00000E+00         0.20296E-07
 
    0.65332E+05         0.10599E+07         0.00000E+00
    0.10599E+07        -0.55962E+08         0.00000E+00
    0.00000E+00         0.00000E+00        -0.15222E-07
 
    0.58906E+05         0.10640E+07         0.00000E+00
    0.10640E+07        -0.56142E+08         0.00000E+00
    0.00000E+00         0.00000E+00        -0.10148E-07
 
    0.51761E+05         0.10673E+07         0.00000E+00
    0.10673E+07        -0.56325E+08         0.00000E+00
    0.00000E+00         0.00000E+00         0.00000E+00
 
    0.43826E+05         0.10698E+07         0.00000E+00
    0.10698E+07        -0.56510E+08         0.00000E+00
    0.00000E+00         0.00000E+00         0.10148E-07
 
    0.35020E+05         0.10712E+07         0.00000E+00
    0.10712E+07        -0.56696E+08         0.00000E+00
    0.00000E+00         0.00000E+00         0.00000E+00
 
    0.25258E+05         0.10715E+07         0.00000E+00
    0.10715E+07        -0.56885E+08         0.00000E+00
    0.00000E+00         0.00000E+00        -0.35518E-07
 
    0.14441E+05         0.10705E+07         0.00000E+00
    0.10705E+07        -0.57076E+08         0.00000E+00
    0.00000E+00         0.00000E+00        -0.50741E-08
 
    0.24669E+04         0.10681E+07         0.00000E+00
    0.10681E+07        -0.57268E+08         0.00000E+00
    0.00000E+00         0.00000E+00        -0.20296E-07
 
   -0.10779E+05         0.10642E+07         0.00000E+00
    0.10642E+07        -0.57463E+08         0.00000E+00
    0.00000E+00         0.00000E+00        -0.20296E-07
 
   -0.25417E+05         0.10585E+07         0.00000E+00
    0.10585E+07        -0.57660E+08         0.00000E+00
    0.00000E+00         0.00000E+00        -0.50732E-08
 
   -0.41578E+05         0.10509E+07         0.00000E+00
    0.10509E+07        -0.57859E+08         0.00000E+00
    0.00000E+00         0.00000E+00         0.25370E-07
 
   -0.59400E+05         0.10412E+07         0.00000E+00
    0.10412E+07        -0.58061E+08         0.00000E+00
    0.00000E+00         0.00000E+00        -0.20296E-07
 
   -0.79027E+05         0.10291E+07         0.00000E+00
    0.10291E+07        -0.58264E+08         0.00000E+00
    0.00000E+00         0.00000E+00         0.50741E-08
 
   -0.10061E+06         0.10144E+07         0.00000E+00
    0.10144E+07        -0.58470E+08         0.00000E+00
    0.00000E+00         0.00000E+00        -0.15222E-07
 
   -0.12429E+06         0.99679E+06         0.00000E+00
    0.99679E+06        -0.58679E+08         0.00000E+00
    0.00000E+00         0.00000E+00         0.25370E-07
 
   -0.15023E+06         0.97604E+06         0.00000E+00
    0.97604E+06        -0.58890E+08         0.00000E+00
    0.00000E+00         0.00000E+00         0.50741E-07
 
   -0.17858E+06         0.95183E+06         0.00000E+00
    0.95183E+06        -0.59103E+08         0.00000E+00
    0.00000E+00         0.00000E+00        -0.10148E-07
 
   -0.20948E+06         0.92388E+06         0.00000E+00
    0.92388E+06        -0.59319E+08         0.00000E+00
    0.00000E+00         0.00000E+00        -0.25370E-07
 
   -0.24307E+06         0.89188E+06         0.00000E+00
    0.89188E+06        -0.59537E+08         0.00000E+00
    0.00000E+00         0.00000E+00        -0.25370E-07
 
   -0.27948E+06         0.85555E+06         0.00000E+00
    0.85555E+06        -0.59757E+08         0.00000E+00
    0.00000E+00         0.00000E+00         0.15222E-07
 
   -0.31883E+06         0.81464E+06         0.00000E+00
    0.81464E+06        -0.59980E+08         0.00000E+00
    0.00000E+00         0.00000E+00         0.10148E-07
 
   -0.36125E+06         0.76896E+06         0.00000E+00
    0.76896E+06        -0.60204E+08         0.00000E+00
    0.00000E+00         0.00000E+00        -0.50741E-08
 
   -0.40687E+06         0.71839E+06         0.00000E+00
    0.71839E+06        -0.60429E+08         0.00000E+00
    0.00000E+00         0.00000E+00        -0.10148E-07
 
   -0.45587E+06         0.66294E+06         0.00000E+00
    0.66294E+06        -0.60655E+08         0.00000E+00
    0.00000E+00         0.00000E+00        -0.50741E-08
 
   -0.50852E+06         0.60279E+06         0.00000E+00
    0.60279E+06        -0.60880E+08         0.00000E+00
    0.00000E+00         0.00000E+00        -0.15222E-07
 
   -0.56525E+06         0.53836E+06         0.00000E+00
    0.53836E+06        -0.61102E+08         0.00000E+00
    0.00000E+00         0.00000E+00        -0.25370E-07
 
   -0.62676E+06         0.47035E+06         0.00000E+00
    0.47035E+06        -0.61319E+08         0.00000E+00
    0.00000E+00         0.00000E+00        -0.15222E-07
 
   -0.69422E+06         0.39987E+06         0.00000E+00
    0.39987E+06        -0.61528E+08         0.00000E+00
    0.00000E+00         0.00000E+00         0.00000E+00
 
   -0.76951E+06         0.32841E+06         0.00000E+00
    0.32841E+06        -0.61725E+08         0.00000E+00
    0.00000E+00         0.00000E+00        -0.10148E-07
 
   -0.85549E+06         0.25793E+06         0.00000E+00
    0.25793E+06        -0.61904E+08         0.00000E+00
    0.00000E+00         0.00000E+00         0.00000E+00
 
   -0.95628E+06         0.19067E+06         0.00000E+00
    0.19067E+06        -0.62058E+08         0.00000E+00
    0.00000E+00         0.00000E+00         0.10148E-07
 
   -0.10770E+07         0.12875E+06         0.00000E+00
    0.12875E+06        -0.62181E+08         0.00000E+00
    0.00000E+00         0.00000E+00         0.10148E-07
 
   -0.12230E+07         0.73387E+05         0.00000E+00
    0.73387E+05        -0.62267E+08         0.00000E+00
    0.00000E+00         0.00000E+00        -0.10148E-07
 
   -0.13987E+07         0.23696E+05         0.00000E+00
    0.23696E+05        -0.62311E+08         0.00000E+00
    0.00000E+00         0.00000E+00        -0.11369E-12
 
    0.71399E+06         0.11882E+05         0.00000E+00
    0.11882E+05        -0.47721E+08         0.00000E+00
    0.00000E+00         0.00000E+00         0.00000E+00
 
    0.63254E+06         0.36793E+05         0.00000E+00
    0.36793E+05        -0.47742E+08         0.00000E+00
    0.00000E+00         0.00000E+00         0.50741E-08
 
    0.56492E+06         0.64649E+05         0.00000E+00
    0.64649E+05        -0.47783E+08         0.00000E+00
    0.00000E+00         0.00000E+00         0.10148E-07
 
    0.50909E+06         0.96045E+05         0.00000E+00
    0.96045E+05        -0.47840E+08         0.00000E+00
    0.00000E+00         0.00000E+00         0.15222E-07
 
    0.46261E+06         0.13049E+06         0.00000E+00
    0.13049E+06        -0.47913E+08         0.00000E+00
    0.00000E+00         0.00000E+00         0.00000E+00
 
    0.42318E+06         0.16695E+06         0.00000E+00
    0.16695E+06        -0.47996E+08         0.00000E+00
    0.00000E+00         0.00000E+00         0.20296E-07
 
    0.38896E+06         0.20429E+06         0.00000E+00
    0.20429E+06        -0.48088E+08         0.00000E+00
    0.00000E+00         0.00000E+00         0.50741E-08
 
    0.35866E+06         0.24154E+06         0.00000E+00
    0.24154E+06        -0.48185E+08         0.00000E+00
    0.00000E+00         0.00000E+00         0.00000E+00
 
    0.33143E+06         0.27793E+06         0.00000E+00
    0.27793E+06        -0.48286E+08         0.00000E+00
    0.00000E+00         0.00000E+00        -0.35518E-07
 
    0.30674E+06         0.31293E+06         0.00000E+00
    0.31293E+06        -0.48390E+08         0.00000E+00
    0.00000E+00         0.00000E+00         0.20296E-07
 
    0.28423E+06         0.34620E+06         0.00000E+00
    0.34620E+06        -0.48496E+08         0.00000E+00
    0.00000E+00         0.00000E+00        -0.10148E-07
 
    0.26369E+06         0.37755E+06         0.00000E+00
    0.37755E+06        -0.48603E+08         0.00000E+00
    0.00000E+00         0.00000E+00         0.00000E+00
 
    0.24497E+06         0.40690E+06         0.00000E+00
    0.40690E+06        -0.48710E+08         0.00000E+00
    0.00000E+00         0.00000E+00         0.00000E+00
 
    0.22795E+06         0.43425E+06         0.00000E+00
    0.43425E+06        -0.48818E+08         0.00000E+00
    0.00000E+00         0.00000E+00        -0.20296E-07
 
    0.21255E+06         0.45968E+06         0.00000E+00
    0.45968E+06        -0.48926E+08         0.00000E+00
    0.00000E+00         0.00000E+00         0.30444E-07
 
    0.19867E+06         0.48327E+06         0.00000E+00
    0.48327E+06        -0.49033E+08         0.00000E+00
    0.00000E+00         0.00000E+00        -0.30444E-07
 
    0.18623E+06         0.50517E+06         0.00000E+00
    0.50517E+06        -0.49141E+08         0.00000E+00
    0.00000E+00         0.00000E+00        -0.25370E-07
 
    0.17514E+06         0.52550E+06         0.00000E+00
    0.52550E+06        -0.49249E+08         0.00000E+00
    0.00000E+00         0.00000E+00         0.10148E-07
 
    0.16532E+06         0.54442E+06         0.00000E+00
    0.54442E+06        -0.49357E+08         0.00000E+00
    0.00000E+00         0.00000E+00         0.45667E-07
 
    0.15667E+06         0.56205E+06         0.00000E+00
    0.56205E+06        -0.49466E+08         0.00000E+00
    0.00000E+00         0.00000E+00         0.15222E-07
 
    0.14910E+06         0.57855E+06         0.00000E+00
    0.57855E+06        -0.49574E+08         0.00000E+00
    0.00000E+00         0.00000E+00         0.10148E-07
 
    0.14253E+06         0.59404E+06         0.00000E+00
    0.59404E+06        -0.49683E+08         0.00000E+00
    0.00000E+00         0.00000E+00         0.10148E-07
 
    0.13686E+06         0.60865E+06         0.00000E+00
    0.60865E+06        -0.49793E+08         0.00000E+00
    0.00000E+00         0.00000E+00        -0.35518E-07
 
    0.13202E+06         0.62248E+06         0.00000E+00
    0.62248E+06        -0.49903E+08         0.00000E+00
    0.00000E+00         0.00000E+00         0.00000E+00
 
    0.12791E+06         0.63564E+06         0.00000E+00
    0.63564E+06        -0.50013E+08         0.00000E+00
    0.00000E+00         0.00000E+00         0.25370E-07
 
    0.12447E+06         0.64822E+06         0.00000E+00
    0.64822E+06        -0.50125E+08         0.00000E+00
    0.00000E+00         0.00000E+00        -0.50741E-08
 
    0.12161E+06         0.66030E+06         0.00000E+00
    0.66030E+06        -0.50237E+08         0.00000E+00
    0.00000E+00         0.00000E+00         0.50741E-08
 
    0.11928E+06         0.67197E+06         0.00000E+00
    0.67197E+06        -0.50351E+08         0.00000E+00
    0.00000E+00         0.00000E+00         0.50741E-08
 
    0.11740E+06         0.68327E+06         0.00000E+00
    0.68327E+06        -0.50465E+08         0.00000E+00
    0.00000E+00         0.00000E+00         0.50741E-08
 
    0.11593E+06         0.69428E+06         0.00000E+00
    0.69428E+06        -0.50580E+08         0.00000E+00
    0.00000E+00         0.00000E+00        -0.50741E-07
 
    0.11481E+06         0.70504E+06         0.00000E+00
    0.70504E+06        -0.50697E+08         0.00000E+00
    0.00000E+00         0.00000E+00         0.00000E+00
 
    0.11399E+06         0.71559E+06         0.00000E+00
    0.71559E+06        -0.50814E+08         0.00000E+00
    0.00000E+00         0.00000E+00         0.10148E-07
 
    0.11342E+06         0.72597E+06         0.00000E+00
    0.72597E+06        -0.50933E+08         0.00000E+00
    0.00000E+00         0.00000E+00         0.00000E+00
 
    0.11307E+06         0.73622E+06         0.00000E+00
    0.73622E+06        -0.51054E+08         0.00000E+00
    0.00000E+00         0.00000E+00         0.30444E-07
 
    0.11290E+06         0.74636E+06         0.00000E+00
    0.74636E+06        -0.51175E+08         0.00000E+00
    0.00000E+00         0.00000E+00        -0.50741E-08
 
    0.11287E+06         0.75641E+06         0.00000E+00
    0.75641E+06        -0.51298E+08         0.00000E+00
    0.00000E+00         0.00000E+00         0.15222E-07
 
    0.11296E+06         0.76639E+06         0.00000E+00
    0.76639E+06        -0.51423E+08         0.00000E+00
    0.00000E+00         0.00000E+00        -0.35518E-07
 
    0.11313E+06         0.77633E+06         0.00000E+00
    0.77633E+06        -0.51549E+08         0.00000E+00
    0.00000E+00         0.00000E+00         0.00000E+00
 
    0.11336E+06         0.78622E+06         0.00000E+00
    0.78622E+06        -0.51676E+08         0.00000E+00
    0.00000E+00         0.00000E+00        -0.50741E-08
 
    0.11364E+06         0.79608E+06         0.00000E+00
    0.79608E+06        -0.51805E+08         0.00000E+00
    0.00000E+00         0.00000E+00        -0.35518E-07
 
    0.11392E+06         0.80592E+06         0.00000E+00
    0.80592E+06        -0.51936E+08         0.00000E+00
    0.00000E+00         0.00000E+00        -0.50741E-08
 
    0.11421E+06         0.81574E+06         0.00000E+00
    0.81574E+06        -0.52068E+08         0.00000E+00
    0.00000E+00         0.00000E+00        -0.50741E-08
 
    0.11447E+06         0.82554E+06         0.00000E+00
    0.82554E+06        -0.52202E+08         0.00000E+00
    0.00000E+00         0.00000E+00        -0.15222E-07
 
    0.11469E+06         0.83532E+06         0.00000E+00
    0.83532E+06        -0.52337E+08         0.00000E+00
    0.00000E+00         0.00000E+00         0.15222E-07
 
    0.11486E+06         0.84508E+06         0.00000E+00
    0.84508E+06        -0.52475E+08         0.00000E+00
    0.00000E+00         0.00000E+00         0.30444E-07
 
    0.11495E+06         0.85481E+06         0.00000E+00
    0.85481E+06        -0.52614E+08         0.00000E+00
    0.00000E+00         0.00000E+00        -0.60889E-07
 
    0.11495E+06         0.86451E+06         0.00000E+00
    0.86451E+06        -0.52755E+08         0.00000E+00
    0.00000E+00         0.00000E+00        -0.20296E-07
 
    0.11485E+06         0.87417E+06         0.00000E+00
    0.87417E+06        -0.52897E+08         0.00000E+00
    0.00000E+00         0.00000E+00         0.00000E+00
 
    0.11463E+06         0.88379E+06         0.00000E+00
    0.88379E+06        -0.53042E+08         0.00000E+00
    0.00000E+00         0.00000E+00        -0.20296E-07
 
    0.11428E+06         0.89334E+06         0.00000E+00
    0.89334E+06        -0.53188E+08         0.00000E+00
    0.00000E+00         0.00000E+00         0.00000E+00
 
    0.11377E+06         0.90282E+06         0.00000E+00
    0.90282E+06        -0.53336E+08         0.00000E+00
    0.00000E+00         0.00000E+00         0.35518E-07
 
    0.11310E+06         0.91221E+06         0.00000E+00
    0.91221E+06        -0.53486E+08         0.00000E+00
    0.00000E+00         0.00000E+00         0.15222E-07
 
    0.11225E+06         0.92150E+06         0.00000E+00
    0.92150E+06        -0.53638E+08         0.00000E+00
    0.00000E+00         0.00000E+00        -0.35518E-07
 
    0.11121E+06         0.93067E+06         0.00000E+00
    0.93067E+06        -0.53791E+08         0.00000E+00
    0.00000E+00         0.00000E+00        -0.10148E-07
 
    0.10994E+06         0.93969E+06         0.00000E+00
    0.93969E+06        -0.53947E+08         0.00000E+00
    0.00000E+00         0.00000E+00         0.15222E-07
 
    0.10844E+06         0.94855E+06         0.00000E+00
    0.94855E+06        -0.54104E+08         0.00000E+00
    0.00000E+00         0.00000E+00        -0.20296E-07
 
    0.10669E+06         0.95721E+06         0.00000E+00
    0.95721E+06        -0.54264E+08         0.00000E+00
    0.00000E+00         0.00000E+00         0.00000E+00
 
    0.10465E+06         0.96566E+06         0.00000E+00
    0.96566E+06        -0.54425E+08         0.00000E+00
    0.00000E+00         0.00000E+00        -0.25370E-07
 
    0.10231E+06         0.97385E+06         0.00000E+00
    0.97385E+06        -0.54588E+08         0.00000E+00
    0.00000E+00         0.00000E+00        -0.30444E-07
 
    0.99637E+05         0.98177E+06         0.00000E+00
    0.98177E+06        -0.54753E+08         0.00000E+00
    0.00000E+00         0.00000E+00        -0.15222E-07
 
    0.96604E+05         0.98937E+06         0.00000E+00
    0.98937E+06        -0.54920E+08         0.00000E+00
    0.00000E+00         0.00000E+00        -0.50741E-07
 
    0.93178E+05         0.99660E+06         0.00000E+00
    0.99660E+06        -0.55089E+08         0.00000E+00
    0.00000E+00         0.00000E+00         0.50741E-08
 
    0.89321E+05         0.10034E+07         0.00000E+00
    0.10034E+07        -0.55260E+08         0.00000E+00
    0.00000E+00         0.00000E+00         0.00000E+00
 
    0.84994E+05         0.10098E+07         0.00000E+00
    0.10098E+07        -0.55433E+08         0.00000E+00
    0.00000E+00         0.00000E+00        -0.50741E-08
 
    0.80151E+05         0.10157E+07         0.00000E+00
    0.10157E+07        -0.55607E+08         0.00000E+00
    0.00000E+00         0.00000E+00        -0.60889E-07
 
    0.74743E+05         0.10210E+07         0.00000E+00
    0.10210E+07        -0.55784E+08         0.00000E+00
    0.00000E+00         0.00000E+00        -0.40593E-07
 
    0.68714E+05         0.10256E+07         0.00000E+00
    0.10256E+07        -0.55963E+08         0.00000E+00
    0.00000E+00         0.00000E+00        -0.30444E-07
 
    0.62003E+05         0.10296E+07         0.00000E+00
    0.10296E+07        -0.56143E+08         0.00000E+00
    0.00000E+00         0.00000E+00         0.10148E-07
 
    0.54541E+05         0.10328E+07         0.00000E+00
    0.10328E+07        -0.56326E+08         0.00000E+00
    0.00000E+00         0.00000E+00        -0.10148E-07
 
    0.46254E+05         0.10350E+07         0.00000E+00
    0.10350E+07        -0.56510E+08         0.00000E+00
    0.00000E+00         0.00000E+00         0.00000E+00
 
    0.37057E+05         0.10363E+07         0.00000E+00
    0.10363E+07        -0.56697E+08         0.00000E+00
    0.00000E+00         0.00000E+00        -0.15222E-07
 
    0.26859E+05         0.10365E+07         0.00000E+00
    0.10365E+07        -0.56885E+08         0.00000E+00
    0.00000E+00         0.00000E+00         0.60889E-07
 
    0.15559E+05         0.10354E+07         0.00000E+00
    0.10354E+07        -0.57075E+08         0.00000E+00
    0.00000E+00         0.00000E+00         0.71037E-07
 
    0.30463E+04         0.10330E+07         0.00000E+00
    0.10330E+07        -0.57268E+08         0.00000E+00
    0.00000E+00         0.00000E+00        -0.20296E-07
 
   -0.10798E+05         0.10291E+07         0.00000E+00
    0.10291E+07        -0.57462E+08         0.00000E+00
    0.00000E+00         0.00000E+00         0.10148E-07
 
   -0.26102E+05         0.10234E+07         0.00000E+00
    0.10234E+07        -0.57659E+08         0.00000E+00
    0.00000E+00         0.00000E+00         0.15222E-07
 
   -0.43005E+05         0.10159E+07         0.00000E+00
    0.10159E+07        -0.57858E+08         0.00000E+00
    0.00000E+00         0.00000E+00         0.20296E-07
 
   -0.61654E+05         0.10062E+07         0.00000E+00
    0.10062E+07        -0.58059E+08         0.00000E+00
    0.00000E+00         0.00000E+00        -0.71037E-07
 
   -0.82202E+05         0.99427E+06         0.00000E+00
    0.99427E+06        -0.58262E+08         0.00000E+00
    0.00000E+00         0.00000E+00         0.00000E+00
 
   -0.10481E+06         0.97973E+06         0.00000E+00
    0.97973E+06        -0.58467E+08         0.00000E+00
    0.00000E+00         0.00000E+00        -0.50741E-08
 
   -0.12964E+06         0.96236E+06         0.00000E+00
    0.96236E+06        -0.58675E+08         0.00000E+00
    0.00000E+00         0.00000E+00        -0.15222E-07
 
   -0.15687E+06         0.94186E+06         0.00000E+00
    0.94186E+06        -0.58885E+08         0.00000E+00
    0.00000E+00         0.00000E+00        -0.50741E-08
 
   -0.18664E+06         0.91796E+06         0.00000E+00
    0.91796E+06        -0.59098E+08         0.00000E+00
    0.00000E+00         0.00000E+00        -0.50741E-08
 
   -0.21914E+06         0.89035E+06         0.00000E+00
    0.89035E+06        -0.59313E+08         0.00000E+00
    0.00000E+00         0.00000E+00        -0.50741E-08
 
   -0.25451E+06         0.85873E+06         0.00000E+00
    0.85873E+06        -0.59530E+08         0.00000E+00
    0.00000E+00         0.00000E+00         0.50741E-07
 
   -0.29290E+06         0.82282E+06         0.00000E+00
    0.82282E+06        -0.59750E+08         0.00000E+00
    0.00000E+00         0.00000E+00         0.00000E+00
 
   -0.33445E+06         0.78237E+06         0.00000E+00
    0.78237E+06        -0.59971E+08         0.00000E+00
    0.00000E+00         0.00000E+00        -0.20296E-07
 
   -0.37931E+06         0.73718E+06         0.00000E+00
    0.73718E+06        -0.60195E+08         0.00000E+00
    0.00000E+00         0.00000E+00        -0.10148E-07
 
   -0.42762E+06         0.68715E+06         0.00000E+00
    0.68715E+06        -0.60419E+08         0.00000E+00
    0.00000E+00         0.00000E+00        -0.35517E-07
 
   -0.47959E+06         0.63230E+06         0.00000E+00
    0.63230E+06        -0.60644E+08         0.00000E+00
    0.00000E+00         0.00000E+00         0.25370E-07
 
   -0.53547E+06         0.57283E+06         0.00000E+00
    0.57283E+06        -0.60867E+08         0.00000E+00
    0.00000E+00         0.00000E+00        -0.55815E-07
 
   -0.59567E+06         0.50920E+06         0.00000E+00
    0.50920E+06        -0.61089E+08         0.00000E+00
    0.00000E+00         0.00000E+00         0.76111E-07
 
   -0.66088E+06         0.44218E+06         0.00000E+00
    0.44218E+06        -0.61305E+08         0.00000E+00
    0.00000E+00         0.00000E+00         0.00000E+00
 
   -0.73219E+06         0.37297E+06         0.00000E+00
    0.37297E+06        -0.61514E+08         0.00000E+00
    0.00000E+00         0.00000E+00         0.00000E+00
 
   -0.81135E+06         0.30327E+06         0.00000E+00
    0.30327E+06        -0.61711E+08         0.00000E+00
    0.00000E+00         0.00000E+00        -0.50741E-08
 
   -0.90109E+06         0.23522E+06         0.00000E+00
    0.23522E+06        -0.61890E+08         0.00000E+00
    0.00000E+00         0.00000E+00         0.10148E-07
 
   -0.10052E+07         0.17133E+06         0.00000E+00
    0.17133E+06        -0.62046E+08         0.00000E+00
    0.00000E+00         0.00000E+00         0.10148E-07
 
   -0.11287E+07         0.11387E+06         0.00000E+00
    0.11387E+06        -0.62170E+08         0.00000E+00
    0.00000E+00         0.00000E+00         0.30444E-07
 
   -0.12766E+07         0.63989E+05         0.00000E+00
    0.63989E+05        -0.62257E+08         0.00000E+00
    0.00000E+00         0.00000E+00         0.50741E-08
 
   -0.14532E+07         0.20481E+05         0.00000E+00
    0.20481E+05        -0.62302E+08         0.00000E+00
    0.00000E+00         0.00000E+00        -0.30444E-07
 
    0.74073E+06         0.10386E+05         0.00000E+00
    0.10386E+05        -0.47726E+08         0.00000E+00
    0.00000E+00         0.00000E+00        -0.10148E-07
 
    0.65891E+06         0.32422E+05         0.00000E+00
    0.32422E+05        -0.47747E+08         0.00000E+00
    0.00000E+00         0.00000E+00         0.10148E-07
 
    0.59053E+06         0.57728E+05         0.00000E+00
    0.57728E+05        -0.47788E+08         0.00000E+00
    0.00000E+00         0.00000E+00        -0.50741E-07
 
    0.53356E+06         0.87029E+05         0.00000E+00
    0.87029E+05        -0.47847E+08         0.00000E+00
    0.00000E+00         0.00000E+00        -0.40593E-07
 
    0.48564E+06         0.11986E+06         0.00000E+00
    0.11986E+06        -0.47920E+08         0.00000E+00
    0.00000E+00         0.00000E+00        -0.15222E-07
 
    0.44459E+06         0.15509E+06         0.00000E+00
    0.15509E+06        -0.48003E+08         0.00000E+00
    0.00000E+00         0.00000E+00         0.20296E-07
 
    0.40869E+06         0.19151E+06         0.00000E+00
    0.19151E+06        -0.48095E+08         0.00000E+00
    0.00000E+00         0.00000E+00         0.20296E-07
 
    0.37673E+06         0.22802E+06         0.00000E+00
    0.22802E+06        -0.48192E+08         0.00000E+00
    0.00000E+00         0.00000E+00         0.50741E-08
 
    0.34791E+06         0.26379E+06         0.00000E+00
    0.26379E+06        -0.48293E+08         0.00000E+00
    0.00000E+00         0.00000E+00        -0.30444E-07
 
    0.32173E+06         0.29825E+06         0.00000E+00
    0.29825E+06        -0.48397E+08         0.00000E+00
    0.00000E+00         0.00000E+00         0.10148E-07
 
    0.29788E+06         0.33101E+06         0.00000E+00
    0.33101E+06        -0.48503E+08         0.00000E+00
    0.00000E+00         0.00000E+00         0.50741E-08
 
    0.27612E+06         0.36188E+06         0.00000E+00
    0.36188E+06        -0.48609E+08         0.00000E+00
    0.00000E+00         0.00000E+00         0.10148E-07
 
    0.25632E+06         0.39076E+06         0.00000E+00
    0.39076E+06        -0.48716E+08         0.00000E+00
    0.00000E+00         0.00000E+00        -0.20296E-07
 
    0.23835E+06         0.41766E+06         0.00000E+00
    0.41766E+06        -0.48823E+08         0.00000E+00
    0.00000E+00         0.00000E+00         0.50741E-08
 
    0.22210E+06         0.44264E+06         0.00000E+00
    0.44264E+06        -0.48930E+08         0.00000E+00
    0.00000E+00         0.00000E+00         0.45667E-07
 
    0.20749E+06         0.46580E+06         0.00000E+00
    0.46580E+06        -0.49038E+08         0.00000E+00
    0.00000E+00         0.00000E+00         0.35518E-07
 
    0.19442E+06         0.48726E+06         0.00000E+00
    0.48726E+06        -0.49145E+08         0.00000E+00
    0.00000E+00         0.00000E+00         0.50741E-08
 
    0.18278E+06         0.50717E+06         0.00000E+00
    0.50717E+06        -0.49253E+08         0.00000E+00
    0.00000E+00         0.00000E+00         0.50741E-08
 
    0.17249E+06         0.52567E+06         0.00000E+00
    0.52567E+06        -0.49361E+08         0.00000E+00
    0.00000E+00         0.00000E+00         0.25370E-07
 
    0.16344E+06         0.54291E+06         0.00000E+00
    0.54291E+06        -0.49469E+08         0.00000E+00
    0.00000E+00         0.00000E+00        -0.15222E-07
 
    0.15554E+06         0.55901E+06         0.00000E+00
    0.55901E+06        -0.49577E+08         0.00000E+00
    0.00000E+00         0.00000E+00         0.40593E-07
 
    0.14868E+06         0.57411E+06         0.00000E+00
    0.57411E+06        -0.49686E+08         0.00000E+00
    0.00000E+00         0.00000E+00         0.00000E+00
 
    0.14277E+06         0.58834E+06         0.00000E+00
    0.58834E+06        -0.49795E+08         0.00000E+00
    0.00000E+00         0.00000E+00        -0.20296E-07
 
    0.13773E+06         0.60181E+06         0.00000E+00
    0.60181E+06        -0.49905E+08         0.00000E+00
    0.00000E+00         0.00000E+00         0.50741E-07
 
    0.13346E+06         0.61461E+06         0.00000E+00
    0.61461E+06        -0.50016E+08         0.00000E+00
    0.00000E+00         0.00000E+00         0.55815E-07
 
    0.12988E+06         0.62683E+06         0.00000E+00
    0.62683E+06        -0.50127E+08         0.00000E+00
    0.00000E+00         0.00000E+00         0.10148E-07
 
    0.12692E+06         0.63857E+06         0.00000E+00
    0.63857E+06        -0.50240E+08         0.00000E+00
    0.00000E+00         0.00000E+00        -0.10148E-07
 
    0.12450E+06         0.64989E+06         0.00000E+00
    0.64989E+06        -0.50353E+08         0.00000E+00
    0.00000E+00         0.00000E+00        -0.50741E-08
 
    0.12257E+06         0.66086E+06         0.00000E+00
    0.66086E+06        -0.50467E+08         0.00000E+00
    0.00000E+00         0.00000E+00        -0.35518E-07
 
    0.12105E+06         0.67154E+06         0.00000E+00
    0.67154E+06        -0.50582E+08         0.00000E+00
    0.00000E+00         0.00000E+00        -0.10148E-07
 
    0.11989E+06         0.68196E+06         0.00000E+00
    0.68196E+06        -0.50699E+08         0.00000E+00
    0.00000E+00         0.00000E+00         0.10148E-07
 
    0.11905E+06         0.69219E+06         0.00000E+00
    0.69219E+06        -0.50816E+08         0.00000E+00
    0.00000E+00         0.00000E+00         0.20296E-07
 
    0.11848E+06         0.70225E+06         0.00000E+00
    0.70225E+06        -0.50935E+08         0.00000E+00
    0.00000E+00         0.00000E+00         0.00000E+00
 
    0.11812E+06         0.71217E+06         0.00000E+00
    0.71217E+06        -0.51056E+08         0.00000E+00
    0.00000E+00         0.00000E+00        -0.15222E-07
 
    0.11796E+06         0.72198E+06         0.00000E+00
    0.72198E+06        -0.51177E+08         0.00000E+00
    0.00000E+00         0.00000E+00        -0.10148E-06
 
    0.11794E+06         0.73171E+06         0.00000E+00
    0.73171E+06        -0.51300E+08         0.00000E+00
    0.00000E+00         0.00000E+00        -0.15222E-07
 
    0.11804E+06         0.74137E+06         0.00000E+00
    0.74137E+06        -0.51425E+08         0.00000E+00
    0.00000E+00         0.00000E+00         0.50741E-07
 
    0.11823E+06         0.75098E+06         0.00000E+00
    0.75098E+06        -0.51551E+08         0.00000E+00
    0.00000E+00         0.00000E+00        -0.10148E-07
 
    0.11849E+06         0.76054E+06         0.00000E+00
    0.76054E+06        -0.51678E+08         0.00000E+00
    0.00000E+00         0.00000E+00         0.40593E-07
 
    0.11878E+06         0.77008E+06         0.00000E+00
    0.77008E+06        -0.51807E+08         0.00000E+00
    0.00000E+00         0.00000E+00        -0.55814E-07
 
    0.11909E+06         0.77959E+06         0.00000E+00
    0.77959E+06        -0.51938E+08         0.00000E+00
    0.00000E+00         0.00000E+00         0.30444E-07
 
    0.11940E+06         0.78908E+06         0.00000E+00
    0.78908E+06        -0.52070E+08         0.00000E+00
    0.00000E+00         0.00000E+00         0.50741E-08
 
    0.11968E+06         0.79855E+06         0.00000E+00
    0.79855E+06        -0.52204E+08         0.00000E+00
    0.00000E+00         0.00000E+00         0.35518E-07
 
    0.11991E+06         0.80800E+06         0.00000E+00
    0.80800E+06        -0.52339E+08         0.00000E+00
    0.00000E+00         0.00000E+00         0.50741E-08
 
    0.12009E+06         0.81743E+06         0.00000E+00
    0.81743E+06        -0.52477E+08         0.00000E+00
    0.00000E+00         0.00000E+00        -0.10148E-07
 
    0.12019E+06         0.82684E+06         0.00000E+00
    0.82684E+06        -0.52616E+08         0.00000E+00
    0.00000E+00         0.00000E+00         0.15222E-07
 
    0.12020E+06         0.83621E+06         0.00000E+00
    0.83621E+06        -0.52757E+08         0.00000E+00
    0.00000E+00         0.00000E+00        -0.35518E-07
 
    0.12010E+06         0.84554E+06         0.00000E+00
    0.84554E+06        -0.52899E+08         0.00000E+00
    0.00000E+00         0.00000E+00         0.60889E-07
 
    0.11988E+06         0.85482E+06         0.00000E+00
    0.85482E+06        -0.53044E+08         0.00000E+00
    0.00000E+00         0.00000E+00        -0.10148E-07
 
    0.11951E+06         0.86405E+06         0.00000E+00
    0.86405E+06        -0.53190E+08         0.00000E+00
    0.00000E+00         0.00000E+00         0.10148E-07
 
    0.11899E+06         0.87320E+06         0.00000E+00
    0.87320E+06        -0.53338E+08         0.00000E+00
    0.00000E+00         0.00000E+00        -0.25370E-07
 
    0.11830E+06         0.88227E+06         0.00000E+00
    0.88227E+06        -0.53488E+08         0.00000E+00
    0.00000E+00         0.00000E+00         0.55815E-07
 
    0.11742E+06         0.89123E+06         0.00000E+00
    0.89123E+06        -0.53639E+08         0.00000E+00
    0.00000E+00         0.00000E+00         0.00000E+00
 
    0.11633E+06         0.90008E+06         0.00000E+00
    0.90008E+06        -0.53793E+08         0.00000E+00
    0.00000E+00         0.00000E+00        -0.15222E-07
 
    0.11502E+06         0.90878E+06         0.00000E+00
    0.90878E+06        -0.53949E+08         0.00000E+00
    0.00000E+00         0.00000E+00         0.00000E+00
 
    0.11345E+06         0.91732E+06         0.00000E+00
    0.91732E+06        -0.54106E+08         0.00000E+00
    0.00000E+00         0.00000E+00        -0.96407E-07
 
    0.11163E+06         0.92568E+06         0.00000E+00
    0.92568E+06        -0.54265E+08         0.00000E+00
    0.00000E+00         0.00000E+00         0.25370E-07
 
    0.10951E+06         0.93382E+06         0.00000E+00
    0.93382E+06        -0.54427E+08         0.00000E+00
    0.00000E+00         0.00000E+00        -0.50741E-08
 
    0.10707E+06         0.94172E+06         0.00000E+00
    0.94172E+06        -0.54590E+08         0.00000E+00
    0.00000E+00         0.00000E+00         0.25370E-07
 
    0.10429E+06         0.94935E+06         0.00000E+00
    0.94935E+06        -0.54755E+08         0.00000E+00
    0.00000E+00         0.00000E+00         0.15222E-07
 
    0.10113E+06         0.95666E+06         0.00000E+00
    0.95666E+06        -0.54922E+08         0.00000E+00
    0.00000E+00         0.00000E+00         0.45667E-07
 
    0.97566E+05         0.96363E+06         0.00000E+00
    0.96363E+06        -0.55090E+08         0.00000E+00
    0.00000E+00         0.00000E+00         0.00000E+00
 
    0.93550E+05         0.97019E+06         0.00000E+00
    0.97019E+06        -0.55261E+08         0.00000E+00
    0.00000E+00         0.00000E+00         0.00000E+00
 
    0.89044E+05         0.97632E+06         0.00000E+00
    0.97632E+06        -0.55434E+08         0.00000E+00
    0.00000E+00         0.00000E+00        -0.50741E-07
 
    0.84002E+05         0.98195E+06         0.00000E+00
    0.98195E+06        -0.55608E+08         0.00000E+00
    0.00000E+00         0.00000E+00        -0.15222E-07
 
    0.78371E+05         0.98703E+06         0.00000E+00
    0.98703E+06        -0.55785E+08         0.00000E+00
    0.00000E+00         0.00000E+00         0.50741E-08
 
    0.72093E+05         0.99149E+06         0.00000E+00
    0.99149E+06        -0.55963E+08         0.00000E+00
    0.00000E+00         0.00000E+00         0.25370E-07
 
    0.65105E+05         0.99525E+06         0.00000E+00
    0.99525E+06        -0.56144E+08         0.00000E+00
    0.00000E+00         0.00000E+00        -0.10148E-07
 
    0.57336E+05         0.99824E+06         0.00000E+00
    0.99824E+06        -0.56326E+08         0.00000E+00
    0.00000E+00         0.00000E+00        -0.30444E-07
 
    0.48705E+05         0.10004E+07         0.00000E+00
    0.10004E+07        -0.56510E+08         0.00000E+00
    0.00000E+00         0.00000E+00         0.10148E-07
 
    0.39127E+05         0.10015E+07         0.00000E+00
    0.10015E+07        -0.56697E+08         0.00000E+00
    0.00000E+00         0.00000E+00        -0.10148E-07
 
    0.28505E+05         0.10016E+07         0.00000E+00
    0.10016E+07        -0.56885E+08         0.00000E+00
    0.00000E+00         0.00000E+00         0.30444E-07
 
    0.16734E+05         0.10005E+07         0.00000E+00
    0.10005E+07        -0.57075E+08         0.00000E+00
    0.00000E+00         0.00000E+00         0.35518E-07
 
    0.36973E+04         0.99802E+06         0.00000E+00
    0.99802E+06        -0.57267E+08         0.00000E+00
    0.00000E+00         0.00000E+00         0.50741E-08
 
   -0.10730E+05         0.99407E+06         0.00000E+00
    0.99407E+06        -0.57461E+08         0.00000E+00
    0.00000E+00         0.00000E+00        -0.25370E-07
 
   -0.26685E+05         0.98845E+06         0.00000E+00
    0.98845E+06        -0.57658E+08         0.00000E+00
    0.00000E+00         0.00000E+00        -0.20296E-07
 
   -0.44313E+05         0.98098E+06         0.00000E+00
    0.98098E+06        -0.57856E+08         0.00000E+00
    0.00000E+00         0.00000E+00        -0.20296E-07
 
   -0.63770E+05         0.97145E+06         0.00000E+00
    0.97145E+06        -0.58056E+08         0.00000E+00
    0.00000E+00         0.00000E+00        -0.20296E-07
 
   -0.85221E+05         0.95964E+06         0.00000E+00
    0.95964E+06        -0.58259E+08         0.00000E+00
    0.00000E+00         0.00000E+00         0.10148E-07
 
   -0.10884E+06         0.94530E+06         0.00000E+00
    0.94530E+06        -0.58464E+08         0.00000E+00
    0.00000E+00         0.00000E+00        -0.10148E-07
 
   -0.13480E+06         0.92817E+06         0.00000E+00
    0.92817E+06        -0.58671E+08         0.00000E+00
    0.00000E+00         0.00000E+00         0.45667E-07
 
   -0.16328E+06         0.90796E+06         0.00000E+00
    0.90796E+06        -0.58881E+08         0.00000E+00
    0.00000E+00         0.00000E+00         0.10148E-07
 
   -0.19447E+06         0.88439E+06         0.00000E+00
    0.88439E+06        -0.59093E+08         0.00000E+00
    0.00000E+00         0.00000E+00        -0.25370E-07
 
   -0.22855E+06         0.85715E+06         0.00000E+00
    0.85715E+06        -0.59307E+08         0.00000E+00
    0.00000E+00         0.00000E+00         0.30444E-07
 
   -0.26568E+06         0.82595E+06         0.00000E+00
    0.82595E+06        -0.59523E+08         0.00000E+00
    0.00000E+00         0.00000E+00         0.50741E-08
 
   -0.30604E+06         0.79050E+06         0.00000E+00
    0.79050E+06        -0.59742E+08         0.00000E+00
    0.00000E+00         0.00000E+00         0.20296E-07
 
   -0.34980E+06         0.75056E+06         0.00000E+00
    0.75056E+06        -0.59963E+08         0.00000E+00
    0.00000E+00         0.00000E+00        -0.30444E-07
 
   -0.39710E+06         0.70592E+06         0.00000E+00
    0.70592E+06        -0.60185E+08         0.00000E+00
    0.00000E+00         0.00000E+00         0.30444E-07
 
   -0.44812E+06         0.65649E+06         0.00000E+00
    0.65649E+06        -0.60408E+08         0.00000E+00
    0.00000E+00         0.00000E+00         0.25370E-07
 
   -0.50307E+06         0.60229E+06         0.00000E+00
    0.60229E+06        -0.60632E+08         0.00000E+00
    0.00000E+00         0.00000E+00         0.25370E-07
 
   -0.56220E+06         0.54355E+06         0.00000E+00
    0.54355E+06        -0.60855E+08         0.00000E+00
    0.00000E+00         0.00000E+00        -0.15222E-07
 
   -0.62592E+06         0.48076E+06         0.00000E+00
    0.48076E+06        -0.61076E+08         0.00000E+00
    0.00000E+00         0.00000E+00        -0.25370E-07
 
   -0.69486E+06         0.41476E+06         0.00000E+00
    0.41476E+06        -0.61292E+08         0.00000E+00
    0.00000E+00         0.00000E+00        -0.50741E-07
 
   -0.77004E+06         0.34686E+06         0.00000E+00
    0.34686E+06        -0.61500E+08         0.00000E+00
    0.00000E+00         0.00000E+00        -0.40593E-07
 
   -0.85308E+06         0.27889E+06         0.00000E+00
    0.27889E+06        -0.61697E+08         0.00000E+00
    0.00000E+00         0.00000E+00        -0.20296E-07
 
   -0.94650E+06         0.21323E+06         0.00000E+00
    0.21323E+06        -0.61877E+08         0.00000E+00
    0.00000E+00         0.00000E+00        -0.25370E-07
 
   -0.10539E+07         0.15259E+06         0.00000E+00
    0.15259E+06        -0.62034E+08         0.00000E+00
    0.00000E+00         0.00000E+00         0.25370E-07
 
   -0.11799E+07         0.99443E+05         0.00000E+00
    0.99443E+05        -0.62160E+08         0.00000E+00
    0.00000E+00         0.00000E+00         0.50743E-08
 
   -0.13296E+07         0.54855E+05         0.00000E+00
    0.54855E+05        -0.62249E+08         0.00000E+00
    0.00000E+00         0.00000E+00        -0.15222E-07
 
   -0.15070E+07         0.17352E+05         0.00000E+00
    0.17352E+05        -0.62295E+08         0.00000E+00
    0.00000E+00         0.00000E+00        -0.30444E-07
 
    0.76715E+06         0.89237E+04         0.00000E+00
    0.89237E+04        -0.47730E+08         0.00000E+00
    0.00000E+00         0.00000E+00        -0.11369E-12
 
    0.68500E+06         0.28156E+05         0.00000E+00
    0.28156E+05        -0.47752E+08         0.00000E+00
    0.00000E+00         0.00000E+00         0.00000E+00
 
    0.61591E+06         0.50988E+05         0.00000E+00
    0.50988E+05        -0.47794E+08         0.00000E+00
    0.00000E+00         0.00000E+00         0.50741E-08
 
    0.55787E+06         0.78268E+05         0.00000E+00
    0.78268E+05        -0.47853E+08         0.00000E+00
    0.00000E+00         0.00000E+00         0.00000E+00
 
    0.50856E+06         0.10953E+06         0.00000E+00
    0.10953E+06        -0.47926E+08         0.00000E+00
    0.00000E+00         0.00000E+00         0.10148E-07
 
    0.46591E+06         0.14357E+06         0.00000E+00
    0.14357E+06        -0.48010E+08         0.00000E+00
    0.00000E+00         0.00000E+00         0.20296E-07
 
    0.42832E+06         0.17907E+06         0.00000E+00
    0.17907E+06        -0.48102E+08         0.00000E+00
    0.00000E+00         0.00000E+00        -0.20296E-07
 
    0.39467E+06         0.21483E+06         0.00000E+00
    0.21483E+06        -0.48199E+08         0.00000E+00
    0.00000E+00         0.00000E+00        -0.40593E-07
 
    0.36425E+06         0.24997E+06         0.00000E+00
    0.24997E+06        -0.48300E+08         0.00000E+00
    0.00000E+00         0.00000E+00        -0.30444E-07
 
    0.33658E+06         0.28385E+06         0.00000E+00
    0.28385E+06        -0.48404E+08         0.00000E+00
    0.00000E+00         0.00000E+00         0.00000E+00
 
    0.31136E+06         0.31609E+06         0.00000E+00
    0.31609E+06        -0.48509E+08         0.00000E+00
    0.00000E+00         0.00000E+00        -0.15222E-07
 
    0.28838E+06         0.34645E+06         0.00000E+00
    0.34645E+06        -0.48615E+08         0.00000E+00
    0.00000E+00         0.00000E+00        -0.50741E-08
 
    0.26749E+06         0.37484E+06         0.00000E+00
    0.37484E+06        -0.48721E+08         0.00000E+00
    0.00000E+00         0.00000E+00        -0.10148E-07
 
    0.24856E+06         0.40126E+06         0.00000E+00
    0.40126E+06        -0.48828E+08         0.00000E+00
    0.00000E+00         0.00000E+00         0.10148E-07
 
    0.23148E+06         0.42576E+06         0.00000E+00
    0.42576E+06        -0.48935E+08         0.00000E+00
    0.00000E+00         0.00000E+00        -0.20296E-07
 
    0.21614E+06         0.44846E+06         0.00000E+00
    0.44846E+06        -0.49042E+08         0.00000E+00
    0.00000E+00         0.00000E+00         0.25370E-07
 
    0.20244E+06         0.46948E+06         0.00000E+00
    0.46948E+06        -0.49150E+08         0.00000E+00
    0.00000E+00         0.00000E+00        -0.15222E-07
 
    0.19026E+06         0.48895E+06         0.00000E+00
    0.48895E+06        -0.49257E+08         0.00000E+00
    0.00000E+00         0.00000E+00         0.50741E-07
 
    0.17951E+06         0.50702E+06         0.00000E+00
    0.50702E+06        -0.49364E+08         0.00000E+00
    0.00000E+00         0.00000E+00         0.30444E-07
 
    0.17007E+06         0.52383E+06         0.00000E+00
    0.52383E+06        -0.49472E+08         0.00000E+00
    0.00000E+00         0.00000E+00         0.30444E-07
 
    0.16183E+06         0.53953E+06         0.00000E+00
    0.53953E+06        -0.49580E+08         0.00000E+00
    0.00000E+00         0.00000E+00        -0.20296E-07
 
    0.15469E+06         0.55424E+06         0.00000E+00
    0.55424E+06        -0.49689E+08         0.00000E+00
    0.00000E+00         0.00000E+00         0.10148E-07
 
    0.14855E+06         0.56808E+06         0.00000E+00
    0.56808E+06        -0.49798E+08         0.00000E+00
    0.00000E+00         0.00000E+00        -0.15222E-07
 
    0.14332E+06         0.58117E+06         0.00000E+00
    0.58117E+06        -0.49908E+08         0.00000E+00
    0.00000E+00         0.00000E+00         0.00000E+00
 
    0.13889E+06         0.59360E+06         0.00000E+00
    0.59360E+06        -0.50018E+08         0.00000E+00
    0.00000E+00         0.00000E+00         0.50741E-08
 
    0.13519E+06         0.60547E+06         0.00000E+00
    0.60547E+06        -0.50130E+08         0.00000E+00
    0.00000E+00         0.00000E+00        -0.15222E-07
 
    0.13213E+06         0.61686E+06         0.00000E+00
    0.61686E+06        -0.50242E+08         0.00000E+00
    0.00000E+00         0.00000E+00        -0.50741E-08
 
    0.12963E+06         0.62783E+06         0.00000E+00
    0.62783E+06        -0.50355E+08         0.00000E+00
    0.00000E+00         0.00000E+00        -0.50741E-08
 
    0.12764E+06         0.63846E+06         0.00000E+00
    0.63846E+06        -0.50469E+08         0.00000E+00
    0.00000E+00         0.00000E+00         0.50741E-08
 
    0.12608E+06         0.64880E+06         0.00000E+00
    0.64880E+06        -0.50584E+08         0.00000E+00
    0.00000E+00         0.00000E+00         0.50741E-08
 
    0.12490E+06         0.65890E+06         0.00000E+00
    0.65890E+06        -0.50701E+08         0.00000E+00
    0.00000E+00         0.00000E+00         0.50741E-07
 
    0.12404E+06         0.66879E+06         0.00000E+00
    0.66879E+06        -0.50818E+08         0.00000E+00
    0.00000E+00         0.00000E+00        -0.35518E-07
 
    0.12345E+06         0.67852E+06         0.00000E+00
    0.67852E+06        -0.50937E+08         0.00000E+00
    0.00000E+00         0.00000E+00         0.40593E-07
 
    0.12310E+06         0.68811E+06         0.00000E+00
    0.68811E+06        -0.51057E+08         0.00000E+00
    0.00000E+00         0.00000E+00         0.10148E-07
 
    0.12294E+06         0.69760E+06         0.00000E+00
    0.69760E+06        -0.51179E+08         0.00000E+00
    0.00000E+00         0.00000E+00         0.50741E-07
 
    0.12294E+06         0.70700E+06         0.00000E+00
    0.70700E+06        -0.51302E+08         0.00000E+00
    0.00000E+00         0.00000E+00         0.00000E+00
 
    0.12306E+06         0.71634E+06         0.00000E+00
    0.71634E+06        -0.51426E+08         0.00000E+00
    0.00000E+00         0.00000E+00        -0.20296E-07
 
    0.12327E+06         0.72562E+06         0.00000E+00
    0.72562E+06        -0.51552E+08         0.00000E+00
    0.00000E+00         0.00000E+00         0.00000E+00
 
    0.12354E+06         0.73486E+06         0.00000E+00
    0.73486E+06        -0.51680E+08         0.00000E+00
    0.00000E+00         0.00000E+00         0.10148E-07
 
    0.12386E+06         0.74407E+06         0.00000E+00
    0.74407E+06        -0.51809E+08         0.00000E+00
    0.00000E+00         0.00000E+00         0.00000E+00
 
    0.12419E+06         0.75326E+06         0.00000E+00
    0.75326E+06        -0.51939E+08         0.00000E+00
    0.00000E+00         0.00000E+00         0.25370E-07
 
    0.12452E+06         0.76242E+06         0.00000E+00
    0.76242E+06        -0.52072E+08         0.00000E+00
    0.00000E+00         0.00000E+00         0.20296E-07
 
    0.12482E+06         0.77156E+06         0.00000E+00
    0.77156E+06        -0.52206E+08         0.00000E+00
    0.00000E+00         0.00000E+00         0.10148E-07
 
    0.12507E+06         0.78069E+06         0.00000E+00
    0.78069E+06        -0.52341E+08         0.00000E+00
    0.00000E+00         0.00000E+00        -0.10148E-07
 
    0.12526E+06         0.78979E+06         0.00000E+00
    0.78979E+06        -0.52479E+08         0.00000E+00
    0.00000E+00         0.00000E+00         0.15222E-07
 
    0.12538E+06         0.79886E+06         0.00000E+00
    0.79886E+06        -0.52618E+08         0.00000E+00
    0.00000E+00         0.00000E+00         0.10148E-07
 
    0.12539E+06         0.80790E+06         0.00000E+00
    0.80790E+06        -0.52758E+08         0.00000E+00
    0.00000E+00         0.00000E+00        -0.25370E-07
 
    0.12529E+06         0.81691E+06         0.00000E+00
    0.81691E+06        -0.52901E+08         0.00000E+00
    0.00000E+00         0.00000E+00         0.00000E+00
 
    0.12506E+06         0.82586E+06         0.00000E+00
    0.82586E+06        -0.53045E+08         0.00000E+00
    0.00000E+00         0.00000E+00        -0.10148E-07
 
    0.12469E+06         0.83476E+06         0.00000E+00
    0.83476E+06        -0.53192E+08         0.00000E+00
    0.00000E+00         0.00000E+00         0.10149E-07
 
    0.12416E+06         0.84359E+06         0.00000E+00
    0.84359E+06        -0.53340E+08         0.00000E+00
    0.00000E+00         0.00000E+00         0.00000E+00
 
    0.12344E+06         0.85233E+06         0.00000E+00
    0.85233E+06        -0.53489E+08         0.00000E+00
    0.00000E+00         0.00000E+00        -0.20296E-07
 
    0.12253E+06         0.86097E+06         0.00000E+00
    0.86097E+06        -0.53641E+08         0.00000E+00
    0.00000E+00         0.00000E+00         0.50741E-08
 
    0.12140E+06         0.86950E+06         0.00000E+00
    0.86950E+06        -0.53795E+08         0.00000E+00
    0.00000E+00         0.00000E+00        -0.35518E-07
 
    0.12004E+06         0.87788E+06         0.00000E+00
    0.87788E+06        -0.53950E+08         0.00000E+00
    0.00000E+00         0.00000E+00         0.00000E+00
 
    0.11842E+06         0.88611E+06         0.00000E+00
    0.88611E+06        -0.54108E+08         0.00000E+00
    0.00000E+00         0.00000E+00        -0.40593E-07
 
    0.11652E+06         0.89416E+06         0.00000E+00
    0.89416E+06        -0.54267E+08         0.00000E+00
    0.00000E+00         0.00000E+00        -0.25370E-07
 
    0.11432E+06         0.90200E+06         0.00000E+00
    0.90200E+06        -0.54428E+08         0.00000E+00
    0.00000E+00         0.00000E+00        -0.40593E-07
 
    0.11179E+06         0.90961E+06         0.00000E+00
    0.90961E+06        -0.54591E+08         0.00000E+00
    0.00000E+00         0.00000E+00        -0.30444E-07
 
    0.10891E+06         0.91695E+06         0.00000E+00
    0.91695E+06        -0.54756E+08         0.00000E+00
    0.00000E+00         0.00000E+00         0.00000E+00
 
    0.10563E+06         0.92398E+06         0.00000E+00
    0.92398E+06        -0.54923E+08         0.00000E+00
    0.00000E+00         0.00000E+00         0.10148E-07
 
    0.10192E+06         0.93068E+06         0.00000E+00
    0.93068E+06        -0.55092E+08         0.00000E+00
    0.00000E+00         0.00000E+00        -0.50741E-07
 
    0.97754E+05         0.93699E+06         0.00000E+00
    0.93699E+06        -0.55262E+08         0.00000E+00
    0.00000E+00         0.00000E+00         0.50741E-08
 
    0.93075E+05         0.94287E+06         0.00000E+00
    0.94287E+06        -0.55435E+08         0.00000E+00
    0.00000E+00         0.00000E+00         0.20296E-07
 
    0.87839E+05         0.94827E+06         0.00000E+00
    0.94827E+06        -0.55610E+08         0.00000E+00
    0.00000E+00         0.00000E+00        -0.71037E-07
 
    0.81991E+05         0.95313E+06         0.00000E+00
    0.95313E+06        -0.55786E+08         0.00000E+00
    0.00000E+00         0.00000E+00        -0.30444E-07
 
    0.75472E+05         0.95738E+06         0.00000E+00
    0.95738E+06        -0.55964E+08         0.00000E+00
    0.00000E+00         0.00000E+00         0.15222E-07
 
    0.68215E+05         0.96096E+06         0.00000E+00
    0.96096E+06        -0.56145E+08         0.00000E+00
    0.00000E+00         0.00000E+00        -0.50741E-08
 
    0.60145E+05         0.96379E+06         0.00000E+00
    0.96379E+06        -0.56327E+08         0.00000E+00
    0.00000E+00         0.00000E+00        -0.15222E-07
 
    0.51182E+05         0.96577E+06         0.00000E+00
    0.96577E+06        -0.56511E+08         0.00000E+00
    0.00000E+00         0.00000E+00         0.10148E-07
 
    0.41234E+05         0.96682E+06         0.00000E+00
    0.96682E+06        -0.56697E+08         0.00000E+00
    0.00000E+00         0.00000E+00         0.00000E+00
 
    0.30200E+05         0.96681E+06         0.00000E+00
    0.96681E+06        -0.56885E+08         0.00000E+00
    0.00000E+00         0.00000E+00        -0.15222E-07
 
    0.17970E+05         0.96563E+06         0.00000E+00
    0.96563E+06        -0.57075E+08         0.00000E+00
    0.00000E+00         0.00000E+00         0.25370E-07
 
    0.44233E+04         0.96315E+06         0.00000E+00
    0.96315E+06        -0.57267E+08         0.00000E+00
    0.00000E+00         0.00000E+00         0.50741E-08
 
   -0.10572E+05         0.95920E+06         0.00000E+00
    0.95920E+06        -0.57460E+08         0.00000E+00
    0.00000E+00         0.00000E+00         0.00000E+00
 
   -0.27161E+05         0.95363E+06         0.00000E+00
    0.95363E+06        -0.57656E+08         0.00000E+00
    0.00000E+00         0.00000E+00         0.15222E-07
 
   -0.45496E+05         0.94624E+06         0.00000E+00
    0.94624E+06        -0.57854E+08         0.00000E+00
    0.00000E+00         0.00000E+00         0.10148E-07
 
   -0.65743E+05         0.93684E+06         0.00000E+00
    0.93684E+06        -0.58054E+08         0.00000E+00
    0.00000E+00         0.00000E+00        -0.20296E-07
 
   -0.88077E+05         0.92520E+06         0.00000E+00
    0.92520E+06        -0.58257E+08         0.00000E+00
    0.00000E+00         0.00000E+00         0.50741E-08
 
   -0.11268E+06         0.91108E+06         0.00000E+00
    0.91108E+06        -0.58461E+08         0.00000E+00
    0.00000E+00         0.00000E+00         0.00000E+00
 
   -0.13975E+06         0.89421E+06         0.00000E+00
    0.89421E+06        -0.58668E+08         0.00000E+00
    0.00000E+00         0.00000E+00         0.50741E-08
 
   -0.16948E+06         0.87432E+06         0.00000E+00
    0.87432E+06        -0.58876E+08         0.00000E+00
    0.00000E+00         0.00000E+00         0.30444E-07
 
   -0.20206E+06         0.85111E+06         0.00000E+00
    0.85111E+06        -0.59088E+08         0.00000E+00
    0.00000E+00         0.00000E+00         0.45667E-07
 
   -0.23770E+06         0.82428E+06         0.00000E+00
    0.82428E+06        -0.59301E+08         0.00000E+00
    0.00000E+00         0.00000E+00         0.00000E+00
 
   -0.27658E+06         0.79354E+06         0.00000E+00
    0.79354E+06        -0.59517E+08         0.00000E+00
    0.00000E+00         0.00000E+00         0.20296E-07
 
   -0.31891E+06         0.75860E+06         0.00000E+00
    0.75860E+06        -0.59735E+08         0.00000E+00
    0.00000E+00         0.00000E+00        -0.40593E-07
 
   -0.36485E+06         0.71921E+06         0.00000E+00
    0.71921E+06        -0.59954E+08         0.00000E+00
    0.00000E+00         0.00000E+00        -0.35518E-07
 
   -0.41460E+06         0.67517E+06         0.00000E+00
    0.67517E+06        -0.60176E+08         0.00000E+00
    0.00000E+00         0.00000E+00        -0.65963E-07
 
   -0.46835E+06         0.62639E+06         0.00000E+00
    0.62639E+06        -0.60398E+08         0.00000E+00
    0.00000E+00         0.00000E+00         0.50741E-08
 
   -0.52629E+06         0.57290E+06         0.00000E+00
    0.57290E+06        -0.60621E+08         0.00000E+00
    0.00000E+00         0.00000E+00        -0.30444E-07
 
   -0.58871E+06         0.51495E+06         0.00000E+00
    0.51495E+06        -0.60843E+08         0.00000E+00
    0.00000E+00         0.00000E+00         0.25370E-07
 
   -0.65597E+06         0.45305E+06         0.00000E+00
    0.45305E+06        -0.61063E+08         0.00000E+00
    0.00000E+00         0.00000E+00         0.20296E-07
 
   -0.72868E+06         0.38811E+06         0.00000E+00
    0.38811E+06        -0.61278E+08         0.00000E+00
    0.00000E+00         0.00000E+00        -0.10148E-07
 
   -0.80775E+06         0.32152E+06         0.00000E+00
    0.32152E+06        -0.61487E+08         0.00000E+00
    0.00000E+00         0.00000E+00        -0.15222E-07
 
   -0.89467E+06         0.25527E+06         0.00000E+00
    0.25527E+06        -0.61684E+08         0.00000E+00
    0.00000E+00         0.00000E+00        -0.40593E-07
 
   -0.99174E+06         0.19193E+06         0.00000E+00
    0.19193E+06        -0.61865E+08         0.00000E+00
    0.00000E+00         0.00000E+00         0.00000E+00
 
   -0.11023E+07         0.13444E+06         0.00000E+00
    0.13444E+06        -0.62023E+08         0.00000E+00
    0.00000E+00         0.00000E+00        -0.10148E-07
 
   -0.12308E+07         0.85425E+05         0.00000E+00
    0.85425E+05        -0.62151E+08         0.00000E+00
    0.00000E+00         0.00000E+00         0.50740E-07
 
   -0.13820E+07         0.45959E+05         0.00000E+00
    0.45959E+05        -0.62241E+08         0.00000E+00
    0.00000E+00         0.00000E+00         0.15222E-07
 
   -0.15602E+07         0.14299E+05         0.00000E+00
    0.14299E+05        -0.62288E+08         0.00000E+00
    0.00000E+00         0.00000E+00         0.50740E-08
 
    0.79331E+06         0.74898E+04         0.00000E+00
    0.74898E+04        -0.47733E+08         0.00000E+00
    0.00000E+00         0.00000E+00         0.10148E-07
 
    0.71084E+06         0.23982E+05         0.00000E+00
    0.23982E+05        -0.47756E+08         0.00000E+00
    0.00000E+00         0.00000E+00        -0.15222E-07
 
    0.64111E+06         0.44419E+05         0.00000E+00
    0.44419E+05        -0.47798E+08         0.00000E+00
    0.00000E+00         0.00000E+00        -0.20296E-07
 
    0.58203E+06         0.69750E+05         0.00000E+00
    0.69750E+05        -0.47859E+08         0.00000E+00
    0.00000E+00         0.00000E+00        -0.55815E-07
 
    0.53136E+06         0.99500E+05         0.00000E+00
    0.99500E+05        -0.47933E+08         0.00000E+00
    0.00000E+00         0.00000E+00         0.00000E+00
 
    0.48712E+06         0.13239E+06         0.00000E+00
    0.13239E+06        -0.48017E+08         0.00000E+00
    0.00000E+00         0.00000E+00         0.10148E-07
 
    0.44783E+06         0.16697E+06         0.00000E+00
    0.16697E+06        -0.48109E+08         0.00000E+00
    0.00000E+00         0.00000E+00        -0.40593E-07
 
    0.41249E+06         0.20198E+06         0.00000E+00
    0.20198E+06        -0.48207E+08         0.00000E+00
    0.00000E+00         0.00000E+00         0.30444E-07
 
    0.38044E+06         0.23646E+06         0.00000E+00
    0.23646E+06        -0.48307E+08         0.00000E+00
    0.00000E+00         0.00000E+00         0.40593E-07
 
    0.35126E+06         0.26975E+06         0.00000E+00
    0.26975E+06        -0.48410E+08         0.00000E+00
    0.00000E+00         0.00000E+00        -0.25370E-07
 
    0.32466E+06         0.30142E+06         0.00000E+00
    0.30142E+06        -0.48515E+08         0.00000E+00
    0.00000E+00         0.00000E+00         0.00000E+00
 
    0.30045E+06         0.33124E+06         0.00000E+00
    0.33124E+06        -0.48621E+08         0.00000E+00
    0.00000E+00         0.00000E+00         0.00000E+00
 
    0.27847E+06         0.35911E+06         0.00000E+00
    0.35911E+06        -0.48727E+08         0.00000E+00
    0.00000E+00         0.00000E+00         0.10148E-07
 
    0.25858E+06         0.38503E+06         0.00000E+00
    0.38503E+06        -0.48833E+08         0.00000E+00
    0.00000E+00         0.00000E+00         0.35518E-07
 
    0.24066E+06         0.40904E+06         0.00000E+00
    0.40904E+06        -0.48940E+08         0.00000E+00
    0.00000E+00         0.00000E+00         0.15222E-07
 
    0.22460E+06         0.43126E+06         0.00000E+00
    0.43126E+06        -0.49047E+08         0.00000E+00
    0.00000E+00         0.00000E+00         0.50740E-07
 
    0.21028E+06         0.45180E+06         0.00000E+00
    0.45180E+06        -0.49154E+08         0.00000E+00
    0.00000E+00         0.00000E+00         0.15222E-07
 
    0.19757E+06         0.47082E+06         0.00000E+00
    0.47082E+06        -0.49261E+08         0.00000E+00
    0.00000E+00         0.00000E+00        -0.15222E-07
 
    0.18636E+06         0.48845E+06         0.00000E+00
    0.48845E+06        -0.49368E+08         0.00000E+00
    0.00000E+00         0.00000E+00         0.10148E-07
 
    0.17654E+06         0.50483E+06         0.00000E+00
    0.50483E+06        -0.49475E+08         0.00000E+00
    0.00000E+00         0.00000E+00         0.45667E-07
 
    0.16798E+06         0.52011E+06         0.00000E+00
    0.52011E+06        -0.49583E+08         0.00000E+00
    0.00000E+00         0.00000E+00        -0.30444E-07
 
    0.16057E+06         0.53441E+06         0.00000E+00
    0.53441E+06        -0.49692E+08         0.00000E+00
    0.00000E+00         0.00000E+00        -0.20296E-07
 
    0.15421E+06         0.54786E+06         0.00000E+00
    0.54786E+06        -0.49801E+08         0.00000E+00
    0.00000E+00         0.00000E+00         0.15222E-07
 
    0.14879E+06         0.56057E+06         0.00000E+00
    0.56057E+06        -0.49910E+08         0.00000E+00
    0.00000E+00         0.00000E+00        -0.10148E-07
 
    0.14421E+06         0.57263E+06         0.00000E+00
    0.57263E+06        -0.50021E+08         0.00000E+00
    0.00000E+00         0.00000E+00        -0.15222E-07
 
    0.14039E+06         0.58413E+06         0.00000E+00
    0.58413E+06        -0.50132E+08         0.00000E+00
    0.00000E+00         0.00000E+00         0.00000E+00
 
    0.13723E+06         0.59516E+06         0.00000E+00
    0.59516E+06        -0.50244E+08         0.00000E+00
    0.00000E+00         0.00000E+00         0.20296E-07
 
    0.13467E+06         0.60579E+06         0.00000E+00
    0.60579E+06        -0.50357E+08         0.00000E+00
    0.00000E+00         0.00000E+00        -0.71037E-07
 
    0.13262E+06         0.61607E+06         0.00000E+00
    0.61607E+06        -0.50471E+08         0.00000E+00
    0.00000E+00         0.00000E+00        -0.15222E-07
 
    0.13102E+06         0.62607E+06         0.00000E+00
    0.62607E+06        -0.50586E+08         0.00000E+00
    0.00000E+00         0.00000E+00         0.50741E-08
 
    0.12981E+06         0.63583E+06         0.00000E+00
    0.63583E+06        -0.50703E+08         0.00000E+00
    0.00000E+00         0.00000E+00        -0.20296E-07
 
    0.12894E+06         0.64539E+06         0.00000E+00
    0.64539E+06        -0.50820E+08         0.00000E+00
    0.00000E+00         0.00000E+00         0.10148E-07
 
    0.12835E+06         0.65479E+06         0.00000E+00
    0.65479E+06        -0.50939E+08         0.00000E+00
    0.00000E+00         0.00000E+00         0.40593E-07
 
    0.12801E+06         0.66406E+06         0.00000E+00
    0.66406E+06        -0.51059E+08         0.00000E+00
    0.00000E+00         0.00000E+00        -0.35518E-07
 
    0.12786E+06         0.67322E+06         0.00000E+00
    0.67322E+06        -0.51181E+08         0.00000E+00
    0.00000E+00         0.00000E+00        -0.40592E-07
 
    0.12787E+06         0.68230E+06         0.00000E+00
    0.68230E+06        -0.51304E+08         0.00000E+00
    0.00000E+00         0.00000E+00        -0.10148E-07
 
    0.12800E+06         0.69131E+06         0.00000E+00
    0.69131E+06        -0.51428E+08         0.00000E+00
    0.00000E+00         0.00000E+00         0.00000E+00
 
    0.12823E+06         0.70026E+06         0.00000E+00
    0.70026E+06        -0.51554E+08         0.00000E+00
    0.00000E+00         0.00000E+00         0.00000E+00
 
    0.12853E+06         0.70918E+06         0.00000E+00
    0.70918E+06        -0.51682E+08         0.00000E+00
    0.00000E+00         0.00000E+00        -0.55815E-07
 
    0.12887E+06         0.71806E+06         0.00000E+00
    0.71806E+06        -0.51811E+08         0.00000E+00
    0.00000E+00         0.00000E+00        -0.10148E-07
 
    0.12923E+06         0.72692E+06         0.00000E+00
    0.72692E+06        -0.51941E+08         0.00000E+00
    0.00000E+00         0.00000E+00        -0.30444E-07
 
    0.12957E+06         0.73576E+06         0.00000E+00
    0.73576E+06        -0.52074E+08         0.00000E+00
    0.00000E+00         0.00000E+00        -0.45666E-07
 
    0.12989E+06         0.74457E+06         0.00000E+00
    0.74457E+06        -0.52207E+08         0.00000E+00
    0.00000E+00         0.00000E+00         0.50741E-08
 
    0.13017E+06         0.75337E+06         0.00000E+00
    0.75337E+06        -0.52343E+08         0.00000E+00
    0.00000E+00         0.00000E+00         0.25370E-07
 
    0.13037E+06         0.76214E+06         0.00000E+00
    0.76214E+06        -0.52480E+08         0.00000E+00
    0.00000E+00         0.00000E+00         0.25370E-07
 
    0.13050E+06         0.77088E+06         0.00000E+00
    0.77088E+06        -0.52619E+08         0.00000E+00
    0.00000E+00         0.00000E+00         0.00000E+00
 
    0.13052E+06         0.77960E+06         0.00000E+00
    0.77960E+06        -0.52760E+08         0.00000E+00
    0.00000E+00         0.00000E+00        -0.25370E-07
 
    0.13042E+06         0.78827E+06         0.00000E+00
    0.78827E+06        -0.52903E+08         0.00000E+00
    0.00000E+00         0.00000E+00        -0.15222E-07
 
    0.13019E+06         0.79690E+06         0.00000E+00
    0.79690E+06        -0.53047E+08         0.00000E+00
    0.00000E+00         0.00000E+00         0.10148E-07
 
    0.12981E+06         0.80547E+06         0.00000E+00
    0.80547E+06        -0.53193E+08         0.00000E+00
    0.00000E+00         0.00000E+00         0.20296E-07
 
    0.12926E+06         0.81397E+06         0.00000E+00
    0.81397E+06        -0.53341E+08         0.00000E+00
    0.00000E+00         0.00000E+00        -0.50741E-08
 
    0.12853E+06         0.82239E+06         0.00000E+00
    0.82239E+06        -0.53491E+08         0.00000E+00
    0.00000E+00         0.00000E+00         0.00000E+00
 
    0.12758E+06         0.83072E+06         0.00000E+00
    0.83072E+06        -0.53643E+08         0.00000E+00
    0.00000E+00         0.00000E+00         0.10148E-07
 
    0.12642E+06         0.83892E+06         0.00000E+00
    0.83892E+06        -0.53796E+08         0.00000E+00
    0.00000E+00         0.00000E+00         0.50741E-07
 
    0.12501E+06         0.84700E+06         0.00000E+00
    0.84700E+06        -0.53952E+08         0.00000E+00
    0.00000E+00         0.00000E+00         0.00000E+00
 
    0.12334E+06         0.85492E+06         0.00000E+00
    0.85492E+06        -0.54109E+08         0.00000E+00
    0.00000E+00         0.00000E+00         0.50741E-08
 
    0.12137E+06         0.86266E+06         0.00000E+00
    0.86266E+06        -0.54268E+08         0.00000E+00
    0.00000E+00         0.00000E+00         0.10148E-07
 
    0.11910E+06         0.87020E+06         0.00000E+00
    0.87020E+06        -0.54430E+08         0.00000E+00
    0.00000E+00         0.00000E+00         0.10148E-07
 
    0.11648E+06         0.87752E+06         0.00000E+00
    0.87752E+06        -0.54593E+08         0.00000E+00
    0.00000E+00         0.00000E+00        -0.20296E-07
 
    0.11349E+06         0.88457E+06         0.00000E+00
    0.88457E+06        -0.54757E+08         0.00000E+00
    0.00000E+00         0.00000E+00         0.10148E-07
 
    0.11009E+06         0.89133E+06         0.00000E+00
    0.89133E+06        -0.54924E+08         0.00000E+00
    0.00000E+00         0.00000E+00        -0.50741E-07
 
    0.10625E+06         0.89776E+06         0.00000E+00
    0.89776E+06        -0.55093E+08         0.00000E+00
    0.00000E+00         0.00000E+00         0.50741E-08
 
    0.10193E+06         0.90381E+06         0.00000E+00
    0.90381E+06        -0.55264E+08         0.00000E+00
    0.00000E+00         0.00000E+00        -0.15222E-07
 
    0.97087E+05         0.90945E+06         0.00000E+00
    0.90945E+06        -0.55436E+08         0.00000E+00
    0.00000E+00         0.00000E+00         0.10148E-07
 
    0.91663E+05         0.91462E+06         0.00000E+00
    0.91462E+06        -0.55611E+08         0.00000E+00
    0.00000E+00         0.00000E+00         0.20296E-07
 
    0.85604E+05         0.91927E+06         0.00000E+00
    0.91927E+06        -0.55787E+08         0.00000E+00
    0.00000E+00         0.00000E+00         0.55815E-07
 
    0.78851E+05         0.92333E+06         0.00000E+00
    0.92333E+06        -0.55965E+08         0.00000E+00
    0.00000E+00         0.00000E+00        -0.35518E-07
 
    0.71333E+05         0.92673E+06         0.00000E+00
    0.92673E+06        -0.56145E+08         0.00000E+00
    0.00000E+00         0.00000E+00         0.50741E-08
 
    0.62973E+05         0.92940E+06         0.00000E+00
    0.92940E+06        -0.56327E+08         0.00000E+00
    0.00000E+00         0.00000E+00        -0.25370E-07
 
    0.53686E+05         0.93125E+06         0.00000E+00
    0.93125E+06        -0.56511E+08         0.00000E+00
    0.00000E+00         0.00000E+00         0.20296E-07
 
    0.43378E+05         0.93219E+06         0.00000E+00
    0.93219E+06        -0.56697E+08         0.00000E+00
    0.00000E+00         0.00000E+00        -0.10148E-07
 
    0.31945E+05         0.93210E+06         0.00000E+00
    0.93210E+06        -0.56885E+08         0.00000E+00
    0.00000E+00         0.00000E+00         0.00000E+00
 
    0.19270E+05         0.93088E+06         0.00000E+00
    0.93088E+06        -0.57074E+08         0.00000E+00
    0.00000E+00         0.00000E+00         0.15222E-07
 
    0.52277E+04         0.92838E+06         0.00000E+00
    0.92838E+06        -0.57266E+08         0.00000E+00
    0.00000E+00         0.00000E+00        -0.35518E-07
 
   -0.10321E+05         0.92445E+06         0.00000E+00
    0.92445E+06        -0.57459E+08         0.00000E+00
    0.00000E+00         0.00000E+00         0.10148E-07
 
   -0.27525E+05         0.91894E+06         0.00000E+00
    0.91894E+06        -0.57655E+08         0.00000E+00
    0.00000E+00         0.00000E+00         0.15222E-07
 
   -0.46549E+05         0.91166E+06         0.00000E+00
    0.91166E+06        -0.57853E+08         0.00000E+00
    0.00000E+00         0.00000E+00        -0.35518E-07
 
   -0.67566E+05         0.90240E+06         0.00000E+00
    0.90240E+06        -0.58052E+08         0.00000E+00
    0.00000E+00         0.00000E+00        -0.50741E-08
 
   -0.90763E+05         0.89095E+06         0.00000E+00
    0.89095E+06        -0.58254E+08         0.00000E+00
    0.00000E+00         0.00000E+00        -0.50741E-08
 
   -0.11634E+06         0.87707E+06         0.00000E+00
    0.87707E+06        -0.58458E+08         0.00000E+00
    0.00000E+00         0.00000E+00        -0.50741E-08
 
   -0.14449E+06         0.86049E+06         0.00000E+00
    0.86049E+06        -0.58664E+08         0.00000E+00
    0.00000E+00         0.00000E+00         0.10148E-07
 
   -0.17544E+06         0.84094E+06         0.00000E+00
    0.84094E+06        -0.58872E+08         0.00000E+00
    0.00000E+00         0.00000E+00         0.30444E-07
 
   -0.20939E+06         0.81812E+06         0.00000E+00
    0.81812E+06        -0.59083E+08         0.00000E+00
    0.00000E+00         0.00000E+00        -0.60889E-07
 
   -0.24657E+06         0.79174E+06         0.00000E+00
    0.79174E+06        -0.59295E+08         0.00000E+00
    0.00000E+00         0.00000E+00         0.25370E-07
 
   -0.28720E+06         0.76150E+06         0.00000E+00
    0.76150E+06        -0.59510E+08         0.00000E+00
    0.00000E+00         0.00000E+00        -0.50741E-08
 
   -0.33147E+06         0.72711E+06         0.00000E+00
    0.72711E+06        -0.59727E+08         0.00000E+00
    0.00000E+00         0.00000E+00         0.76111E-07
 
   -0.37961E+06         0.68833E+06         0.00000E+00
    0.68833E+06        -0.59946E+08         0.00000E+00
    0.00000E+00         0.00000E+00         0.15222E-07
 
   -0.43180E+06         0.64494E+06         0.00000E+00
    0.64494E+06        -0.60167E+08         0.00000E+00
    0.00000E+00         0.00000E+00         0.35518E-07
 
   -0.48827E+06         0.59687E+06         0.00000E+00
    0.59687E+06        -0.60388E+08         0.00000E+00
    0.00000E+00         0.00000E+00         0.10148E-07
 
   -0.54923E+06         0.54415E+06         0.00000E+00
    0.54415E+06        -0.60610E+08         0.00000E+00
    0.00000E+00         0.00000E+00         0.25370E-07
 
   -0.61495E+06         0.48704E+06         0.00000E+00
    0.48704E+06        -0.60831E+08         0.00000E+00
    0.00000E+00         0.00000E+00         0.45667E-07
 
   -0.68580E+06         0.42608E+06         0.00000E+00
    0.42608E+06        -0.61050E+08         0.00000E+00
    0.00000E+00         0.00000E+00         0.25369E-07
 
   -0.76231E+06         0.36224E+06         0.00000E+00
    0.36224E+06        -0.61265E+08         0.00000E+00
    0.00000E+00         0.00000E+00         0.25369E-07
 
   -0.84530E+06         0.29698E+06         0.00000E+00
    0.29698E+06        -0.61473E+08         0.00000E+00
    0.00000E+00         0.00000E+00         0.55815E-07
 
   -0.93612E+06         0.23241E+06         0.00000E+00
    0.23241E+06        -0.61671E+08         0.00000E+00
    0.00000E+00         0.00000E+00        -0.40593E-07
 
   -0.10368E+07         0.17131E+06         0.00000E+00
    0.17131E+06        -0.61853E+08         0.00000E+00
    0.00000E+00         0.00000E+00         0.45667E-07
 
   -0.11505E+07         0.11684E+06         0.00000E+00
    0.11684E+06        -0.62012E+08         0.00000E+00
    0.00000E+00         0.00000E+00        -0.55815E-07
 
   -0.12813E+07         0.71797E+05         0.00000E+00
    0.71797E+05        -0.62142E+08         0.00000E+00
    0.00000E+00         0.00000E+00        -0.35518E-07
 
   -0.14340E+07         0.37279E+05         0.00000E+00
    0.37279E+05        -0.62235E+08         0.00000E+00
    0.00000E+00         0.00000E+00        -0.20297E-07
 
   -0.16129E+07         0.11312E+05         0.00000E+00
    0.11312E+05        -0.62283E+08         0.00000E+00
    0.00000E+00         0.00000E+00        -0.15222E-07
 
    0.81924E+06         0.60813E+04         0.00000E+00
    0.60813E+04        -0.47736E+08         0.00000E+00
    0.00000E+00         0.00000E+00        -0.35518E-07
 
    0.73650E+06         0.19894E+05         0.00000E+00
    0.19894E+05        -0.47759E+08         0.00000E+00
    0.00000E+00         0.00000E+00        -0.50741E-08
 
    0.66615E+06         0.38009E+05         0.00000E+00
    0.38009E+05        -0.47803E+08         0.00000E+00
    0.00000E+00         0.00000E+00         0.60889E-07
 
    0.60608E+06         0.61471E+05         0.00000E+00
    0.61471E+05        -0.47864E+08         0.00000E+00
    0.00000E+00         0.00000E+00        -0.25370E-07
 
    0.55406E+06         0.89771E+05         0.00000E+00
    0.89771E+05        -0.47939E+08         0.00000E+00
    0.00000E+00         0.00000E+00         0.15222E-07
 
    0.50822E+06         0.12154E+06         0.00000E+00
    0.12154E+06        -0.48024E+08         0.00000E+00
    0.00000E+00         0.00000E+00         0.15222E-07
 
    0.46723E+06         0.15521E+06         0.00000E+00
    0.15521E+06        -0.48116E+08         0.00000E+00
    0.00000E+00         0.00000E+00        -0.20296E-07
 
    0.43017E+06         0.18946E+06         0.00000E+00
    0.18946E+06        -0.48213E+08         0.00000E+00
    0.00000E+00         0.00000E+00        -0.50741E-08
 
    0.39648E+06         0.22327E+06         0.00000E+00
    0.22327E+06        -0.48314E+08         0.00000E+00
    0.00000E+00         0.00000E+00         0.81185E-07
 
    0.36577E+06         0.25593E+06         0.00000E+00
    0.25593E+06        -0.48417E+08         0.00000E+00
    0.00000E+00         0.00000E+00         0.50741E-08
 
    0.33778E+06         0.28702E+06         0.00000E+00
    0.28702E+06        -0.48521E+08         0.00000E+00
    0.00000E+00         0.00000E+00         0.40593E-07
 
    0.31233E+06         0.31627E+06         0.00000E+00
    0.31627E+06        -0.48626E+08         0.00000E+00
    0.00000E+00         0.00000E+00        -0.60889E-07
 
    0.28925E+06         0.34360E+06         0.00000E+00
    0.34360E+06        -0.48732E+08         0.00000E+00
    0.00000E+00         0.00000E+00         0.10148E-07
 
    0.26840E+06         0.36898E+06         0.00000E+00
    0.36898E+06        -0.48838E+08         0.00000E+00
    0.00000E+00         0.00000E+00        -0.50741E-08
 
    0.24965E+06         0.39247E+06         0.00000E+00
    0.39247E+06        -0.48944E+08         0.00000E+00
    0.00000E+00         0.00000E+00        -0.35518E-07
 
    0.23287E+06         0.41419E+06         0.00000E+00
    0.41419E+06        -0.49051E+08         0.00000E+00
    0.00000E+00         0.00000E+00        -0.10148E-07
 
    0.21793E+06         0.43424E+06         0.00000E+00
    0.43424E+06        -0.49157E+08         0.00000E+00
    0.00000E+00         0.00000E+00        -0.40592E-07
 
    0.20470E+06         0.45279E+06         0.00000E+00
    0.45279E+06        -0.49264E+08         0.00000E+00
    0.00000E+00         0.00000E+00         0.00000E+00
 
    0.19305E+06         0.46996E+06         0.00000E+00
    0.46996E+06        -0.49371E+08         0.00000E+00
    0.00000E+00         0.00000E+00         0.40593E-07
 
    0.18285E+06         0.48590E+06         0.00000E+00
    0.48590E+06        -0.49479E+08         0.00000E+00
    0.00000E+00         0.00000E+00         0.25370E-07
 
    0.17398E+06         0.50075E+06         0.00000E+00
    0.50075E+06        -0.49586E+08         0.00000E+00
    0.00000E+00         0.00000E+00        -0.30444E-07
 
    0.16631E+06         0.51464E+06         0.00000E+00
    0.51464E+06        -0.49695E+08         0.00000E+00
    0.00000E+00         0.00000E+00         0.30444E-07
 
    0.15973E+06         0.52768E+06         0.00000E+00
    0.52768E+06        -0.49803E+08         0.00000E+00
    0.00000E+00         0.00000E+00         0.86259E-07
 
    0.15414E+06         0.54000E+06         0.00000E+00
    0.54000E+06        -0.49913E+08         0.00000E+00
    0.00000E+00         0.00000E+00         0.50741E-08
 
    0.14942E+06         0.55168E+06         0.00000E+00
    0.55168E+06        -0.50023E+08         0.00000E+00
    0.00000E+00         0.00000E+00         0.30444E-07
 
    0.14548E+06         0.56281E+06         0.00000E+00
    0.56281E+06        -0.50134E+08         0.00000E+00
    0.00000E+00         0.00000E+00        -0.40593E-07
 
    0.14224E+06         0.57348E+06         0.00000E+00
    0.57348E+06        -0.50246E+08         0.00000E+00
    0.00000E+00         0.00000E+00        -0.50741E-08
 
    0.13960E+06         0.58375E+06         0.00000E+00
    0.58375E+06        -0.50359E+08         0.00000E+00
    0.00000E+00         0.00000E+00         0.35518E-07
 
    0.13750E+06         0.59369E+06         0.00000E+00
    0.59369E+06        -0.50473E+08         0.00000E+00
    0.00000E+00         0.00000E+00        -0.50741E-08
 
    0.13587E+06         0.60335E+06         0.00000E+00
    0.60335E+06        -0.50588E+08         0.00000E+00
    0.00000E+00         0.00000E+00         0.00000E+00
 
    0.13464E+06         0.61277E+06         0.00000E+00
    0.61277E+06        -0.50705E+08         0.00000E+00
    0.00000E+00         0.00000E+00        -0.50741E-07
 
    0.13376E+06         0.62200E+06         0.00000E+00
    0.62200E+06        -0.50822E+08         0.00000E+00
    0.00000E+00         0.00000E+00        -0.10148E-07
 
    0.13317E+06         0.63106E+06         0.00000E+00
    0.63106E+06        -0.50941E+08         0.00000E+00
    0.00000E+00         0.00000E+00        -0.25370E-07
 
    0.13283E+06         0.64000E+06         0.00000E+00
    0.64000E+06        -0.51061E+08         0.00000E+00
    0.00000E+00         0.00000E+00         0.40593E-07
 
    0.13269E+06         0.64884E+06         0.00000E+00
    0.64884E+06        -0.51183E+08         0.00000E+00
    0.00000E+00         0.00000E+00         0.40593E-07
 
    0.13272E+06         0.65759E+06         0.00000E+00
    0.65759E+06        -0.51306E+08         0.00000E+00
    0.00000E+00         0.00000E+00         0.10148E-07
 
    0.13288E+06         0.66627E+06         0.00000E+00
    0.66627E+06        -0.51430E+08         0.00000E+00
    0.00000E+00         0.00000E+00         0.10148E-07
 
    0.13313E+06         0.67490E+06         0.00000E+00
    0.67490E+06        -0.51556E+08         0.00000E+00
    0.00000E+00         0.00000E+00        -0.50741E-07
 
    0.13345E+06         0.68349E+06         0.00000E+00
    0.68349E+06        -0.51683E+08         0.00000E+00
    0.00000E+00         0.00000E+00        -0.65963E-07
 
    0.13382E+06         0.69205E+06         0.00000E+00
    0.69205E+06        -0.51812E+08         0.00000E+00
    0.00000E+00         0.00000E+00         0.40593E-07
 
    0.13419E+06         0.70058E+06         0.00000E+00
    0.70058E+06        -0.51943E+08         0.00000E+00
    0.00000E+00         0.00000E+00        -0.15222E-07
 
    0.13457E+06         0.70909E+06         0.00000E+00
    0.70909E+06        -0.52075E+08         0.00000E+00
    0.00000E+00         0.00000E+00        -0.30444E-07
 
    0.13491E+06         0.71758E+06         0.00000E+00
    0.71758E+06        -0.52209E+08         0.00000E+00
    0.00000E+00         0.00000E+00         0.50741E-08
 
    0.13520E+06         0.72604E+06         0.00000E+00
    0.72604E+06        -0.52345E+08         0.00000E+00
    0.00000E+00         0.00000E+00        -0.30444E-07
 
    0.13542E+06         0.73449E+06         0.00000E+00
    0.73449E+06        -0.52482E+08         0.00000E+00
    0.00000E+00         0.00000E+00        -0.10148E-07
 
    0.13556E+06         0.74291E+06         0.00000E+00
    0.74291E+06        -0.52621E+08         0.00000E+00
    0.00000E+00         0.00000E+00         0.50741E-07
 
    0.13559E+06         0.75129E+06         0.00000E+00
    0.75129E+06        -0.52762E+08         0.00000E+00
    0.00000E+00         0.00000E+00         0.00000E+00
 
    0.13550E+06         0.75964E+06         0.00000E+00
    0.75964E+06        -0.52904E+08         0.00000E+00
    0.00000E+00         0.00000E+00         0.30444E-07
 
    0.13527E+06         0.76794E+06         0.00000E+00
    0.76794E+06        -0.53049E+08         0.00000E+00
    0.00000E+00         0.00000E+00         0.10148E-07
 
    0.13488E+06         0.77619E+06         0.00000E+00
    0.77619E+06        -0.53195E+08         0.00000E+00
    0.00000E+00         0.00000E+00         0.50741E-08
 
    0.13431E+06         0.78437E+06         0.00000E+00
    0.78437E+06        -0.53343E+08         0.00000E+00
    0.00000E+00         0.00000E+00        -0.10148E-07
 
    0.13356E+06         0.79246E+06         0.00000E+00
    0.79246E+06        -0.53493E+08         0.00000E+00
    0.00000E+00         0.00000E+00        -0.20296E-07
 
    0.13259E+06         0.80047E+06         0.00000E+00
    0.80047E+06        -0.53644E+08         0.00000E+00
    0.00000E+00         0.00000E+00         0.50741E-08
 
    0.13139E+06         0.80836E+06         0.00000E+00
    0.80836E+06        -0.53798E+08         0.00000E+00
    0.00000E+00         0.00000E+00        -0.50741E-08
 
    0.12993E+06         0.81612E+06         0.00000E+00
    0.81612E+06        -0.53953E+08         0.00000E+00
    0.00000E+00         0.00000E+00         0.50741E-08
 
    0.12821E+06         0.82373E+06         0.00000E+00
    0.82373E+06        -0.54111E+08         0.00000E+00
    0.00000E+00         0.00000E+00         0.35518E-07
 
    0.12618E+06         0.83117E+06         0.00000E+00
    0.83117E+06        -0.54270E+08         0.00000E+00
    0.00000E+00         0.00000E+00        -0.30444E-07
 
    0.12383E+06         0.83842E+06         0.00000E+00
    0.83842E+06        -0.54431E+08         0.00000E+00
    0.00000E+00         0.00000E+00        -0.55814E-07
 
    0.12112E+06         0.84544E+06         0.00000E+00
    0.84544E+06        -0.54594E+08         0.00000E+00
    0.00000E+00         0.00000E+00         0.45475E-12
 
    0.11803E+06         0.85222E+06         0.00000E+00
    0.85222E+06        -0.54759E+08         0.00000E+00
    0.00000E+00         0.00000E+00        -0.10148E-07
 
    0.11452E+06         0.85870E+06         0.00000E+00
    0.85870E+06        -0.54926E+08         0.00000E+00
    0.00000E+00         0.00000E+00        -0.15222E-07
 
    0.11056E+06         0.86487E+06         0.00000E+00
    0.86487E+06        -0.55094E+08         0.00000E+00
    0.00000E+00         0.00000E+00        -0.40593E-07
 
    0.10609E+06         0.87067E+06         0.00000E+00
    0.87067E+06        -0.55265E+08         0.00000E+00
    0.00000E+00         0.00000E+00         0.10148E-07
 
    0.10108E+06         0.87607E+06         0.00000E+00
    0.87607E+06        -0.55437E+08         0.00000E+00
    0.00000E+00         0.00000E+00        -0.10148E-07
 
    0.95475E+05         0.88102E+06         0.00000E+00
    0.88102E+06        -0.55611E+08         0.00000E+00
    0.00000E+00         0.00000E+00        -0.30444E-07
 
    0.89213E+05         0.88545E+06         0.00000E+00
    0.88545E+06        -0.55788E+08         0.00000E+00
    0.00000E+00         0.00000E+00        -0.55815E-07
 
    0.82232E+05         0.88932E+06         0.00000E+00
    0.88932E+06        -0.55966E+08         0.00000E+00
    0.00000E+00         0.00000E+00         0.50741E-08
 
    0.74461E+05         0.89255E+06         0.00000E+00
    0.89255E+06        -0.56146E+08         0.00000E+00
    0.00000E+00         0.00000E+00        -0.35518E-07
 
    0.65820E+05         0.89507E+06         0.00000E+00
    0.89507E+06        -0.56328E+08         0.00000E+00
    0.00000E+00         0.00000E+00        -0.50741E-08
 
    0.56220E+05         0.89680E+06         0.00000E+00
    0.89680E+06        -0.56511E+08         0.00000E+00
    0.00000E+00         0.00000E+00        -0.50741E-08
 
    0.45564E+05         0.89764E+06         0.00000E+00
    0.89764E+06        -0.56697E+08         0.00000E+00
    0.00000E+00         0.00000E+00        -0.40593E-07
 
    0.33743E+05         0.89748E+06         0.00000E+00
    0.89748E+06        -0.56884E+08         0.00000E+00
    0.00000E+00         0.00000E+00         0.15222E-07
 
    0.20637E+05         0.89622E+06         0.00000E+00
    0.89622E+06        -0.57074E+08         0.00000E+00
    0.00000E+00         0.00000E+00        -0.50741E-07
 
    0.61136E+04         0.89371E+06         0.00000E+00
    0.89371E+06        -0.57265E+08         0.00000E+00
    0.00000E+00         0.00000E+00        -0.30444E-07
 
   -0.99709E+04         0.88982E+06         0.00000E+00
    0.88982E+06        -0.57459E+08         0.00000E+00
    0.00000E+00         0.00000E+00         0.00000E+00
 
   -0.27774E+05         0.88438E+06         0.00000E+00
    0.88438E+06        -0.57654E+08         0.00000E+00
    0.00000E+00         0.00000E+00        -0.10148E-07
 
   -0.47468E+05         0.87721E+06         0.00000E+00
    0.87721E+06        -0.57851E+08         0.00000E+00
    0.00000E+00         0.00000E+00        -0.15222E-07
 
   -0.69236E+05         0.86812E+06         0.00000E+00
    0.86812E+06        -0.58050E+08         0.00000E+00
    0.00000E+00         0.00000E+00        -0.20296E-07
 
   -0.93274E+05         0.85688E+06         0.00000E+00
    0.85688E+06        -0.58251E+08         0.00000E+00
    0.00000E+00         0.00000E+00         0.00000E+00
 
   -0.11979E+06         0.84326E+06         0.00000E+00
    0.84326E+06        -0.58455E+08         0.00000E+00
    0.00000E+00         0.00000E+00         0.10148E-07
 
   -0.14901E+06         0.82699E+06         0.00000E+00
    0.82699E+06        -0.58660E+08         0.00000E+00
    0.00000E+00         0.00000E+00        -0.50741E-07
 
   -0.18116E+06         0.80781E+06         0.00000E+00
    0.80781E+06        -0.58868E+08         0.00000E+00
    0.00000E+00         0.00000E+00         0.10148E-07
 
   -0.21646E+06         0.78543E+06         0.00000E+00
    0.78543E+06        -0.59078E+08         0.00000E+00
    0.00000E+00         0.00000E+00        -0.40593E-07
 
   -0.25517E+06         0.75953E+06         0.00000E+00
    0.75953E+06        -0.59290E+08         0.00000E+00
    0.00000E+00         0.00000E+00        -0.20296E-07
 
   -0.29751E+06         0.72983E+06         0.00000E+00
    0.72983E+06        -0.59504E+08         0.00000E+00
    0.00000E+00         0.00000E+00        -0.10148E-07
 
   -0.34372E+06         0.69604E+06         0.00000E+00
    0.69604E+06        -0.59720E+08         0.00000E+00
    0.00000E+00         0.00000E+00         0.15222E-07
 
   -0.39403E+06         0.65790E+06         0.00000E+00
    0.65790E+06        -0.59938E+08         0.00000E+00
    0.00000E+00         0.00000E+00         0.20295E-07
 
   -0.44867E+06         0.61523E+06         0.00000E+00
    0.61523E+06        -0.60157E+08         0.00000E+00
    0.00000E+00         0.00000E+00         0.00000E+00
 
   -0.50787E+06         0.56792E+06         0.00000E+00
    0.56792E+06        -0.60378E+08         0.00000E+00
    0.00000E+00         0.00000E+00         0.25370E-07
 
   -0.57186E+06         0.51603E+06         0.00000E+00
    0.51603E+06        -0.60599E+08         0.00000E+00
    0.00000E+00         0.00000E+00         0.40593E-07
 
   -0.64091E+06         0.45981E+06         0.00000E+00
    0.45981E+06        -0.60819E+08         0.00000E+00
    0.00000E+00         0.00000E+00        -0.15222E-07
 
   -0.71537E+06         0.39986E+06         0.00000E+00
    0.39986E+06        -0.61038E+08         0.00000E+00
    0.00000E+00         0.00000E+00        -0.50741E-08
 
   -0.79572E+06         0.33714E+06         0.00000E+00
    0.33714E+06        -0.61253E+08         0.00000E+00
    0.00000E+00         0.00000E+00         0.15222E-07
 
   -0.88268E+06         0.27322E+06         0.00000E+00
    0.27322E+06        -0.61461E+08         0.00000E+00
    0.00000E+00         0.00000E+00        -0.76111E-07
 
   -0.97743E+06         0.21032E+06         0.00000E+00
    0.21032E+06        -0.61658E+08         0.00000E+00
    0.00000E+00         0.00000E+00         0.50740E-07
 
   -0.10818E+07         0.15138E+06         0.00000E+00
    0.15138E+06        -0.61841E+08         0.00000E+00
    0.00000E+00         0.00000E+00        -0.10148E-07
 
   -0.11986E+07         0.99785E+05         0.00000E+00
    0.99785E+05        -0.62003E+08         0.00000E+00
    0.00000E+00         0.00000E+00        -0.55815E-07
 
   -0.13316E+07         0.58538E+05         0.00000E+00
    0.58538E+05        -0.62135E+08         0.00000E+00
    0.00000E+00         0.00000E+00         0.35518E-07
 
   -0.14857E+07         0.28796E+05         0.00000E+00
    0.28796E+05        -0.62230E+08         0.00000E+00
    0.00000E+00         0.00000E+00        -0.20296E-07
 
   -0.16652E+07         0.83847E+04         0.00000E+00
    0.83847E+04        -0.62279E+08         0.00000E+00
    0.00000E+00         0.00000E+00         0.50738E-08
 
    0.84499E+06         0.46951E+04         0.00000E+00
    0.46951E+04        -0.47738E+08         0.00000E+00
    0.00000E+00         0.00000E+00         0.35518E-07
 
    0.76200E+06         0.15885E+05         0.00000E+00
    0.15885E+05        -0.47762E+08         0.00000E+00
    0.00000E+00         0.00000E+00         0.25370E-07
 
    0.69107E+06         0.31754E+05         0.00000E+00
    0.31754E+05        -0.47807E+08         0.00000E+00
    0.00000E+00         0.00000E+00        -0.10148E-07
 
    0.63003E+06         0.53427E+05         0.00000E+00
    0.53427E+05        -0.47869E+08         0.00000E+00
    0.00000E+00         0.00000E+00         0.50741E-08
 
    0.57666E+06         0.80343E+05         0.00000E+00
    0.80343E+05        -0.47945E+08         0.00000E+00
    0.00000E+00         0.00000E+00        -0.35518E-07
 
    0.52921E+06         0.11102E+06         0.00000E+00
    0.11102E+06        -0.48031E+08         0.00000E+00
    0.00000E+00         0.00000E+00        -0.15222E-07
 
    0.48649E+06         0.14381E+06         0.00000E+00
    0.14381E+06        -0.48123E+08         0.00000E+00
    0.00000E+00         0.00000E+00         0.20296E-07
 
    0.44769E+06         0.17729E+06         0.00000E+00
    0.17729E+06        -0.48220E+08         0.00000E+00
    0.00000E+00         0.00000E+00         0.00000E+00
 
    0.41234E+06         0.21040E+06         0.00000E+00
    0.21040E+06        -0.48321E+08         0.00000E+00
    0.00000E+00         0.00000E+00        -0.50741E-08
 
    0.38008E+06         0.24241E+06         0.00000E+00
    0.24241E+06        -0.48423E+08         0.00000E+00
    0.00000E+00         0.00000E+00         0.00000E+00
 
    0.35070E+06         0.27288E+06         0.00000E+00
    0.27288E+06        -0.48527E+08         0.00000E+00
    0.00000E+00         0.00000E+00        -0.50741E-08
 
    0.32400E+06         0.30154E+06         0.00000E+00
    0.30154E+06        -0.48632E+08         0.00000E+00
    0.00000E+00         0.00000E+00        -0.55815E-07
 
    0.29982E+06         0.32829E+06         0.00000E+00
    0.32829E+06        -0.48737E+08         0.00000E+00
    0.00000E+00         0.00000E+00         0.10148E-07
 
    0.27801E+06         0.35311E+06         0.00000E+00
    0.35311E+06        -0.48843E+08         0.00000E+00
    0.00000E+00         0.00000E+00        -0.30444E-07
 
    0.25844E+06         0.37606E+06         0.00000E+00
    0.37606E+06        -0.48949E+08         0.00000E+00
    0.00000E+00         0.00000E+00        -0.20296E-07
 
    0.24095E+06         0.39725E+06         0.00000E+00
    0.39725E+06        -0.49055E+08         0.00000E+00
    0.00000E+00         0.00000E+00        -0.50741E-08
 
    0.22540E+06         0.41680E+06         0.00000E+00
    0.41680E+06        -0.49161E+08         0.00000E+00
    0.00000E+00         0.00000E+00        -0.50741E-08
 
    0.21166E+06         0.43485E+06         0.00000E+00
    0.43485E+06        -0.49268E+08         0.00000E+00
    0.00000E+00         0.00000E+00         0.50741E-08
 
    0.19957E+06         0.45155E+06         0.00000E+00
    0.45155E+06        -0.49374E+08         0.00000E+00
    0.00000E+00         0.00000E+00        -0.10148E-07
 
    0.18900E+06         0.46703E+06         0.00000E+00
    0.46703E+06        -0.49482E+08         0.00000E+00
    0.00000E+00         0.00000E+00        -0.50741E-08
 
    0.17983E+06         0.48144E+06         0.00000E+00
    0.48144E+06        -0.49589E+08         0.00000E+00
    0.00000E+00         0.00000E+00         0.00000E+00
 
    0.17191E+06         0.49491E+06         0.00000E+00
    0.49491E+06        -0.49697E+08         0.00000E+00
    0.00000E+00         0.00000E+00         0.50741E-08
 
    0.16512E+06         0.50754E+06         0.00000E+00
    0.50754E+06        -0.49806E+08         0.00000E+00
    0.00000E+00         0.00000E+00         0.15222E-07
 
    0.15936E+06         0.51946E+06         0.00000E+00
    0.51946E+06        -0.49915E+08         0.00000E+00
    0.00000E+00         0.00000E+00         0.00000E+00
 
    0.15450E+06         0.53075E+06         0.00000E+00
    0.53075E+06        -0.50025E+08         0.00000E+00
    0.00000E+00         0.00000E+00        -0.20296E-07
 
    0.15046E+06         0.54151E+06         0.00000E+00
    0.54151E+06        -0.50136E+08         0.00000E+00
    0.00000E+00         0.00000E+00         0.00000E+00
 
    0.14713E+06         0.55182E+06         0.00000E+00
    0.55182E+06        -0.50248E+08         0.00000E+00
    0.00000E+00         0.00000E+00        -0.30444E-07
 
    0.14444E+06         0.56173E+06         0.00000E+00
    0.56173E+06        -0.50361E+08         0.00000E+00
    0.00000E+00         0.00000E+00         0.30444E-07
 
    0.14230E+06         0.57132E+06         0.00000E+00
    0.57132E+06        -0.50475E+08         0.00000E+00
    0.00000E+00         0.00000E+00         0.10148E-07
 
    0.14064E+06         0.58063E+06         0.00000E+00
    0.58063E+06        -0.50590E+08         0.00000E+00
    0.00000E+00         0.00000E+00        -0.50741E-08
 
    0.13939E+06         0.58971E+06         0.00000E+00
    0.58971E+06        -0.50706E+08         0.00000E+00
    0.00000E+00         0.00000E+00        -0.25370E-07
 
    0.13850E+06         0.59860E+06         0.00000E+00
    0.59860E+06        -0.50824E+08         0.00000E+00
    0.00000E+00         0.00000E+00        -0.15222E-07
 
    0.13791E+06         0.60734E+06         0.00000E+00
    0.60734E+06        -0.50943E+08         0.00000E+00
    0.00000E+00         0.00000E+00         0.15222E-07
 
    0.13758E+06         0.61594E+06         0.00000E+00
    0.61594E+06        -0.51063E+08         0.00000E+00
    0.00000E+00         0.00000E+00         0.10148E-07
 
    0.13746E+06         0.62445E+06         0.00000E+00
    0.62445E+06        -0.51184E+08         0.00000E+00
    0.00000E+00         0.00000E+00        -0.45666E-07
 
    0.13750E+06         0.63287E+06         0.00000E+00
    0.63287E+06        -0.51307E+08         0.00000E+00
    0.00000E+00         0.00000E+00         0.20296E-07
 
    0.13768E+06         0.64123E+06         0.00000E+00
    0.64123E+06        -0.51432E+08         0.00000E+00
    0.00000E+00         0.00000E+00        -0.30444E-07
 
    0.13796E+06         0.64953E+06         0.00000E+00
    0.64953E+06        -0.51558E+08         0.00000E+00
    0.00000E+00         0.00000E+00        -0.15222E-07
 
    0.13831E+06         0.65780E+06         0.00000E+00
    0.65780E+06        -0.51685E+08         0.00000E+00
    0.00000E+00         0.00000E+00        -0.76111E-07
 
    0.13870E+06         0.66603E+06         0.00000E+00
    0.66603E+06        -0.51814E+08         0.00000E+00
    0.00000E+00         0.00000E+00         0.50741E-08
 
    0.13910E+06         0.67423E+06         0.00000E+00
    0.67423E+06        -0.51945E+08         0.00000E+00
    0.00000E+00         0.00000E+00         0.00000E+00
 
    0.13949E+06         0.68242E+06         0.00000E+00
    0.68242E+06        -0.52077E+08         0.00000E+00
    0.00000E+00         0.00000E+00        -0.50741E-08
 
    0.13986E+06         0.69058E+06         0.00000E+00
    0.69058E+06        -0.52211E+08         0.00000E+00
    0.00000E+00         0.00000E+00        -0.55815E-07
 
    0.14017E+06         0.69872E+06         0.00000E+00
    0.69872E+06        -0.52346E+08         0.00000E+00
    0.00000E+00         0.00000E+00        -0.50741E-08
 
    0.14041E+06         0.70683E+06         0.00000E+00
    0.70683E+06        -0.52484E+08         0.00000E+00
    0.00000E+00         0.00000E+00         0.86259E-07
 
    0.14056E+06         0.71492E+06         0.00000E+00
    0.71492E+06        -0.52623E+08         0.00000E+00
    0.00000E+00         0.00000E+00         0.10148E-07
 
    0.14060E+06         0.72298E+06         0.00000E+00
    0.72298E+06        -0.52763E+08         0.00000E+00
    0.00000E+00         0.00000E+00         0.00000E+00
 
    0.14051E+06         0.73101E+06         0.00000E+00
    0.73101E+06        -0.52906E+08         0.00000E+00
    0.00000E+00         0.00000E+00        -0.15222E-07
 
    0.14028E+06         0.73898E+06         0.00000E+00
    0.73898E+06        -0.53050E+08         0.00000E+00
    0.00000E+00         0.00000E+00         0.20296E-07
 
    0.13989E+06         0.74691E+06         0.00000E+00
    0.74691E+06        -0.53197E+08         0.00000E+00
    0.00000E+00         0.00000E+00         0.35518E-07
 
    0.13931E+06         0.75476E+06         0.00000E+00
    0.75476E+06        -0.53345E+08         0.00000E+00
    0.00000E+00         0.00000E+00         0.45666E-07
 
    0.13853E+06         0.76254E+06         0.00000E+00
    0.76254E+06        -0.53494E+08         0.00000E+00
    0.00000E+00         0.00000E+00        -0.50741E-08
 
    0.13754E+06         0.77022E+06         0.00000E+00
    0.77022E+06        -0.53646E+08         0.00000E+00
    0.00000E+00         0.00000E+00        -0.10148E-07
 
    0.13630E+06         0.77780E+06         0.00000E+00
    0.77780E+06        -0.53800E+08         0.00000E+00
    0.00000E+00         0.00000E+00         0.10148E-07
 
    0.13481E+06         0.78525E+06         0.00000E+00
    0.78525E+06        -0.53955E+08         0.00000E+00
    0.00000E+00         0.00000E+00         0.00000E+00
 
    0.13303E+06         0.79256E+06         0.00000E+00
    0.79256E+06        -0.54112E+08         0.00000E+00
    0.00000E+00         0.00000E+00        -0.40593E-07
 
    0.13094E+06         0.79970E+06         0.00000E+00
    0.79970E+06        -0.54271E+08         0.00000E+00
    0.00000E+00         0.00000E+00         0.50741E-08
 
    0.12852E+06         0.80665E+06         0.00000E+00
    0.80665E+06        -0.54432E+08         0.00000E+00
    0.00000E+00         0.00000E+00         0.50741E-08
 
    0.12573E+06         0.81339E+06         0.00000E+00
    0.81339E+06        -0.54595E+08         0.00000E+00
    0.00000E+00         0.00000E+00        -0.50741E-08
 
    0.12254E+06         0.81988E+06         0.00000E+00
    0.81988E+06        -0.54760E+08         0.00000E+00
    0.00000E+00         0.00000E+00         0.86259E-07
 
    0.11892E+06         0.82610E+06         0.00000E+00
    0.82610E+06        -0.54927E+08         0.00000E+00
    0.00000E+00         0.00000E+00         0.10148E-07
 
    0.11483E+06         0.83200E+06         0.00000E+00
    0.83200E+06        -0.55095E+08         0.00000E+00
    0.00000E+00         0.00000E+00         0.50741E-08
 
    0.11023E+06         0.83756E+06         0.00000E+00
    0.83756E+06        -0.55266E+08         0.00000E+00
    0.00000E+00         0.00000E+00         0.15222E-07
 
    0.10506E+06         0.84272E+06         0.00000E+00
    0.84272E+06        -0.55438E+08         0.00000E+00
    0.00000E+00         0.00000E+00         0.30444E-07
 
    0.99276E+05         0.84745E+06         0.00000E+00
    0.84745E+06        -0.55612E+08         0.00000E+00
    0.00000E+00         0.00000E+00         0.00000E+00
 
    0.92817E+05         0.85168E+06         0.00000E+00
    0.85168E+06        -0.55788E+08         0.00000E+00
    0.00000E+00         0.00000E+00        -0.50741E-08
 
    0.85617E+05         0.85536E+06         0.00000E+00
    0.85536E+06        -0.55966E+08         0.00000E+00
    0.00000E+00         0.00000E+00        -0.30444E-07
 
    0.77601E+05         0.85843E+06         0.00000E+00
    0.85843E+06        -0.56146E+08         0.00000E+00
    0.00000E+00         0.00000E+00        -0.20296E-07
 
    0.68688E+05         0.86081E+06         0.00000E+00
    0.86081E+06        -0.56328E+08         0.00000E+00
    0.00000E+00         0.00000E+00        -0.15222E-07
 
    0.58786E+05         0.86241E+06         0.00000E+00
    0.86241E+06        -0.56512E+08         0.00000E+00
    0.00000E+00         0.00000E+00         0.20296E-07
 
    0.47793E+05         0.86316E+06         0.00000E+00
    0.86316E+06        -0.56697E+08         0.00000E+00
    0.00000E+00         0.00000E+00        -0.30444E-07
 
    0.35597E+05         0.86294E+06         0.00000E+00
    0.86294E+06        -0.56884E+08         0.00000E+00
    0.00000E+00         0.00000E+00         0.76111E-07
 
    0.22073E+05         0.86164E+06         0.00000E+00
    0.86164E+06        -0.57073E+08         0.00000E+00
    0.00000E+00         0.00000E+00         0.50741E-08
 
    0.70843E+04         0.85914E+06         0.00000E+00
    0.85914E+06        -0.57265E+08         0.00000E+00
    0.00000E+00         0.00000E+00        -0.15222E-07
 
   -0.95197E+04         0.85529E+06         0.00000E+00
    0.85529E+06        -0.57458E+08         0.00000E+00
    0.00000E+00         0.00000E+00        -0.20295E-07
 
   -0.27904E+05         0.84994E+06         0.00000E+00
    0.84994E+06        -0.57652E+08         0.00000E+00
    0.00000E+00         0.00000E+00         0.50741E-08
 
   -0.48248E+05         0.84290E+06         0.00000E+00
    0.84290E+06        -0.57849E+08         0.00000E+00
    0.00000E+00         0.00000E+00         0.10148E-07
 
   -0.70745E+05         0.83399E+06         0.00000E+00
    0.83399E+06        -0.58048E+08         0.00000E+00
    0.00000E+00         0.00000E+00        -0.10148E-07
 
   -0.95603E+05         0.82298E+06         0.00000E+00
    0.82298E+06        -0.58249E+08         0.00000E+00
    0.00000E+00         0.00000E+00         0.50741E-08
 
   -0.12304E+06         0.80964E+06         0.00000E+00
    0.80964E+06        -0.58452E+08         0.00000E+00
    0.00000E+00         0.00000E+00        -0.10148E-07
 
   -0.15330E+06         0.79372E+06         0.00000E+00
    0.79372E+06        -0.58657E+08         0.00000E+00
    0.00000E+00         0.00000E+00         0.00000E+00
 
   -0.18662E+06         0.77494E+06         0.00000E+00
    0.77494E+06        -0.58864E+08         0.00000E+00
    0.00000E+00         0.00000E+00        -0.35518E-07
 
   -0.22326E+06         0.75301E+06         0.00000E+00
    0.75301E+06        -0.59073E+08         0.00000E+00
    0.00000E+00         0.00000E+00        -0.35518E-07
 
   -0.26346E+06         0.72764E+06         0.00000E+00
    0.72764E+06        -0.59284E+08         0.00000E+00
    0.00000E+00         0.00000E+00        -0.25370E-07
 
   -0.30750E+06         0.69852E+06         0.00000E+00
    0.69852E+06        -0.59498E+08         0.00000E+00
    0.00000E+00         0.00000E+00         0.00000E+00
 
   -0.35563E+06         0.66537E+06         0.00000E+00
    0.66537E+06        -0.59713E+08         0.00000E+00
    0.00000E+00         0.00000E+00        -0.91333E-07
 
   -0.40811E+06         0.62794E+06         0.00000E+00
    0.62794E+06        -0.59930E+08         0.00000E+00
    0.00000E+00         0.00000E+00         0.00000E+00
 
   -0.46519E+06         0.58603E+06         0.00000E+00
    0.58603E+06        -0.60149E+08         0.00000E+00
    0.00000E+00         0.00000E+00         0.50741E-08
 
   -0.52712E+06         0.53955E+06         0.00000E+00
    0.53955E+06        -0.60368E+08         0.00000E+00
    0.00000E+00         0.00000E+00        -0.10147E-07
 
   -0.59415E+06         0.48854E+06         0.00000E+00
    0.48854E+06        -0.60588E+08         0.00000E+00
    0.00000E+00         0.00000E+00         0.20296E-07
 
   -0.66656E+06         0.43329E+06         0.00000E+00
    0.43329E+06        -0.60808E+08         0.00000E+00
    0.00000E+00         0.00000E+00         0.65963E-07
 
   -0.74466E+06         0.37438E+06         0.00000E+00
    0.37438E+06        -0.61026E+08         0.00000E+00
    0.00000E+00         0.00000E+00        -0.15222E-07
 
   -0.82889E+06         0.31284E+06         0.00000E+00
    0.31284E+06        -0.61240E+08         0.00000E+00
    0.00000E+00         0.00000E+00        -0.20296E-07
 
   -0.91988E+06         0.25027E+06         0.00000E+00
    0.25027E+06        -0.61448E+08         0.00000E+00
    0.00000E+00         0.00000E+00         0.10148E-07
 
   -0.10186E+07         0.18900E+06         0.00000E+00
    0.18900E+06        -0.61646E+08         0.00000E+00
    0.00000E+00         0.00000E+00        -0.25370E-07
 
   -0.11266E+07         0.13213E+06         0.00000E+00
    0.13213E+06        -0.61830E+08         0.00000E+00
    0.00000E+00         0.00000E+00         0.40593E-07
 
   -0.12465E+07         0.83265E+05         0.00000E+00
    0.83265E+05        -0.61994E+08         0.00000E+00
    0.00000E+00         0.00000E+00        -0.20296E-07
 
   -0.13818E+07         0.45632E+05         0.00000E+00
    0.45632E+05        -0.62128E+08         0.00000E+00
    0.00000E+00         0.00000E+00         0.15222E-07
 
   -0.15372E+07         0.20497E+05         0.00000E+00
    0.20497E+05        -0.62225E+08         0.00000E+00
    0.00000E+00         0.00000E+00         0.50741E-08
 
   -0.17172E+07         0.55105E+04         0.00000E+00
    0.55105E+04        -0.62276E+08         0.00000E+00
    0.00000E+00         0.00000E+00         0.30445E-07
 
    0.87062E+06         0.33289E+04         0.00000E+00
    0.33289E+04        -0.47740E+08         0.00000E+00
    0.00000E+00         0.00000E+00        -0.25370E-07
 
    0.78739E+06         0.11947E+05         0.00000E+00
    0.11947E+05        -0.47764E+08         0.00000E+00
    0.00000E+00         0.00000E+00         0.20296E-07
 
    0.71591E+06         0.25647E+05         0.00000E+00
    0.25647E+05        -0.47810E+08         0.00000E+00
    0.00000E+00         0.00000E+00         0.00000E+00
 
    0.65389E+06         0.45615E+05         0.00000E+00
    0.45615E+05        -0.47874E+08         0.00000E+00
    0.00000E+00         0.00000E+00        -0.91333E-07
 
    0.59916E+06         0.71215E+05         0.00000E+00
    0.71215E+05        -0.47951E+08         0.00000E+00
    0.00000E+00         0.00000E+00         0.15222E-07
 
    0.55009E+06         0.10085E+06         0.00000E+00
    0.10085E+06        -0.48037E+08         0.00000E+00
    0.00000E+00         0.00000E+00         0.10148E-07
 
    0.50560E+06         0.13276E+06         0.00000E+00
    0.13276E+06        -0.48130E+08         0.00000E+00
    0.00000E+00         0.00000E+00        -0.30444E-07
 
    0.46505E+06         0.16546E+06         0.00000E+00
    0.16546E+06        -0.48227E+08         0.00000E+00
    0.00000E+00         0.00000E+00        -0.50741E-07
 
    0.42800E+06         0.19785E+06         0.00000E+00
    0.19785E+06        -0.48327E+08         0.00000E+00
    0.00000E+00         0.00000E+00        -0.35518E-07
 
    0.39419E+06         0.22919E+06         0.00000E+00
    0.22919E+06        -0.48429E+08         0.00000E+00
    0.00000E+00         0.00000E+00        -0.50741E-07
 
    0.36340E+06         0.25901E+06         0.00000E+00
    0.25901E+06        -0.48533E+08         0.00000E+00
    0.00000E+00         0.00000E+00         0.00000E+00
 
    0.33545E+06         0.28704E+06         0.00000E+00
    0.28704E+06        -0.48637E+08         0.00000E+00
    0.00000E+00         0.00000E+00         0.25370E-07
 
    0.31017E+06         0.31318E+06         0.00000E+00
    0.31318E+06        -0.48742E+08         0.00000E+00
    0.00000E+00         0.00000E+00        -0.10148E-07
 
    0.28741E+06         0.33742E+06         0.00000E+00
    0.33742E+06        -0.48848E+08         0.00000E+00
    0.00000E+00         0.00000E+00         0.35518E-07
 
    0.26701E+06         0.35980E+06         0.00000E+00
    0.35980E+06        -0.48953E+08         0.00000E+00
    0.00000E+00         0.00000E+00         0.10148E-07
 
    0.24882E+06         0.38044E+06         0.00000E+00
    0.38044E+06        -0.49059E+08         0.00000E+00
    0.00000E+00         0.00000E+00        -0.50741E-08
 
    0.23267E+06         0.39947E+06         0.00000E+00
    0.39947E+06        -0.49165E+08         0.00000E+00
    0.00000E+00         0.00000E+00        -0.40593E-07
 
    0.21842E+06         0.41701E+06         0.00000E+00
    0.41701E+06        -0.49271E+08         0.00000E+00
    0.00000E+00         0.00000E+00        -0.50741E-08
 
    0.20591E+06         0.43322E+06         0.00000E+00
    0.43322E+06        -0.49378E+08         0.00000E+00
    0.00000E+00         0.00000E+00         0.00000E+00
 
    0.19499E+06         0.44823E+06         0.00000E+00
    0.44823E+06        -0.49485E+08         0.00000E+00
    0.00000E+00         0.00000E+00        -0.65963E-07
 
    0.18552E+06         0.46219E+06         0.00000E+00
    0.46219E+06        -0.49592E+08         0.00000E+00
    0.00000E+00         0.00000E+00         0.45667E-07
 
    0.17736E+06         0.47522E+06         0.00000E+00
    0.47522E+06        -0.49700E+08         0.00000E+00
    0.00000E+00         0.00000E+00         0.30444E-07
 
    0.17038E+06         0.48744E+06         0.00000E+00
    0.48744E+06        -0.49808E+08         0.00000E+00
    0.00000E+00         0.00000E+00        -0.30444E-07
 
    0.16445E+06         0.49895E+06         0.00000E+00
    0.49895E+06        -0.49917E+08         0.00000E+00
    0.00000E+00         0.00000E+00        -0.30444E-07
 
    0.15947E+06         0.50985E+06         0.00000E+00
    0.50985E+06        -0.50027E+08         0.00000E+00
    0.00000E+00         0.00000E+00         0.50741E-08
 
    0.15533E+06         0.52023E+06         0.00000E+00
    0.52023E+06        -0.50138E+08         0.00000E+00
    0.00000E+00         0.00000E+00         0.00000E+00
 
    0.15193E+06         0.53017E+06         0.00000E+00
    0.53017E+06        -0.50250E+08         0.00000E+00
    0.00000E+00         0.00000E+00         0.40593E-07
 
    0.14918E+06         0.53972E+06         0.00000E+00
    0.53972E+06        -0.50363E+08         0.00000E+00
    0.00000E+00         0.00000E+00         0.35518E-07
 
    0.14699E+06         0.54895E+06         0.00000E+00
    0.54895E+06        -0.50477E+08         0.00000E+00
    0.00000E+00         0.00000E+00         0.40593E-07
 
    0.14531E+06         0.55792E+06         0.00000E+00
    0.55792E+06        -0.50592E+08         0.00000E+00
    0.00000E+00         0.00000E+00        -0.50741E-08
 
    0.14405E+06         0.56665E+06         0.00000E+00
    0.56665E+06        -0.50708E+08         0.00000E+00
    0.00000E+00         0.00000E+00         0.00000E+00
 
    0.14316E+06         0.57521E+06         0.00000E+00
    0.57521E+06        -0.50826E+08         0.00000E+00
    0.00000E+00         0.00000E+00        -0.15222E-07
 
    0.14258E+06         0.58361E+06         0.00000E+00
    0.58361E+06        -0.50944E+08         0.00000E+00
    0.00000E+00         0.00000E+00         0.20296E-07
 
    0.14225E+06         0.59188E+06         0.00000E+00
    0.59188E+06        -0.51065E+08         0.00000E+00
    0.00000E+00         0.00000E+00        -0.35518E-07
 
    0.14215E+06         0.60006E+06         0.00000E+00
    0.60006E+06        -0.51186E+08         0.00000E+00
    0.00000E+00         0.00000E+00         0.30444E-07
 
    0.14221E+06         0.60815E+06         0.00000E+00
    0.60815E+06        -0.51309E+08         0.00000E+00
    0.00000E+00         0.00000E+00         0.50741E-07
 
    0.14242E+06         0.61618E+06         0.00000E+00
    0.61618E+06        -0.51433E+08         0.00000E+00
    0.00000E+00         0.00000E+00         0.40593E-07
 
    0.14272E+06         0.62416E+06         0.00000E+00
    0.62416E+06        -0.51559E+08         0.00000E+00
    0.00000E+00         0.00000E+00        -0.50741E-08
 
    0.14309E+06         0.63210E+06         0.00000E+00
    0.63210E+06        -0.51687E+08         0.00000E+00
    0.00000E+00         0.00000E+00        -0.50741E-07
 
    0.14351E+06         0.64000E+06         0.00000E+00
    0.64000E+06        -0.51816E+08         0.00000E+00
    0.00000E+00         0.00000E+00         0.15222E-07
 
    0.14394E+06         0.64788E+06         0.00000E+00
    0.64788E+06        -0.51946E+08         0.00000E+00
    0.00000E+00         0.00000E+00        -0.50741E-07
 
    0.14436E+06         0.65574E+06         0.00000E+00
    0.65574E+06        -0.52078E+08         0.00000E+00
    0.00000E+00         0.00000E+00        -0.55815E-07
 
    0.14474E+06         0.66357E+06         0.00000E+00
    0.66357E+06        -0.52212E+08         0.00000E+00
    0.00000E+00         0.00000E+00        -0.50741E-08
 
    0.14508E+06         0.67139E+06         0.00000E+00
    0.67139E+06        -0.52348E+08         0.00000E+00
    0.00000E+00         0.00000E+00         0.71037E-07
 
    0.14534E+06         0.67918E+06         0.00000E+00
    0.67918E+06        -0.52485E+08         0.00000E+00
    0.00000E+00         0.00000E+00         0.20296E-07
 
    0.14550E+06         0.68694E+06         0.00000E+00
    0.68694E+06        -0.52624E+08         0.00000E+00
    0.00000E+00         0.00000E+00        -0.10148E-07
 
    0.14555E+06         0.69468E+06         0.00000E+00
    0.69468E+06        -0.52765E+08         0.00000E+00
    0.00000E+00         0.00000E+00        -0.50741E-08
 
    0.14547E+06         0.70237E+06         0.00000E+00
    0.70237E+06        -0.52908E+08         0.00000E+00
    0.00000E+00         0.00000E+00         0.50741E-08
 
    0.14524E+06         0.71003E+06         0.00000E+00
    0.71003E+06        -0.53052E+08         0.00000E+00
    0.00000E+00         0.00000E+00        -0.10148E-07
 
    0.14484E+06         0.71762E+06         0.00000E+00
    0.71762E+06        -0.53198E+08         0.00000E+00
    0.00000E+00         0.00000E+00         0.35518E-07
 
    0.14425E+06         0.72516E+06         0.00000E+00
    0.72516E+06        -0.53346E+08         0.00000E+00
    0.00000E+00         0.00000E+00         0.35518E-07
 
    0.14346E+06         0.73262E+06         0.00000E+00
    0.73262E+06        -0.53496E+08         0.00000E+00
    0.00000E+00         0.00000E+00         0.00000E+00
 
    0.14244E+06         0.73999E+06         0.00000E+00
    0.73999E+06        -0.53648E+08         0.00000E+00
    0.00000E+00         0.00000E+00        -0.20296E-07
 
    0.14117E+06         0.74725E+06         0.00000E+00
    0.74725E+06        -0.53801E+08         0.00000E+00
    0.00000E+00         0.00000E+00         0.20296E-07
 
    0.13964E+06         0.75439E+06         0.00000E+00
    0.75439E+06        -0.53956E+08         0.00000E+00
    0.00000E+00         0.00000E+00         0.00000E+00
 
    0.13781E+06         0.76140E+06         0.00000E+00
    0.76140E+06        -0.54114E+08         0.00000E+00
    0.00000E+00         0.00000E+00        -0.10148E-07
 
    0.13566E+06         0.76824E+06         0.00000E+00
    0.76824E+06        -0.54273E+08         0.00000E+00
    0.00000E+00         0.00000E+00        -0.45666E-07
 
    0.13316E+06         0.77490E+06         0.00000E+00
    0.77490E+06        -0.54434E+08         0.00000E+00
    0.00000E+00         0.00000E+00         0.30444E-07
 
    0.13029E+06         0.78135E+06         0.00000E+00
    0.78135E+06        -0.54597E+08         0.00000E+00
    0.00000E+00         0.00000E+00         0.50741E-08
 
    0.12702E+06         0.78757E+06         0.00000E+00
    0.78757E+06        -0.54761E+08         0.00000E+00
    0.00000E+00         0.00000E+00         0.25370E-07
 
    0.12329E+06         0.79352E+06         0.00000E+00
    0.79352E+06        -0.54928E+08         0.00000E+00
    0.00000E+00         0.00000E+00         0.50741E-08
 
    0.11908E+06         0.79916E+06         0.00000E+00
    0.79916E+06        -0.55096E+08         0.00000E+00
    0.00000E+00         0.00000E+00        -0.45667E-07
 
    0.11434E+06         0.80448E+06         0.00000E+00
    0.80448E+06        -0.55267E+08         0.00000E+00
    0.00000E+00         0.00000E+00         0.50741E-07
 
    0.10902E+06         0.80941E+06         0.00000E+00
    0.80941E+06        -0.55439E+08         0.00000E+00
    0.00000E+00         0.00000E+00        -0.45667E-07
 
    0.10307E+06         0.81392E+06         0.00000E+00
    0.81392E+06        -0.55613E+08         0.00000E+00
    0.00000E+00         0.00000E+00        -0.50741E-08
 
    0.96420E+05         0.81795E+06         0.00000E+00
    0.81795E+06        -0.55789E+08         0.00000E+00
    0.00000E+00         0.00000E+00        -0.30444E-07
 
    0.89007E+05         0.82145E+06         0.00000E+00
    0.82145E+06        -0.55967E+08         0.00000E+00
    0.00000E+00         0.00000E+00        -0.45667E-07
 
    0.80755E+05         0.82435E+06         0.00000E+00
    0.82435E+06        -0.56147E+08         0.00000E+00
    0.00000E+00         0.00000E+00        -0.35518E-07
 
    0.71579E+05         0.82659E+06         0.00000E+00
    0.82659E+06        -0.56328E+08         0.00000E+00
    0.00000E+00         0.00000E+00         0.60889E-07
 
    0.61385E+05         0.82809E+06         0.00000E+00
    0.82809E+06        -0.56512E+08         0.00000E+00
    0.00000E+00         0.00000E+00         0.15222E-07
 
    0.50066E+05         0.82875E+06         0.00000E+00
    0.82875E+06        -0.56697E+08         0.00000E+00
    0.00000E+00         0.00000E+00         0.00000E+00
 
    0.37508E+05         0.82847E+06         0.00000E+00
    0.82847E+06        -0.56884E+08         0.00000E+00
    0.00000E+00         0.00000E+00         0.15222E-07
 
    0.23581E+05         0.82716E+06         0.00000E+00
    0.82716E+06        -0.57073E+08         0.00000E+00
    0.00000E+00         0.00000E+00        -0.40593E-07
 
    0.81430E+04         0.82467E+06         0.00000E+00
    0.82467E+06        -0.57264E+08         0.00000E+00
    0.00000E+00         0.00000E+00        -0.40593E-07
 
   -0.89635E+04         0.82088E+06         0.00000E+00
    0.82088E+06        -0.57457E+08         0.00000E+00
    0.00000E+00         0.00000E+00         0.60889E-07
 
   -0.27910E+05         0.81562E+06         0.00000E+00
    0.81562E+06        -0.57651E+08         0.00000E+00
    0.00000E+00         0.00000E+00         0.50741E-08
 
   -0.48884E+05         0.80873E+06         0.00000E+00
    0.80873E+06        -0.57848E+08         0.00000E+00
    0.00000E+00         0.00000E+00        -0.71037E-07
 
   -0.72089E+05         0.80001E+06         0.00000E+00
    0.80001E+06        -0.58046E+08         0.00000E+00
    0.00000E+00         0.00000E+00        -0.76111E-07
 
   -0.97744E+05         0.78925E+06         0.00000E+00
    0.78925E+06        -0.58247E+08         0.00000E+00
    0.00000E+00         0.00000E+00        -0.10148E-07
 
   -0.12608E+06         0.77622E+06         0.00000E+00
    0.77622E+06        -0.58449E+08         0.00000E+00
    0.00000E+00         0.00000E+00        -0.20296E-07
 
   -0.15736E+06         0.76067E+06         0.00000E+00
    0.76067E+06        -0.58653E+08         0.00000E+00
    0.00000E+00         0.00000E+00         0.81185E-07
 
   -0.19183E+06         0.74232E+06         0.00000E+00
    0.74232E+06        -0.58860E+08         0.00000E+00
    0.00000E+00         0.00000E+00         0.71037E-07
 
   -0.22976E+06         0.72088E+06         0.00000E+00
    0.72088E+06        -0.59068E+08         0.00000E+00
    0.00000E+00         0.00000E+00        -0.30444E-07
 
   -0.27144E+06         0.69607E+06         0.00000E+00
    0.69607E+06        -0.59279E+08         0.00000E+00
    0.00000E+00         0.00000E+00         0.00000E+00
 
   -0.31716E+06         0.66757E+06         0.00000E+00
    0.66757E+06        -0.59491E+08         0.00000E+00
    0.00000E+00         0.00000E+00         0.00000E+00
 
   -0.36719E+06         0.63511E+06         0.00000E+00
    0.63511E+06        -0.59706E+08         0.00000E+00
    0.00000E+00         0.00000E+00         0.50741E-08
 
   -0.42182E+06         0.59844E+06         0.00000E+00
    0.59844E+06        -0.59922E+08         0.00000E+00
    0.00000E+00         0.00000E+00         0.71037E-07
 
   -0.48133E+06         0.55735E+06         0.00000E+00
    0.55735E+06        -0.60140E+08         0.00000E+00
    0.00000E+00         0.00000E+00         0.20296E-07
 
   -0.54600E+06         0.51175E+06         0.00000E+00
    0.51175E+06        -0.60359E+08         0.00000E+00
    0.00000E+00         0.00000E+00         0.20296E-07
 
   -0.61608E+06         0.46170E+06         0.00000E+00
    0.46170E+06        -0.60578E+08         0.00000E+00
    0.00000E+00         0.00000E+00        -0.30444E-07
 
   -0.69186E+06         0.40747E+06         0.00000E+00
    0.40747E+06        -0.60797E+08         0.00000E+00
    0.00000E+00         0.00000E+00        -0.40593E-07
 
   -0.77364E+06         0.34967E+06         0.00000E+00
    0.34967E+06        -0.61014E+08         0.00000E+00
    0.00000E+00         0.00000E+00         0.50741E-08
 
   -0.86180E+06         0.28934E+06         0.00000E+00
    0.28934E+06        -0.61228E+08         0.00000E+00
    0.00000E+00         0.00000E+00        -0.10148E-07
 
   -0.95686E+06         0.22813E+06         0.00000E+00
    0.22813E+06        -0.61436E+08         0.00000E+00
    0.00000E+00         0.00000E+00         0.15222E-07
 
   -0.10596E+07         0.16846E+06         0.00000E+00
    0.16846E+06        -0.61635E+08         0.00000E+00
    0.00000E+00         0.00000E+00        -0.50741E-07
 
   -0.11713E+07         0.11357E+06         0.00000E+00
    0.11357E+06        -0.61820E+08         0.00000E+00
    0.00000E+00         0.00000E+00         0.35518E-07
 
   -0.12943E+07         0.67277E+05         0.00000E+00
    0.67277E+05        -0.61985E+08         0.00000E+00
    0.00000E+00         0.00000E+00         0.00000E+00
 
   -0.14318E+07         0.33069E+05         0.00000E+00
    0.33069E+05        -0.62122E+08         0.00000E+00
    0.00000E+00         0.00000E+00         0.50741E-08
 
   -0.15885E+07         0.12367E+05         0.00000E+00
    0.12367E+05        -0.62222E+08         0.00000E+00
    0.00000E+00         0.00000E+00         0.50740E-08
 
   -0.17691E+07         0.26840E+04         0.00000E+00
    0.26840E+04        -0.62275E+08         0.00000E+00
    0.00000E+00         0.00000E+00         0.76111E-07
 
    0.89617E+06         0.19804E+04         0.00000E+00
    0.19804E+04        -0.47741E+08         0.00000E+00
    0.00000E+00         0.00000E+00         0.65963E-07
 
    0.81272E+06         0.80787E+04         0.00000E+00
    0.80787E+04        -0.47766E+08         0.00000E+00
    0.00000E+00         0.00000E+00        -0.40592E-07
 
    0.74069E+06         0.19688E+05         0.00000E+00
    0.19688E+05        -0.47814E+08         0.00000E+00
    0.00000E+00         0.00000E+00        -0.35518E-07
 
    0.67769E+06         0.38038E+05         0.00000E+00
    0.38038E+05        -0.47879E+08         0.00000E+00
    0.00000E+00         0.00000E+00         0.20296E-07
 
    0.62159E+06         0.62394E+05         0.00000E+00
    0.62394E+05        -0.47956E+08         0.00000E+00
    0.00000E+00         0.00000E+00         0.40592E-07
 
    0.57085E+06         0.91022E+05         0.00000E+00
    0.91022E+05        -0.48043E+08         0.00000E+00
    0.00000E+00         0.00000E+00        -0.10148E-07
 
    0.52457E+06         0.12206E+06         0.00000E+00
    0.12206E+06        -0.48136E+08         0.00000E+00
    0.00000E+00         0.00000E+00         0.25370E-07
 
    0.48222E+06         0.15398E+06         0.00000E+00
    0.15398E+06        -0.48233E+08         0.00000E+00
    0.00000E+00         0.00000E+00         0.45666E-07
 
    0.44347E+06         0.18563E+06         0.00000E+00
    0.18563E+06        -0.48333E+08         0.00000E+00
    0.00000E+00         0.00000E+00         0.45667E-07
 
    0.40808E+06         0.21626E+06         0.00000E+00
    0.21626E+06        -0.48435E+08         0.00000E+00
    0.00000E+00         0.00000E+00        -0.50741E-08
 
    0.37587E+06         0.24540E+06         0.00000E+00
    0.24540E+06        -0.48539E+08         0.00000E+00
    0.00000E+00         0.00000E+00         0.50741E-08
 
    0.34666E+06         0.27278E+06         0.00000E+00
    0.27278E+06        -0.48643E+08         0.00000E+00
    0.00000E+00         0.00000E+00        -0.35518E-07
 
    0.32029E+06         0.29828E+06         0.00000E+00
    0.29828E+06        -0.48747E+08         0.00000E+00
    0.00000E+00         0.00000E+00         0.45667E-07
 
    0.29658E+06         0.32190E+06         0.00000E+00
    0.32190E+06        -0.48852E+08         0.00000E+00
    0.00000E+00         0.00000E+00         0.40593E-07
 
    0.27536E+06         0.34369E+06         0.00000E+00
    0.34369E+06        -0.48958E+08         0.00000E+00
    0.00000E+00         0.00000E+00         0.60889E-07
 
    0.25648E+06         0.36377E+06         0.00000E+00
    0.36377E+06        -0.49063E+08         0.00000E+00
    0.00000E+00         0.00000E+00         0.10148E-07
 
    0.23975E+06         0.38224E+06         0.00000E+00
    0.38224E+06        -0.49169E+08         0.00000E+00
    0.00000E+00         0.00000E+00         0.50741E-08
 
    0.22500E+06         0.39926E+06         0.00000E+00
    0.39926E+06        -0.49274E+08         0.00000E+00
    0.00000E+00         0.00000E+00        -0.55815E-07
 
    0.21208E+06         0.41496E+06         0.00000E+00
    0.41496E+06        -0.49381E+08         0.00000E+00
    0.00000E+00         0.00000E+00        -0.65963E-07
 
    0.20082E+06         0.42950E+06         0.00000E+00
    0.42950E+06        -0.49487E+08         0.00000E+00
    0.00000E+00         0.00000E+00         0.25370E-07
 
    0.19106E+06         0.44299E+06         0.00000E+00
    0.44299E+06        -0.49594E+08         0.00000E+00
    0.00000E+00         0.00000E+00        -0.55815E-07
 
    0.18267E+06         0.45558E+06         0.00000E+00
    0.45558E+06        -0.49702E+08         0.00000E+00
    0.00000E+00         0.00000E+00         0.20296E-07
 
    0.17550E+06         0.46737E+06         0.00000E+00
    0.46737E+06        -0.49811E+08         0.00000E+00
    0.00000E+00         0.00000E+00        -0.50741E-08
 
    0.16942E+06         0.47847E+06         0.00000E+00
    0.47847E+06        -0.49920E+08         0.00000E+00
    0.00000E+00         0.00000E+00         0.30444E-07
 
    0.16432E+06         0.48897E+06         0.00000E+00
    0.48897E+06        -0.50030E+08         0.00000E+00
    0.00000E+00         0.00000E+00         0.10148E-07
 
    0.16008E+06         0.49897E+06         0.00000E+00
    0.49897E+06        -0.50140E+08         0.00000E+00
    0.00000E+00         0.00000E+00         0.55815E-07
 
    0.15661E+06         0.50853E+06         0.00000E+00
    0.50853E+06        -0.50252E+08         0.00000E+00
    0.00000E+00         0.00000E+00         0.50741E-08
 
    0.15381E+06         0.51772E+06         0.00000E+00
    0.51772E+06        -0.50365E+08         0.00000E+00
    0.00000E+00         0.00000E+00         0.00000E+00
 
    0.15160E+06         0.52659E+06         0.00000E+00
    0.52659E+06        -0.50479E+08         0.00000E+00
    0.00000E+00         0.00000E+00         0.40593E-07
 
    0.14989E+06         0.53520E+06         0.00000E+00
    0.53520E+06        -0.50594E+08         0.00000E+00
    0.00000E+00         0.00000E+00         0.20296E-07
 
    0.14862E+06         0.54360E+06         0.00000E+00
    0.54360E+06        -0.50710E+08         0.00000E+00
    0.00000E+00         0.00000E+00        -0.30444E-07
 
    0.14773E+06         0.55181E+06         0.00000E+00
    0.55181E+06        -0.50827E+08         0.00000E+00
    0.00000E+00         0.00000E+00         0.50741E-08
 
    0.14716E+06         0.55988E+06         0.00000E+00
    0.55988E+06        -0.50946E+08         0.00000E+00
    0.00000E+00         0.00000E+00         0.15222E-07
 
    0.14685E+06         0.56782E+06         0.00000E+00
    0.56782E+06        -0.51066E+08         0.00000E+00
    0.00000E+00         0.00000E+00         0.25370E-07
 
    0.14676E+06         0.57566E+06         0.00000E+00
    0.57566E+06        -0.51188E+08         0.00000E+00
    0.00000E+00         0.00000E+00        -0.40593E-07
 
    0.14685E+06         0.58343E+06         0.00000E+00
    0.58343E+06        -0.51311E+08         0.00000E+00
    0.00000E+00         0.00000E+00        -0.25370E-07
 
    0.14708E+06         0.59113E+06         0.00000E+00
    0.59113E+06        -0.51435E+08         0.00000E+00
    0.00000E+00         0.00000E+00         0.40593E-07
 
    0.14741E+06         0.59878E+06         0.00000E+00
    0.59878E+06        -0.51561E+08         0.00000E+00
    0.00000E+00         0.00000E+00        -0.60889E-07
 
    0.14781E+06         0.60639E+06         0.00000E+00
    0.60639E+06        -0.51688E+08         0.00000E+00
    0.00000E+00         0.00000E+00        -0.71037E-07
 
    0.14825E+06         0.61397E+06         0.00000E+00
    0.61397E+06        -0.51817E+08         0.00000E+00
    0.00000E+00         0.00000E+00         0.30444E-07
 
    0.14871E+06         0.62153E+06         0.00000E+00
    0.62153E+06        -0.51948E+08         0.00000E+00
    0.00000E+00         0.00000E+00         0.40593E-07
 
    0.14916E+06         0.62906E+06         0.00000E+00
    0.62906E+06        -0.52080E+08         0.00000E+00
    0.00000E+00         0.00000E+00        -0.55814E-07
 
    0.14957E+06         0.63656E+06         0.00000E+00
    0.63656E+06        -0.52214E+08         0.00000E+00
    0.00000E+00         0.00000E+00         0.10148E-07
 
    0.14992E+06         0.64405E+06         0.00000E+00
    0.64405E+06        -0.52349E+08         0.00000E+00
    0.00000E+00         0.00000E+00         0.50741E-08
 
    0.15020E+06         0.65152E+06         0.00000E+00
    0.65152E+06        -0.52487E+08         0.00000E+00
    0.00000E+00         0.00000E+00        -0.10148E-07
 
    0.15038E+06         0.65896E+06         0.00000E+00
    0.65896E+06        -0.52626E+08         0.00000E+00
    0.00000E+00         0.00000E+00         0.00000E+00
 
    0.15044E+06         0.66636E+06         0.00000E+00
    0.66636E+06        -0.52767E+08         0.00000E+00
    0.00000E+00         0.00000E+00         0.35518E-07
 
    0.15037E+06         0.67374E+06         0.00000E+00
    0.67374E+06        -0.52909E+08         0.00000E+00
    0.00000E+00         0.00000E+00        -0.30444E-07
 
    0.15014E+06         0.68107E+06         0.00000E+00
    0.68107E+06        -0.53053E+08         0.00000E+00
    0.00000E+00         0.00000E+00         0.20296E-07
 
    0.14974E+06         0.68834E+06         0.00000E+00
    0.68834E+06        -0.53200E+08         0.00000E+00
    0.00000E+00         0.00000E+00         0.20296E-07
 
    0.14914E+06         0.69556E+06         0.00000E+00
    0.69556E+06        -0.53348E+08         0.00000E+00
    0.00000E+00         0.00000E+00        -0.20296E-07
 
    0.14833E+06         0.70270E+06         0.00000E+00
    0.70270E+06        -0.53497E+08         0.00000E+00
    0.00000E+00         0.00000E+00         0.50741E-08
 
    0.14729E+06         0.70976E+06         0.00000E+00
    0.70976E+06        -0.53649E+08         0.00000E+00
    0.00000E+00         0.00000E+00         0.00000E+00
 
    0.14599E+06         0.71671E+06         0.00000E+00
    0.71671E+06        -0.53802E+08         0.00000E+00
    0.00000E+00         0.00000E+00         0.40592E-07
 
    0.14442E+06         0.72355E+06         0.00000E+00
    0.72355E+06        -0.53958E+08         0.00000E+00
    0.00000E+00         0.00000E+00        -0.10148E-07
 
    0.14254E+06         0.73025E+06         0.00000E+00
    0.73025E+06        -0.54115E+08         0.00000E+00
    0.00000E+00         0.00000E+00         0.20296E-07
 
    0.14033E+06         0.73679E+06         0.00000E+00
    0.73679E+06        -0.54274E+08         0.00000E+00
    0.00000E+00         0.00000E+00         0.25370E-07
 
    0.13777E+06         0.74316E+06         0.00000E+00
    0.74316E+06        -0.54435E+08         0.00000E+00
    0.00000E+00         0.00000E+00        -0.55815E-07
 
    0.13483E+06         0.74933E+06         0.00000E+00
    0.74933E+06        -0.54598E+08         0.00000E+00
    0.00000E+00         0.00000E+00        -0.55815E-07
 
    0.13146E+06         0.75527E+06         0.00000E+00
    0.75527E+06        -0.54763E+08         0.00000E+00
    0.00000E+00         0.00000E+00         0.00000E+00
 
    0.12763E+06         0.76096E+06         0.00000E+00
    0.76096E+06        -0.54929E+08         0.00000E+00
    0.00000E+00         0.00000E+00        -0.81185E-07
 
    0.12331E+06         0.76635E+06         0.00000E+00
    0.76635E+06        -0.55098E+08         0.00000E+00
    0.00000E+00         0.00000E+00         0.10148E-07
 
    0.11844E+06         0.77142E+06         0.00000E+00
    0.77142E+06        -0.55268E+08         0.00000E+00
    0.00000E+00         0.00000E+00         0.45667E-07
 
    0.11297E+06         0.77613E+06         0.00000E+00
    0.77613E+06        -0.55440E+08         0.00000E+00
    0.00000E+00         0.00000E+00        -0.50741E-08
 
    0.10685E+06         0.78042E+06         0.00000E+00
    0.78042E+06        -0.55614E+08         0.00000E+00
    0.00000E+00         0.00000E+00         0.10148E-07
 
    0.10002E+06         0.78426E+06         0.00000E+00
    0.78426E+06        -0.55790E+08         0.00000E+00
    0.00000E+00         0.00000E+00         0.25370E-07
 
    0.92404E+05         0.78758E+06         0.00000E+00
    0.78758E+06        -0.55968E+08         0.00000E+00
    0.00000E+00         0.00000E+00         0.25370E-07
 
    0.83925E+05         0.79033E+06         0.00000E+00
    0.79033E+06        -0.56147E+08         0.00000E+00
    0.00000E+00         0.00000E+00         0.50741E-07
 
    0.74495E+05         0.79243E+06         0.00000E+00
    0.79243E+06        -0.56329E+08         0.00000E+00
    0.00000E+00         0.00000E+00        -0.25370E-07
 
    0.64019E+05         0.79382E+06         0.00000E+00
    0.79382E+06        -0.56512E+08         0.00000E+00
    0.00000E+00         0.00000E+00         0.45667E-07
 
    0.52388E+05         0.79440E+06         0.00000E+00
    0.79440E+06        -0.56697E+08         0.00000E+00
    0.00000E+00         0.00000E+00        -0.50741E-08
 
    0.39481E+05         0.79408E+06         0.00000E+00
    0.79408E+06        -0.56884E+08         0.00000E+00
    0.00000E+00         0.00000E+00         0.00000E+00
 
    0.25165E+05         0.79275E+06         0.00000E+00
    0.79275E+06        -0.57073E+08         0.00000E+00
    0.00000E+00         0.00000E+00         0.25370E-07
 
    0.92925E+04         0.79029E+06         0.00000E+00
    0.79029E+06        -0.57263E+08         0.00000E+00
    0.00000E+00         0.00000E+00         0.10148E-07
 
   -0.82990E+04         0.78657E+06         0.00000E+00
    0.78657E+06        -0.57456E+08         0.00000E+00
    0.00000E+00         0.00000E+00         0.40593E-07
 
   -0.27789E+05         0.78142E+06         0.00000E+00
    0.78142E+06        -0.57650E+08         0.00000E+00
    0.00000E+00         0.00000E+00         0.50741E-08
 
   -0.49372E+05         0.77469E+06         0.00000E+00
    0.77469E+06        -0.57846E+08         0.00000E+00
    0.00000E+00         0.00000E+00         0.55815E-07
 
   -0.73263E+05         0.76618E+06         0.00000E+00
    0.76618E+06        -0.58044E+08         0.00000E+00
    0.00000E+00         0.00000E+00        -0.10148E-07
 
   -0.99691E+05         0.75569E+06         0.00000E+00
    0.75569E+06        -0.58244E+08         0.00000E+00
    0.00000E+00         0.00000E+00        -0.50741E-08
 
   -0.12890E+06         0.74299E+06         0.00000E+00
    0.74299E+06        -0.58446E+08         0.00000E+00
    0.00000E+00         0.00000E+00         0.50741E-08
 
   -0.16117E+06         0.72783E+06         0.00000E+00
    0.72783E+06        -0.58650E+08         0.00000E+00
    0.00000E+00         0.00000E+00        -0.55815E-07
 
   -0.19676E+06         0.70993E+06         0.00000E+00
    0.70993E+06        -0.58856E+08         0.00000E+00
    0.00000E+00         0.00000E+00         0.20296E-07
 
   -0.23597E+06         0.68902E+06         0.00000E+00
    0.68902E+06        -0.59064E+08         0.00000E+00
    0.00000E+00         0.00000E+00        -0.60889E-07
 
   -0.27910E+06         0.66480E+06         0.00000E+00
    0.66480E+06        -0.59274E+08         0.00000E+00
    0.00000E+00         0.00000E+00        -0.25370E-07
 
   -0.32647E+06         0.63698E+06         0.00000E+00
    0.63698E+06        -0.59485E+08         0.00000E+00
    0.00000E+00         0.00000E+00        -0.20296E-07
 
   -0.37838E+06         0.60526E+06         0.00000E+00
    0.60526E+06        -0.59699E+08         0.00000E+00
    0.00000E+00         0.00000E+00        -0.50741E-08
 
   -0.43515E+06         0.56939E+06         0.00000E+00
    0.56939E+06        -0.59914E+08         0.00000E+00
    0.00000E+00         0.00000E+00         0.20296E-07
 
   -0.49708E+06         0.52918E+06         0.00000E+00
    0.52918E+06        -0.60131E+08         0.00000E+00
    0.00000E+00         0.00000E+00        -0.20296E-07
 
   -0.56447E+06         0.48453E+06         0.00000E+00
    0.48453E+06        -0.60349E+08         0.00000E+00
    0.00000E+00         0.00000E+00        -0.55815E-07
 
   -0.63761E+06         0.43550E+06         0.00000E+00
    0.43550E+06        -0.60567E+08         0.00000E+00
    0.00000E+00         0.00000E+00        -0.35518E-07
 
   -0.71678E+06         0.38236E+06         0.00000E+00
    0.38236E+06        -0.60786E+08         0.00000E+00
    0.00000E+00         0.00000E+00         0.25370E-07
 
   -0.80228E+06         0.32572E+06         0.00000E+00
    0.32572E+06        -0.61002E+08         0.00000E+00
    0.00000E+00         0.00000E+00         0.10148E-07
 
   -0.89442E+06         0.26665E+06         0.00000E+00
    0.26665E+06        -0.61216E+08         0.00000E+00
    0.00000E+00         0.00000E+00        -0.30444E-07
 
   -0.99361E+06         0.20682E+06         0.00000E+00
    0.20682E+06        -0.61424E+08         0.00000E+00
    0.00000E+00         0.00000E+00        -0.10148E-07
 
   -0.11005E+07         0.14872E+06         0.00000E+00
    0.14872E+06        -0.61623E+08         0.00000E+00
    0.00000E+00         0.00000E+00        -0.40593E-07
 
   -0.12160E+07         0.95708E+05         0.00000E+00
    0.95708E+05        -0.61810E+08         0.00000E+00
    0.00000E+00         0.00000E+00         0.45667E-07
 
   -0.13421E+07         0.51826E+05         0.00000E+00
    0.51826E+05        -0.61977E+08         0.00000E+00
    0.00000E+00         0.00000E+00        -0.50741E-08
 
   -0.14818E+07         0.20846E+05         0.00000E+00
    0.20846E+05        -0.62117E+08         0.00000E+00
    0.00000E+00         0.00000E+00        -0.65963E-07
 
   -0.16398E+07         0.43996E+04         0.00000E+00
    0.43996E+04        -0.62220E+08         0.00000E+00
    0.00000E+00         0.00000E+00         0.20296E-07
 
   -0.18208E+07        -0.99489E+02         0.00000E+00
   -0.99489E+02        -0.62274E+08         0.00000E+00
    0.00000E+00         0.00000E+00         0.81185E-07
 
    0.92169E+06         0.64775E+03         0.00000E+00
    0.64775E+03        -0.47741E+08         0.00000E+00
    0.00000E+00         0.00000E+00         0.00000E+00
 
    0.83803E+06         0.42754E+04         0.00000E+00
    0.42754E+04        -0.47768E+08         0.00000E+00
    0.00000E+00         0.00000E+00        -0.50741E-08
 
    0.76545E+06         0.13875E+05         0.00000E+00
    0.13875E+05        -0.47816E+08         0.00000E+00
    0.00000E+00         0.00000E+00         0.50741E-08
 
    0.70146E+06         0.30701E+05         0.00000E+00
    0.30701E+05        -0.47883E+08         0.00000E+00
    0.00000E+00         0.00000E+00         0.00000E+00
 
    0.64393E+06         0.53888E+05         0.00000E+00
    0.53888E+05        -0.47962E+08         0.00000E+00
    0.00000E+00         0.00000E+00         0.25370E-07
 
    0.59149E+06         0.81552E+05         0.00000E+00
    0.81552E+05        -0.48049E+08         0.00000E+00
    0.00000E+00         0.00000E+00         0.25370E-07
 
    0.54337E+06         0.11174E+06         0.00000E+00
    0.11174E+06        -0.48142E+08         0.00000E+00
    0.00000E+00         0.00000E+00         0.10148E-07
 
    0.49920E+06         0.14285E+06         0.00000E+00
    0.14285E+06        -0.48240E+08         0.00000E+00
    0.00000E+00         0.00000E+00        -0.15222E-07
 
    0.45871E+06         0.17374E+06         0.00000E+00
    0.17374E+06        -0.48340E+08         0.00000E+00
    0.00000E+00         0.00000E+00        -0.35518E-07
 
    0.42174E+06         0.20364E+06         0.00000E+00
    0.20364E+06        -0.48441E+08         0.00000E+00
    0.00000E+00         0.00000E+00         0.71037E-07
 
    0.38810E+06         0.23206E+06         0.00000E+00
    0.23206E+06        -0.48544E+08         0.00000E+00
    0.00000E+00         0.00000E+00         0.00000E+00
 
    0.35763E+06         0.25875E+06         0.00000E+00
    0.25875E+06        -0.48648E+08         0.00000E+00
    0.00000E+00         0.00000E+00         0.30444E-07
 
    0.33016E+06         0.28358E+06         0.00000E+00
    0.28358E+06        -0.48752E+08         0.00000E+00
    0.00000E+00         0.00000E+00        -0.30444E-07
 
    0.30551E+06         0.30656E+06         0.00000E+00
    0.30656E+06        -0.48857E+08         0.00000E+00
    0.00000E+00         0.00000E+00        -0.25370E-07
 
    0.28349E+06         0.32774E+06         0.00000E+00
    0.32774E+06        -0.48962E+08         0.00000E+00
    0.00000E+00         0.00000E+00        -0.20296E-07
 
    0.26392E+06         0.34722E+06         0.00000E+00
    0.34722E+06        -0.49067E+08         0.00000E+00
    0.00000E+00         0.00000E+00        -0.10148E-07
 
    0.24661E+06         0.36512E+06         0.00000E+00
    0.36512E+06        -0.49172E+08         0.00000E+00
    0.00000E+00         0.00000E+00         0.00000E+00
 
    0.23138E+06         0.38160E+06         0.00000E+00
    0.38160E+06        -0.49278E+08         0.00000E+00
    0.00000E+00         0.00000E+00        -0.25370E-07
 
    0.21806E+06         0.39678E+06         0.00000E+00
    0.39678E+06        -0.49384E+08         0.00000E+00
    0.00000E+00         0.00000E+00         0.50741E-08
 
    0.20646E+06         0.41082E+06         0.00000E+00
    0.41082E+06        -0.49490E+08         0.00000E+00
    0.00000E+00         0.00000E+00         0.50741E-07
 
    0.19644E+06         0.42384E+06         0.00000E+00
    0.42384E+06        -0.49597E+08         0.00000E+00
    0.00000E+00         0.00000E+00         0.50741E-08
 
    0.18782E+06         0.43598E+06         0.00000E+00
    0.43598E+06        -0.49705E+08         0.00000E+00
    0.00000E+00         0.00000E+00        -0.50741E-08
 
    0.18047E+06         0.44733E+06         0.00000E+00
    0.44733E+06        -0.49813E+08         0.00000E+00
    0.00000E+00         0.00000E+00        -0.50741E-08
 
    0.17426E+06         0.45801E+06         0.00000E+00
    0.45801E+06        -0.49922E+08         0.00000E+00
    0.00000E+00         0.00000E+00        -0.40593E-07
 
    0.16905E+06         0.46812E+06         0.00000E+00
    0.46812E+06        -0.50032E+08         0.00000E+00
    0.00000E+00         0.00000E+00         0.25370E-07
 
    0.16473E+06         0.47772E+06         0.00000E+00
    0.47772E+06        -0.50142E+08         0.00000E+00
    0.00000E+00         0.00000E+00        -0.55815E-07
 
    0.16119E+06         0.48690E+06         0.00000E+00
    0.48690E+06        -0.50254E+08         0.00000E+00
    0.00000E+00         0.00000E+00         0.10148E-07
 
    0.15835E+06         0.49572E+06         0.00000E+00
    0.49572E+06        -0.50367E+08         0.00000E+00
    0.00000E+00         0.00000E+00        -0.10148E-07
 
    0.15610E+06         0.50424E+06         0.00000E+00
    0.50424E+06        -0.50480E+08         0.00000E+00
    0.00000E+00         0.00000E+00        -0.30444E-07
 
    0.15438E+06         0.51250E+06         0.00000E+00
    0.51250E+06        -0.50595E+08         0.00000E+00
    0.00000E+00         0.00000E+00         0.25370E-07
 
    0.15311E+06         0.52054E+06         0.00000E+00
    0.52054E+06        -0.50712E+08         0.00000E+00
    0.00000E+00         0.00000E+00        -0.30444E-07
 
    0.15222E+06         0.52842E+06         0.00000E+00
    0.52842E+06        -0.50829E+08         0.00000E+00
    0.00000E+00         0.00000E+00         0.15222E-07
 
    0.15166E+06         0.53614E+06         0.00000E+00
    0.53614E+06        -0.50948E+08         0.00000E+00
    0.00000E+00         0.00000E+00        -0.76111E-07
 
    0.15137E+06         0.54375E+06         0.00000E+00
    0.54375E+06        -0.51068E+08         0.00000E+00
    0.00000E+00         0.00000E+00         0.00000E+00
 
    0.15130E+06         0.55127E+06         0.00000E+00
    0.55127E+06        -0.51189E+08         0.00000E+00
    0.00000E+00         0.00000E+00         0.45667E-07
 
    0.15142E+06         0.55870E+06         0.00000E+00
    0.55870E+06        -0.51312E+08         0.00000E+00
    0.00000E+00         0.00000E+00         0.00000E+00
 
    0.15167E+06         0.56607E+06         0.00000E+00
    0.56607E+06        -0.51436E+08         0.00000E+00
    0.00000E+00         0.00000E+00         0.00000E+00
 
    0.15203E+06         0.57340E+06         0.00000E+00
    0.57340E+06        -0.51562E+08         0.00000E+00
    0.00000E+00         0.00000E+00         0.00000E+00
 
    0.15246E+06         0.58068E+06         0.00000E+00
    0.58068E+06        -0.51690E+08         0.00000E+00
    0.00000E+00         0.00000E+00        -0.71037E-07
 
    0.15293E+06         0.58794E+06         0.00000E+00
    0.58794E+06        -0.51819E+08         0.00000E+00
    0.00000E+00         0.00000E+00        -0.35518E-07
 
    0.15342E+06         0.59516E+06         0.00000E+00
    0.59516E+06        -0.51949E+08         0.00000E+00
    0.00000E+00         0.00000E+00         0.00000E+00
 
    0.15389E+06         0.60237E+06         0.00000E+00
    0.60237E+06        -0.52081E+08         0.00000E+00
    0.00000E+00         0.00000E+00         0.10148E-07
 
    0.15433E+06         0.60955E+06         0.00000E+00
    0.60955E+06        -0.52215E+08         0.00000E+00
    0.00000E+00         0.00000E+00        -0.10148E-07
 
    0.15471E+06         0.61671E+06         0.00000E+00
    0.61671E+06        -0.52351E+08         0.00000E+00
    0.00000E+00         0.00000E+00         0.10148E-07
 
    0.15500E+06         0.62385E+06         0.00000E+00
    0.62385E+06        -0.52488E+08         0.00000E+00
    0.00000E+00         0.00000E+00        -0.30444E-07
 
    0.15520E+06         0.63097E+06         0.00000E+00
    0.63097E+06        -0.52627E+08         0.00000E+00
    0.00000E+00         0.00000E+00        -0.20296E-07
 
    0.15527E+06         0.63805E+06         0.00000E+00
    0.63805E+06        -0.52768E+08         0.00000E+00
    0.00000E+00         0.00000E+00         0.50741E-08
 
    0.15521E+06         0.64510E+06         0.00000E+00
    0.64510E+06        -0.52911E+08         0.00000E+00
    0.00000E+00         0.00000E+00         0.30444E-07
 
    0.15498E+06         0.65211E+06         0.00000E+00
    0.65211E+06        -0.53055E+08         0.00000E+00
    0.00000E+00         0.00000E+00        -0.10148E-07
 
    0.15458E+06         0.65907E+06         0.00000E+00
    0.65907E+06        -0.53201E+08         0.00000E+00
    0.00000E+00         0.00000E+00         0.50741E-08
 
    0.15397E+06         0.66596E+06         0.00000E+00
    0.66596E+06        -0.53349E+08         0.00000E+00
    0.00000E+00         0.00000E+00        -0.10148E-07
 
    0.15315E+06         0.67279E+06         0.00000E+00
    0.67279E+06        -0.53499E+08         0.00000E+00
    0.00000E+00         0.00000E+00        -0.35518E-07
 
    0.15209E+06         0.67953E+06         0.00000E+00
    0.67953E+06        -0.53650E+08         0.00000E+00
    0.00000E+00         0.00000E+00         0.00000E+00
 
    0.15076E+06         0.68617E+06         0.00000E+00
    0.68617E+06        -0.53804E+08         0.00000E+00
    0.00000E+00         0.00000E+00         0.25370E-07
 
    0.14915E+06         0.69270E+06         0.00000E+00
    0.69270E+06        -0.53959E+08         0.00000E+00
    0.00000E+00         0.00000E+00         0.50741E-08
 
    0.14723E+06         0.69911E+06         0.00000E+00
    0.69911E+06        -0.54116E+08         0.00000E+00
    0.00000E+00         0.00000E+00         0.35518E-07
 
    0.14497E+06         0.70536E+06         0.00000E+00
    0.70536E+06        -0.54275E+08         0.00000E+00
    0.00000E+00         0.00000E+00        -0.35518E-07
 
    0.14234E+06         0.71144E+06         0.00000E+00
    0.71144E+06        -0.54436E+08         0.00000E+00
    0.00000E+00         0.00000E+00         0.10148E-07
 
    0.13932E+06         0.71733E+06         0.00000E+00
    0.71733E+06        -0.54599E+08         0.00000E+00
    0.00000E+00         0.00000E+00        -0.35518E-07
 
    0.13587E+06         0.72300E+06         0.00000E+00
    0.72300E+06        -0.54764E+08         0.00000E+00
    0.00000E+00         0.00000E+00         0.50741E-07
 
    0.13194E+06         0.72842E+06         0.00000E+00
    0.72842E+06        -0.54930E+08         0.00000E+00
    0.00000E+00         0.00000E+00        -0.25370E-07
 
    0.12751E+06         0.73356E+06         0.00000E+00
    0.73356E+06        -0.55099E+08         0.00000E+00
    0.00000E+00         0.00000E+00         0.45666E-07
 
    0.12251E+06         0.73839E+06         0.00000E+00
    0.73839E+06        -0.55269E+08         0.00000E+00
    0.00000E+00         0.00000E+00        -0.35518E-07
 
    0.11690E+06         0.74287E+06         0.00000E+00
    0.74287E+06        -0.55441E+08         0.00000E+00
    0.00000E+00         0.00000E+00        -0.25370E-07
 
    0.11063E+06         0.74696E+06         0.00000E+00
    0.74696E+06        -0.55615E+08         0.00000E+00
    0.00000E+00         0.00000E+00         0.00000E+00
 
    0.10362E+06         0.75060E+06         0.00000E+00
    0.75060E+06        -0.55791E+08         0.00000E+00
    0.00000E+00         0.00000E+00         0.20296E-07
 
    0.95808E+05         0.75375E+06         0.00000E+00
    0.75375E+06        -0.55968E+08         0.00000E+00
    0.00000E+00         0.00000E+00        -0.50741E-08
 
    0.87110E+05         0.75635E+06         0.00000E+00
    0.75635E+06        -0.56148E+08         0.00000E+00
    0.00000E+00         0.00000E+00         0.15222E-07
 
    0.77438E+05         0.75833E+06         0.00000E+00
    0.75833E+06        -0.56329E+08         0.00000E+00
    0.00000E+00         0.00000E+00        -0.10148E-07
 
    0.66691E+05         0.75961E+06         0.00000E+00
    0.75961E+06        -0.56512E+08         0.00000E+00
    0.00000E+00         0.00000E+00         0.10148E-07
 
    0.54758E+05         0.76012E+06         0.00000E+00
    0.76012E+06        -0.56697E+08         0.00000E+00
    0.00000E+00         0.00000E+00         0.00000E+00
 
    0.41515E+05         0.75976E+06         0.00000E+00
    0.75976E+06        -0.56884E+08         0.00000E+00
    0.00000E+00         0.00000E+00         0.25370E-07
 
    0.26826E+05         0.75843E+06         0.00000E+00
    0.75843E+06        -0.57072E+08         0.00000E+00
    0.00000E+00         0.00000E+00        -0.10148E-07
 
    0.10536E+05         0.75600E+06         0.00000E+00
    0.75600E+06        -0.57263E+08         0.00000E+00
    0.00000E+00         0.00000E+00        -0.50741E-07
 
   -0.75226E+04         0.75235E+06         0.00000E+00
    0.75235E+06        -0.57455E+08         0.00000E+00
    0.00000E+00         0.00000E+00        -0.20296E-07
 
   -0.27536E+05         0.74733E+06         0.00000E+00
    0.74733E+06        -0.57649E+08         0.00000E+00
    0.00000E+00         0.00000E+00         0.00000E+00
 
   -0.49707E+05         0.74078E+06         0.00000E+00
    0.74078E+06        -0.57845E+08         0.00000E+00
    0.00000E+00         0.00000E+00        -0.55815E-07
 
   -0.74260E+05         0.73250E+06         0.00000E+00
    0.73250E+06        -0.58042E+08         0.00000E+00
    0.00000E+00         0.00000E+00         0.00000E+00
 
   -0.10144E+06         0.72230E+06         0.00000E+00
    0.72230E+06        -0.58242E+08         0.00000E+00
    0.00000E+00         0.00000E+00        -0.50741E-08
 
   -0.13150E+06         0.70994E+06         0.00000E+00
    0.70994E+06        -0.58443E+08         0.00000E+00
    0.00000E+00         0.00000E+00        -0.15222E-07
 
   -0.16472E+06         0.69519E+06         0.00000E+00
    0.69519E+06        -0.58647E+08         0.00000E+00
    0.00000E+00         0.00000E+00         0.20296E-07
 
   -0.20141E+06         0.67778E+06         0.00000E+00
    0.67778E+06        -0.58852E+08         0.00000E+00
    0.00000E+00         0.00000E+00        -0.45666E-07
 
   -0.24186E+06         0.65743E+06         0.00000E+00
    0.65743E+06        -0.59059E+08         0.00000E+00
    0.00000E+00         0.00000E+00         0.25370E-07
 
   -0.28642E+06         0.63385E+06         0.00000E+00
    0.63385E+06        -0.59269E+08         0.00000E+00
    0.00000E+00         0.00000E+00        -0.25370E-07
 
   -0.33541E+06         0.60673E+06         0.00000E+00
    0.60673E+06        -0.59480E+08         0.00000E+00
    0.00000E+00         0.00000E+00         0.40593E-07
 
   -0.38918E+06         0.57580E+06         0.00000E+00
    0.57580E+06        -0.59692E+08         0.00000E+00
    0.00000E+00         0.00000E+00         0.10148E-07
 
   -0.44806E+06         0.54080E+06         0.00000E+00
    0.54080E+06        -0.59907E+08         0.00000E+00
    0.00000E+00         0.00000E+00         0.20296E-07
 
   -0.51240E+06         0.50153E+06         0.00000E+00
    0.50153E+06        -0.60123E+08         0.00000E+00
    0.00000E+00         0.00000E+00        -0.30444E-07
 
   -0.58251E+06         0.45789E+06         0.00000E+00
    0.45789E+06        -0.60340E+08         0.00000E+00
    0.00000E+00         0.00000E+00        -0.55815E-07
 
   -0.65872E+06         0.40995E+06         0.00000E+00
    0.40995E+06        -0.60557E+08         0.00000E+00
    0.00000E+00         0.00000E+00        -0.25370E-07
 
   -0.74130E+06         0.35796E+06         0.00000E+00
    0.35796E+06        -0.60775E+08         0.00000E+00
    0.00000E+00         0.00000E+00         0.30444E-07
 
   -0.83054E+06         0.30255E+06         0.00000E+00
    0.30255E+06        -0.60991E+08         0.00000E+00
    0.00000E+00         0.00000E+00        -0.15222E-07
 
   -0.92671E+06         0.24478E+06         0.00000E+00
    0.24478E+06        -0.61204E+08         0.00000E+00
    0.00000E+00         0.00000E+00         0.71037E-07
 
   -0.10301E+07         0.18635E+06         0.00000E+00
    0.18635E+06        -0.61412E+08         0.00000E+00
    0.00000E+00         0.00000E+00        -0.50741E-07
 
   -0.11411E+07         0.12978E+06         0.00000E+00
    0.12978E+06        -0.61612E+08         0.00000E+00
    0.00000E+00         0.00000E+00        -0.50741E-08
 
   -0.12606E+07         0.78559E+05         0.00000E+00
    0.78559E+05        -0.61800E+08         0.00000E+00
    0.00000E+00         0.00000E+00         0.10148E-07
 
   -0.13899E+07         0.36922E+05         0.00000E+00
    0.36922E+05        -0.61970E+08         0.00000E+00
    0.00000E+00         0.00000E+00         0.25370E-07
 
   -0.15319E+07         0.89612E+04         0.00000E+00
    0.89612E+04        -0.62113E+08         0.00000E+00
    0.00000E+00         0.00000E+00        -0.71037E-07
 
   -0.16911E+07        -0.34130E+04         0.00000E+00
   -0.34130E+04        -0.62218E+08         0.00000E+00
    0.00000E+00         0.00000E+00        -0.81185E-07
 
   -0.18727E+07        -0.28439E+04         0.00000E+00
   -0.28439E+04        -0.62274E+08         0.00000E+00
    0.00000E+00         0.00000E+00        -0.30444E-07
 
    0.94724E+06        -0.67051E+03         0.00000E+00
   -0.67051E+03        -0.47742E+08         0.00000E+00
    0.00000E+00         0.00000E+00        -0.10148E-07
 
    0.86337E+06         0.53596E+03         0.00000E+00
    0.53596E+03        -0.47769E+08         0.00000E+00
    0.00000E+00         0.00000E+00         0.45667E-07
 
    0.79023E+06         0.82116E+04         0.00000E+00
    0.82116E+04        -0.47819E+08         0.00000E+00
    0.00000E+00         0.00000E+00        -0.50741E-08
 
    0.72521E+06         0.23612E+05         0.00000E+00
    0.23612E+05        -0.47887E+08         0.00000E+00
    0.00000E+00         0.00000E+00         0.10148E-07
 
    0.66621E+06         0.45705E+05         0.00000E+00
    0.45705E+05        -0.47967E+08         0.00000E+00
    0.00000E+00         0.00000E+00         0.20296E-07
 
    0.61200E+06         0.72447E+05         0.00000E+00
    0.72447E+05        -0.48055E+08         0.00000E+00
    0.00000E+00         0.00000E+00        -0.50741E-07
 
    0.56200E+06         0.10179E+06         0.00000E+00
    0.10179E+06        -0.48149E+08         0.00000E+00
    0.00000E+00         0.00000E+00         0.30444E-07
 
    0.51596E+06         0.13209E+06         0.00000E+00
    0.13209E+06        -0.48246E+08         0.00000E+00
    0.00000E+00         0.00000E+00        -0.15222E-07
 
    0.47372E+06         0.16219E+06         0.00000E+00
    0.16219E+06        -0.48346E+08         0.00000E+00
    0.00000E+00         0.00000E+00         0.10148E-07
 
    0.43514E+06         0.19132E+06         0.00000E+00
    0.19132E+06        -0.48447E+08         0.00000E+00
    0.00000E+00         0.00000E+00         0.10148E-07
 
    0.40007E+06         0.21899E+06         0.00000E+00
    0.21899E+06        -0.48550E+08         0.00000E+00
    0.00000E+00         0.00000E+00         0.00000E+00
 
    0.36834E+06         0.24495E+06         0.00000E+00
    0.24495E+06        -0.48653E+08         0.00000E+00
    0.00000E+00         0.00000E+00         0.15222E-07
 
    0.33978E+06         0.26909E+06         0.00000E+00
    0.26909E+06        -0.48757E+08         0.00000E+00
    0.00000E+00         0.00000E+00         0.55815E-07
 
    0.31419E+06         0.29140E+06         0.00000E+00
    0.29140E+06        -0.48861E+08         0.00000E+00
    0.00000E+00         0.00000E+00         0.00000E+00
 
    0.29138E+06         0.31193E+06         0.00000E+00
    0.31193E+06        -0.48966E+08         0.00000E+00
    0.00000E+00         0.00000E+00         0.30444E-07
 
    0.27113E+06         0.33079E+06         0.00000E+00
    0.33079E+06        -0.49070E+08         0.00000E+00
    0.00000E+00         0.00000E+00        -0.15222E-07
 
    0.25326E+06         0.34811E+06         0.00000E+00
    0.34811E+06        -0.49175E+08         0.00000E+00
    0.00000E+00         0.00000E+00        -0.40593E-07
 
    0.23757E+06         0.36402E+06         0.00000E+00
    0.36402E+06        -0.49281E+08         0.00000E+00
    0.00000E+00         0.00000E+00         0.10148E-07
 
    0.22385E+06         0.37868E+06         0.00000E+00
    0.37868E+06        -0.49387E+08         0.00000E+00
    0.00000E+00         0.00000E+00        -0.50741E-08
 
    0.21194E+06         0.39221E+06         0.00000E+00
    0.39221E+06        -0.49493E+08         0.00000E+00
    0.00000E+00         0.00000E+00         0.45667E-07
 
    0.20165E+06         0.40474E+06         0.00000E+00
    0.40474E+06        -0.49600E+08         0.00000E+00
    0.00000E+00         0.00000E+00         0.10148E-07
 
    0.19283E+06         0.41641E+06         0.00000E+00
    0.41641E+06        -0.49707E+08         0.00000E+00
    0.00000E+00         0.00000E+00        -0.10148E-07
 
    0.18531E+06         0.42733E+06         0.00000E+00
    0.42733E+06        -0.49815E+08         0.00000E+00
    0.00000E+00         0.00000E+00        -0.10148E-07
 
    0.17896E+06         0.43758E+06         0.00000E+00
    0.43758E+06        -0.49924E+08         0.00000E+00
    0.00000E+00         0.00000E+00         0.10148E-07
 
    0.17365E+06         0.44728E+06         0.00000E+00
    0.44728E+06        -0.50033E+08         0.00000E+00
    0.00000E+00         0.00000E+00         0.10148E-07
 
    0.16925E+06         0.45648E+06         0.00000E+00
    0.45648E+06        -0.50144E+08         0.00000E+00
    0.00000E+00         0.00000E+00         0.00000E+00
 
    0.16566E+06         0.46528E+06         0.00000E+00
    0.46528E+06        -0.50256E+08         0.00000E+00
    0.00000E+00         0.00000E+00         0.15222E-07
 
    0.16278E+06         0.47373E+06         0.00000E+00
    0.47373E+06        -0.50368E+08         0.00000E+00
    0.00000E+00         0.00000E+00         0.50741E-08
 
    0.16051E+06         0.48188E+06         0.00000E+00
    0.48188E+06        -0.50482E+08         0.00000E+00
    0.00000E+00         0.00000E+00         0.45667E-07
 
    0.15878E+06         0.48979E+06         0.00000E+00
    0.48979E+06        -0.50597E+08         0.00000E+00
    0.00000E+00         0.00000E+00         0.15222E-07
 
    0.15751E+06         0.49749E+06         0.00000E+00
    0.49749E+06        -0.50713E+08         0.00000E+00
    0.00000E+00         0.00000E+00        -0.10148E-07
 
    0.15663E+06         0.50502E+06         0.00000E+00
    0.50502E+06        -0.50830E+08         0.00000E+00
    0.00000E+00         0.00000E+00         0.45667E-07
 
    0.15608E+06         0.51241E+06         0.00000E+00
    0.51241E+06        -0.50949E+08         0.00000E+00
    0.00000E+00         0.00000E+00         0.60889E-07
 
    0.15581E+06         0.51968E+06         0.00000E+00
    0.51968E+06        -0.51069E+08         0.00000E+00
    0.00000E+00         0.00000E+00         0.00000E+00
 
    0.15577E+06         0.52686E+06         0.00000E+00
    0.52686E+06        -0.51191E+08         0.00000E+00
    0.00000E+00         0.00000E+00         0.10148E-07
 
    0.15591E+06         0.53397E+06         0.00000E+00
    0.53397E+06        -0.51313E+08         0.00000E+00
    0.00000E+00         0.00000E+00        -0.30444E-07
 
    0.15619E+06         0.54101E+06         0.00000E+00
    0.54101E+06        -0.51438E+08         0.00000E+00
    0.00000E+00         0.00000E+00        -0.45667E-07
 
    0.15658E+06         0.54801E+06         0.00000E+00
    0.54801E+06        -0.51564E+08         0.00000E+00
    0.00000E+00         0.00000E+00         0.10148E-07
 
    0.15705E+06         0.55497E+06         0.00000E+00
    0.55497E+06        -0.51691E+08         0.00000E+00
    0.00000E+00         0.00000E+00         0.60889E-07
 
    0.15755E+06         0.56189E+06         0.00000E+00
    0.56189E+06        -0.51820E+08         0.00000E+00
    0.00000E+00         0.00000E+00        -0.55815E-07
 
    0.15806E+06         0.56880E+06         0.00000E+00
    0.56880E+06        -0.51951E+08         0.00000E+00
    0.00000E+00         0.00000E+00         0.15222E-07
 
    0.15856E+06         0.57567E+06         0.00000E+00
    0.57567E+06        -0.52083E+08         0.00000E+00
    0.00000E+00         0.00000E+00         0.71037E-07
 
    0.15903E+06         0.58253E+06         0.00000E+00
    0.58253E+06        -0.52217E+08         0.00000E+00
    0.00000E+00         0.00000E+00        -0.50741E-08
 
    0.15943E+06         0.58937E+06         0.00000E+00
    0.58937E+06        -0.52352E+08         0.00000E+00
    0.00000E+00         0.00000E+00        -0.15222E-07
 
    0.15975E+06         0.59619E+06         0.00000E+00
    0.59619E+06        -0.52490E+08         0.00000E+00
    0.00000E+00         0.00000E+00        -0.25370E-07
 
    0.15996E+06         0.60298E+06         0.00000E+00
    0.60298E+06        -0.52629E+08         0.00000E+00
    0.00000E+00         0.00000E+00        -0.20296E-07
 
    0.16005E+06         0.60974E+06         0.00000E+00
    0.60974E+06        -0.52769E+08         0.00000E+00
    0.00000E+00         0.00000E+00         0.40593E-07
 
    0.15999E+06         0.61646E+06         0.00000E+00
    0.61646E+06        -0.52912E+08         0.00000E+00
    0.00000E+00         0.00000E+00        -0.20296E-07
 
    0.15977E+06         0.62315E+06         0.00000E+00
    0.62315E+06        -0.53056E+08         0.00000E+00
    0.00000E+00         0.00000E+00        -0.10148E-07
 
    0.15936E+06         0.62979E+06         0.00000E+00
    0.62979E+06        -0.53202E+08         0.00000E+00
    0.00000E+00         0.00000E+00        -0.71037E-07
 
    0.15875E+06         0.63637E+06         0.00000E+00
    0.63637E+06        -0.53350E+08         0.00000E+00
    0.00000E+00         0.00000E+00        -0.25370E-07
 
    0.15792E+06         0.64288E+06         0.00000E+00
    0.64288E+06        -0.53500E+08         0.00000E+00
    0.00000E+00         0.00000E+00         0.50741E-07
 
    0.15683E+06         0.64931E+06         0.00000E+00
    0.64931E+06        -0.53652E+08         0.00000E+00
    0.00000E+00         0.00000E+00        -0.50741E-08
 
    0.15548E+06         0.65564E+06         0.00000E+00
    0.65564E+06        -0.53805E+08         0.00000E+00
    0.00000E+00         0.00000E+00         0.50741E-07
 
    0.15383E+06         0.66187E+06         0.00000E+00
    0.66187E+06        -0.53960E+08         0.00000E+00
    0.00000E+00         0.00000E+00         0.00000E+00
 
    0.15187E+06         0.66797E+06         0.00000E+00
    0.66797E+06        -0.54117E+08         0.00000E+00
    0.00000E+00         0.00000E+00         0.20296E-07
 
    0.14956E+06         0.67393E+06         0.00000E+00
    0.67393E+06        -0.54276E+08         0.00000E+00
    0.00000E+00         0.00000E+00         0.00000E+00
 
    0.14687E+06         0.67973E+06         0.00000E+00
    0.67973E+06        -0.54437E+08         0.00000E+00
    0.00000E+00         0.00000E+00         0.40593E-07
 
    0.14378E+06         0.68534E+06         0.00000E+00
    0.68534E+06        -0.54600E+08         0.00000E+00
    0.00000E+00         0.00000E+00         0.15222E-07
 
    0.14025E+06         0.69074E+06         0.00000E+00
    0.69074E+06        -0.54765E+08         0.00000E+00
    0.00000E+00         0.00000E+00         0.40593E-07
 
    0.13623E+06         0.69590E+06         0.00000E+00
    0.69590E+06        -0.54931E+08         0.00000E+00
    0.00000E+00         0.00000E+00         0.35518E-07
 
    0.13168E+06         0.70080E+06         0.00000E+00
    0.70080E+06        -0.55099E+08         0.00000E+00
    0.00000E+00         0.00000E+00         0.00000E+00
 
    0.12657E+06         0.70539E+06         0.00000E+00
    0.70539E+06        -0.55270E+08         0.00000E+00
    0.00000E+00         0.00000E+00         0.00000E+00
 
    0.12083E+06         0.70965E+06         0.00000E+00
    0.70965E+06        -0.55442E+08         0.00000E+00
    0.00000E+00         0.00000E+00        -0.15222E-07
 
    0.11440E+06         0.71353E+06         0.00000E+00
    0.71353E+06        -0.55616E+08         0.00000E+00
    0.00000E+00         0.00000E+00        -0.25370E-07
 
    0.10722E+06         0.71698E+06         0.00000E+00
    0.71698E+06        -0.55791E+08         0.00000E+00
    0.00000E+00         0.00000E+00         0.00000E+00
 
    0.99222E+05         0.71997E+06         0.00000E+00
    0.71997E+06        -0.55969E+08         0.00000E+00
    0.00000E+00         0.00000E+00        -0.10148E-07
 
    0.90314E+05         0.72242E+06         0.00000E+00
    0.72242E+06        -0.56148E+08         0.00000E+00
    0.00000E+00         0.00000E+00        -0.20296E-07
 
    0.80408E+05         0.72427E+06         0.00000E+00
    0.72427E+06        -0.56329E+08         0.00000E+00
    0.00000E+00         0.00000E+00         0.10148E-07
 
    0.69401E+05         0.72546E+06         0.00000E+00
    0.72546E+06        -0.56512E+08         0.00000E+00
    0.00000E+00         0.00000E+00         0.50741E-08
 
    0.57179E+05         0.72591E+06         0.00000E+00
    0.72591E+06        -0.56697E+08         0.00000E+00
    0.00000E+00         0.00000E+00         0.00000E+00
 
    0.43615E+05         0.72551E+06         0.00000E+00
    0.72551E+06        -0.56884E+08         0.00000E+00
    0.00000E+00         0.00000E+00         0.35518E-07
 
    0.28567E+05         0.72418E+06         0.00000E+00
    0.72418E+06        -0.57072E+08         0.00000E+00
    0.00000E+00         0.00000E+00         0.35518E-07
 
    0.11876E+05         0.72180E+06         0.00000E+00
    0.72180E+06        -0.57262E+08         0.00000E+00
    0.00000E+00         0.00000E+00         0.00000E+00
 
   -0.66313E+04         0.71824E+06         0.00000E+00
    0.71824E+06        -0.57454E+08         0.00000E+00
    0.00000E+00         0.00000E+00        -0.86259E-07
 
   -0.27148E+05         0.71336E+06         0.00000E+00
    0.71336E+06        -0.57648E+08         0.00000E+00
    0.00000E+00         0.00000E+00         0.30444E-07
 
   -0.49886E+05         0.70699E+06         0.00000E+00
    0.70699E+06        -0.57843E+08         0.00000E+00
    0.00000E+00         0.00000E+00        -0.40593E-07
 
   -0.75078E+05         0.69895E+06         0.00000E+00
    0.69895E+06        -0.58041E+08         0.00000E+00
    0.00000E+00         0.00000E+00         0.20296E-07
 
   -0.10298E+06         0.68905E+06         0.00000E+00
    0.68905E+06        -0.58240E+08         0.00000E+00
    0.00000E+00         0.00000E+00        -0.10147E-07
 
   -0.13386E+06         0.67707E+06         0.00000E+00
    0.67707E+06        -0.58441E+08         0.00000E+00
    0.00000E+00         0.00000E+00         0.00000E+00
 
   -0.16801E+06         0.66276E+06         0.00000E+00
    0.66276E+06        -0.58644E+08         0.00000E+00
    0.00000E+00         0.00000E+00        -0.40593E-07
 
   -0.20576E+06         0.64587E+06         0.00000E+00
    0.64587E+06        -0.58848E+08         0.00000E+00
    0.00000E+00         0.00000E+00         0.00000E+00
 
   -0.24744E+06         0.62610E+06         0.00000E+00
    0.62610E+06        -0.59055E+08         0.00000E+00
    0.00000E+00         0.00000E+00        -0.30444E-07
 
   -0.29339E+06         0.60319E+06         0.00000E+00
    0.60319E+06        -0.59264E+08         0.00000E+00
    0.00000E+00         0.00000E+00        -0.35518E-07
 
   -0.34397E+06         0.57683E+06         0.00000E+00
    0.57683E+06        -0.59474E+08         0.00000E+00
    0.00000E+00         0.00000E+00        -0.30444E-07
 
   -0.39957E+06         0.54673E+06         0.00000E+00
    0.54673E+06        -0.59686E+08         0.00000E+00
    0.00000E+00         0.00000E+00         0.35518E-07
 
   -0.46054E+06         0.51265E+06         0.00000E+00
    0.51265E+06        -0.59900E+08         0.00000E+00
    0.00000E+00         0.00000E+00         0.10148E-07
 
   -0.52727E+06         0.47438E+06         0.00000E+00
    0.47438E+06        -0.60115E+08         0.00000E+00
    0.00000E+00         0.00000E+00         0.45667E-07
 
   -0.60010E+06         0.43183E+06         0.00000E+00
    0.43183E+06        -0.60331E+08         0.00000E+00
    0.00000E+00         0.00000E+00        -0.55815E-07
 
   -0.67937E+06         0.38504E+06         0.00000E+00
    0.38504E+06        -0.60547E+08         0.00000E+00
    0.00000E+00         0.00000E+00        -0.50741E-08
 
   -0.76538E+06         0.33429E+06         0.00000E+00
    0.33429E+06        -0.60764E+08         0.00000E+00
    0.00000E+00         0.00000E+00        -0.45667E-07
 
   -0.85840E+06         0.28017E+06         0.00000E+00
    0.28017E+06        -0.60979E+08         0.00000E+00
    0.00000E+00         0.00000E+00         0.00000E+00
 
   -0.95865E+06         0.22375E+06         0.00000E+00
    0.22375E+06        -0.61192E+08         0.00000E+00
    0.00000E+00         0.00000E+00        -0.20296E-07
 
   -0.10663E+07         0.16673E+06         0.00000E+00
    0.16673E+06        -0.61400E+08         0.00000E+00
    0.00000E+00         0.00000E+00         0.15222E-07
 
   -0.11817E+07         0.11168E+06         0.00000E+00
    0.11168E+06        -0.61601E+08         0.00000E+00
    0.00000E+00         0.00000E+00        -0.15222E-07
 
   -0.13051E+07         0.62146E+05         0.00000E+00
    0.62146E+05        -0.61791E+08         0.00000E+00
    0.00000E+00         0.00000E+00         0.50741E-07
 
   -0.14378E+07         0.22582E+05         0.00000E+00
    0.22582E+05        -0.61963E+08         0.00000E+00
    0.00000E+00         0.00000E+00         0.20296E-07
 
   -0.15821E+07        -0.25778E+04         0.00000E+00
   -0.25778E+04        -0.62109E+08         0.00000E+00
    0.00000E+00         0.00000E+00        -0.15222E-07
 
   -0.17426E+07        -0.11074E+05         0.00000E+00
   -0.11074E+05        -0.62218E+08         0.00000E+00
    0.00000E+00         0.00000E+00         0.10148E-07
 
   -0.19246E+07        -0.55524E+04         0.00000E+00
   -0.55524E+04        -0.62276E+08         0.00000E+00
    0.00000E+00         0.00000E+00         0.20296E-07
 
    0.97286E+06        -0.19756E+04         0.00000E+00
   -0.19756E+04        -0.47741E+08         0.00000E+00
    0.00000E+00         0.00000E+00         0.10148E-07
 
    0.88879E+06        -0.31399E+04         0.00000E+00
   -0.31399E+04        -0.47769E+08         0.00000E+00
    0.00000E+00         0.00000E+00         0.40592E-07
 
    0.81507E+06         0.27040E+04         0.00000E+00
    0.27040E+04        -0.47821E+08         0.00000E+00
    0.00000E+00         0.00000E+00         0.11670E-06
 
    0.74897E+06         0.16782E+05         0.00000E+00
    0.16782E+05        -0.47890E+08         0.00000E+00
    0.00000E+00         0.00000E+00         0.15222E-07
 
    0.68842E+06         0.37861E+05         0.00000E+00
    0.37861E+05        -0.47972E+08         0.00000E+00
    0.00000E+00         0.00000E+00         0.20296E-07
 
    0.63237E+06         0.63721E+05         0.00000E+00
    0.63721E+05        -0.48060E+08         0.00000E+00
    0.00000E+00         0.00000E+00        -0.50741E-07
 
    0.58044E+06         0.92222E+05         0.00000E+00
    0.92222E+05        -0.48154E+08         0.00000E+00
    0.00000E+00         0.00000E+00         0.35518E-07
 
    0.53250E+06         0.12170E+06         0.00000E+00
    0.12170E+06        -0.48252E+08         0.00000E+00
    0.00000E+00         0.00000E+00         0.15222E-07
 
    0.48848E+06         0.15098E+06         0.00000E+00
    0.15098E+06        -0.48352E+08         0.00000E+00
    0.00000E+00         0.00000E+00         0.12178E-06
 
    0.44828E+06         0.17931E+06         0.00000E+00
    0.17931E+06        -0.48453E+08         0.00000E+00
    0.00000E+00         0.00000E+00        -0.10148E-07
 
    0.41176E+06         0.20620E+06         0.00000E+00
    0.20620E+06        -0.48555E+08         0.00000E+00
    0.00000E+00         0.00000E+00         0.55815E-07
 
    0.37878E+06         0.23140E+06         0.00000E+00
    0.23140E+06        -0.48658E+08         0.00000E+00
    0.00000E+00         0.00000E+00         0.30444E-07
 
    0.34913E+06         0.25480E+06         0.00000E+00
    0.25480E+06        -0.48762E+08         0.00000E+00
    0.00000E+00         0.00000E+00        -0.30444E-07
 
    0.32262E+06         0.27640E+06         0.00000E+00
    0.27640E+06        -0.48865E+08         0.00000E+00
    0.00000E+00         0.00000E+00        -0.10148E-07
 
    0.29902E+06         0.29626E+06         0.00000E+00
    0.29626E+06        -0.48970E+08         0.00000E+00
    0.00000E+00         0.00000E+00         0.20296E-07
 
    0.27811E+06         0.31448E+06         0.00000E+00
    0.31448E+06        -0.49074E+08         0.00000E+00
    0.00000E+00         0.00000E+00        -0.30444E-07
 
    0.25969E+06         0.33120E+06         0.00000E+00
    0.33120E+06        -0.49179E+08         0.00000E+00
    0.00000E+00         0.00000E+00         0.50741E-07
 
    0.24354E+06         0.34653E+06         0.00000E+00
    0.34653E+06        -0.49284E+08         0.00000E+00
    0.00000E+00         0.00000E+00        -0.50741E-07
 
    0.22945E+06         0.36064E+06         0.00000E+00
    0.36064E+06        -0.49389E+08         0.00000E+00
    0.00000E+00         0.00000E+00         0.40593E-07
 
    0.21723E+06         0.37365E+06         0.00000E+00
    0.37365E+06        -0.49495E+08         0.00000E+00
    0.00000E+00         0.00000E+00         0.50741E-07
 
    0.20670E+06         0.38569E+06         0.00000E+00
    0.38569E+06        -0.49602E+08         0.00000E+00
    0.00000E+00         0.00000E+00         0.35518E-07
 
    0.19767E+06         0.39689E+06         0.00000E+00
    0.39689E+06        -0.49709E+08         0.00000E+00
    0.00000E+00         0.00000E+00        -0.50741E-08
 
    0.19000E+06         0.40735E+06         0.00000E+00
    0.40735E+06        -0.49817E+08         0.00000E+00
    0.00000E+00         0.00000E+00         0.30444E-07
 
    0.18353E+06         0.41717E+06         0.00000E+00
    0.41717E+06        -0.49926E+08         0.00000E+00
    0.00000E+00         0.00000E+00         0.71037E-07
 
    0.17813E+06         0.42645E+06         0.00000E+00
    0.42645E+06        -0.50035E+08         0.00000E+00
    0.00000E+00         0.00000E+00        -0.20296E-07
 
    0.17366E+06         0.43526E+06         0.00000E+00
    0.43526E+06        -0.50146E+08         0.00000E+00
    0.00000E+00         0.00000E+00        -0.10148E-07
 
    0.17002E+06         0.44367E+06         0.00000E+00
    0.44367E+06        -0.50257E+08         0.00000E+00
    0.00000E+00         0.00000E+00         0.50741E-08
 
    0.16711E+06         0.45175E+06         0.00000E+00
    0.45175E+06        -0.50370E+08         0.00000E+00
    0.00000E+00         0.00000E+00         0.40593E-07
 
    0.16483E+06         0.45953E+06         0.00000E+00
    0.45953E+06        -0.50484E+08         0.00000E+00
    0.00000E+00         0.00000E+00        -0.10148E-07
 
    0.16309E+06         0.46708E+06         0.00000E+00
    0.46708E+06        -0.50598E+08         0.00000E+00
    0.00000E+00         0.00000E+00        -0.60889E-07
 
    0.16182E+06         0.47443E+06         0.00000E+00
    0.47443E+06        -0.50715E+08         0.00000E+00
    0.00000E+00         0.00000E+00         0.30444E-07
 
    0.16095E+06         0.48162E+06         0.00000E+00
    0.48162E+06        -0.50832E+08         0.00000E+00
    0.00000E+00         0.00000E+00         0.76111E-07
 
    0.16042E+06         0.48867E+06         0.00000E+00
    0.48867E+06        -0.50951E+08         0.00000E+00
    0.00000E+00         0.00000E+00        -0.86259E-07
 
    0.16018E+06         0.49561E+06         0.00000E+00
    0.49561E+06        -0.51071E+08         0.00000E+00
    0.00000E+00         0.00000E+00        -0.10148E-07
 
    0.16016E+06         0.50245E+06         0.00000E+00
    0.50245E+06        -0.51192E+08         0.00000E+00
    0.00000E+00         0.00000E+00         0.10148E-07
 
    0.16033E+06         0.50923E+06         0.00000E+00
    0.50923E+06        -0.51315E+08         0.00000E+00
    0.00000E+00         0.00000E+00        -0.15222E-07
 
    0.16065E+06         0.51594E+06         0.00000E+00
    0.51594E+06        -0.51439E+08         0.00000E+00
    0.00000E+00         0.00000E+00        -0.25370E-07
 
    0.16107E+06         0.52261E+06         0.00000E+00
    0.52261E+06        -0.51565E+08         0.00000E+00
    0.00000E+00         0.00000E+00        -0.10148E-07
 
    0.16156E+06         0.52924E+06         0.00000E+00
    0.52924E+06        -0.51692E+08         0.00000E+00
    0.00000E+00         0.00000E+00         0.40593E-07
 
    0.16210E+06         0.53585E+06         0.00000E+00
    0.53585E+06        -0.51821E+08         0.00000E+00
    0.00000E+00         0.00000E+00         0.50741E-08
 
    0.16264E+06         0.54242E+06         0.00000E+00
    0.54242E+06        -0.51952E+08         0.00000E+00
    0.00000E+00         0.00000E+00         0.60889E-07
 
    0.16317E+06         0.54898E+06         0.00000E+00
    0.54898E+06        -0.52084E+08         0.00000E+00
    0.00000E+00         0.00000E+00        -0.15222E-07
 
    0.16366E+06         0.55551E+06         0.00000E+00
    0.55551E+06        -0.52218E+08         0.00000E+00
    0.00000E+00         0.00000E+00        -0.50741E-08
 
    0.16409E+06         0.56202E+06         0.00000E+00
    0.56202E+06        -0.52354E+08         0.00000E+00
    0.00000E+00         0.00000E+00         0.20296E-07
 
    0.16443E+06         0.56851E+06         0.00000E+00
    0.56851E+06        -0.52491E+08         0.00000E+00
    0.00000E+00         0.00000E+00         0.50741E-08
 
    0.16466E+06         0.57498E+06         0.00000E+00
    0.57498E+06        -0.52630E+08         0.00000E+00
    0.00000E+00         0.00000E+00        -0.65963E-07
 
    0.16476E+06         0.58142E+06         0.00000E+00
    0.58142E+06        -0.52771E+08         0.00000E+00
    0.00000E+00         0.00000E+00        -0.10148E-07
 
    0.16472E+06         0.58783E+06         0.00000E+00
    0.58783E+06        -0.52913E+08         0.00000E+00
    0.00000E+00         0.00000E+00         0.50741E-08
 
    0.16450E+06         0.59419E+06         0.00000E+00
    0.59419E+06        -0.53057E+08         0.00000E+00
    0.00000E+00         0.00000E+00         0.50741E-07
 
    0.16410E+06         0.60051E+06         0.00000E+00
    0.60051E+06        -0.53204E+08         0.00000E+00
    0.00000E+00         0.00000E+00         0.50741E-08
 
    0.16348E+06         0.60678E+06         0.00000E+00
    0.60678E+06        -0.53351E+08         0.00000E+00
    0.00000E+00         0.00000E+00        -0.30444E-07
 
    0.16263E+06         0.61297E+06         0.00000E+00
    0.61297E+06        -0.53501E+08         0.00000E+00
    0.00000E+00         0.00000E+00        -0.25370E-07
 
    0.16153E+06         0.61909E+06         0.00000E+00
    0.61909E+06        -0.53653E+08         0.00000E+00
    0.00000E+00         0.00000E+00         0.50741E-08
 
    0.16015E+06         0.62512E+06         0.00000E+00
    0.62512E+06        -0.53806E+08         0.00000E+00
    0.00000E+00         0.00000E+00         0.25370E-07
 
    0.15847E+06         0.63105E+06         0.00000E+00
    0.63105E+06        -0.53962E+08         0.00000E+00
    0.00000E+00         0.00000E+00        -0.10148E-07
 
    0.15647E+06         0.63685E+06         0.00000E+00
    0.63685E+06        -0.54119E+08         0.00000E+00
    0.00000E+00         0.00000E+00         0.45667E-07
 
    0.15411E+06         0.64252E+06         0.00000E+00
    0.64252E+06        -0.54278E+08         0.00000E+00
    0.00000E+00         0.00000E+00         0.40593E-07
 
    0.15137E+06         0.64803E+06         0.00000E+00
    0.64803E+06        -0.54438E+08         0.00000E+00
    0.00000E+00         0.00000E+00         0.40593E-07
 
    0.14821E+06         0.65336E+06         0.00000E+00
    0.65336E+06        -0.54601E+08         0.00000E+00
    0.00000E+00         0.00000E+00         0.71037E-07
 
    0.14459E+06         0.65850E+06         0.00000E+00
    0.65850E+06        -0.54766E+08         0.00000E+00
    0.00000E+00         0.00000E+00         0.45666E-07
 
    0.14048E+06         0.66340E+06         0.00000E+00
    0.66340E+06        -0.54932E+08         0.00000E+00
    0.00000E+00         0.00000E+00        -0.50741E-07
 
    0.13584E+06         0.66805E+06         0.00000E+00
    0.66805E+06        -0.55100E+08         0.00000E+00
    0.00000E+00         0.00000E+00        -0.50741E-08
 
    0.13061E+06         0.67241E+06         0.00000E+00
    0.67241E+06        -0.55271E+08         0.00000E+00
    0.00000E+00         0.00000E+00        -0.50741E-08
 
    0.12474E+06         0.67645E+06         0.00000E+00
    0.67645E+06        -0.55442E+08         0.00000E+00
    0.00000E+00         0.00000E+00         0.60887E-07
 
    0.11817E+06         0.68013E+06         0.00000E+00
    0.68013E+06        -0.55616E+08         0.00000E+00
    0.00000E+00         0.00000E+00        -0.15221E-07
 
    0.11083E+06         0.68340E+06         0.00000E+00
    0.68340E+06        -0.55792E+08         0.00000E+00
    0.00000E+00         0.00000E+00         0.25370E-07
 
    0.10265E+06         0.68622E+06         0.00000E+00
    0.68622E+06        -0.55969E+08         0.00000E+00
    0.00000E+00         0.00000E+00         0.50741E-08
 
    0.93537E+05         0.68853E+06         0.00000E+00
    0.68853E+06        -0.56149E+08         0.00000E+00
    0.00000E+00         0.00000E+00        -0.65963E-07
 
    0.83408E+05         0.69027E+06         0.00000E+00
    0.69027E+06        -0.56330E+08         0.00000E+00
    0.00000E+00         0.00000E+00         0.45667E-07
 
    0.72152E+05         0.69137E+06         0.00000E+00
    0.69137E+06        -0.56512E+08         0.00000E+00
    0.00000E+00         0.00000E+00         0.50741E-08
 
    0.59654E+05         0.69175E+06         0.00000E+00
    0.69175E+06        -0.56697E+08         0.00000E+00
    0.00000E+00         0.00000E+00        -0.20296E-07
 
    0.45782E+05         0.69133E+06         0.00000E+00
    0.69133E+06        -0.56883E+08         0.00000E+00
    0.00000E+00         0.00000E+00         0.30444E-07
 
    0.30390E+05         0.69001E+06         0.00000E+00
    0.69001E+06        -0.57072E+08         0.00000E+00
    0.00000E+00         0.00000E+00        -0.10148E-07
 
    0.13315E+05         0.68768E+06         0.00000E+00
    0.68768E+06        -0.57261E+08         0.00000E+00
    0.00000E+00         0.00000E+00         0.00000E+00
 
   -0.56218E+04         0.68422E+06         0.00000E+00
    0.68422E+06        -0.57453E+08         0.00000E+00
    0.00000E+00         0.00000E+00         0.20296E-07
 
   -0.26621E+05         0.67948E+06         0.00000E+00
    0.67948E+06        -0.57647E+08         0.00000E+00
    0.00000E+00         0.00000E+00        -0.50741E-08
 
   -0.49903E+05         0.67331E+06         0.00000E+00
    0.67331E+06        -0.57842E+08         0.00000E+00
    0.00000E+00         0.00000E+00        -0.35518E-07
 
   -0.75709E+05         0.66554E+06         0.00000E+00
    0.66554E+06        -0.58039E+08         0.00000E+00
    0.00000E+00         0.00000E+00        -0.10148E-07
 
   -0.10430E+06         0.65596E+06         0.00000E+00
    0.65596E+06        -0.58238E+08         0.00000E+00
    0.00000E+00         0.00000E+00         0.50741E-08
 
   -0.13598E+06         0.64437E+06         0.00000E+00
    0.64437E+06        -0.58438E+08         0.00000E+00
    0.00000E+00         0.00000E+00         0.20296E-07
 
   -0.17104E+06         0.63053E+06         0.00000E+00
    0.63053E+06        -0.58641E+08         0.00000E+00
    0.00000E+00         0.00000E+00         0.11163E-06
 
   -0.20982E+06         0.61417E+06         0.00000E+00
    0.61417E+06        -0.58845E+08         0.00000E+00
    0.00000E+00         0.00000E+00         0.10148E-07
 
   -0.25268E+06         0.59503E+06         0.00000E+00
    0.59503E+06        -0.59051E+08         0.00000E+00
    0.00000E+00         0.00000E+00        -0.45667E-07
 
   -0.29999E+06         0.57283E+06         0.00000E+00
    0.57283E+06        -0.59259E+08         0.00000E+00
    0.00000E+00         0.00000E+00        -0.20296E-07
 
   -0.35214E+06         0.54726E+06         0.00000E+00
    0.54726E+06        -0.59468E+08         0.00000E+00
    0.00000E+00         0.00000E+00        -0.12685E-06
 
   -0.40953E+06         0.51805E+06         0.00000E+00
    0.51805E+06        -0.59680E+08         0.00000E+00
    0.00000E+00         0.00000E+00         0.50741E-08
 
   -0.47257E+06         0.48495E+06         0.00000E+00
    0.48495E+06        -0.59892E+08         0.00000E+00
    0.00000E+00         0.00000E+00         0.40593E-07
 
   -0.54167E+06         0.44775E+06         0.00000E+00
    0.44775E+06        -0.60107E+08         0.00000E+00
    0.00000E+00         0.00000E+00         0.00000E+00
 
   -0.61720E+06         0.40635E+06         0.00000E+00
    0.40635E+06        -0.60322E+08         0.00000E+00
    0.00000E+00         0.00000E+00        -0.50741E-07
 
   -0.69953E+06         0.36079E+06         0.00000E+00
    0.36079E+06        -0.60538E+08         0.00000E+00
    0.00000E+00         0.00000E+00        -0.50741E-08
 
   -0.78898E+06         0.31133E+06         0.00000E+00
    0.31133E+06        -0.60754E+08         0.00000E+00
    0.00000E+00         0.00000E+00        -0.50741E-08
 
   -0.88581E+06         0.25857E+06         0.00000E+00
    0.25857E+06        -0.60968E+08         0.00000E+00
    0.00000E+00         0.00000E+00        -0.35518E-07
 
   -0.99020E+06         0.20356E+06         0.00000E+00
    0.20356E+06        -0.61181E+08         0.00000E+00
    0.00000E+00         0.00000E+00        -0.50741E-08
 
   -0.11023E+07         0.14800E+06         0.00000E+00
    0.14800E+06        -0.61389E+08         0.00000E+00
    0.00000E+00         0.00000E+00         0.65963E-07
 
   -0.12220E+07         0.94434E+05         0.00000E+00
    0.94434E+05        -0.61591E+08         0.00000E+00
    0.00000E+00         0.00000E+00        -0.25370E-07
 
   -0.13496E+07         0.46498E+05         0.00000E+00
    0.46498E+05        -0.61782E+08         0.00000E+00
    0.00000E+00         0.00000E+00        -0.50741E-07
 
   -0.14858E+07         0.88309E+04         0.00000E+00
    0.88309E+04        -0.61957E+08         0.00000E+00
    0.00000E+00         0.00000E+00         0.50741E-08
 
   -0.16326E+07        -0.13759E+05         0.00000E+00
   -0.13759E+05        -0.62106E+08         0.00000E+00
    0.00000E+00         0.00000E+00        -0.40593E-07
 
   -0.17944E+07        -0.18583E+05         0.00000E+00
   -0.18583E+05        -0.62218E+08         0.00000E+00
    0.00000E+00         0.00000E+00        -0.20296E-07
 
   -0.19769E+07        -0.82276E+04         0.00000E+00
   -0.82276E+04        -0.62279E+08         0.00000E+00
    0.00000E+00         0.00000E+00        -0.30444E-07
 
    0.99862E+06        -0.32684E+04         0.00000E+00
   -0.32684E+04        -0.47740E+08         0.00000E+00
    0.00000E+00         0.00000E+00         0.00000E+00
 
    0.91434E+06        -0.67507E+04         0.00000E+00
   -0.67507E+04        -0.47769E+08         0.00000E+00
    0.00000E+00         0.00000E+00        -0.40592E-07
 
    0.84001E+06        -0.26391E+04         0.00000E+00
   -0.26391E+04        -0.47823E+08         0.00000E+00
    0.00000E+00         0.00000E+00         0.15222E-07
 
    0.77275E+06         0.10226E+05         0.00000E+00
    0.10226E+05        -0.47894E+08         0.00000E+00
    0.00000E+00         0.00000E+00         0.10148E-07
 
    0.71057E+06         0.30370E+05         0.00000E+00
    0.30370E+05        -0.47976E+08         0.00000E+00
    0.00000E+00         0.00000E+00         0.20296E-07
 
    0.65261E+06         0.55385E+05         0.00000E+00
    0.55385E+05        -0.48066E+08         0.00000E+00
    0.00000E+00         0.00000E+00        -0.20296E-07
 
    0.59868E+06         0.83050E+05         0.00000E+00
    0.83050E+05        -0.48160E+08         0.00000E+00
    0.00000E+00         0.00000E+00        -0.35518E-07
 
    0.54879E+06         0.11168E+06         0.00000E+00
    0.11168E+06        -0.48258E+08         0.00000E+00
    0.00000E+00         0.00000E+00        -0.25370E-07
 
    0.50296E+06         0.14012E+06         0.00000E+00
    0.14012E+06        -0.48357E+08         0.00000E+00
    0.00000E+00         0.00000E+00        -0.10148E-07
 
    0.46112E+06         0.16760E+06         0.00000E+00
    0.16760E+06        -0.48458E+08         0.00000E+00
    0.00000E+00         0.00000E+00        -0.45667E-07
 
    0.42317E+06         0.19367E+06         0.00000E+00
    0.19367E+06        -0.48560E+08         0.00000E+00
    0.00000E+00         0.00000E+00        -0.50741E-08
 
    0.38893E+06         0.21807E+06         0.00000E+00
    0.21807E+06        -0.48663E+08         0.00000E+00
    0.00000E+00         0.00000E+00         0.10148E-07
 
    0.35820E+06         0.24071E+06         0.00000E+00
    0.24071E+06        -0.48766E+08         0.00000E+00
    0.00000E+00         0.00000E+00         0.00000E+00
 
    0.33077E+06         0.26158E+06         0.00000E+00
    0.26158E+06        -0.48870E+08         0.00000E+00
    0.00000E+00         0.00000E+00         0.25370E-07
 
    0.30640E+06         0.28074E+06         0.00000E+00
    0.28074E+06        -0.48973E+08         0.00000E+00
    0.00000E+00         0.00000E+00        -0.50741E-08
 
    0.28485E+06         0.29830E+06         0.00000E+00
    0.29830E+06        -0.49077E+08         0.00000E+00
    0.00000E+00         0.00000E+00         0.00000E+00
 
    0.26590E+06         0.31438E+06         0.00000E+00
    0.31438E+06        -0.49182E+08         0.00000E+00
    0.00000E+00         0.00000E+00        -0.50741E-08
 
    0.24930E+06         0.32913E+06         0.00000E+00
    0.32913E+06        -0.49287E+08         0.00000E+00
    0.00000E+00         0.00000E+00        -0.30444E-07
 
    0.23486E+06         0.34267E+06         0.00000E+00
    0.34267E+06        -0.49392E+08         0.00000E+00
    0.00000E+00         0.00000E+00        -0.50741E-08
 
    0.22235E+06         0.35514E+06         0.00000E+00
    0.35514E+06        -0.49498E+08         0.00000E+00
    0.00000E+00         0.00000E+00         0.50741E-08
 
    0.21158E+06         0.36668E+06         0.00000E+00
    0.36668E+06        -0.49604E+08         0.00000E+00
    0.00000E+00         0.00000E+00        -0.50741E-08
 
    0.20237E+06         0.37739E+06         0.00000E+00
    0.37739E+06        -0.49711E+08         0.00000E+00
    0.00000E+00         0.00000E+00         0.35518E-07
 
    0.19455E+06         0.38740E+06         0.00000E+00
    0.38740E+06        -0.49819E+08         0.00000E+00
    0.00000E+00         0.00000E+00        -0.30444E-07
 
    0.18797E+06         0.39679E+06         0.00000E+00
    0.39679E+06        -0.49928E+08         0.00000E+00
    0.00000E+00         0.00000E+00        -0.50741E-08
 
    0.18248E+06         0.40564E+06         0.00000E+00
    0.40564E+06        -0.50037E+08         0.00000E+00
    0.00000E+00         0.00000E+00        -0.15222E-07
 
    0.17795E+06         0.41405E+06         0.00000E+00
    0.41405E+06        -0.50148E+08         0.00000E+00
    0.00000E+00         0.00000E+00         0.00000E+00
 
    0.17427E+06         0.42207E+06         0.00000E+00
    0.42207E+06        -0.50259E+08         0.00000E+00
    0.00000E+00         0.00000E+00         0.15222E-07
 
    0.17133E+06         0.42977E+06         0.00000E+00
    0.42977E+06        -0.50371E+08         0.00000E+00
    0.00000E+00         0.00000E+00         0.10148E-07
 
    0.16904E+06         0.43719E+06         0.00000E+00
    0.43719E+06        -0.50485E+08         0.00000E+00
    0.00000E+00         0.00000E+00        -0.10148E-07
 
    0.16730E+06         0.44438E+06         0.00000E+00
    0.44438E+06        -0.50600E+08         0.00000E+00
    0.00000E+00         0.00000E+00        -0.50741E-08
 
    0.16604E+06         0.45138E+06         0.00000E+00
    0.45138E+06        -0.50716E+08         0.00000E+00
    0.00000E+00         0.00000E+00         0.45667E-07
 
    0.16519E+06         0.45821E+06         0.00000E+00
    0.45821E+06        -0.50833E+08         0.00000E+00
    0.00000E+00         0.00000E+00        -0.25370E-07
 
    0.16468E+06         0.46492E+06         0.00000E+00
    0.46492E+06        -0.50952E+08         0.00000E+00
    0.00000E+00         0.00000E+00         0.20296E-07
 
    0.16446E+06         0.47152E+06         0.00000E+00
    0.47152E+06        -0.51072E+08         0.00000E+00
    0.00000E+00         0.00000E+00        -0.20296E-07
 
    0.16448E+06         0.47804E+06         0.00000E+00
    0.47804E+06        -0.51193E+08         0.00000E+00
    0.00000E+00         0.00000E+00        -0.15222E-07
 
    0.16468E+06         0.48448E+06         0.00000E+00
    0.48448E+06        -0.51316E+08         0.00000E+00
    0.00000E+00         0.00000E+00        -0.30444E-07
 
    0.16503E+06         0.49087E+06         0.00000E+00
    0.49087E+06        -0.51440E+08         0.00000E+00
    0.00000E+00         0.00000E+00         0.65963E-07
 
    0.16548E+06         0.49721E+06         0.00000E+00
    0.49721E+06        -0.51566E+08         0.00000E+00
    0.00000E+00         0.00000E+00         0.15222E-07
 
    0.16601E+06         0.50352E+06         0.00000E+00
    0.50352E+06        -0.51694E+08         0.00000E+00
    0.00000E+00         0.00000E+00        -0.65963E-07
 
    0.16658E+06         0.50979E+06         0.00000E+00
    0.50979E+06        -0.51823E+08         0.00000E+00
    0.00000E+00         0.00000E+00         0.20296E-07
 
    0.16716E+06         0.51604E+06         0.00000E+00
    0.51604E+06        -0.51953E+08         0.00000E+00
    0.00000E+00         0.00000E+00         0.35518E-07
 
    0.16772E+06         0.52227E+06         0.00000E+00
    0.52227E+06        -0.52085E+08         0.00000E+00
    0.00000E+00         0.00000E+00         0.00000E+00
 
    0.16824E+06         0.52848E+06         0.00000E+00
    0.52848E+06        -0.52219E+08         0.00000E+00
    0.00000E+00         0.00000E+00         0.15222E-07
 
    0.16869E+06         0.53467E+06         0.00000E+00
    0.53467E+06        -0.52355E+08         0.00000E+00
    0.00000E+00         0.00000E+00         0.25370E-07
 
    0.16905E+06         0.54084E+06         0.00000E+00
    0.54084E+06        -0.52492E+08         0.00000E+00
    0.00000E+00         0.00000E+00        -0.35518E-07
 
    0.16930E+06         0.54698E+06         0.00000E+00
    0.54698E+06        -0.52631E+08         0.00000E+00
    0.00000E+00         0.00000E+00        -0.20296E-07
 
    0.16942E+06         0.55310E+06         0.00000E+00
    0.55310E+06        -0.52772E+08         0.00000E+00
    0.00000E+00         0.00000E+00        -0.30444E-07
 
    0.16939E+06         0.55919E+06         0.00000E+00
    0.55919E+06        -0.52914E+08         0.00000E+00
    0.00000E+00         0.00000E+00         0.25370E-07
 
    0.16918E+06         0.56523E+06         0.00000E+00
    0.56523E+06        -0.53059E+08         0.00000E+00
    0.00000E+00         0.00000E+00         0.30444E-07
 
    0.16877E+06         0.57124E+06         0.00000E+00
    0.57124E+06        -0.53205E+08         0.00000E+00
    0.00000E+00         0.00000E+00         0.10148E-07
 
    0.16815E+06         0.57718E+06         0.00000E+00
    0.57718E+06        -0.53353E+08         0.00000E+00
    0.00000E+00         0.00000E+00        -0.50741E-08
 
    0.16730E+06         0.58307E+06         0.00000E+00
    0.58307E+06        -0.53502E+08         0.00000E+00
    0.00000E+00         0.00000E+00         0.15222E-07
 
    0.16618E+06         0.58888E+06         0.00000E+00
    0.58888E+06        -0.53654E+08         0.00000E+00
    0.00000E+00         0.00000E+00        -0.25370E-07
 
    0.16478E+06         0.59460E+06         0.00000E+00
    0.59460E+06        -0.53807E+08         0.00000E+00
    0.00000E+00         0.00000E+00         0.20296E-07
 
    0.16307E+06         0.60023E+06         0.00000E+00
    0.60023E+06        -0.53963E+08         0.00000E+00
    0.00000E+00         0.00000E+00         0.15222E-07
 
    0.16103E+06         0.60574E+06         0.00000E+00
    0.60574E+06        -0.54120E+08         0.00000E+00
    0.00000E+00         0.00000E+00        -0.60889E-07
 
    0.15862E+06         0.61112E+06         0.00000E+00
    0.61112E+06        -0.54279E+08         0.00000E+00
    0.00000E+00         0.00000E+00        -0.45667E-07
 
    0.15582E+06         0.61635E+06         0.00000E+00
    0.61635E+06        -0.54439E+08         0.00000E+00
    0.00000E+00         0.00000E+00         0.15222E-07
 
    0.15260E+06         0.62141E+06         0.00000E+00
    0.62141E+06        -0.54602E+08         0.00000E+00
    0.00000E+00         0.00000E+00        -0.15222E-07
 
    0.14891E+06         0.62627E+06         0.00000E+00
    0.62627E+06        -0.54767E+08         0.00000E+00
    0.00000E+00         0.00000E+00         0.10148E-07
 
    0.14472E+06         0.63092E+06         0.00000E+00
    0.63092E+06        -0.54933E+08         0.00000E+00
    0.00000E+00         0.00000E+00         0.40593E-07
 
    0.13997E+06         0.63533E+06         0.00000E+00
    0.63533E+06        -0.55101E+08         0.00000E+00
    0.00000E+00         0.00000E+00         0.00000E+00
 
    0.13463E+06         0.63946E+06         0.00000E+00
    0.63946E+06        -0.55271E+08         0.00000E+00
    0.00000E+00         0.00000E+00        -0.50741E-08
 
    0.12864E+06         0.64328E+06         0.00000E+00
    0.64328E+06        -0.55443E+08         0.00000E+00
    0.00000E+00         0.00000E+00         0.10148E-07
 
    0.12193E+06         0.64676E+06         0.00000E+00
    0.64676E+06        -0.55617E+08         0.00000E+00
    0.00000E+00         0.00000E+00        -0.10148E-07
 
    0.11444E+06         0.64985E+06         0.00000E+00
    0.64985E+06        -0.55792E+08         0.00000E+00
    0.00000E+00         0.00000E+00        -0.40593E-07
 
    0.10608E+06         0.65251E+06         0.00000E+00
    0.65251E+06        -0.55970E+08         0.00000E+00
    0.00000E+00         0.00000E+00        -0.65963E-07
 
    0.96781E+05         0.65468E+06         0.00000E+00
    0.65468E+06        -0.56149E+08         0.00000E+00
    0.00000E+00         0.00000E+00        -0.50741E-08
 
    0.86438E+05         0.65630E+06         0.00000E+00
    0.65630E+06        -0.56330E+08         0.00000E+00
    0.00000E+00         0.00000E+00        -0.40592E-07
 
    0.74946E+05         0.65732E+06         0.00000E+00
    0.65732E+06        -0.56513E+08         0.00000E+00
    0.00000E+00         0.00000E+00         0.30444E-07
 
    0.62184E+05         0.65765E+06         0.00000E+00
    0.65765E+06        -0.56697E+08         0.00000E+00
    0.00000E+00         0.00000E+00        -0.30444E-07
 
    0.48017E+05         0.65721E+06         0.00000E+00
    0.65721E+06        -0.56883E+08         0.00000E+00
    0.00000E+00         0.00000E+00        -0.30444E-07
 
    0.32297E+05         0.65591E+06         0.00000E+00
    0.65591E+06        -0.57071E+08         0.00000E+00
    0.00000E+00         0.00000E+00        -0.45667E-07
 
    0.14857E+05         0.65364E+06         0.00000E+00
    0.65364E+06        -0.57261E+08         0.00000E+00
    0.00000E+00         0.00000E+00        -0.55815E-07
 
   -0.44912E+04         0.65029E+06         0.00000E+00
    0.65029E+06        -0.57452E+08         0.00000E+00
    0.00000E+00         0.00000E+00        -0.50741E-08
 
   -0.25952E+05         0.64571E+06         0.00000E+00
    0.64571E+06        -0.57646E+08         0.00000E+00
    0.00000E+00         0.00000E+00        -0.81185E-07
 
   -0.49754E+05         0.63975E+06         0.00000E+00
    0.63975E+06        -0.57840E+08         0.00000E+00
    0.00000E+00         0.00000E+00         0.15222E-07
 
   -0.76149E+05         0.63225E+06         0.00000E+00
    0.63225E+06        -0.58037E+08         0.00000E+00
    0.00000E+00         0.00000E+00         0.10148E-07
 
   -0.10541E+06         0.62302E+06         0.00000E+00
    0.62302E+06        -0.58236E+08         0.00000E+00
    0.00000E+00         0.00000E+00         0.10148E-07
 
   -0.13785E+06         0.61184E+06         0.00000E+00
    0.61184E+06        -0.58436E+08         0.00000E+00
    0.00000E+00         0.00000E+00        -0.20296E-07
 
   -0.17378E+06         0.59848E+06         0.00000E+00
    0.59848E+06        -0.58638E+08         0.00000E+00
    0.00000E+00         0.00000E+00         0.10148E-07
 
   -0.21356E+06         0.58269E+06         0.00000E+00
    0.58269E+06        -0.58841E+08         0.00000E+00
    0.00000E+00         0.00000E+00        -0.86259E-07
 
   -0.25757E+06         0.56421E+06         0.00000E+00
    0.56421E+06        -0.59047E+08         0.00000E+00
    0.00000E+00         0.00000E+00        -0.55815E-07
 
   -0.30621E+06         0.54275E+06         0.00000E+00
    0.54275E+06        -0.59254E+08         0.00000E+00
    0.00000E+00         0.00000E+00        -0.50741E-07
 
   -0.35989E+06         0.51803E+06         0.00000E+00
    0.51803E+06        -0.59463E+08         0.00000E+00
    0.00000E+00         0.00000E+00        -0.76111E-07
 
   -0.41905E+06         0.48976E+06         0.00000E+00
    0.48976E+06        -0.59673E+08         0.00000E+00
    0.00000E+00         0.00000E+00         0.00000E+00
 
   -0.48413E+06         0.45768E+06         0.00000E+00
    0.45768E+06        -0.59886E+08         0.00000E+00
    0.00000E+00         0.00000E+00        -0.45667E-07
 
   -0.55556E+06         0.42161E+06         0.00000E+00
    0.42161E+06        -0.60099E+08         0.00000E+00
    0.00000E+00         0.00000E+00         0.55815E-07
 
   -0.63378E+06         0.38143E+06         0.00000E+00
    0.38143E+06        -0.60313E+08         0.00000E+00
    0.00000E+00         0.00000E+00         0.00000E+00
 
   -0.71916E+06         0.33718E+06         0.00000E+00
    0.33718E+06        -0.60528E+08         0.00000E+00
    0.00000E+00         0.00000E+00        -0.96407E-07
 
   -0.81206E+06         0.28911E+06         0.00000E+00
    0.28911E+06        -0.60744E+08         0.00000E+00
    0.00000E+00         0.00000E+00        -0.60889E-07
 
   -0.91274E+06         0.23778E+06         0.00000E+00
    0.23778E+06        -0.60958E+08         0.00000E+00
    0.00000E+00         0.00000E+00         0.10148E-07
 
   -0.10213E+07         0.18424E+06         0.00000E+00
    0.18424E+06        -0.61170E+08         0.00000E+00
    0.00000E+00         0.00000E+00         0.65963E-07
 
   -0.11378E+07         0.13016E+06         0.00000E+00
    0.13016E+06        -0.61378E+08         0.00000E+00
    0.00000E+00         0.00000E+00         0.86259E-07
 
   -0.12622E+07         0.78075E+05         0.00000E+00
    0.78075E+05        -0.61581E+08         0.00000E+00
    0.00000E+00         0.00000E+00        -0.40593E-07
 
   -0.13941E+07         0.31650E+05         0.00000E+00
    0.31650E+05        -0.61773E+08         0.00000E+00
    0.00000E+00         0.00000E+00         0.00000E+00
 
   -0.15339E+07        -0.42992E+04         0.00000E+00
   -0.42992E+04        -0.61951E+08         0.00000E+00
    0.00000E+00         0.00000E+00         0.10147E-07
 
   -0.16834E+07        -0.24563E+05         0.00000E+00
   -0.24563E+05        -0.62104E+08         0.00000E+00
    0.00000E+00         0.00000E+00        -0.30444E-07
 
   -0.18466E+07        -0.25938E+05         0.00000E+00
   -0.25938E+05        -0.62219E+08         0.00000E+00
    0.00000E+00         0.00000E+00        -0.17252E-06
 
   -0.20295E+07        -0.10871E+05         0.00000E+00
   -0.10871E+05        -0.62282E+08         0.00000E+00
    0.00000E+00         0.00000E+00         0.20296E-07
 
    0.10246E+07        -0.45495E+04         0.00000E+00
   -0.45495E+04        -0.47739E+08         0.00000E+00
    0.00000E+00         0.00000E+00         0.11369E-12
 
    0.94008E+06        -0.10293E+05         0.00000E+00
   -0.10293E+05        -0.47769E+08         0.00000E+00
    0.00000E+00         0.00000E+00         0.15222E-07
 
    0.86510E+06        -0.78054E+04         0.00000E+00
   -0.78054E+04        -0.47825E+08         0.00000E+00
    0.00000E+00         0.00000E+00         0.15222E-07
 
    0.79659E+06         0.39631E+04         0.00000E+00
    0.39631E+04        -0.47897E+08         0.00000E+00
    0.00000E+00         0.00000E+00        -0.15222E-07
 
    0.73266E+06         0.23252E+05         0.00000E+00
    0.23252E+05        -0.47981E+08         0.00000E+00
    0.00000E+00         0.00000E+00         0.15222E-07
 
    0.67269E+06         0.47456E+05         0.00000E+00
    0.47456E+05        -0.48071E+08         0.00000E+00
    0.00000E+00         0.00000E+00         0.15222E-07
 
    0.61669E+06         0.74283E+05         0.00000E+00
    0.74283E+05        -0.48166E+08         0.00000E+00
    0.00000E+00         0.00000E+00         0.65963E-07
 
    0.56482E+06         0.10205E+06         0.00000E+00
    0.10205E+06        -0.48263E+08         0.00000E+00
    0.00000E+00         0.00000E+00         0.65963E-07
 
    0.51715E+06         0.12960E+06         0.00000E+00
    0.12960E+06        -0.48363E+08         0.00000E+00
    0.00000E+00         0.00000E+00        -0.50741E-08
 
    0.47367E+06         0.15620E+06         0.00000E+00
    0.15620E+06        -0.48464E+08         0.00000E+00
    0.00000E+00         0.00000E+00         0.50741E-08
 
    0.43427E+06         0.18141E+06         0.00000E+00
    0.18141E+06        -0.48565E+08         0.00000E+00
    0.00000E+00         0.00000E+00        -0.15222E-07
 
    0.39878E+06         0.20498E+06         0.00000E+00
    0.20498E+06        -0.48668E+08         0.00000E+00
    0.00000E+00         0.00000E+00        -0.50741E-07
 
    0.36698E+06         0.22682E+06         0.00000E+00
    0.22682E+06        -0.48770E+08         0.00000E+00
    0.00000E+00         0.00000E+00        -0.10148E-07
 
    0.33865E+06         0.24692E+06         0.00000E+00
    0.24692E+06        -0.48873E+08         0.00000E+00
    0.00000E+00         0.00000E+00         0.55815E-07
 
    0.31352E+06         0.26536E+06         0.00000E+00
    0.26536E+06        -0.48977E+08         0.00000E+00
    0.00000E+00         0.00000E+00         0.50741E-08
 
    0.29134E+06         0.28223E+06         0.00000E+00
    0.28223E+06        -0.49081E+08         0.00000E+00
    0.00000E+00         0.00000E+00         0.91333E-07
 
    0.27187E+06         0.29767E+06         0.00000E+00
    0.29767E+06        -0.49185E+08         0.00000E+00
    0.00000E+00         0.00000E+00         0.15222E-07
 
    0.25485E+06         0.31180E+06         0.00000E+00
    0.31180E+06        -0.49289E+08         0.00000E+00
    0.00000E+00         0.00000E+00        -0.15222E-07
 
    0.24006E+06         0.32476E+06         0.00000E+00
    0.32476E+06        -0.49394E+08         0.00000E+00
    0.00000E+00         0.00000E+00        -0.10148E-07
 
    0.22727E+06         0.33669E+06         0.00000E+00
    0.33669E+06        -0.49500E+08         0.00000E+00
    0.00000E+00         0.00000E+00        -0.15222E-07
 
    0.21628E+06         0.34771E+06         0.00000E+00
    0.34771E+06        -0.49606E+08         0.00000E+00
    0.00000E+00         0.00000E+00        -0.50741E-07
 
    0.20690E+06         0.35793E+06         0.00000E+00
    0.35793E+06        -0.49713E+08         0.00000E+00
    0.00000E+00         0.00000E+00        -0.10148E-07
 
    0.19895E+06         0.36747E+06         0.00000E+00
    0.36747E+06        -0.49821E+08         0.00000E+00
    0.00000E+00         0.00000E+00         0.55814E-07
 
    0.19226E+06         0.37642E+06         0.00000E+00
    0.37642E+06        -0.49929E+08         0.00000E+00
    0.00000E+00         0.00000E+00         0.00000E+00
 
    0.18670E+06         0.38485E+06         0.00000E+00
    0.38485E+06        -0.50039E+08         0.00000E+00
    0.00000E+00         0.00000E+00        -0.45667E-07
 
    0.18212E+06         0.39285E+06         0.00000E+00
    0.39285E+06        -0.50149E+08         0.00000E+00
    0.00000E+00         0.00000E+00         0.20296E-07
 
    0.17841E+06         0.40048E+06         0.00000E+00
    0.40048E+06        -0.50260E+08         0.00000E+00
    0.00000E+00         0.00000E+00         0.40593E-07
 
    0.17546E+06         0.40779E+06         0.00000E+00
    0.40779E+06        -0.50373E+08         0.00000E+00
    0.00000E+00         0.00000E+00         0.50741E-07
 
    0.17316E+06         0.41484E+06         0.00000E+00
    0.41484E+06        -0.50487E+08         0.00000E+00
    0.00000E+00         0.00000E+00        -0.15222E-07
 
    0.17142E+06         0.42167E+06         0.00000E+00
    0.42167E+06        -0.50601E+08         0.00000E+00
    0.00000E+00         0.00000E+00        -0.20296E-07
 
    0.17018E+06         0.42831E+06         0.00000E+00
    0.42831E+06        -0.50717E+08         0.00000E+00
    0.00000E+00         0.00000E+00        -0.35518E-07
 
    0.16934E+06         0.43481E+06         0.00000E+00
    0.43481E+06        -0.50835E+08         0.00000E+00
    0.00000E+00         0.00000E+00         0.86259E-07
 
    0.16886E+06         0.44117E+06         0.00000E+00
    0.44117E+06        -0.50953E+08         0.00000E+00
    0.00000E+00         0.00000E+00        -0.71037E-07
 
    0.16867E+06         0.44744E+06         0.00000E+00
    0.44744E+06        -0.51073E+08         0.00000E+00
    0.00000E+00         0.00000E+00        -0.45667E-07
 
    0.16872E+06         0.45362E+06         0.00000E+00
    0.45362E+06        -0.51195E+08         0.00000E+00
    0.00000E+00         0.00000E+00        -0.40593E-07
 
    0.16895E+06         0.45973E+06         0.00000E+00
    0.45973E+06        -0.51317E+08         0.00000E+00
    0.00000E+00         0.00000E+00         0.35518E-07
 
    0.16934E+06         0.46579E+06         0.00000E+00
    0.46579E+06        -0.51442E+08         0.00000E+00
    0.00000E+00         0.00000E+00        -0.20296E-07
 
    0.16983E+06         0.47180E+06         0.00000E+00
    0.47180E+06        -0.51568E+08         0.00000E+00
    0.00000E+00         0.00000E+00        -0.10148E-07
 
    0.17039E+06         0.47778E+06         0.00000E+00
    0.47778E+06        -0.51695E+08         0.00000E+00
    0.00000E+00         0.00000E+00         0.20296E-07
 
    0.17099E+06         0.48373E+06         0.00000E+00
    0.48373E+06        -0.51824E+08         0.00000E+00
    0.00000E+00         0.00000E+00        -0.55815E-07
 
    0.17161E+06         0.48966E+06         0.00000E+00
    0.48966E+06        -0.51954E+08         0.00000E+00
    0.00000E+00         0.00000E+00         0.50741E-08
 
    0.17220E+06         0.49556E+06         0.00000E+00
    0.49556E+06        -0.52087E+08         0.00000E+00
    0.00000E+00         0.00000E+00         0.55815E-07
 
    0.17275E+06         0.50145E+06         0.00000E+00
    0.50145E+06        -0.52221E+08         0.00000E+00
    0.00000E+00         0.00000E+00         0.45666E-07
 
    0.17323E+06         0.50731E+06         0.00000E+00
    0.50731E+06        -0.52356E+08         0.00000E+00
    0.00000E+00         0.00000E+00         0.45667E-07
 
    0.17362E+06         0.51316E+06         0.00000E+00
    0.51316E+06        -0.52493E+08         0.00000E+00
    0.00000E+00         0.00000E+00        -0.10148E-07
 
    0.17389E+06         0.51898E+06         0.00000E+00
    0.51898E+06        -0.52632E+08         0.00000E+00
    0.00000E+00         0.00000E+00        -0.40593E-07
 
    0.17402E+06         0.52478E+06         0.00000E+00
    0.52478E+06        -0.52773E+08         0.00000E+00
    0.00000E+00         0.00000E+00         0.50741E-08
 
    0.17400E+06         0.53054E+06         0.00000E+00
    0.53054E+06        -0.52916E+08         0.00000E+00
    0.00000E+00         0.00000E+00        -0.10148E-07
 
    0.17380E+06         0.53627E+06         0.00000E+00
    0.53627E+06        -0.53060E+08         0.00000E+00
    0.00000E+00         0.00000E+00         0.65963E-07
 
    0.17340E+06         0.54196E+06         0.00000E+00
    0.54196E+06        -0.53206E+08         0.00000E+00
    0.00000E+00         0.00000E+00         0.45667E-07
 
    0.17277E+06         0.54759E+06         0.00000E+00
    0.54759E+06        -0.53354E+08         0.00000E+00
    0.00000E+00         0.00000E+00        -0.10148E-07
 
    0.17191E+06         0.55317E+06         0.00000E+00
    0.55317E+06        -0.53504E+08         0.00000E+00
    0.00000E+00         0.00000E+00        -0.20296E-07
 
    0.17078E+06         0.55867E+06         0.00000E+00
    0.55867E+06        -0.53655E+08         0.00000E+00
    0.00000E+00         0.00000E+00         0.50741E-07
 
    0.16936E+06         0.56409E+06         0.00000E+00
    0.56409E+06        -0.53808E+08         0.00000E+00
    0.00000E+00         0.00000E+00         0.25370E-07
 
    0.16762E+06         0.56942E+06         0.00000E+00
    0.56942E+06        -0.53964E+08         0.00000E+00
    0.00000E+00         0.00000E+00        -0.50741E-08
 
    0.16554E+06         0.57463E+06         0.00000E+00
    0.57463E+06        -0.54121E+08         0.00000E+00
    0.00000E+00         0.00000E+00        -0.13193E-06
 
    0.16309E+06         0.57972E+06         0.00000E+00
    0.57972E+06        -0.54280E+08         0.00000E+00
    0.00000E+00         0.00000E+00        -0.50741E-08
 
    0.16024E+06         0.58467E+06         0.00000E+00
    0.58467E+06        -0.54440E+08         0.00000E+00
    0.00000E+00         0.00000E+00         0.65963E-07
 
    0.15696E+06         0.58946E+06         0.00000E+00
    0.58946E+06        -0.54603E+08         0.00000E+00
    0.00000E+00         0.00000E+00        -0.50741E-07
 
    0.15320E+06         0.59406E+06         0.00000E+00
    0.59406E+06        -0.54768E+08         0.00000E+00
    0.00000E+00         0.00000E+00        -0.15222E-07
 
    0.14892E+06         0.59846E+06         0.00000E+00
    0.59846E+06        -0.54934E+08         0.00000E+00
    0.00000E+00         0.00000E+00        -0.50741E-08
 
    0.14409E+06         0.60263E+06         0.00000E+00
    0.60263E+06        -0.55102E+08         0.00000E+00
    0.00000E+00         0.00000E+00        -0.15222E-07
 
    0.13864E+06         0.60653E+06         0.00000E+00
    0.60653E+06        -0.55272E+08         0.00000E+00
    0.00000E+00         0.00000E+00         0.50741E-08
 
    0.13253E+06         0.61014E+06         0.00000E+00
    0.61014E+06        -0.55444E+08         0.00000E+00
    0.00000E+00         0.00000E+00        -0.76111E-07
 
    0.12569E+06         0.61342E+06         0.00000E+00
    0.61342E+06        -0.55618E+08         0.00000E+00
    0.00000E+00         0.00000E+00        -0.45667E-07
 
    0.11805E+06         0.61633E+06         0.00000E+00
    0.61633E+06        -0.55793E+08         0.00000E+00
    0.00000E+00         0.00000E+00         0.20296E-07
 
    0.10953E+06         0.61883E+06         0.00000E+00
    0.61883E+06        -0.55970E+08         0.00000E+00
    0.00000E+00         0.00000E+00         0.76111E-07
 
    0.10005E+06         0.62087E+06         0.00000E+00
    0.62087E+06        -0.56149E+08         0.00000E+00
    0.00000E+00         0.00000E+00         0.50741E-08
 
    0.89500E+05         0.62239E+06         0.00000E+00
    0.62239E+06        -0.56330E+08         0.00000E+00
    0.00000E+00         0.00000E+00         0.50741E-07
 
    0.77782E+05         0.62332E+06         0.00000E+00
    0.62332E+06        -0.56513E+08         0.00000E+00
    0.00000E+00         0.00000E+00         0.55815E-07
 
    0.64769E+05         0.62360E+06         0.00000E+00
    0.62360E+06        -0.56697E+08         0.00000E+00
    0.00000E+00         0.00000E+00         0.60889E-07
 
    0.50324E+05         0.62315E+06         0.00000E+00
    0.62315E+06        -0.56883E+08         0.00000E+00
    0.00000E+00         0.00000E+00        -0.25370E-07
 
    0.34292E+05         0.62188E+06         0.00000E+00
    0.62188E+06        -0.57071E+08         0.00000E+00
    0.00000E+00         0.00000E+00        -0.91333E-07
 
    0.16502E+05         0.61968E+06         0.00000E+00
    0.61968E+06        -0.57260E+08         0.00000E+00
    0.00000E+00         0.00000E+00        -0.86259E-07
 
   -0.32366E+04         0.61644E+06         0.00000E+00
    0.61644E+06        -0.57452E+08         0.00000E+00
    0.00000E+00         0.00000E+00         0.35518E-07
 
   -0.25138E+05         0.61203E+06         0.00000E+00
    0.61203E+06        -0.57644E+08         0.00000E+00
    0.00000E+00         0.00000E+00        -0.76111E-07
 
   -0.49436E+05         0.60630E+06         0.00000E+00
    0.60630E+06        -0.57839E+08         0.00000E+00
    0.00000E+00         0.00000E+00        -0.20296E-07
 
   -0.76394E+05         0.59909E+06         0.00000E+00
    0.59909E+06        -0.58035E+08         0.00000E+00
    0.00000E+00         0.00000E+00        -0.35518E-07
 
   -0.10630E+06         0.59021E+06         0.00000E+00
    0.59021E+06        -0.58234E+08         0.00000E+00
    0.00000E+00         0.00000E+00         0.00000E+00
 
   -0.13946E+06         0.57946E+06         0.00000E+00
    0.57946E+06        -0.58433E+08         0.00000E+00
    0.00000E+00         0.00000E+00        -0.15222E-07
 
   -0.17624E+06         0.56662E+06         0.00000E+00
    0.56662E+06        -0.58635E+08         0.00000E+00
    0.00000E+00         0.00000E+00        -0.65962E-07
 
   -0.21698E+06         0.55143E+06         0.00000E+00
    0.55143E+06        -0.58838E+08         0.00000E+00
    0.00000E+00         0.00000E+00         0.10148E-07
 
   -0.26211E+06         0.53363E+06         0.00000E+00
    0.53363E+06        -0.59043E+08         0.00000E+00
    0.00000E+00         0.00000E+00        -0.45667E-07
 
   -0.31203E+06         0.51296E+06         0.00000E+00
    0.51296E+06        -0.59249E+08         0.00000E+00
    0.00000E+00         0.00000E+00         0.55815E-07
 
   -0.36721E+06         0.48912E+06         0.00000E+00
    0.48912E+06        -0.59458E+08         0.00000E+00
    0.00000E+00         0.00000E+00        -0.55815E-07
 
   -0.42810E+06         0.46183E+06         0.00000E+00
    0.46183E+06        -0.59668E+08         0.00000E+00
    0.00000E+00         0.00000E+00         0.50741E-08
 
   -0.49518E+06         0.43086E+06         0.00000E+00
    0.43086E+06        -0.59879E+08         0.00000E+00
    0.00000E+00         0.00000E+00         0.40593E-07
 
   -0.56893E+06         0.39598E+06         0.00000E+00
    0.39598E+06        -0.60091E+08         0.00000E+00
    0.00000E+00         0.00000E+00        -0.50741E-07
 
   -0.64981E+06         0.35709E+06         0.00000E+00
    0.35709E+06        -0.60305E+08         0.00000E+00
    0.00000E+00         0.00000E+00        -0.20296E-07
 
   -0.73825E+06         0.31423E+06         0.00000E+00
    0.31423E+06        -0.60519E+08         0.00000E+00
    0.00000E+00         0.00000E+00         0.10148E-07
 
   -0.83460E+06         0.26761E+06         0.00000E+00
    0.26761E+06        -0.60734E+08         0.00000E+00
    0.00000E+00         0.00000E+00        -0.50741E-07
 
   -0.93914E+06         0.21780E+06         0.00000E+00
    0.21780E+06        -0.60947E+08         0.00000E+00
    0.00000E+00         0.00000E+00        -0.20296E-07
 
   -0.10520E+07         0.16580E+06         0.00000E+00
    0.16580E+06        -0.61159E+08         0.00000E+00
    0.00000E+00         0.00000E+00        -0.10148E-06
 
   -0.11731E+07         0.11325E+06         0.00000E+00
    0.11325E+06        -0.61368E+08         0.00000E+00
    0.00000E+00         0.00000E+00         0.30444E-07
 
   -0.13021E+07         0.62637E+05         0.00000E+00
    0.62637E+05        -0.61571E+08         0.00000E+00
    0.00000E+00         0.00000E+00         0.00000E+00
 
   -0.14386E+07         0.17644E+05         0.00000E+00
    0.17644E+05        -0.61765E+08         0.00000E+00
    0.00000E+00         0.00000E+00         0.00000E+00
 
   -0.15823E+07        -0.16767E+05         0.00000E+00
   -0.16767E+05        -0.61945E+08         0.00000E+00
    0.00000E+00         0.00000E+00        -0.60889E-07
 
   -0.17346E+07        -0.34963E+05         0.00000E+00
   -0.34963E+05        -0.62102E+08         0.00000E+00
    0.00000E+00         0.00000E+00         0.40593E-07
 
   -0.18993E+07        -0.33131E+05         0.00000E+00
   -0.33131E+05        -0.62221E+08         0.00000E+00
    0.00000E+00         0.00000E+00        -0.10148E-07
 
   -0.20827E+07        -0.13485E+05         0.00000E+00
   -0.13485E+05        -0.62287E+08         0.00000E+00
    0.00000E+00         0.00000E+00        -0.40593E-07
 
    0.10508E+07        -0.58190E+04         0.00000E+00
   -0.58190E+04        -0.47737E+08         0.00000E+00
    0.00000E+00         0.00000E+00         0.00000E+00
 
    0.96607E+06        -0.13762E+05         0.00000E+00
   -0.13762E+05        -0.47769E+08         0.00000E+00
    0.00000E+00         0.00000E+00         0.10148E-07
 
    0.89036E+06        -0.12778E+05         0.00000E+00
   -0.12778E+05        -0.47826E+08         0.00000E+00
    0.00000E+00         0.00000E+00        -0.45667E-07
 
    0.82049E+06        -0.19826E+04         0.00000E+00
   -0.19826E+04        -0.47900E+08         0.00000E+00
    0.00000E+00         0.00000E+00        -0.15222E-07
 
    0.75470E+06         0.16530E+05         0.00000E+00
    0.16530E+05        -0.47985E+08         0.00000E+00
    0.00000E+00         0.00000E+00        -0.50741E-08
 
    0.69261E+06         0.39950E+05         0.00000E+00
    0.39950E+05        -0.48076E+08         0.00000E+00
    0.00000E+00         0.00000E+00         0.15222E-07
 
    0.63447E+06         0.65932E+05         0.00000E+00
    0.65932E+05        -0.48171E+08         0.00000E+00
    0.00000E+00         0.00000E+00        -0.55814E-07
 
    0.58056E+06         0.92800E+05         0.00000E+00
    0.92800E+05        -0.48269E+08         0.00000E+00
    0.00000E+00         0.00000E+00        -0.55814E-07
 
    0.53103E+06         0.11944E+06         0.00000E+00
    0.11944E+06        -0.48368E+08         0.00000E+00
    0.00000E+00         0.00000E+00        -0.20296E-07
 
    0.48589E+06         0.14512E+06         0.00000E+00
    0.14512E+06        -0.48469E+08         0.00000E+00
    0.00000E+00         0.00000E+00         0.00000E+00
 
    0.44504E+06         0.16942E+06         0.00000E+00
    0.16942E+06        -0.48570E+08         0.00000E+00
    0.00000E+00         0.00000E+00        -0.65963E-07
 
    0.40831E+06         0.19212E+06         0.00000E+00
    0.19212E+06        -0.48672E+08         0.00000E+00
    0.00000E+00         0.00000E+00        -0.10148E-07
 
    0.37546E+06         0.21312E+06         0.00000E+00
    0.21312E+06        -0.48774E+08         0.00000E+00
    0.00000E+00         0.00000E+00        -0.10148E-07
 
    0.34623E+06         0.23243E+06         0.00000E+00
    0.23243E+06        -0.48877E+08         0.00000E+00
    0.00000E+00         0.00000E+00         0.20296E-07
 
    0.32036E+06         0.25011E+06         0.00000E+00
    0.25011E+06        -0.48980E+08         0.00000E+00
    0.00000E+00         0.00000E+00         0.25370E-07
 
    0.29757E+06         0.26628E+06         0.00000E+00
    0.26628E+06        -0.49084E+08         0.00000E+00
    0.00000E+00         0.00000E+00        -0.30444E-07
 
    0.27760E+06         0.28104E+06         0.00000E+00
    0.28104E+06        -0.49188E+08         0.00000E+00
    0.00000E+00         0.00000E+00         0.10148E-07
 
    0.26018E+06         0.29454E+06         0.00000E+00
    0.29454E+06        -0.49292E+08         0.00000E+00
    0.00000E+00         0.00000E+00         0.30444E-07
 
    0.24506E+06         0.30691E+06         0.00000E+00
    0.30691E+06        -0.49397E+08         0.00000E+00
    0.00000E+00         0.00000E+00         0.40593E-07
 
    0.23201E+06         0.31828E+06         0.00000E+00
    0.31828E+06        -0.49502E+08         0.00000E+00
    0.00000E+00         0.00000E+00         0.30444E-07
 
    0.22081E+06         0.32877E+06         0.00000E+00
    0.32877E+06        -0.49608E+08         0.00000E+00
    0.00000E+00         0.00000E+00        -0.35518E-07
 
    0.21127E+06         0.33850E+06         0.00000E+00
    0.33850E+06        -0.49715E+08         0.00000E+00
    0.00000E+00         0.00000E+00        -0.10148E-07
 
    0.20320E+06         0.34757E+06         0.00000E+00
    0.34757E+06        -0.49823E+08         0.00000E+00
    0.00000E+00         0.00000E+00         0.00000E+00
 
    0.19642E+06         0.35606E+06         0.00000E+00
    0.35606E+06        -0.49931E+08         0.00000E+00
    0.00000E+00         0.00000E+00         0.15222E-07
 
    0.19079E+06         0.36407E+06         0.00000E+00
    0.36407E+06        -0.50040E+08         0.00000E+00
    0.00000E+00         0.00000E+00        -0.10148E-07
 
    0.18618E+06         0.37165E+06         0.00000E+00
    0.37165E+06        -0.50151E+08         0.00000E+00
    0.00000E+00         0.00000E+00        -0.30444E-07
 
    0.18244E+06         0.37888E+06         0.00000E+00
    0.37888E+06        -0.50262E+08         0.00000E+00
    0.00000E+00         0.00000E+00        -0.50741E-08
 
    0.17947E+06         0.38581E+06         0.00000E+00
    0.38581E+06        -0.50374E+08         0.00000E+00
    0.00000E+00         0.00000E+00         0.00000E+00
 
    0.17717E+06         0.39249E+06         0.00000E+00
    0.39249E+06        -0.50488E+08         0.00000E+00
    0.00000E+00         0.00000E+00         0.15222E-07
 
    0.17545E+06         0.39896E+06         0.00000E+00
    0.39896E+06        -0.50603E+08         0.00000E+00
    0.00000E+00         0.00000E+00        -0.50741E-07
 
    0.17422E+06         0.40525E+06         0.00000E+00
    0.40525E+06        -0.50719E+08         0.00000E+00
    0.00000E+00         0.00000E+00        -0.50741E-08
 
    0.17341E+06         0.41139E+06         0.00000E+00
    0.41139E+06        -0.50836E+08         0.00000E+00
    0.00000E+00         0.00000E+00         0.20296E-07
 
    0.17296E+06         0.41742E+06         0.00000E+00
    0.41742E+06        -0.50954E+08         0.00000E+00
    0.00000E+00         0.00000E+00         0.86259E-07
 
    0.17280E+06         0.42334E+06         0.00000E+00
    0.42334E+06        -0.51074E+08         0.00000E+00
    0.00000E+00         0.00000E+00        -0.20296E-07
 
    0.17288E+06         0.42919E+06         0.00000E+00
    0.42919E+06        -0.51196E+08         0.00000E+00
    0.00000E+00         0.00000E+00         0.96407E-07
 
    0.17315E+06         0.43497E+06         0.00000E+00
    0.43497E+06        -0.51319E+08         0.00000E+00
    0.00000E+00         0.00000E+00        -0.40593E-07
 
    0.17357E+06         0.44070E+06         0.00000E+00
    0.44070E+06        -0.51443E+08         0.00000E+00
    0.00000E+00         0.00000E+00        -0.35518E-07
 
    0.17410E+06         0.44638E+06         0.00000E+00
    0.44638E+06        -0.51569E+08         0.00000E+00
    0.00000E+00         0.00000E+00         0.00000E+00
 
    0.17470E+06         0.45204E+06         0.00000E+00
    0.45204E+06        -0.51696E+08         0.00000E+00
    0.00000E+00         0.00000E+00        -0.15222E-07
 
    0.17534E+06         0.45766E+06         0.00000E+00
    0.45766E+06        -0.51825E+08         0.00000E+00
    0.00000E+00         0.00000E+00         0.15222E-07
 
    0.17599E+06         0.46326E+06         0.00000E+00
    0.46326E+06        -0.51956E+08         0.00000E+00
    0.00000E+00         0.00000E+00        -0.35518E-07
 
    0.17662E+06         0.46884E+06         0.00000E+00
    0.46884E+06        -0.52088E+08         0.00000E+00
    0.00000E+00         0.00000E+00         0.00000E+00
 
    0.17720E+06         0.47441E+06         0.00000E+00
    0.47441E+06        -0.52222E+08         0.00000E+00
    0.00000E+00         0.00000E+00         0.40593E-07
 
    0.17771E+06         0.47995E+06         0.00000E+00
    0.47995E+06        -0.52357E+08         0.00000E+00
    0.00000E+00         0.00000E+00         0.45667E-07
 
    0.17812E+06         0.48547E+06         0.00000E+00
    0.48547E+06        -0.52494E+08         0.00000E+00
    0.00000E+00         0.00000E+00        -0.15222E-07
 
    0.17841E+06         0.49098E+06         0.00000E+00
    0.49098E+06        -0.52633E+08         0.00000E+00
    0.00000E+00         0.00000E+00        -0.50741E-08
 
    0.17857E+06         0.49645E+06         0.00000E+00
    0.49645E+06        -0.52774E+08         0.00000E+00
    0.00000E+00         0.00000E+00         0.15222E-07
 
    0.17856E+06         0.50190E+06         0.00000E+00
    0.50190E+06        -0.52917E+08         0.00000E+00
    0.00000E+00         0.00000E+00         0.50741E-08
 
    0.17837E+06         0.50731E+06         0.00000E+00
    0.50731E+06        -0.53061E+08         0.00000E+00
    0.00000E+00         0.00000E+00         0.35518E-07
 
    0.17797E+06         0.51268E+06         0.00000E+00
    0.51268E+06        -0.53207E+08         0.00000E+00
    0.00000E+00         0.00000E+00         0.50741E-08
 
    0.17734E+06         0.51800E+06         0.00000E+00
    0.51800E+06        -0.53355E+08         0.00000E+00
    0.00000E+00         0.00000E+00         0.50741E-08
 
    0.17647E+06         0.52327E+06         0.00000E+00
    0.52327E+06        -0.53505E+08         0.00000E+00
    0.00000E+00         0.00000E+00         0.40593E-07
 
    0.17533E+06         0.52846E+06         0.00000E+00
    0.52846E+06        -0.53656E+08         0.00000E+00
    0.00000E+00         0.00000E+00         0.35518E-07
 
    0.17389E+06         0.53358E+06         0.00000E+00
    0.53358E+06        -0.53810E+08         0.00000E+00
    0.00000E+00         0.00000E+00        -0.20296E-07
 
    0.17212E+06         0.53861E+06         0.00000E+00
    0.53861E+06        -0.53965E+08         0.00000E+00
    0.00000E+00         0.00000E+00         0.10148E-07
 
    0.17001E+06         0.54353E+06         0.00000E+00
    0.54353E+06        -0.54122E+08         0.00000E+00
    0.00000E+00         0.00000E+00        -0.60889E-07
 
    0.16752E+06         0.54834E+06         0.00000E+00
    0.54834E+06        -0.54281E+08         0.00000E+00
    0.00000E+00         0.00000E+00        -0.25370E-07
 
    0.16463E+06         0.55301E+06         0.00000E+00
    0.55301E+06        -0.54441E+08         0.00000E+00
    0.00000E+00         0.00000E+00         0.71037E-07
 
    0.16128E+06         0.55753E+06         0.00000E+00
    0.55753E+06        -0.54604E+08         0.00000E+00
    0.00000E+00         0.00000E+00         0.60889E-07
 
    0.15745E+06         0.56187E+06         0.00000E+00
    0.56187E+06        -0.54768E+08         0.00000E+00
    0.00000E+00         0.00000E+00        -0.13193E-06
 
    0.15310E+06         0.56602E+06         0.00000E+00
    0.56602E+06        -0.54935E+08         0.00000E+00
    0.00000E+00         0.00000E+00        -0.10148E-06
 
    0.14818E+06         0.56994E+06         0.00000E+00
    0.56994E+06        -0.55103E+08         0.00000E+00
    0.00000E+00         0.00000E+00        -0.10148E-07
 
    0.14264E+06         0.57362E+06         0.00000E+00
    0.57362E+06        -0.55273E+08         0.00000E+00
    0.00000E+00         0.00000E+00        -0.10148E-07
 
    0.13641E+06         0.57702E+06         0.00000E+00
    0.57702E+06        -0.55445E+08         0.00000E+00
    0.00000E+00         0.00000E+00         0.45667E-07
 
    0.12944E+06         0.58011E+06         0.00000E+00
    0.58011E+06        -0.55618E+08         0.00000E+00
    0.00000E+00         0.00000E+00        -0.10148E-07
 
    0.12166E+06         0.58285E+06         0.00000E+00
    0.58285E+06        -0.55794E+08         0.00000E+00
    0.00000E+00         0.00000E+00         0.10148E-07
 
    0.11299E+06         0.58519E+06         0.00000E+00
    0.58519E+06        -0.55971E+08         0.00000E+00
    0.00000E+00         0.00000E+00         0.55815E-07
 
    0.10333E+06         0.58710E+06         0.00000E+00
    0.58710E+06        -0.56150E+08         0.00000E+00
    0.00000E+00         0.00000E+00         0.71037E-07
 
    0.92596E+05         0.58851E+06         0.00000E+00
    0.58851E+06        -0.56330E+08         0.00000E+00
    0.00000E+00         0.00000E+00         0.10148E-07
 
    0.80664E+05         0.58937E+06         0.00000E+00
    0.58937E+06        -0.56513E+08         0.00000E+00
    0.00000E+00         0.00000E+00        -0.25370E-07
 
    0.67413E+05         0.58961E+06         0.00000E+00
    0.58961E+06        -0.56697E+08         0.00000E+00
    0.00000E+00         0.00000E+00         0.00000E+00
 
    0.52703E+05         0.58915E+06         0.00000E+00
    0.58915E+06        -0.56883E+08         0.00000E+00
    0.00000E+00         0.00000E+00         0.45667E-07
 
    0.36375E+05         0.58791E+06         0.00000E+00
    0.58791E+06        -0.57070E+08         0.00000E+00
    0.00000E+00         0.00000E+00        -0.65963E-07
 
    0.18255E+05         0.58579E+06         0.00000E+00
    0.58579E+06        -0.57260E+08         0.00000E+00
    0.00000E+00         0.00000E+00         0.20296E-07
 
   -0.18553E+04         0.58267E+06         0.00000E+00
    0.58267E+06        -0.57451E+08         0.00000E+00
    0.00000E+00         0.00000E+00         0.10148E-06
 
   -0.24174E+05         0.57844E+06         0.00000E+00
    0.57844E+06        -0.57643E+08         0.00000E+00
    0.00000E+00         0.00000E+00        -0.96407E-07
 
   -0.48945E+05         0.57295E+06         0.00000E+00
    0.57295E+06        -0.57838E+08         0.00000E+00
    0.00000E+00         0.00000E+00        -0.50740E-07
 
   -0.76440E+05         0.56604E+06         0.00000E+00
    0.56604E+06        -0.58034E+08         0.00000E+00
    0.00000E+00         0.00000E+00        -0.30444E-07
 
   -0.10696E+06         0.55754E+06         0.00000E+00
    0.55754E+06        -0.58232E+08         0.00000E+00
    0.00000E+00         0.00000E+00         0.00000E+00
 
   -0.14082E+06         0.54724E+06         0.00000E+00
    0.54724E+06        -0.58431E+08         0.00000E+00
    0.00000E+00         0.00000E+00        -0.40593E-07
 
   -0.17840E+06         0.53493E+06         0.00000E+00
    0.53493E+06        -0.58632E+08         0.00000E+00
    0.00000E+00         0.00000E+00         0.30444E-07
 
   -0.22007E+06         0.52036E+06         0.00000E+00
    0.52036E+06        -0.58835E+08         0.00000E+00
    0.00000E+00         0.00000E+00        -0.91333E-07
 
   -0.26627E+06         0.50329E+06         0.00000E+00
    0.50329E+06        -0.59039E+08         0.00000E+00
    0.00000E+00         0.00000E+00         0.20296E-07
 
   -0.31745E+06         0.48344E+06         0.00000E+00
    0.48344E+06        -0.59245E+08         0.00000E+00
    0.00000E+00         0.00000E+00        -0.60889E-07
 
   -0.37408E+06         0.46053E+06         0.00000E+00
    0.46053E+06        -0.59453E+08         0.00000E+00
    0.00000E+00         0.00000E+00         0.00000E+00
 
   -0.43666E+06         0.43428E+06         0.00000E+00
    0.43428E+06        -0.59662E+08         0.00000E+00
    0.00000E+00         0.00000E+00         0.00000E+00
 
   -0.50571E+06         0.40445E+06         0.00000E+00
    0.40445E+06        -0.59872E+08         0.00000E+00
    0.00000E+00         0.00000E+00         0.30444E-07
 
   -0.58175E+06         0.37084E+06         0.00000E+00
    0.37084E+06        -0.60084E+08         0.00000E+00
    0.00000E+00         0.00000E+00        -0.71037E-07
 
   -0.66527E+06         0.33332E+06         0.00000E+00
    0.33332E+06        -0.60297E+08         0.00000E+00
    0.00000E+00         0.00000E+00         0.50741E-07
 
   -0.75673E+06         0.29192E+06         0.00000E+00
    0.29192E+06        -0.60511E+08         0.00000E+00
    0.00000E+00         0.00000E+00        -0.60889E-07
 
   -0.85655E+06         0.24685E+06         0.00000E+00
    0.24685E+06        -0.60724E+08         0.00000E+00
    0.00000E+00         0.00000E+00         0.00000E+00
 
   -0.96498E+06         0.19864E+06         0.00000E+00
    0.19864E+06        -0.60937E+08         0.00000E+00
    0.00000E+00         0.00000E+00         0.10148E-07
 
   -0.10821E+07         0.14826E+06         0.00000E+00
    0.14826E+06        -0.61149E+08         0.00000E+00
    0.00000E+00         0.00000E+00         0.30444E-07
 
   -0.12079E+07         0.97280E+05         0.00000E+00
    0.97280E+05        -0.61358E+08         0.00000E+00
    0.00000E+00         0.00000E+00         0.30444E-07
 
   -0.13418E+07         0.48156E+05         0.00000E+00
    0.48156E+05        -0.61561E+08         0.00000E+00
    0.00000E+00         0.00000E+00         0.50741E-07
 
   -0.14830E+07         0.45292E+04         0.00000E+00
    0.45292E+04        -0.61757E+08         0.00000E+00
    0.00000E+00         0.00000E+00         0.40593E-07
 
   -0.16310E+07        -0.28520E+05         0.00000E+00
   -0.28520E+05        -0.61940E+08         0.00000E+00
    0.00000E+00         0.00000E+00        -0.81185E-07
 
   -0.17863E+07        -0.44923E+05         0.00000E+00
   -0.44923E+05        -0.62100E+08         0.00000E+00
    0.00000E+00         0.00000E+00        -0.20296E-07
 
   -0.19526E+07        -0.40152E+05         0.00000E+00
   -0.40152E+05        -0.62224E+08         0.00000E+00
    0.00000E+00         0.00000E+00        -0.60889E-07
 
   -0.21366E+07        -0.16068E+05         0.00000E+00
   -0.16068E+05        -0.62293E+08         0.00000E+00
    0.00000E+00         0.00000E+00        -0.30445E-07
 
    0.10774E+07        -0.70767E+04         0.00000E+00
   -0.70767E+04        -0.47734E+08         0.00000E+00
    0.00000E+00         0.00000E+00         0.10148E-07
 
    0.99238E+06        -0.17150E+05         0.00000E+00
   -0.17150E+05        -0.47768E+08         0.00000E+00
    0.00000E+00         0.00000E+00        -0.50743E-08
 
    0.91585E+06        -0.17536E+05         0.00000E+00
   -0.17536E+05        -0.47827E+08         0.00000E+00
    0.00000E+00         0.00000E+00         0.25370E-07
 
    0.84448E+06        -0.75828E+04         0.00000E+00
   -0.75828E+04        -0.47903E+08         0.00000E+00
    0.00000E+00         0.00000E+00        -0.55815E-07
 
    0.77667E+06         0.10229E+05         0.00000E+00
    0.10229E+05        -0.47989E+08         0.00000E+00
    0.00000E+00         0.00000E+00        -0.10148E-07
 
    0.71236E+06         0.32887E+05         0.00000E+00
    0.32887E+05        -0.48081E+08         0.00000E+00
    0.00000E+00         0.00000E+00        -0.10148E-07
 
    0.65200E+06         0.58009E+05         0.00000E+00
    0.58009E+05        -0.48177E+08         0.00000E+00
    0.00000E+00         0.00000E+00        -0.35518E-07
 
    0.59600E+06         0.83950E+05         0.00000E+00
    0.83950E+05        -0.48274E+08         0.00000E+00
    0.00000E+00         0.00000E+00        -0.50741E-08
 
    0.54458E+06         0.10962E+06         0.00000E+00
    0.10962E+06        -0.48373E+08         0.00000E+00
    0.00000E+00         0.00000E+00         0.15222E-07
 
    0.49777E+06         0.13435E+06         0.00000E+00
    0.13435E+06        -0.48474E+08         0.00000E+00
    0.00000E+00         0.00000E+00        -0.20296E-07
 
    0.45548E+06         0.15771E+06         0.00000E+00
    0.15771E+06        -0.48575E+08         0.00000E+00
    0.00000E+00         0.00000E+00        -0.15222E-07
 
    0.41751E+06         0.17949E+06         0.00000E+00
    0.17949E+06        -0.48676E+08         0.00000E+00
    0.00000E+00         0.00000E+00         0.50741E-08
 
    0.38361E+06         0.19962E+06         0.00000E+00
    0.19962E+06        -0.48778E+08         0.00000E+00
    0.00000E+00         0.00000E+00         0.30444E-07
 
    0.35351E+06         0.21810E+06         0.00000E+00
    0.21810E+06        -0.48881E+08         0.00000E+00
    0.00000E+00         0.00000E+00        -0.40593E-07
 
    0.32692E+06         0.23500E+06         0.00000E+00
    0.23500E+06        -0.48984E+08         0.00000E+00
    0.00000E+00         0.00000E+00        -0.30444E-07
 
    0.30354E+06         0.25043E+06         0.00000E+00
    0.25043E+06        -0.49087E+08         0.00000E+00
    0.00000E+00         0.00000E+00        -0.35518E-07
 
    0.28309E+06         0.26450E+06         0.00000E+00
    0.26450E+06        -0.49191E+08         0.00000E+00
    0.00000E+00         0.00000E+00         0.40593E-07
 
    0.26527E+06         0.27736E+06         0.00000E+00
    0.27736E+06        -0.49295E+08         0.00000E+00
    0.00000E+00         0.00000E+00        -0.50741E-08
 
    0.24984E+06         0.28912E+06         0.00000E+00
    0.28912E+06        -0.49399E+08         0.00000E+00
    0.00000E+00         0.00000E+00        -0.10148E-07
 
    0.23655E+06         0.29992E+06         0.00000E+00
    0.29992E+06        -0.49504E+08         0.00000E+00
    0.00000E+00         0.00000E+00         0.10148E-07
 
    0.22516E+06         0.30988E+06         0.00000E+00
    0.30988E+06        -0.49610E+08         0.00000E+00
    0.00000E+00         0.00000E+00         0.30444E-07
 
    0.21548E+06         0.31910E+06         0.00000E+00
    0.31910E+06        -0.49717E+08         0.00000E+00
    0.00000E+00         0.00000E+00         0.10148E-07
 
    0.20729E+06         0.32768E+06         0.00000E+00
    0.32768E+06        -0.49824E+08         0.00000E+00
    0.00000E+00         0.00000E+00        -0.71037E-07
 
    0.20044E+06         0.33572E+06         0.00000E+00
    0.33572E+06        -0.49933E+08         0.00000E+00
    0.00000E+00         0.00000E+00         0.35518E-07
 
    0.19476E+06         0.34329E+06         0.00000E+00
    0.34329E+06        -0.50042E+08         0.00000E+00
    0.00000E+00         0.00000E+00        -0.15222E-07
 
    0.19011E+06         0.35046E+06         0.00000E+00
    0.35046E+06        -0.50152E+08         0.00000E+00
    0.00000E+00         0.00000E+00         0.35518E-07
 
    0.18635E+06         0.35729E+06         0.00000E+00
    0.35729E+06        -0.50263E+08         0.00000E+00
    0.00000E+00         0.00000E+00         0.20296E-07
 
    0.18338E+06         0.36384E+06         0.00000E+00
    0.36384E+06        -0.50376E+08         0.00000E+00
    0.00000E+00         0.00000E+00        -0.10148E-07
 
    0.18109E+06         0.37014E+06         0.00000E+00
    0.37014E+06        -0.50489E+08         0.00000E+00
    0.00000E+00         0.00000E+00        -0.40593E-07
 
    0.17938E+06         0.37625E+06         0.00000E+00
    0.37625E+06        -0.50604E+08         0.00000E+00
    0.00000E+00         0.00000E+00        -0.20296E-07
 
    0.17818E+06         0.38218E+06         0.00000E+00
    0.38218E+06        -0.50720E+08         0.00000E+00
    0.00000E+00         0.00000E+00         0.50741E-08
 
    0.17740E+06         0.38798E+06         0.00000E+00
    0.38798E+06        -0.50837E+08         0.00000E+00
    0.00000E+00         0.00000E+00         0.11163E-06
 
    0.17698E+06         0.39366E+06         0.00000E+00
    0.39366E+06        -0.50956E+08         0.00000E+00
    0.00000E+00         0.00000E+00        -0.81185E-07
 
    0.17685E+06         0.39924E+06         0.00000E+00
    0.39924E+06        -0.51075E+08         0.00000E+00
    0.00000E+00         0.00000E+00         0.35518E-07
 
    0.17697E+06         0.40475E+06         0.00000E+00
    0.40475E+06        -0.51197E+08         0.00000E+00
    0.00000E+00         0.00000E+00         0.50741E-08
 
    0.17728E+06         0.41020E+06         0.00000E+00
    0.41020E+06        -0.51320E+08         0.00000E+00
    0.00000E+00         0.00000E+00        -0.15222E-07
 
    0.17774E+06         0.41560E+06         0.00000E+00
    0.41560E+06        -0.51444E+08         0.00000E+00
    0.00000E+00         0.00000E+00        -0.10148E-07
 
    0.17831E+06         0.42096E+06         0.00000E+00
    0.42096E+06        -0.51570E+08         0.00000E+00
    0.00000E+00         0.00000E+00         0.20296E-07
 
    0.17895E+06         0.42629E+06         0.00000E+00
    0.42629E+06        -0.51697E+08         0.00000E+00
    0.00000E+00         0.00000E+00        -0.45667E-07
 
    0.17963E+06         0.43159E+06         0.00000E+00
    0.43159E+06        -0.51826E+08         0.00000E+00
    0.00000E+00         0.00000E+00         0.10148E-07
 
    0.18031E+06         0.43686E+06         0.00000E+00
    0.43686E+06        -0.51957E+08         0.00000E+00
    0.00000E+00         0.00000E+00        -0.12178E-06
 
    0.18098E+06         0.44212E+06         0.00000E+00
    0.44212E+06        -0.52089E+08         0.00000E+00
    0.00000E+00         0.00000E+00        -0.40593E-07
 
    0.18159E+06         0.44736E+06         0.00000E+00
    0.44736E+06        -0.52223E+08         0.00000E+00
    0.00000E+00         0.00000E+00        -0.45667E-07
 
    0.18213E+06         0.45258E+06         0.00000E+00
    0.45258E+06        -0.52358E+08         0.00000E+00
    0.00000E+00         0.00000E+00         0.15222E-07
 
    0.18256E+06         0.45778E+06         0.00000E+00
    0.45778E+06        -0.52496E+08         0.00000E+00
    0.00000E+00         0.00000E+00         0.30444E-07
 
    0.18288E+06         0.46297E+06         0.00000E+00
    0.46297E+06        -0.52634E+08         0.00000E+00
    0.00000E+00         0.00000E+00        -0.55815E-07
 
    0.18305E+06         0.46812E+06         0.00000E+00
    0.46812E+06        -0.52775E+08         0.00000E+00
    0.00000E+00         0.00000E+00         0.15222E-07
 
    0.18306E+06         0.47325E+06         0.00000E+00
    0.47325E+06        -0.52918E+08         0.00000E+00
    0.00000E+00         0.00000E+00         0.10148E-07
 
    0.18288E+06         0.47835E+06         0.00000E+00
    0.47835E+06        -0.53062E+08         0.00000E+00
    0.00000E+00         0.00000E+00        -0.50741E-07
 
    0.18249E+06         0.48341E+06         0.00000E+00
    0.48341E+06        -0.53208E+08         0.00000E+00
    0.00000E+00         0.00000E+00         0.65963E-07
 
    0.18186E+06         0.48842E+06         0.00000E+00
    0.48842E+06        -0.53356E+08         0.00000E+00
    0.00000E+00         0.00000E+00        -0.60889E-07
 
    0.18098E+06         0.49337E+06         0.00000E+00
    0.49337E+06        -0.53506E+08         0.00000E+00
    0.00000E+00         0.00000E+00        -0.86259E-07
 
    0.17983E+06         0.49826E+06         0.00000E+00
    0.49826E+06        -0.53657E+08         0.00000E+00
    0.00000E+00         0.00000E+00        -0.35518E-07
 
    0.17837E+06         0.50308E+06         0.00000E+00
    0.50308E+06        -0.53810E+08         0.00000E+00
    0.00000E+00         0.00000E+00        -0.91332E-07
 
    0.17659E+06         0.50781E+06         0.00000E+00
    0.50781E+06        -0.53966E+08         0.00000E+00
    0.00000E+00         0.00000E+00         0.10148E-07
 
    0.17444E+06         0.51244E+06         0.00000E+00
    0.51244E+06        -0.54123E+08         0.00000E+00
    0.00000E+00         0.00000E+00         0.30444E-07
 
    0.17192E+06         0.51697E+06         0.00000E+00
    0.51697E+06        -0.54282E+08         0.00000E+00
    0.00000E+00         0.00000E+00        -0.15222E-07
 
    0.16897E+06         0.52136E+06         0.00000E+00
    0.52136E+06        -0.54442E+08         0.00000E+00
    0.00000E+00         0.00000E+00        -0.81185E-07
 
    0.16557E+06         0.52561E+06         0.00000E+00
    0.52561E+06        -0.54605E+08         0.00000E+00
    0.00000E+00         0.00000E+00         0.50741E-08
 
    0.16168E+06         0.52969E+06         0.00000E+00
    0.52969E+06        -0.54769E+08         0.00000E+00
    0.00000E+00         0.00000E+00         0.40593E-07
 
    0.15726E+06         0.53359E+06         0.00000E+00
    0.53359E+06        -0.54936E+08         0.00000E+00
    0.00000E+00         0.00000E+00         0.20296E-07
 
    0.15225E+06         0.53728E+06         0.00000E+00
    0.53728E+06        -0.55104E+08         0.00000E+00
    0.00000E+00         0.00000E+00         0.10148E-07
 
    0.14661E+06         0.54073E+06         0.00000E+00
    0.54073E+06        -0.55273E+08         0.00000E+00
    0.00000E+00         0.00000E+00         0.50741E-07
 
    0.14029E+06         0.54392E+06         0.00000E+00
    0.54392E+06        -0.55445E+08         0.00000E+00
    0.00000E+00         0.00000E+00        -0.35518E-07
 
    0.13320E+06         0.54682E+06         0.00000E+00
    0.54682E+06        -0.55619E+08         0.00000E+00
    0.00000E+00         0.00000E+00         0.15222E-07
 
    0.12529E+06         0.54939E+06         0.00000E+00
    0.54939E+06        -0.55794E+08         0.00000E+00
    0.00000E+00         0.00000E+00         0.50741E-08
 
    0.11647E+06         0.55158E+06         0.00000E+00
    0.55158E+06        -0.55971E+08         0.00000E+00
    0.00000E+00         0.00000E+00        -0.50741E-08
 
    0.10665E+06         0.55336E+06         0.00000E+00
    0.55336E+06        -0.56150E+08         0.00000E+00
    0.00000E+00         0.00000E+00        -0.15222E-06
 
    0.95727E+05         0.55467E+06         0.00000E+00
    0.55467E+06        -0.56331E+08         0.00000E+00
    0.00000E+00         0.00000E+00        -0.25370E-07
 
    0.83593E+05         0.55546E+06         0.00000E+00
    0.55546E+06        -0.56513E+08         0.00000E+00
    0.00000E+00         0.00000E+00         0.35518E-07
 
    0.70117E+05         0.55566E+06         0.00000E+00
    0.55566E+06        -0.56697E+08         0.00000E+00
    0.00000E+00         0.00000E+00        -0.30444E-07
 
    0.55156E+05         0.55520E+06         0.00000E+00
    0.55520E+06        -0.56883E+08         0.00000E+00
    0.00000E+00         0.00000E+00         0.40593E-07
 
    0.38549E+05         0.55400E+06         0.00000E+00
    0.55400E+06        -0.57070E+08         0.00000E+00
    0.00000E+00         0.00000E+00         0.20296E-07
 
    0.20116E+05         0.55196E+06         0.00000E+00
    0.55196E+06        -0.57259E+08         0.00000E+00
    0.00000E+00         0.00000E+00         0.10148E-07
 
   -0.34446E+03         0.54898E+06         0.00000E+00
    0.54898E+06        -0.57450E+08         0.00000E+00
    0.00000E+00         0.00000E+00         0.50741E-07
 
   -0.23059E+05         0.54494E+06         0.00000E+00
    0.54494E+06        -0.57643E+08         0.00000E+00
    0.00000E+00         0.00000E+00         0.00000E+00
 
   -0.48277E+05         0.53970E+06         0.00000E+00
    0.53970E+06        -0.57837E+08         0.00000E+00
    0.00000E+00         0.00000E+00         0.00000E+00
 
   -0.76280E+05         0.53310E+06         0.00000E+00
    0.53310E+06        -0.58032E+08         0.00000E+00
    0.00000E+00         0.00000E+00        -0.20296E-07
 
   -0.10738E+06         0.52499E+06         0.00000E+00
    0.52499E+06        -0.58230E+08         0.00000E+00
    0.00000E+00         0.00000E+00         0.20296E-07
 
   -0.14191E+06         0.51516E+06         0.00000E+00
    0.51516E+06        -0.58429E+08         0.00000E+00
    0.00000E+00         0.00000E+00         0.00000E+00
 
   -0.18026E+06         0.50341E+06         0.00000E+00
    0.50341E+06        -0.58629E+08         0.00000E+00
    0.00000E+00         0.00000E+00         0.30444E-07
 
   -0.22282E+06         0.48950E+06         0.00000E+00
    0.48950E+06        -0.58832E+08         0.00000E+00
    0.00000E+00         0.00000E+00         0.10148E-07
 
   -0.27006E+06         0.47318E+06         0.00000E+00
    0.47318E+06        -0.59035E+08         0.00000E+00
    0.00000E+00         0.00000E+00         0.40593E-07
 
   -0.32244E+06         0.45418E+06         0.00000E+00
    0.45418E+06        -0.59241E+08         0.00000E+00
    0.00000E+00         0.00000E+00         0.00000E+00
 
   -0.38049E+06         0.43224E+06         0.00000E+00
    0.43224E+06        -0.59448E+08         0.00000E+00
    0.00000E+00         0.00000E+00         0.10148E-07
 
   -0.44472E+06         0.40709E+06         0.00000E+00
    0.40709E+06        -0.59656E+08         0.00000E+00
    0.00000E+00         0.00000E+00        -0.40593E-07
 
   -0.51570E+06         0.37847E+06         0.00000E+00
    0.37847E+06        -0.59866E+08         0.00000E+00
    0.00000E+00         0.00000E+00         0.50741E-07
 
   -0.59398E+06         0.34619E+06         0.00000E+00
    0.34619E+06        -0.60077E+08         0.00000E+00
    0.00000E+00         0.00000E+00         0.40593E-07
 
   -0.68011E+06         0.31011E+06         0.00000E+00
    0.31011E+06        -0.60289E+08         0.00000E+00
    0.00000E+00         0.00000E+00        -0.81184E-07
 
   -0.77459E+06         0.27026E+06         0.00000E+00
    0.27026E+06        -0.60502E+08         0.00000E+00
    0.00000E+00         0.00000E+00        -0.30444E-07
 
   -0.87786E+06         0.22683E+06         0.00000E+00
    0.22683E+06        -0.60715E+08         0.00000E+00
    0.00000E+00         0.00000E+00         0.81185E-07
 
   -0.99022E+06         0.18031E+06         0.00000E+00
    0.18031E+06        -0.60928E+08         0.00000E+00
    0.00000E+00         0.00000E+00         0.50741E-07
 
   -0.11118E+07         0.13163E+06         0.00000E+00
    0.13163E+06        -0.61139E+08         0.00000E+00
    0.00000E+00         0.00000E+00        -0.20296E-07
 
   -0.12423E+07         0.82289E+05         0.00000E+00
    0.82289E+05        -0.61348E+08         0.00000E+00
    0.00000E+00         0.00000E+00         0.00000E+00
 
   -0.13812E+07         0.34675E+05         0.00000E+00
    0.34675E+05        -0.61552E+08         0.00000E+00
    0.00000E+00         0.00000E+00        -0.20296E-07
 
   -0.15274E+07        -0.76395E+04         0.00000E+00
   -0.76395E+04        -0.61749E+08         0.00000E+00
    0.00000E+00         0.00000E+00         0.10148E-07
 
   -0.16799E+07        -0.39497E+05         0.00000E+00
   -0.39497E+05        -0.61935E+08         0.00000E+00
    0.00000E+00         0.00000E+00        -0.50741E-07
 
   -0.18387E+07        -0.54395E+05         0.00000E+00
   -0.54395E+05        -0.62099E+08         0.00000E+00
    0.00000E+00         0.00000E+00         0.10148E-07
 
   -0.20068E+07        -0.46981E+05         0.00000E+00
   -0.46981E+05        -0.62227E+08         0.00000E+00
    0.00000E+00         0.00000E+00         0.30445E-07
 
   -0.21914E+07        -0.18620E+05         0.00000E+00
   -0.18620E+05        -0.62299E+08         0.00000E+00
    0.00000E+00         0.00000E+00        -0.40592E-07
 
    0.11044E+07        -0.83218E+04         0.00000E+00
   -0.83218E+04        -0.47731E+08         0.00000E+00
    0.00000E+00         0.00000E+00         0.00000E+00
 
    0.10191E+07        -0.20446E+05         0.00000E+00
   -0.20446E+05        -0.47766E+08         0.00000E+00
    0.00000E+00         0.00000E+00         0.25370E-07
 
    0.94162E+06        -0.22051E+05         0.00000E+00
   -0.22051E+05        -0.47828E+08         0.00000E+00
    0.00000E+00         0.00000E+00         0.00000E+00
 
    0.86856E+06        -0.12803E+05         0.00000E+00
   -0.12803E+05        -0.47906E+08         0.00000E+00
    0.00000E+00         0.00000E+00        -0.10148E-07
 
    0.79857E+06         0.43788E+04         0.00000E+00
    0.43788E+04        -0.47994E+08         0.00000E+00
    0.00000E+00         0.00000E+00        -0.50741E-08
 
    0.73190E+06         0.26287E+05         0.00000E+00
    0.26287E+05        -0.48086E+08         0.00000E+00
    0.00000E+00         0.00000E+00         0.15222E-07
 
    0.66924E+06         0.50528E+05         0.00000E+00
    0.50528E+05        -0.48182E+08         0.00000E+00
    0.00000E+00         0.00000E+00         0.55815E-07
 
    0.61111E+06         0.75503E+05         0.00000E+00
    0.75503E+05        -0.48279E+08         0.00000E+00
    0.00000E+00         0.00000E+00        -0.60889E-07
 
    0.55777E+06         0.10017E+06         0.00000E+00
    0.10017E+06        -0.48378E+08         0.00000E+00
    0.00000E+00         0.00000E+00        -0.25370E-07
 
    0.50929E+06         0.12388E+06         0.00000E+00
    0.12388E+06        -0.48478E+08         0.00000E+00
    0.00000E+00         0.00000E+00         0.45667E-07
 
    0.46555E+06         0.14625E+06         0.00000E+00
    0.14625E+06        -0.48579E+08         0.00000E+00
    0.00000E+00         0.00000E+00         0.15222E-07
 
    0.42636E+06         0.16708E+06         0.00000E+00
    0.16708E+06        -0.48680E+08         0.00000E+00
    0.00000E+00         0.00000E+00         0.20296E-07
 
    0.39143E+06         0.18630E+06         0.00000E+00
    0.18630E+06        -0.48782E+08         0.00000E+00
    0.00000E+00         0.00000E+00         0.20296E-07
 
    0.36048E+06         0.20392E+06         0.00000E+00
    0.20392E+06        -0.48884E+08         0.00000E+00
    0.00000E+00         0.00000E+00         0.00000E+00
 
    0.33319E+06         0.22002E+06         0.00000E+00
    0.22002E+06        -0.48987E+08         0.00000E+00
    0.00000E+00         0.00000E+00         0.30444E-07
 
    0.30924E+06         0.23469E+06         0.00000E+00
    0.23469E+06        -0.49090E+08         0.00000E+00
    0.00000E+00         0.00000E+00         0.00000E+00
 
    0.28832E+06         0.24805E+06         0.00000E+00
    0.24805E+06        -0.49193E+08         0.00000E+00
    0.00000E+00         0.00000E+00         0.50741E-08
 
    0.27014E+06         0.26024E+06         0.00000E+00
    0.26024E+06        -0.49297E+08         0.00000E+00
    0.00000E+00         0.00000E+00        -0.50741E-08
 
    0.25442E+06         0.27138E+06         0.00000E+00
    0.27138E+06        -0.49401E+08         0.00000E+00
    0.00000E+00         0.00000E+00         0.50741E-07
 
    0.24090E+06         0.28160E+06         0.00000E+00
    0.28160E+06        -0.49506E+08         0.00000E+00
    0.00000E+00         0.00000E+00         0.35518E-07
 
    0.22934E+06         0.29101E+06         0.00000E+00
    0.29101E+06        -0.49612E+08         0.00000E+00
    0.00000E+00         0.00000E+00         0.50741E-08
 
    0.21952E+06         0.29972E+06         0.00000E+00
    0.29972E+06        -0.49719E+08         0.00000E+00
    0.00000E+00         0.00000E+00         0.00000E+00
 
    0.21124E+06         0.30782E+06         0.00000E+00
    0.30782E+06        -0.49826E+08         0.00000E+00
    0.00000E+00         0.00000E+00        -0.40593E-07
 
    0.20432E+06         0.31540E+06         0.00000E+00
    0.31540E+06        -0.49934E+08         0.00000E+00
    0.00000E+00         0.00000E+00        -0.15222E-07
 
    0.19859E+06         0.32253E+06         0.00000E+00
    0.32253E+06        -0.50043E+08         0.00000E+00
    0.00000E+00         0.00000E+00        -0.35518E-07
 
    0.19392E+06         0.32928E+06         0.00000E+00
    0.32928E+06        -0.50153E+08         0.00000E+00
    0.00000E+00         0.00000E+00        -0.10148E-07
 
    0.19015E+06         0.33571E+06         0.00000E+00
    0.33571E+06        -0.50265E+08         0.00000E+00
    0.00000E+00         0.00000E+00         0.15222E-07
 
    0.18719E+06         0.34186E+06         0.00000E+00
    0.34186E+06        -0.50377E+08         0.00000E+00
    0.00000E+00         0.00000E+00         0.50741E-08
 
    0.18491E+06         0.34779E+06         0.00000E+00
    0.34779E+06        -0.50490E+08         0.00000E+00
    0.00000E+00         0.00000E+00         0.40593E-07
 
    0.18322E+06         0.35353E+06         0.00000E+00
    0.35353E+06        -0.50605E+08         0.00000E+00
    0.00000E+00         0.00000E+00        -0.10148E-06
 
    0.18204E+06         0.35911E+06         0.00000E+00
    0.35911E+06        -0.50721E+08         0.00000E+00
    0.00000E+00         0.00000E+00         0.15222E-07
 
    0.18130E+06         0.36455E+06         0.00000E+00
    0.36455E+06        -0.50838E+08         0.00000E+00
    0.00000E+00         0.00000E+00         0.50741E-07
 
    0.18091E+06         0.36989E+06         0.00000E+00
    0.36989E+06        -0.50957E+08         0.00000E+00
    0.00000E+00         0.00000E+00         0.40593E-07
 
    0.18083E+06         0.37513E+06         0.00000E+00
    0.37513E+06        -0.51077E+08         0.00000E+00
    0.00000E+00         0.00000E+00        -0.15222E-07
 
    0.18098E+06         0.38031E+06         0.00000E+00
    0.38031E+06        -0.51198E+08         0.00000E+00
    0.00000E+00         0.00000E+00        -0.10148E-07
 
    0.18134E+06         0.38543E+06         0.00000E+00
    0.38543E+06        -0.51321E+08         0.00000E+00
    0.00000E+00         0.00000E+00         0.45667E-07
 
    0.18184E+06         0.39050E+06         0.00000E+00
    0.39050E+06        -0.51445E+08         0.00000E+00
    0.00000E+00         0.00000E+00        -0.25370E-07
 
    0.18245E+06         0.39553E+06         0.00000E+00
    0.39553E+06        -0.51571E+08         0.00000E+00
    0.00000E+00         0.00000E+00         0.00000E+00
 
    0.18313E+06         0.40053E+06         0.00000E+00
    0.40053E+06        -0.51698E+08         0.00000E+00
    0.00000E+00         0.00000E+00         0.15222E-07
 
    0.18385E+06         0.40550E+06         0.00000E+00
    0.40550E+06        -0.51827E+08         0.00000E+00
    0.00000E+00         0.00000E+00         0.10148E-07
 
    0.18457E+06         0.41046E+06         0.00000E+00
    0.41046E+06        -0.51958E+08         0.00000E+00
    0.00000E+00         0.00000E+00        -0.35518E-07
 
    0.18527E+06         0.41539E+06         0.00000E+00
    0.41539E+06        -0.52090E+08         0.00000E+00
    0.00000E+00         0.00000E+00        -0.20296E-07
 
    0.18592E+06         0.42031E+06         0.00000E+00
    0.42031E+06        -0.52224E+08         0.00000E+00
    0.00000E+00         0.00000E+00         0.10148E-07
 
    0.18648E+06         0.42521E+06         0.00000E+00
    0.42521E+06        -0.52359E+08         0.00000E+00
    0.00000E+00         0.00000E+00        -0.35518E-07
 
    0.18695E+06         0.43009E+06         0.00000E+00
    0.43009E+06        -0.52496E+08         0.00000E+00
    0.00000E+00         0.00000E+00        -0.40593E-07
 
    0.18729E+06         0.43495E+06         0.00000E+00
    0.43495E+06        -0.52635E+08         0.00000E+00
    0.00000E+00         0.00000E+00         0.00000E+00
 
    0.18748E+06         0.43979E+06         0.00000E+00
    0.43979E+06        -0.52776E+08         0.00000E+00
    0.00000E+00         0.00000E+00        -0.65963E-07
 
    0.18750E+06         0.44460E+06         0.00000E+00
    0.44460E+06        -0.52919E+08         0.00000E+00
    0.00000E+00         0.00000E+00         0.10148E-07
 
    0.18733E+06         0.44939E+06         0.00000E+00
    0.44939E+06        -0.53063E+08         0.00000E+00
    0.00000E+00         0.00000E+00         0.30444E-07
 
    0.18695E+06         0.45413E+06         0.00000E+00
    0.45413E+06        -0.53209E+08         0.00000E+00
    0.00000E+00         0.00000E+00         0.60888E-07
 
    0.18633E+06         0.45883E+06         0.00000E+00
    0.45883E+06        -0.53357E+08         0.00000E+00
    0.00000E+00         0.00000E+00        -0.35518E-07
 
    0.18545E+06         0.46348E+06         0.00000E+00
    0.46348E+06        -0.53507E+08         0.00000E+00
    0.00000E+00         0.00000E+00         0.50741E-08
 
    0.18428E+06         0.46806E+06         0.00000E+00
    0.46806E+06        -0.53658E+08         0.00000E+00
    0.00000E+00         0.00000E+00         0.10148E-07
 
    0.18281E+06         0.47258E+06         0.00000E+00
    0.47258E+06        -0.53811E+08         0.00000E+00
    0.00000E+00         0.00000E+00        -0.25370E-07
 
    0.18100E+06         0.47702E+06         0.00000E+00
    0.47702E+06        -0.53967E+08         0.00000E+00
    0.00000E+00         0.00000E+00        -0.10148E-07
 
    0.17883E+06         0.48136E+06         0.00000E+00
    0.48136E+06        -0.54124E+08         0.00000E+00
    0.00000E+00         0.00000E+00        -0.15222E-07
 
    0.17627E+06         0.48560E+06         0.00000E+00
    0.48560E+06        -0.54282E+08         0.00000E+00
    0.00000E+00         0.00000E+00         0.00000E+00
 
    0.17328E+06         0.48972E+06         0.00000E+00
    0.48972E+06        -0.54443E+08         0.00000E+00
    0.00000E+00         0.00000E+00        -0.65963E-07
 
    0.16983E+06         0.49370E+06         0.00000E+00
    0.49370E+06        -0.54606E+08         0.00000E+00
    0.00000E+00         0.00000E+00         0.00000E+00
 
    0.16588E+06         0.49752E+06         0.00000E+00
    0.49752E+06        -0.54770E+08         0.00000E+00
    0.00000E+00         0.00000E+00        -0.35518E-07
 
    0.16139E+06         0.50117E+06         0.00000E+00
    0.50117E+06        -0.54936E+08         0.00000E+00
    0.00000E+00         0.00000E+00        -0.60889E-07
 
    0.15631E+06         0.50463E+06         0.00000E+00
    0.50463E+06        -0.55104E+08         0.00000E+00
    0.00000E+00         0.00000E+00         0.30444E-07
 
    0.15058E+06         0.50786E+06         0.00000E+00
    0.50786E+06        -0.55274E+08         0.00000E+00
    0.00000E+00         0.00000E+00         0.00000E+00
 
    0.14415E+06         0.51085E+06         0.00000E+00
    0.51085E+06        -0.55446E+08         0.00000E+00
    0.00000E+00         0.00000E+00         0.20296E-07
 
    0.13696E+06         0.51356E+06         0.00000E+00
    0.51356E+06        -0.55619E+08         0.00000E+00
    0.00000E+00         0.00000E+00         0.30444E-07
 
    0.12892E+06         0.51595E+06         0.00000E+00
    0.51595E+06        -0.55794E+08         0.00000E+00
    0.00000E+00         0.00000E+00         0.60889E-07
 
    0.11996E+06         0.51800E+06         0.00000E+00
    0.51800E+06        -0.55971E+08         0.00000E+00
    0.00000E+00         0.00000E+00         0.10148E-07
 
    0.10998E+06         0.51966E+06         0.00000E+00
    0.51966E+06        -0.56150E+08         0.00000E+00
    0.00000E+00         0.00000E+00         0.00000E+00
 
    0.98893E+05         0.52087E+06         0.00000E+00
    0.52087E+06        -0.56331E+08         0.00000E+00
    0.00000E+00         0.00000E+00        -0.81185E-07
 
    0.86569E+05         0.52159E+06         0.00000E+00
    0.52159E+06        -0.56513E+08         0.00000E+00
    0.00000E+00         0.00000E+00         0.00000E+00
 
    0.72881E+05         0.52176E+06         0.00000E+00
    0.52176E+06        -0.56697E+08         0.00000E+00
    0.00000E+00         0.00000E+00        -0.12178E-06
 
    0.57685E+05         0.52131E+06         0.00000E+00
    0.52131E+06        -0.56883E+08         0.00000E+00
    0.00000E+00         0.00000E+00         0.81185E-07
 
    0.40816E+05         0.52015E+06         0.00000E+00
    0.52015E+06        -0.57070E+08         0.00000E+00
    0.00000E+00         0.00000E+00         0.30444E-07
 
    0.22089E+05         0.51820E+06         0.00000E+00
    0.51820E+06        -0.57259E+08         0.00000E+00
    0.00000E+00         0.00000E+00         0.60889E-07
 
    0.12983E+04         0.51536E+06         0.00000E+00
    0.51536E+06        -0.57449E+08         0.00000E+00
    0.00000E+00         0.00000E+00         0.20296E-07
 
   -0.21788E+05         0.51152E+06         0.00000E+00
    0.51152E+06        -0.57642E+08         0.00000E+00
    0.00000E+00         0.00000E+00         0.30444E-07
 
   -0.47429E+05         0.50654E+06         0.00000E+00
    0.50654E+06        -0.57835E+08         0.00000E+00
    0.00000E+00         0.00000E+00        -0.30444E-07
 
   -0.75912E+05         0.50027E+06         0.00000E+00
    0.50027E+06        -0.58031E+08         0.00000E+00
    0.00000E+00         0.00000E+00        -0.30444E-07
 
   -0.10756E+06         0.49257E+06         0.00000E+00
    0.49257E+06        -0.58228E+08         0.00000E+00
    0.00000E+00         0.00000E+00         0.10148E-07
 
   -0.14273E+06         0.48323E+06         0.00000E+00
    0.48323E+06        -0.58427E+08         0.00000E+00
    0.00000E+00         0.00000E+00        -0.40593E-07
 
   -0.18181E+06         0.47205E+06         0.00000E+00
    0.47205E+06        -0.58627E+08         0.00000E+00
    0.00000E+00         0.00000E+00        -0.10148E-06
 
   -0.22523E+06         0.45882E+06         0.00000E+00
    0.45882E+06        -0.58829E+08         0.00000E+00
    0.00000E+00         0.00000E+00         0.60889E-07
 
   -0.27346E+06         0.44328E+06         0.00000E+00
    0.44328E+06        -0.59032E+08         0.00000E+00
    0.00000E+00         0.00000E+00        -0.10148E-07
 
   -0.32700E+06         0.42518E+06         0.00000E+00
    0.42518E+06        -0.59237E+08         0.00000E+00
    0.00000E+00         0.00000E+00         0.81185E-07
 
   -0.38641E+06         0.40426E+06         0.00000E+00
    0.40426E+06        -0.59443E+08         0.00000E+00
    0.00000E+00         0.00000E+00         0.40593E-07
 
   -0.45225E+06         0.38025E+06         0.00000E+00
    0.38025E+06        -0.59651E+08         0.00000E+00
    0.00000E+00         0.00000E+00        -0.40593E-07
 
   -0.52511E+06         0.35290E+06         0.00000E+00
    0.35290E+06        -0.59860E+08         0.00000E+00
    0.00000E+00         0.00000E+00         0.50741E-07
 
   -0.60560E+06         0.32201E+06         0.00000E+00
    0.32201E+06        -0.60071E+08         0.00000E+00
    0.00000E+00         0.00000E+00         0.30444E-07
 
   -0.69430E+06         0.28746E+06         0.00000E+00
    0.28746E+06        -0.60282E+08         0.00000E+00
    0.00000E+00         0.00000E+00         0.10148E-07
 
   -0.79178E+06         0.24925E+06         0.00000E+00
    0.24925E+06        -0.60494E+08         0.00000E+00
    0.00000E+00         0.00000E+00        -0.60889E-07
 
   -0.89850E+06         0.20754E+06         0.00000E+00
    0.20754E+06        -0.60706E+08         0.00000E+00
    0.00000E+00         0.00000E+00        -0.10148E-07
 
   -0.10148E+07         0.16281E+06         0.00000E+00
    0.16281E+06        -0.60918E+08         0.00000E+00
    0.00000E+00         0.00000E+00        -0.20296E-07
 
   -0.11408E+07         0.11592E+06         0.00000E+00
    0.11592E+06        -0.61129E+08         0.00000E+00
    0.00000E+00         0.00000E+00         0.10148E-07
 
   -0.12762E+07         0.68302E+05         0.00000E+00
    0.68302E+05        -0.61338E+08         0.00000E+00
    0.00000E+00         0.00000E+00         0.71037E-07
 
   -0.14203E+07         0.22236E+05         0.00000E+00
    0.22236E+05        -0.61543E+08         0.00000E+00
    0.00000E+00         0.00000E+00         0.10148E-07
 
   -0.15719E+07        -0.18799E+05         0.00000E+00
   -0.18799E+05        -0.61742E+08         0.00000E+00
    0.00000E+00         0.00000E+00         0.40593E-07
 
   -0.17292E+07        -0.49625E+05         0.00000E+00
   -0.49625E+05        -0.61930E+08         0.00000E+00
    0.00000E+00         0.00000E+00         0.10148E-06
 
   -0.18917E+07        -0.63321E+05         0.00000E+00
   -0.63321E+05        -0.62099E+08         0.00000E+00
    0.00000E+00         0.00000E+00        -0.20296E-07
 
   -0.20619E+07        -0.53597E+05         0.00000E+00
   -0.53597E+05        -0.62232E+08         0.00000E+00
    0.00000E+00         0.00000E+00         0.91333E-07
 
   -0.22472E+07        -0.21140E+05         0.00000E+00
   -0.21140E+05        -0.62307E+08         0.00000E+00
    0.00000E+00         0.00000E+00        -0.10148E-07
 
    0.11319E+07        -0.95528E+04         0.00000E+00
   -0.95528E+04        -0.47728E+08         0.00000E+00
    0.00000E+00         0.00000E+00         0.00000E+00
 
    0.10462E+07        -0.23635E+05         0.00000E+00
   -0.23635E+05        -0.47765E+08         0.00000E+00
    0.00000E+00         0.00000E+00        -0.60889E-07
 
    0.96771E+06        -0.26289E+05         0.00000E+00
   -0.26289E+05        -0.47829E+08         0.00000E+00
    0.00000E+00         0.00000E+00        -0.25370E-07
 
    0.89277E+06        -0.17605E+05         0.00000E+00
   -0.17605E+05        -0.47909E+08         0.00000E+00
    0.00000E+00         0.00000E+00         0.35518E-07
 
    0.82040E+06        -0.98914E+03         0.00000E+00
   -0.98914E+03        -0.47998E+08         0.00000E+00
    0.00000E+00         0.00000E+00        -0.30444E-07
 
    0.75123E+06         0.20171E+05         0.00000E+00
    0.20171E+05        -0.48091E+08         0.00000E+00
    0.00000E+00         0.00000E+00         0.00000E+00
 
    0.68618E+06         0.43502E+05         0.00000E+00
    0.43502E+05        -0.48187E+08         0.00000E+00
    0.00000E+00         0.00000E+00        -0.35518E-07
 
    0.62586E+06         0.67466E+05         0.00000E+00
    0.67466E+05        -0.48284E+08         0.00000E+00
    0.00000E+00         0.00000E+00        -0.30444E-07
 
    0.57059E+06         0.91080E+05         0.00000E+00
    0.91080E+05        -0.48383E+08         0.00000E+00
    0.00000E+00         0.00000E+00         0.15730E-06
 
    0.52043E+06         0.11373E+06         0.00000E+00
    0.11373E+06        -0.48483E+08         0.00000E+00
    0.00000E+00         0.00000E+00        -0.45667E-07
 
    0.47525E+06         0.13507E+06         0.00000E+00
    0.13507E+06        -0.48583E+08         0.00000E+00
    0.00000E+00         0.00000E+00        -0.10148E-07
 
    0.43484E+06         0.15490E+06         0.00000E+00
    0.15490E+06        -0.48684E+08         0.00000E+00
    0.00000E+00         0.00000E+00         0.20296E-07
 
    0.39891E+06         0.17318E+06         0.00000E+00
    0.17318E+06        -0.48786E+08         0.00000E+00
    0.00000E+00         0.00000E+00        -0.96407E-07
 
    0.36713E+06         0.18990E+06         0.00000E+00
    0.18990E+06        -0.48888E+08         0.00000E+00
    0.00000E+00         0.00000E+00        -0.50741E-08
 
    0.33915E+06         0.20516E+06         0.00000E+00
    0.20516E+06        -0.48990E+08         0.00000E+00
    0.00000E+00         0.00000E+00        -0.40592E-07
 
    0.31465E+06         0.21904E+06         0.00000E+00
    0.21904E+06        -0.49092E+08         0.00000E+00
    0.00000E+00         0.00000E+00         0.35518E-07
 
    0.29329E+06         0.23168E+06         0.00000E+00
    0.23168E+06        -0.49196E+08         0.00000E+00
    0.00000E+00         0.00000E+00        -0.30444E-07
 
    0.27477E+06         0.24319E+06         0.00000E+00
    0.24319E+06        -0.49299E+08         0.00000E+00
    0.00000E+00         0.00000E+00        -0.45667E-07
 
    0.25877E+06         0.25369E+06         0.00000E+00
    0.25369E+06        -0.49403E+08         0.00000E+00
    0.00000E+00         0.00000E+00         0.30444E-07
 
    0.24504E+06         0.26332E+06         0.00000E+00
    0.26332E+06        -0.49508E+08         0.00000E+00
    0.00000E+00         0.00000E+00         0.50741E-07
 
    0.23332E+06         0.27217E+06         0.00000E+00
    0.27217E+06        -0.49614E+08         0.00000E+00
    0.00000E+00         0.00000E+00        -0.40593E-07
 
    0.22339E+06         0.28036E+06         0.00000E+00
    0.28036E+06        -0.49720E+08         0.00000E+00
    0.00000E+00         0.00000E+00         0.10148E-07
 
    0.21503E+06         0.28797E+06         0.00000E+00
    0.28797E+06        -0.49827E+08         0.00000E+00
    0.00000E+00         0.00000E+00         0.00000E+00
 
    0.20805E+06         0.29508E+06         0.00000E+00
    0.29508E+06        -0.49936E+08         0.00000E+00
    0.00000E+00         0.00000E+00        -0.55815E-07
 
    0.20230E+06         0.30177E+06         0.00000E+00
    0.30177E+06        -0.50045E+08         0.00000E+00
    0.00000E+00         0.00000E+00         0.11163E-06
 
    0.19760E+06         0.30810E+06         0.00000E+00
    0.30810E+06        -0.50155E+08         0.00000E+00
    0.00000E+00         0.00000E+00         0.50741E-08
 
    0.19384E+06         0.31412E+06         0.00000E+00
    0.31412E+06        -0.50266E+08         0.00000E+00
    0.00000E+00         0.00000E+00        -0.35518E-07
 
    0.19088E+06         0.31989E+06         0.00000E+00
    0.31989E+06        -0.50378E+08         0.00000E+00
    0.00000E+00         0.00000E+00        -0.10148E-07
 
    0.18863E+06         0.32544E+06         0.00000E+00
    0.32544E+06        -0.50491E+08         0.00000E+00
    0.00000E+00         0.00000E+00         0.40593E-07
 
    0.18697E+06         0.33080E+06         0.00000E+00
    0.33080E+06        -0.50606E+08         0.00000E+00
    0.00000E+00         0.00000E+00        -0.71037E-07
 
    0.18582E+06         0.33602E+06         0.00000E+00
    0.33602E+06        -0.50722E+08         0.00000E+00
    0.00000E+00         0.00000E+00        -0.10148E-07
 
    0.18511E+06         0.34112E+06         0.00000E+00
    0.34112E+06        -0.50839E+08         0.00000E+00
    0.00000E+00         0.00000E+00        -0.11163E-06
 
    0.18476E+06         0.34611E+06         0.00000E+00
    0.34611E+06        -0.50958E+08         0.00000E+00
    0.00000E+00         0.00000E+00         0.20296E-07
 
    0.18472E+06         0.35102E+06         0.00000E+00
    0.35102E+06        -0.51078E+08         0.00000E+00
    0.00000E+00         0.00000E+00         0.45667E-07
 
    0.18492E+06         0.35586E+06         0.00000E+00
    0.35586E+06        -0.51199E+08         0.00000E+00
    0.00000E+00         0.00000E+00         0.76111E-07
 
    0.18532E+06         0.36064E+06         0.00000E+00
    0.36064E+06        -0.51322E+08         0.00000E+00
    0.00000E+00         0.00000E+00         0.10148E-07
 
    0.18587E+06         0.36538E+06         0.00000E+00
    0.36538E+06        -0.51446E+08         0.00000E+00
    0.00000E+00         0.00000E+00        -0.20296E-07
 
    0.18652E+06         0.37009E+06         0.00000E+00
    0.37009E+06        -0.51572E+08         0.00000E+00
    0.00000E+00         0.00000E+00         0.15222E-07
 
    0.18725E+06         0.37476E+06         0.00000E+00
    0.37476E+06        -0.51699E+08         0.00000E+00
    0.00000E+00         0.00000E+00        -0.25370E-07
 
    0.18800E+06         0.37941E+06         0.00000E+00
    0.37941E+06        -0.51828E+08         0.00000E+00
    0.00000E+00         0.00000E+00         0.55814E-07
 
    0.18877E+06         0.38404E+06         0.00000E+00
    0.38404E+06        -0.51959E+08         0.00000E+00
    0.00000E+00         0.00000E+00        -0.30444E-07
 
    0.18950E+06         0.38865E+06         0.00000E+00
    0.38865E+06        -0.52091E+08         0.00000E+00
    0.00000E+00         0.00000E+00         0.50741E-07
 
    0.19018E+06         0.39325E+06         0.00000E+00
    0.39325E+06        -0.52225E+08         0.00000E+00
    0.00000E+00         0.00000E+00         0.50741E-08
 
    0.19078E+06         0.39783E+06         0.00000E+00
    0.39783E+06        -0.52360E+08         0.00000E+00
    0.00000E+00         0.00000E+00         0.55814E-07
 
    0.19128E+06         0.40239E+06         0.00000E+00
    0.40239E+06        -0.52497E+08         0.00000E+00
    0.00000E+00         0.00000E+00        -0.45666E-07
 
    0.19164E+06         0.40693E+06         0.00000E+00
    0.40693E+06        -0.52636E+08         0.00000E+00
    0.00000E+00         0.00000E+00        -0.81185E-07
 
    0.19186E+06         0.41146E+06         0.00000E+00
    0.41146E+06        -0.52777E+08         0.00000E+00
    0.00000E+00         0.00000E+00         0.35518E-07
 
    0.19190E+06         0.41595E+06         0.00000E+00
    0.41595E+06        -0.52920E+08         0.00000E+00
    0.00000E+00         0.00000E+00         0.45667E-07
 
    0.19174E+06         0.42042E+06         0.00000E+00
    0.42042E+06        -0.53064E+08         0.00000E+00
    0.00000E+00         0.00000E+00        -0.71037E-07
 
    0.19136E+06         0.42485E+06         0.00000E+00
    0.42485E+06        -0.53210E+08         0.00000E+00
    0.00000E+00         0.00000E+00         0.15222E-07
 
    0.19074E+06         0.42924E+06         0.00000E+00
    0.42924E+06        -0.53358E+08         0.00000E+00
    0.00000E+00         0.00000E+00         0.10656E-06
 
    0.18986E+06         0.43358E+06         0.00000E+00
    0.43358E+06        -0.53507E+08         0.00000E+00
    0.00000E+00         0.00000E+00         0.60888E-07
 
    0.18869E+06         0.43786E+06         0.00000E+00
    0.43786E+06        -0.53659E+08         0.00000E+00
    0.00000E+00         0.00000E+00        -0.50741E-07
 
    0.18721E+06         0.44208E+06         0.00000E+00
    0.44208E+06        -0.53812E+08         0.00000E+00
    0.00000E+00         0.00000E+00        -0.50741E-07
 
    0.18538E+06         0.44623E+06         0.00000E+00
    0.44623E+06        -0.53967E+08         0.00000E+00
    0.00000E+00         0.00000E+00         0.30444E-07
 
    0.18318E+06         0.45028E+06         0.00000E+00
    0.45028E+06        -0.54124E+08         0.00000E+00
    0.00000E+00         0.00000E+00         0.10148E-07
 
    0.18059E+06         0.45424E+06         0.00000E+00
    0.45424E+06        -0.54283E+08         0.00000E+00
    0.00000E+00         0.00000E+00        -0.10148E-07
 
    0.17756E+06         0.45808E+06         0.00000E+00
    0.45808E+06        -0.54444E+08         0.00000E+00
    0.00000E+00         0.00000E+00         0.20296E-07
 
    0.17406E+06         0.46180E+06         0.00000E+00
    0.46180E+06        -0.54606E+08         0.00000E+00
    0.00000E+00         0.00000E+00        -0.50741E-07
 
    0.17006E+06         0.46537E+06         0.00000E+00
    0.46537E+06        -0.54771E+08         0.00000E+00
    0.00000E+00         0.00000E+00        -0.30444E-07
 
    0.16550E+06         0.46877E+06         0.00000E+00
    0.46877E+06        -0.54937E+08         0.00000E+00
    0.00000E+00         0.00000E+00         0.30444E-07
 
    0.16035E+06         0.47200E+06         0.00000E+00
    0.47200E+06        -0.55105E+08         0.00000E+00
    0.00000E+00         0.00000E+00         0.00000E+00
 
    0.15453E+06         0.47501E+06         0.00000E+00
    0.47501E+06        -0.55275E+08         0.00000E+00
    0.00000E+00         0.00000E+00         0.20296E-07
 
    0.14801E+06         0.47780E+06         0.00000E+00
    0.47780E+06        -0.55446E+08         0.00000E+00
    0.00000E+00         0.00000E+00         0.10148E-07
 
    0.14071E+06         0.48032E+06         0.00000E+00
    0.48032E+06        -0.55620E+08         0.00000E+00
    0.00000E+00         0.00000E+00        -0.10148E-07
 
    0.13256E+06         0.48255E+06         0.00000E+00
    0.48255E+06        -0.55795E+08         0.00000E+00
    0.00000E+00         0.00000E+00         0.30444E-07
 
    0.12347E+06         0.48445E+06         0.00000E+00
    0.48445E+06        -0.55972E+08         0.00000E+00
    0.00000E+00         0.00000E+00        -0.40593E-07
 
    0.11335E+06         0.48599E+06         0.00000E+00
    0.48599E+06        -0.56150E+08         0.00000E+00
    0.00000E+00         0.00000E+00        -0.71037E-07
 
    0.10210E+06         0.48711E+06         0.00000E+00
    0.48711E+06        -0.56331E+08         0.00000E+00
    0.00000E+00         0.00000E+00         0.81185E-07
 
    0.89593E+05         0.48777E+06         0.00000E+00
    0.48777E+06        -0.56513E+08         0.00000E+00
    0.00000E+00         0.00000E+00        -0.20296E-07
 
    0.75708E+05         0.48791E+06         0.00000E+00
    0.48791E+06        -0.56697E+08         0.00000E+00
    0.00000E+00         0.00000E+00         0.10148E-07
 
    0.60292E+05         0.48746E+06         0.00000E+00
    0.48746E+06        -0.56882E+08         0.00000E+00
    0.00000E+00         0.00000E+00         0.11163E-06
 
    0.43177E+05         0.48635E+06         0.00000E+00
    0.48635E+06        -0.57070E+08         0.00000E+00
    0.00000E+00         0.00000E+00        -0.50741E-07
 
    0.24175E+05         0.48450E+06         0.00000E+00
    0.48450E+06        -0.57258E+08         0.00000E+00
    0.00000E+00         0.00000E+00         0.50741E-07
 
    0.30753E+04         0.48181E+06         0.00000E+00
    0.48181E+06        -0.57449E+08         0.00000E+00
    0.00000E+00         0.00000E+00         0.60889E-07
 
   -0.20360E+05         0.47817E+06         0.00000E+00
    0.47817E+06        -0.57641E+08         0.00000E+00
    0.00000E+00         0.00000E+00        -0.11163E-06
 
   -0.46396E+05         0.47346E+06         0.00000E+00
    0.47346E+06        -0.57834E+08         0.00000E+00
    0.00000E+00         0.00000E+00         0.30444E-07
 
   -0.75331E+05         0.46754E+06         0.00000E+00
    0.46754E+06        -0.58030E+08         0.00000E+00
    0.00000E+00         0.00000E+00         0.00000E+00
 
   -0.10750E+06         0.46026E+06         0.00000E+00
    0.46026E+06        -0.58226E+08         0.00000E+00
    0.00000E+00         0.00000E+00         0.00000E+00
 
   -0.14326E+06         0.45142E+06         0.00000E+00
    0.45142E+06        -0.58425E+08         0.00000E+00
    0.00000E+00         0.00000E+00        -0.20296E-07
 
   -0.18304E+06         0.44085E+06         0.00000E+00
    0.44085E+06        -0.58625E+08         0.00000E+00
    0.00000E+00         0.00000E+00        -0.71037E-07
 
   -0.22727E+06         0.42832E+06         0.00000E+00
    0.42832E+06        -0.58826E+08         0.00000E+00
    0.00000E+00         0.00000E+00        -0.50741E-07
 
   -0.27645E+06         0.41359E+06         0.00000E+00
    0.41359E+06        -0.59029E+08         0.00000E+00
    0.00000E+00         0.00000E+00         0.60889E-07
 
   -0.33111E+06         0.39643E+06         0.00000E+00
    0.39643E+06        -0.59233E+08         0.00000E+00
    0.00000E+00         0.00000E+00        -0.71037E-07
 
   -0.39184E+06         0.37657E+06         0.00000E+00
    0.37657E+06        -0.59439E+08         0.00000E+00
    0.00000E+00         0.00000E+00         0.20296E-07
 
   -0.45923E+06         0.35375E+06         0.00000E+00
    0.35375E+06        -0.59646E+08         0.00000E+00
    0.00000E+00         0.00000E+00        -0.20296E-07
 
   -0.53393E+06         0.32773E+06         0.00000E+00
    0.32773E+06        -0.59855E+08         0.00000E+00
    0.00000E+00         0.00000E+00        -0.40593E-07
 
   -0.61658E+06         0.29831E+06         0.00000E+00
    0.29831E+06        -0.60064E+08         0.00000E+00
    0.00000E+00         0.00000E+00         0.10148E-07
 
   -0.70782E+06         0.26537E+06         0.00000E+00
    0.26537E+06        -0.60275E+08         0.00000E+00
    0.00000E+00         0.00000E+00        -0.71037E-07
 
   -0.80827E+06         0.22887E+06         0.00000E+00
    0.22887E+06        -0.60486E+08         0.00000E+00
    0.00000E+00         0.00000E+00        -0.10148E-07
 
   -0.91843E+06         0.18899E+06         0.00000E+00
    0.18899E+06        -0.60698E+08         0.00000E+00
    0.00000E+00         0.00000E+00         0.71036E-07
 
   -0.10387E+07         0.14615E+06         0.00000E+00
    0.14615E+06        -0.60909E+08         0.00000E+00
    0.00000E+00         0.00000E+00        -0.40593E-07
 
   -0.11691E+07         0.10115E+06         0.00000E+00
    0.10115E+06        -0.61120E+08         0.00000E+00
    0.00000E+00         0.00000E+00         0.30444E-07
 
   -0.13095E+07         0.55346E+05         0.00000E+00
    0.55346E+05        -0.61329E+08         0.00000E+00
    0.00000E+00         0.00000E+00         0.10147E-07
 
   -0.14591E+07         0.10888E+05         0.00000E+00
    0.10888E+05        -0.61534E+08         0.00000E+00
    0.00000E+00         0.00000E+00         0.91333E-07
 
   -0.16162E+07        -0.28879E+05         0.00000E+00
   -0.28879E+05        -0.61735E+08         0.00000E+00
    0.00000E+00         0.00000E+00         0.40592E-07
 
   -0.17789E+07        -0.58818E+05         0.00000E+00
   -0.58818E+05        -0.61925E+08         0.00000E+00
    0.00000E+00         0.00000E+00         0.14207E-06
 
   -0.19456E+07        -0.71627E+05         0.00000E+00
   -0.71627E+05        -0.62098E+08         0.00000E+00
    0.00000E+00         0.00000E+00        -0.81185E-07
 
   -0.21182E+07        -0.59967E+05         0.00000E+00
   -0.59967E+05        -0.62236E+08         0.00000E+00
    0.00000E+00         0.00000E+00        -0.20296E-07
 
   -0.23043E+07        -0.23624E+05         0.00000E+00
   -0.23624E+05        -0.62316E+08         0.00000E+00
    0.00000E+00         0.00000E+00         0.10148E-07
 
    0.11600E+07        -0.10768E+05         0.00000E+00
   -0.10768E+05        -0.47724E+08         0.00000E+00
    0.00000E+00         0.00000E+00         0.00000E+00
 
    0.10740E+07        -0.26697E+05         0.00000E+00
   -0.26697E+05        -0.47763E+08         0.00000E+00
    0.00000E+00         0.00000E+00         0.15222E-07
 
    0.99417E+06        -0.30209E+05         0.00000E+00
   -0.30209E+05        -0.47829E+08         0.00000E+00
    0.00000E+00         0.00000E+00        -0.10148E-07
 
    0.91709E+06        -0.21940E+05         0.00000E+00
   -0.21940E+05        -0.47912E+08         0.00000E+00
    0.00000E+00         0.00000E+00        -0.35518E-07
 
    0.84213E+06        -0.58393E+04         0.00000E+00
   -0.58393E+04        -0.48001E+08         0.00000E+00
    0.00000E+00         0.00000E+00        -0.55815E-07
 
    0.77032E+06         0.14562E+05         0.00000E+00
    0.14562E+05        -0.48095E+08         0.00000E+00
    0.00000E+00         0.00000E+00         0.25370E-07
 
    0.70278E+06         0.36943E+05         0.00000E+00
    0.36943E+05        -0.48191E+08         0.00000E+00
    0.00000E+00         0.00000E+00        -0.20296E-07
 
    0.64023E+06         0.59846E+05         0.00000E+00
    0.59846E+05        -0.48289E+08         0.00000E+00
    0.00000E+00         0.00000E+00        -0.71037E-07
 
    0.58301E+06         0.82353E+05         0.00000E+00
    0.82353E+05        -0.48388E+08         0.00000E+00
    0.00000E+00         0.00000E+00        -0.30444E-07
 
    0.53116E+06         0.10390E+06         0.00000E+00
    0.10390E+06        -0.48487E+08         0.00000E+00
    0.00000E+00         0.00000E+00        -0.86259E-07
 
    0.48455E+06         0.12415E+06         0.00000E+00
    0.12415E+06        -0.48587E+08         0.00000E+00
    0.00000E+00         0.00000E+00        -0.40593E-07
 
    0.44295E+06         0.14294E+06         0.00000E+00
    0.14294E+06        -0.48688E+08         0.00000E+00
    0.00000E+00         0.00000E+00         0.10148E-07
 
    0.40603E+06         0.16023E+06         0.00000E+00
    0.16023E+06        -0.48789E+08         0.00000E+00
    0.00000E+00         0.00000E+00        -0.76111E-07
 
    0.37343E+06         0.17603E+06         0.00000E+00
    0.17603E+06        -0.48891E+08         0.00000E+00
    0.00000E+00         0.00000E+00        -0.81185E-07
 
    0.34480E+06         0.19042E+06         0.00000E+00
    0.19042E+06        -0.48993E+08         0.00000E+00
    0.00000E+00         0.00000E+00         0.30444E-07
 
    0.31978E+06         0.20350E+06         0.00000E+00
    0.20350E+06        -0.49095E+08         0.00000E+00
    0.00000E+00         0.00000E+00        -0.60889E-07
 
    0.29800E+06         0.21538E+06         0.00000E+00
    0.21538E+06        -0.49198E+08         0.00000E+00
    0.00000E+00         0.00000E+00        -0.45667E-07
 
    0.27915E+06         0.22619E+06         0.00000E+00
    0.22619E+06        -0.49301E+08         0.00000E+00
    0.00000E+00         0.00000E+00         0.15222E-07
 
    0.26291E+06         0.23605E+06         0.00000E+00
    0.23605E+06        -0.49405E+08         0.00000E+00
    0.00000E+00         0.00000E+00         0.50741E-08
 
    0.24899E+06         0.24507E+06         0.00000E+00
    0.24507E+06        -0.49510E+08         0.00000E+00
    0.00000E+00         0.00000E+00        -0.55814E-07
 
    0.23713E+06         0.25336E+06         0.00000E+00
    0.25336E+06        -0.49616E+08         0.00000E+00
    0.00000E+00         0.00000E+00         0.15222E-07
 
    0.22709E+06         0.26102E+06         0.00000E+00
    0.26102E+06        -0.49722E+08         0.00000E+00
    0.00000E+00         0.00000E+00         0.00000E+00
 
    0.21866E+06         0.26813E+06         0.00000E+00
    0.26813E+06        -0.49829E+08         0.00000E+00
    0.00000E+00         0.00000E+00         0.50741E-08
 
    0.21164E+06         0.27477E+06         0.00000E+00
    0.27477E+06        -0.49937E+08         0.00000E+00
    0.00000E+00         0.00000E+00        -0.40593E-07
 
    0.20586E+06         0.28101E+06         0.00000E+00
    0.28101E+06        -0.50046E+08         0.00000E+00
    0.00000E+00         0.00000E+00        -0.50741E-07
 
    0.20117E+06         0.28691E+06         0.00000E+00
    0.28691E+06        -0.50156E+08         0.00000E+00
    0.00000E+00         0.00000E+00         0.15222E-07
 
    0.19741E+06         0.29253E+06         0.00000E+00
    0.29253E+06        -0.50267E+08         0.00000E+00
    0.00000E+00         0.00000E+00        -0.10148E-07
 
    0.19447E+06         0.29790E+06         0.00000E+00
    0.29790E+06        -0.50379E+08         0.00000E+00
    0.00000E+00         0.00000E+00         0.00000E+00
 
    0.19224E+06         0.30307E+06         0.00000E+00
    0.30307E+06        -0.50492E+08         0.00000E+00
    0.00000E+00         0.00000E+00         0.50741E-07
 
    0.19062E+06         0.30808E+06         0.00000E+00
    0.30808E+06        -0.50607E+08         0.00000E+00
    0.00000E+00         0.00000E+00        -0.35518E-07
 
    0.18951E+06         0.31294E+06         0.00000E+00
    0.31294E+06        -0.50723E+08         0.00000E+00
    0.00000E+00         0.00000E+00        -0.10148E-07
 
    0.18884E+06         0.31768E+06         0.00000E+00
    0.31768E+06        -0.50840E+08         0.00000E+00
    0.00000E+00         0.00000E+00        -0.10148E-07
 
    0.18854E+06         0.32233E+06         0.00000E+00
    0.32233E+06        -0.50959E+08         0.00000E+00
    0.00000E+00         0.00000E+00        -0.25370E-07
 
    0.18854E+06         0.32689E+06         0.00000E+00
    0.32689E+06        -0.51078E+08         0.00000E+00
    0.00000E+00         0.00000E+00        -0.65963E-07
 
    0.18879E+06         0.33140E+06         0.00000E+00
    0.33140E+06        -0.51200E+08         0.00000E+00
    0.00000E+00         0.00000E+00         0.60888E-07
 
    0.18923E+06         0.33585E+06         0.00000E+00
    0.33585E+06        -0.51323E+08         0.00000E+00
    0.00000E+00         0.00000E+00         0.50741E-07
 
    0.18982E+06         0.34026E+06         0.00000E+00
    0.34026E+06        -0.51447E+08         0.00000E+00
    0.00000E+00         0.00000E+00         0.00000E+00
 
    0.19052E+06         0.34464E+06         0.00000E+00
    0.34464E+06        -0.51573E+08         0.00000E+00
    0.00000E+00         0.00000E+00        -0.55815E-07
 
    0.19129E+06         0.34899E+06         0.00000E+00
    0.34899E+06        -0.51700E+08         0.00000E+00
    0.00000E+00         0.00000E+00         0.15222E-07
 
    0.19209E+06         0.35331E+06         0.00000E+00
    0.35331E+06        -0.51829E+08         0.00000E+00
    0.00000E+00         0.00000E+00         0.81185E-07
 
    0.19290E+06         0.35762E+06         0.00000E+00
    0.35762E+06        -0.51959E+08         0.00000E+00
    0.00000E+00         0.00000E+00         0.50741E-07
 
    0.19367E+06         0.36191E+06         0.00000E+00
    0.36191E+06        -0.52092E+08         0.00000E+00
    0.00000E+00         0.00000E+00         0.00000E+00
 
    0.19439E+06         0.36618E+06         0.00000E+00
    0.36618E+06        -0.52226E+08         0.00000E+00
    0.00000E+00         0.00000E+00        -0.40593E-07
 
    0.19502E+06         0.37044E+06         0.00000E+00
    0.37044E+06        -0.52361E+08         0.00000E+00
    0.00000E+00         0.00000E+00        -0.12178E-06
 
    0.19554E+06         0.37469E+06         0.00000E+00
    0.37469E+06        -0.52498E+08         0.00000E+00
    0.00000E+00         0.00000E+00        -0.30444E-07
 
    0.19594E+06         0.37891E+06         0.00000E+00
    0.37891E+06        -0.52637E+08         0.00000E+00
    0.00000E+00         0.00000E+00         0.30444E-07
 
    0.19617E+06         0.38312E+06         0.00000E+00
    0.38312E+06        -0.52778E+08         0.00000E+00
    0.00000E+00         0.00000E+00         0.12178E-06
 
    0.19623E+06         0.38730E+06         0.00000E+00
    0.38730E+06        -0.52920E+08         0.00000E+00
    0.00000E+00         0.00000E+00        -0.50741E-07
 
    0.19609E+06         0.39145E+06         0.00000E+00
    0.39145E+06        -0.53065E+08         0.00000E+00
    0.00000E+00         0.00000E+00         0.10148E-07
 
    0.19572E+06         0.39557E+06         0.00000E+00
    0.39557E+06        -0.53211E+08         0.00000E+00
    0.00000E+00         0.00000E+00         0.11163E-06
 
    0.19511E+06         0.39965E+06         0.00000E+00
    0.39965E+06        -0.53359E+08         0.00000E+00
    0.00000E+00         0.00000E+00        -0.10148E-07
 
    0.19423E+06         0.40369E+06         0.00000E+00
    0.40369E+06        -0.53508E+08         0.00000E+00
    0.00000E+00         0.00000E+00        -0.10148E-07
 
    0.19305E+06         0.40767E+06         0.00000E+00
    0.40767E+06        -0.53660E+08         0.00000E+00
    0.00000E+00         0.00000E+00         0.10148E-07
 
    0.19156E+06         0.41159E+06         0.00000E+00
    0.41159E+06        -0.53813E+08         0.00000E+00
    0.00000E+00         0.00000E+00        -0.30444E-07
 
    0.18971E+06         0.41544E+06         0.00000E+00
    0.41544E+06        -0.53968E+08         0.00000E+00
    0.00000E+00         0.00000E+00        -0.10148E-07
 
    0.18749E+06         0.41921E+06         0.00000E+00
    0.41921E+06        -0.54125E+08         0.00000E+00
    0.00000E+00         0.00000E+00         0.40592E-07
 
    0.18487E+06         0.42289E+06         0.00000E+00
    0.42289E+06        -0.54284E+08         0.00000E+00
    0.00000E+00         0.00000E+00         0.20296E-07
 
    0.18180E+06         0.42646E+06         0.00000E+00
    0.42646E+06        -0.54445E+08         0.00000E+00
    0.00000E+00         0.00000E+00        -0.81184E-07
 
    0.17826E+06         0.42991E+06         0.00000E+00
    0.42991E+06        -0.54607E+08         0.00000E+00
    0.00000E+00         0.00000E+00         0.13193E-06
 
    0.17421E+06         0.43322E+06         0.00000E+00
    0.43322E+06        -0.54771E+08         0.00000E+00
    0.00000E+00         0.00000E+00        -0.20296E-07
 
    0.16959E+06         0.43639E+06         0.00000E+00
    0.43639E+06        -0.54938E+08         0.00000E+00
    0.00000E+00         0.00000E+00        -0.71037E-07
 
    0.16436E+06         0.43938E+06         0.00000E+00
    0.43938E+06        -0.55105E+08         0.00000E+00
    0.00000E+00         0.00000E+00        -0.81185E-07
 
    0.15848E+06         0.44218E+06         0.00000E+00
    0.44218E+06        -0.55275E+08         0.00000E+00
    0.00000E+00         0.00000E+00         0.20296E-07
 
    0.15187E+06         0.44476E+06         0.00000E+00
    0.44476E+06        -0.55447E+08         0.00000E+00
    0.00000E+00         0.00000E+00        -0.60889E-07
 
    0.14447E+06         0.44710E+06         0.00000E+00
    0.44710E+06        -0.55620E+08         0.00000E+00
    0.00000E+00         0.00000E+00        -0.40593E-07
 
    0.13620E+06         0.44917E+06         0.00000E+00
    0.44917E+06        -0.55795E+08         0.00000E+00
    0.00000E+00         0.00000E+00        -0.60889E-07
 
    0.12699E+06         0.45093E+06         0.00000E+00
    0.45093E+06        -0.55972E+08         0.00000E+00
    0.00000E+00         0.00000E+00         0.00000E+00
 
    0.11674E+06         0.45234E+06         0.00000E+00
    0.45234E+06        -0.56151E+08         0.00000E+00
    0.00000E+00         0.00000E+00        -0.60889E-07
 
    0.10534E+06         0.45338E+06         0.00000E+00
    0.45338E+06        -0.56331E+08         0.00000E+00
    0.00000E+00         0.00000E+00        -0.40593E-07
 
    0.92668E+05         0.45398E+06         0.00000E+00
    0.45398E+06        -0.56513E+08         0.00000E+00
    0.00000E+00         0.00000E+00         0.71037E-07
 
    0.78598E+05         0.45409E+06         0.00000E+00
    0.45409E+06        -0.56697E+08         0.00000E+00
    0.00000E+00         0.00000E+00         0.30444E-07
 
    0.62977E+05         0.45366E+06         0.00000E+00
    0.45366E+06        -0.56882E+08         0.00000E+00
    0.00000E+00         0.00000E+00         0.13193E-06
 
    0.45633E+05         0.45260E+06         0.00000E+00
    0.45260E+06        -0.57069E+08         0.00000E+00
    0.00000E+00         0.00000E+00         0.40593E-07
 
    0.26376E+05         0.45086E+06         0.00000E+00
    0.45086E+06        -0.57258E+08         0.00000E+00
    0.00000E+00         0.00000E+00         0.10148E-07
 
    0.49888E+04         0.44832E+06         0.00000E+00
    0.44832E+06        -0.57448E+08         0.00000E+00
    0.00000E+00         0.00000E+00        -0.71037E-07
 
   -0.18771E+05         0.44490E+06         0.00000E+00
    0.44490E+06        -0.57640E+08         0.00000E+00
    0.00000E+00         0.00000E+00         0.20296E-07
 
   -0.45176E+05         0.44047E+06         0.00000E+00
    0.44047E+06        -0.57833E+08         0.00000E+00
    0.00000E+00         0.00000E+00         0.40593E-07
 
   -0.74533E+05         0.43491E+06         0.00000E+00
    0.43491E+06        -0.58028E+08         0.00000E+00
    0.00000E+00         0.00000E+00         0.00000E+00
 
   -0.10718E+06         0.42805E+06         0.00000E+00
    0.42805E+06        -0.58225E+08         0.00000E+00
    0.00000E+00         0.00000E+00        -0.10148E-06
 
   -0.14351E+06         0.41974E+06         0.00000E+00
    0.41974E+06        -0.58423E+08         0.00000E+00
    0.00000E+00         0.00000E+00         0.50741E-07
 
   -0.18394E+06         0.40979E+06         0.00000E+00
    0.40979E+06        -0.58622E+08         0.00000E+00
    0.00000E+00         0.00000E+00         0.91333E-07
 
   -0.22894E+06         0.39799E+06         0.00000E+00
    0.39799E+06        -0.58823E+08         0.00000E+00
    0.00000E+00         0.00000E+00         0.10148E-07
 
   -0.27903E+06         0.38411E+06         0.00000E+00
    0.38411E+06        -0.59026E+08         0.00000E+00
    0.00000E+00         0.00000E+00         0.10148E-07
 
   -0.33476E+06         0.36791E+06         0.00000E+00
    0.36791E+06        -0.59230E+08         0.00000E+00
    0.00000E+00         0.00000E+00        -0.20296E-07
 
   -0.39675E+06         0.34916E+06         0.00000E+00
    0.34916E+06        -0.59435E+08         0.00000E+00
    0.00000E+00         0.00000E+00         0.10148E-07
 
   -0.46564E+06         0.32758E+06         0.00000E+00
    0.32758E+06        -0.59641E+08         0.00000E+00
    0.00000E+00         0.00000E+00        -0.81185E-07
 
   -0.54212E+06         0.30296E+06         0.00000E+00
    0.30296E+06        -0.59849E+08         0.00000E+00
    0.00000E+00         0.00000E+00         0.00000E+00
 
   -0.62689E+06         0.27508E+06         0.00000E+00
    0.27508E+06        -0.60058E+08         0.00000E+00
    0.00000E+00         0.00000E+00         0.10148E-07
 
   -0.72063E+06         0.24381E+06         0.00000E+00
    0.24381E+06        -0.60268E+08         0.00000E+00
    0.00000E+00         0.00000E+00        -0.91333E-07
 
   -0.82400E+06         0.20914E+06         0.00000E+00
    0.20914E+06        -0.60479E+08         0.00000E+00
    0.00000E+00         0.00000E+00         0.50741E-07
 
   -0.93759E+06         0.17118E+06         0.00000E+00
    0.17118E+06        -0.60690E+08         0.00000E+00
    0.00000E+00         0.00000E+00        -0.30444E-07
 
   -0.10618E+07         0.13034E+06         0.00000E+00
    0.13034E+06        -0.60901E+08         0.00000E+00
    0.00000E+00         0.00000E+00         0.50740E-07
 
   -0.11968E+07         0.87342E+05         0.00000E+00
    0.87342E+05        -0.61111E+08         0.00000E+00
    0.00000E+00         0.00000E+00         0.11163E-06
 
   -0.13423E+07         0.43452E+05         0.00000E+00
    0.43452E+05        -0.61320E+08         0.00000E+00
    0.00000E+00         0.00000E+00         0.20296E-07
 
   -0.14974E+07         0.67990E+03         0.00000E+00
    0.67990E+03        -0.61526E+08         0.00000E+00
    0.00000E+00         0.00000E+00        -0.60889E-07
 
   -0.16605E+07        -0.37803E+05         0.00000E+00
   -0.37803E+05        -0.61728E+08         0.00000E+00
    0.00000E+00         0.00000E+00        -0.40593E-07
 
   -0.18290E+07        -0.66974E+05         0.00000E+00
   -0.66974E+05        -0.61921E+08         0.00000E+00
    0.00000E+00         0.00000E+00         0.12178E-06
 
   -0.20004E+07        -0.79221E+05         0.00000E+00
   -0.79221E+05        -0.62098E+08         0.00000E+00
    0.00000E+00         0.00000E+00         0.10148E-07
 
   -0.21758E+07        -0.66047E+05         0.00000E+00
   -0.66047E+05        -0.62242E+08         0.00000E+00
    0.00000E+00         0.00000E+00        -0.10148E-07
 
   -0.23628E+07        -0.26067E+05         0.00000E+00
   -0.26067E+05        -0.62325E+08         0.00000E+00
    0.00000E+00         0.00000E+00        -0.50741E-07
 
    0.11889E+07        -0.11963E+05         0.00000E+00
   -0.11963E+05        -0.47720E+08         0.00000E+00
    0.00000E+00         0.00000E+00        -0.10148E-07
 
    0.11023E+07        -0.29605E+05         0.00000E+00
   -0.29605E+05        -0.47761E+08         0.00000E+00
    0.00000E+00         0.00000E+00        -0.65963E-07
 
    0.10210E+07        -0.33756E+05         0.00000E+00
   -0.33756E+05        -0.47830E+08         0.00000E+00
    0.00000E+00         0.00000E+00         0.30444E-07
 
    0.94153E+06        -0.25757E+05         0.00000E+00
   -0.25757E+05        -0.47914E+08         0.00000E+00
    0.00000E+00         0.00000E+00        -0.50741E-08
 
    0.86374E+06        -0.10134E+05         0.00000E+00
   -0.10134E+05        -0.48005E+08         0.00000E+00
    0.00000E+00         0.00000E+00         0.10148E-07
 
    0.78914E+06         0.94834E+04         0.00000E+00
    0.94834E+04        -0.48099E+08         0.00000E+00
    0.00000E+00         0.00000E+00        -0.50741E-07
 
    0.71903E+06         0.30865E+05         0.00000E+00
    0.30865E+05        -0.48196E+08         0.00000E+00
    0.00000E+00         0.00000E+00         0.60889E-07
 
    0.65420E+06         0.52649E+05         0.00000E+00
    0.52649E+05        -0.48293E+08         0.00000E+00
    0.00000E+00         0.00000E+00         0.15222E-07
 
    0.59499E+06         0.73990E+05         0.00000E+00
    0.73990E+05        -0.48392E+08         0.00000E+00
    0.00000E+00         0.00000E+00         0.20296E-07
 
    0.54146E+06         0.94369E+05         0.00000E+00
    0.94369E+05        -0.48491E+08         0.00000E+00
    0.00000E+00         0.00000E+00        -0.96407E-07
 
    0.49344E+06         0.11349E+06         0.00000E+00
    0.11349E+06        -0.48591E+08         0.00000E+00
    0.00000E+00         0.00000E+00        -0.20296E-07
 
    0.45066E+06         0.13120E+06         0.00000E+00
    0.13120E+06        -0.48692E+08         0.00000E+00
    0.00000E+00         0.00000E+00         0.50741E-08
 
    0.41277E+06         0.14746E+06         0.00000E+00
    0.14746E+06        -0.48792E+08         0.00000E+00
    0.00000E+00         0.00000E+00         0.25370E-07
 
    0.37939E+06         0.16230E+06         0.00000E+00
    0.16230E+06        -0.48894E+08         0.00000E+00
    0.00000E+00         0.00000E+00        -0.81185E-07
 
    0.35014E+06         0.17580E+06         0.00000E+00
    0.17580E+06        -0.48995E+08         0.00000E+00
    0.00000E+00         0.00000E+00         0.25370E-07
 
    0.32461E+06         0.18805E+06         0.00000E+00
    0.18805E+06        -0.49097E+08         0.00000E+00
    0.00000E+00         0.00000E+00        -0.55814E-07
 
    0.30244E+06         0.19916E+06         0.00000E+00
    0.19916E+06        -0.49200E+08         0.00000E+00
    0.00000E+00         0.00000E+00        -0.25370E-07
 
    0.28329E+06         0.20926E+06         0.00000E+00
    0.20926E+06        -0.49303E+08         0.00000E+00
    0.00000E+00         0.00000E+00        -0.15222E-07
 
    0.26681E+06         0.21845E+06         0.00000E+00
    0.21845E+06        -0.49407E+08         0.00000E+00
    0.00000E+00         0.00000E+00        -0.25370E-07
 
    0.25272E+06         0.22686E+06         0.00000E+00
    0.22686E+06        -0.49512E+08         0.00000E+00
    0.00000E+00         0.00000E+00        -0.40593E-07
 
    0.24074E+06         0.23457E+06         0.00000E+00
    0.23457E+06        -0.49617E+08         0.00000E+00
    0.00000E+00         0.00000E+00         0.00000E+00
 
    0.23062E+06         0.24169E+06         0.00000E+00
    0.24169E+06        -0.49723E+08         0.00000E+00
    0.00000E+00         0.00000E+00        -0.50741E-08
 
    0.22214E+06         0.24830E+06         0.00000E+00
    0.24830E+06        -0.49830E+08         0.00000E+00
    0.00000E+00         0.00000E+00         0.15222E-07
 
    0.21509E+06         0.25446E+06         0.00000E+00
    0.25446E+06        -0.49938E+08         0.00000E+00
    0.00000E+00         0.00000E+00         0.00000E+00
 
    0.20930E+06         0.26026E+06         0.00000E+00
    0.26026E+06        -0.50047E+08         0.00000E+00
    0.00000E+00         0.00000E+00        -0.40593E-07
 
    0.20461E+06         0.26573E+06         0.00000E+00
    0.26573E+06        -0.50157E+08         0.00000E+00
    0.00000E+00         0.00000E+00        -0.10148E-07
 
    0.20087E+06         0.27094E+06         0.00000E+00
    0.27094E+06        -0.50268E+08         0.00000E+00
    0.00000E+00         0.00000E+00        -0.20296E-07
 
    0.19796E+06         0.27592E+06         0.00000E+00
    0.27592E+06        -0.50380E+08         0.00000E+00
    0.00000E+00         0.00000E+00        -0.10148E-07
 
    0.19576E+06         0.28071E+06         0.00000E+00
    0.28071E+06        -0.50493E+08         0.00000E+00
    0.00000E+00         0.00000E+00        -0.50741E-07
 
    0.19417E+06         0.28534E+06         0.00000E+00
    0.28534E+06        -0.50608E+08         0.00000E+00
    0.00000E+00         0.00000E+00        -0.10148E-07
 
    0.19311E+06         0.28984E+06         0.00000E+00
    0.28984E+06        -0.50724E+08         0.00000E+00
    0.00000E+00         0.00000E+00         0.00000E+00
 
    0.19248E+06         0.29423E+06         0.00000E+00
    0.29423E+06        -0.50841E+08         0.00000E+00
    0.00000E+00         0.00000E+00         0.20296E-07
 
    0.19223E+06         0.29853E+06         0.00000E+00
    0.29853E+06        -0.50959E+08         0.00000E+00
    0.00000E+00         0.00000E+00        -0.10148E-07
 
    0.19228E+06         0.30276E+06         0.00000E+00
    0.30276E+06        -0.51079E+08         0.00000E+00
    0.00000E+00         0.00000E+00        -0.40593E-07
 
    0.19258E+06         0.30693E+06         0.00000E+00
    0.30693E+06        -0.51201E+08         0.00000E+00
    0.00000E+00         0.00000E+00        -0.20296E-07
 
    0.19307E+06         0.31105E+06         0.00000E+00
    0.31105E+06        -0.51323E+08         0.00000E+00
    0.00000E+00         0.00000E+00         0.20296E-07
 
    0.19371E+06         0.31513E+06         0.00000E+00
    0.31513E+06        -0.51448E+08         0.00000E+00
    0.00000E+00         0.00000E+00        -0.60888E-07
 
    0.19446E+06         0.31918E+06         0.00000E+00
    0.31918E+06        -0.51573E+08         0.00000E+00
    0.00000E+00         0.00000E+00         0.11163E-06
 
    0.19527E+06         0.32320E+06         0.00000E+00
    0.32320E+06        -0.51701E+08         0.00000E+00
    0.00000E+00         0.00000E+00         0.81185E-07
 
    0.19612E+06         0.32720E+06         0.00000E+00
    0.32720E+06        -0.51830E+08         0.00000E+00
    0.00000E+00         0.00000E+00        -0.40593E-07
 
    0.19696E+06         0.33119E+06         0.00000E+00
    0.33119E+06        -0.51960E+08         0.00000E+00
    0.00000E+00         0.00000E+00        -0.81185E-07
 
    0.19778E+06         0.33516E+06         0.00000E+00
    0.33516E+06        -0.52092E+08         0.00000E+00
    0.00000E+00         0.00000E+00        -0.60888E-07
 
    0.19853E+06         0.33911E+06         0.00000E+00
    0.33911E+06        -0.52226E+08         0.00000E+00
    0.00000E+00         0.00000E+00        -0.10148E-07
 
    0.19920E+06         0.34305E+06         0.00000E+00
    0.34305E+06        -0.52362E+08         0.00000E+00
    0.00000E+00         0.00000E+00         0.00000E+00
 
    0.19975E+06         0.34698E+06         0.00000E+00
    0.34698E+06        -0.52499E+08         0.00000E+00
    0.00000E+00         0.00000E+00         0.81185E-07
 
    0.20017E+06         0.35088E+06         0.00000E+00
    0.35088E+06        -0.52638E+08         0.00000E+00
    0.00000E+00         0.00000E+00         0.00000E+00
 
    0.20043E+06         0.35477E+06         0.00000E+00
    0.35477E+06        -0.52779E+08         0.00000E+00
    0.00000E+00         0.00000E+00        -0.20296E-07
 
    0.20051E+06         0.35864E+06         0.00000E+00
    0.35864E+06        -0.52921E+08         0.00000E+00
    0.00000E+00         0.00000E+00        -0.40593E-07
 
    0.20039E+06         0.36248E+06         0.00000E+00
    0.36248E+06        -0.53065E+08         0.00000E+00
    0.00000E+00         0.00000E+00        -0.40593E-07
 
    0.20003E+06         0.36629E+06         0.00000E+00
    0.36629E+06        -0.53212E+08         0.00000E+00
    0.00000E+00         0.00000E+00         0.40593E-07
 
    0.19943E+06         0.37006E+06         0.00000E+00
    0.37006E+06        -0.53359E+08         0.00000E+00
    0.00000E+00         0.00000E+00        -0.10148E-07
 
    0.19855E+06         0.37379E+06         0.00000E+00
    0.37379E+06        -0.53509E+08         0.00000E+00
    0.00000E+00         0.00000E+00        -0.30444E-07
 
    0.19737E+06         0.37747E+06         0.00000E+00
    0.37747E+06        -0.53660E+08         0.00000E+00
    0.00000E+00         0.00000E+00         0.00000E+00
 
    0.19586E+06         0.38110E+06         0.00000E+00
    0.38110E+06        -0.53814E+08         0.00000E+00
    0.00000E+00         0.00000E+00         0.30444E-07
 
    0.19400E+06         0.38466E+06         0.00000E+00
    0.38466E+06        -0.53969E+08         0.00000E+00
    0.00000E+00         0.00000E+00        -0.20296E-07
 
    0.19176E+06         0.38814E+06         0.00000E+00
    0.38814E+06        -0.54126E+08         0.00000E+00
    0.00000E+00         0.00000E+00        -0.30444E-07
 
    0.18911E+06         0.39154E+06         0.00000E+00
    0.39154E+06        -0.54285E+08         0.00000E+00
    0.00000E+00         0.00000E+00        -0.11163E-06
 
    0.18601E+06         0.39484E+06         0.00000E+00
    0.39484E+06        -0.54445E+08         0.00000E+00
    0.00000E+00         0.00000E+00         0.50741E-07
 
    0.18243E+06         0.39803E+06         0.00000E+00
    0.39803E+06        -0.54608E+08         0.00000E+00
    0.00000E+00         0.00000E+00         0.00000E+00
 
    0.17833E+06         0.40109E+06         0.00000E+00
    0.40109E+06        -0.54772E+08         0.00000E+00
    0.00000E+00         0.00000E+00         0.30444E-07
 
    0.17366E+06         0.40401E+06         0.00000E+00
    0.40401E+06        -0.54938E+08         0.00000E+00
    0.00000E+00         0.00000E+00         0.20296E-07
 
    0.16837E+06         0.40678E+06         0.00000E+00
    0.40678E+06        -0.55106E+08         0.00000E+00
    0.00000E+00         0.00000E+00         0.20296E-07
 
    0.16241E+06         0.40936E+06         0.00000E+00
    0.40936E+06        -0.55276E+08         0.00000E+00
    0.00000E+00         0.00000E+00        -0.20296E-07
 
    0.15571E+06         0.41174E+06         0.00000E+00
    0.41174E+06        -0.55447E+08         0.00000E+00
    0.00000E+00         0.00000E+00         0.30444E-07
 
    0.14822E+06         0.41390E+06         0.00000E+00
    0.41390E+06        -0.55621E+08         0.00000E+00
    0.00000E+00         0.00000E+00         0.10148E-07
 
    0.13986E+06         0.41580E+06         0.00000E+00
    0.41580E+06        -0.55796E+08         0.00000E+00
    0.00000E+00         0.00000E+00         0.10148E-06
 
    0.13053E+06         0.41743E+06         0.00000E+00
    0.41743E+06        -0.55972E+08         0.00000E+00
    0.00000E+00         0.00000E+00        -0.40593E-07
 
    0.12016E+06         0.41873E+06         0.00000E+00
    0.41873E+06        -0.56151E+08         0.00000E+00
    0.00000E+00         0.00000E+00         0.71037E-07
 
    0.10862E+06         0.41967E+06         0.00000E+00
    0.41967E+06        -0.56331E+08         0.00000E+00
    0.00000E+00         0.00000E+00         0.20296E-07
 
    0.95793E+05         0.42022E+06         0.00000E+00
    0.42022E+06        -0.56513E+08         0.00000E+00
    0.00000E+00         0.00000E+00         0.20296E-07
 
    0.81553E+05         0.42031E+06         0.00000E+00
    0.42031E+06        -0.56697E+08         0.00000E+00
    0.00000E+00         0.00000E+00         0.00000E+00
 
    0.65742E+05         0.41989E+06         0.00000E+00
    0.41989E+06        -0.56882E+08         0.00000E+00
    0.00000E+00         0.00000E+00         0.20296E-07
 
    0.48187E+05         0.41890E+06         0.00000E+00
    0.41890E+06        -0.57069E+08         0.00000E+00
    0.00000E+00         0.00000E+00         0.00000E+00
 
    0.28694E+05         0.41726E+06         0.00000E+00
    0.41726E+06        -0.57257E+08         0.00000E+00
    0.00000E+00         0.00000E+00         0.20296E-07
 
    0.70409E+04         0.41489E+06         0.00000E+00
    0.41489E+06        -0.57448E+08         0.00000E+00
    0.00000E+00         0.00000E+00         0.20296E-07
 
   -0.17019E+05         0.41169E+06         0.00000E+00
    0.41169E+06        -0.57639E+08         0.00000E+00
    0.00000E+00         0.00000E+00        -0.20295E-07
 
   -0.43766E+05         0.40756E+06         0.00000E+00
    0.40756E+06        -0.57832E+08         0.00000E+00
    0.00000E+00         0.00000E+00         0.00000E+00
 
   -0.73515E+05         0.40236E+06         0.00000E+00
    0.40236E+06        -0.58027E+08         0.00000E+00
    0.00000E+00         0.00000E+00        -0.30444E-07
 
   -0.10662E+06         0.39595E+06         0.00000E+00
    0.39595E+06        -0.58223E+08         0.00000E+00
    0.00000E+00         0.00000E+00        -0.20296E-07
 
   -0.14347E+06         0.38818E+06         0.00000E+00
    0.38818E+06        -0.58421E+08         0.00000E+00
    0.00000E+00         0.00000E+00        -0.20296E-07
 
   -0.18451E+06         0.37887E+06         0.00000E+00
    0.37887E+06        -0.58620E+08         0.00000E+00
    0.00000E+00         0.00000E+00        -0.60889E-07
 
   -0.23024E+06         0.36782E+06         0.00000E+00
    0.36782E+06        -0.58821E+08         0.00000E+00
    0.00000E+00         0.00000E+00        -0.30444E-07
 
   -0.28118E+06         0.35481E+06         0.00000E+00
    0.35481E+06        -0.59023E+08         0.00000E+00
    0.00000E+00         0.00000E+00        -0.30444E-07
 
   -0.33793E+06         0.33962E+06         0.00000E+00
    0.33962E+06        -0.59226E+08         0.00000E+00
    0.00000E+00         0.00000E+00         0.71037E-07
 
   -0.40113E+06         0.32201E+06         0.00000E+00
    0.32201E+06        -0.59431E+08         0.00000E+00
    0.00000E+00         0.00000E+00        -0.91333E-07
 
   -0.47147E+06         0.30173E+06         0.00000E+00
    0.30173E+06        -0.59637E+08         0.00000E+00
    0.00000E+00         0.00000E+00         0.10148E-07
 
   -0.54967E+06         0.27856E+06         0.00000E+00
    0.27856E+06        -0.59844E+08         0.00000E+00
    0.00000E+00         0.00000E+00         0.60889E-07
 
   -0.63649E+06         0.25229E+06         0.00000E+00
    0.25229E+06        -0.60052E+08         0.00000E+00
    0.00000E+00         0.00000E+00        -0.40593E-07
 
   -0.73268E+06         0.22280E+06         0.00000E+00
    0.22280E+06        -0.60262E+08         0.00000E+00
    0.00000E+00         0.00000E+00        -0.30444E-07
 
   -0.83895E+06         0.19003E+06         0.00000E+00
    0.19003E+06        -0.60472E+08         0.00000E+00
    0.00000E+00         0.00000E+00         0.20296E-07
 
   -0.95594E+06         0.15411E+06         0.00000E+00
    0.15411E+06        -0.60682E+08         0.00000E+00
    0.00000E+00         0.00000E+00        -0.60889E-07
 
   -0.10841E+07         0.11538E+06         0.00000E+00
    0.11538E+06        -0.60892E+08         0.00000E+00
    0.00000E+00         0.00000E+00         0.50741E-07
 
   -0.12237E+07         0.74506E+05         0.00000E+00
    0.74506E+05        -0.61102E+08         0.00000E+00
    0.00000E+00         0.00000E+00        -0.91333E-07
 
   -0.13744E+07         0.32648E+05         0.00000E+00
    0.32648E+05        -0.61311E+08         0.00000E+00
    0.00000E+00         0.00000E+00        -0.40593E-07
 
   -0.15353E+07        -0.83374E+04         0.00000E+00
   -0.83374E+04        -0.61518E+08         0.00000E+00
    0.00000E+00         0.00000E+00        -0.11163E-06
 
   -0.17047E+07        -0.45489E+05         0.00000E+00
   -0.45489E+05        -0.61721E+08         0.00000E+00
    0.00000E+00         0.00000E+00         0.00000E+00
 
   -0.18794E+07        -0.73980E+05         0.00000E+00
   -0.73980E+05        -0.61916E+08         0.00000E+00
    0.00000E+00         0.00000E+00         0.10148E-07
 
   -0.20562E+07        -0.85989E+05         0.00000E+00
   -0.85989E+05        -0.62098E+08         0.00000E+00
    0.00000E+00         0.00000E+00         0.40593E-07
 
   -0.22349E+07        -0.71780E+05         0.00000E+00
   -0.71780E+05        -0.62248E+08         0.00000E+00
    0.00000E+00         0.00000E+00         0.10148E-07
 
   -0.24231E+07        -0.28462E+05         0.00000E+00
   -0.28462E+05        -0.62336E+08         0.00000E+00
    0.00000E+00         0.00000E+00        -0.50741E-07
 
    0.12187E+07        -0.13134E+05         0.00000E+00
   -0.13134E+05        -0.47715E+08         0.00000E+00
    0.00000E+00         0.00000E+00         0.00000E+00
 
    0.11314E+07        -0.32325E+05         0.00000E+00
   -0.32325E+05        -0.47758E+08         0.00000E+00
    0.00000E+00         0.00000E+00         0.50741E-08
 
    0.10484E+07        -0.36868E+05         0.00000E+00
   -0.36868E+05        -0.47831E+08         0.00000E+00
    0.00000E+00         0.00000E+00        -0.10148E-07
 
    0.96609E+06        -0.28995E+05         0.00000E+00
   -0.28995E+05        -0.47917E+08         0.00000E+00
    0.00000E+00         0.00000E+00         0.20296E-07
 
    0.88522E+06        -0.13832E+05         0.00000E+00
   -0.13832E+05        -0.48009E+08         0.00000E+00
    0.00000E+00         0.00000E+00         0.50741E-08
 
    0.80765E+06         0.49589E+04         0.00000E+00
    0.49589E+04        -0.48104E+08         0.00000E+00
    0.00000E+00         0.00000E+00         0.55815E-07
 
    0.73488E+06         0.25280E+05         0.00000E+00
    0.25280E+05        -0.48200E+08         0.00000E+00
    0.00000E+00         0.00000E+00        -0.30444E-07
 
    0.66773E+06         0.45882E+05         0.00000E+00
    0.45882E+05        -0.48298E+08         0.00000E+00
    0.00000E+00         0.00000E+00        -0.25370E-07
 
    0.60653E+06         0.65995E+05         0.00000E+00
    0.65995E+05        -0.48396E+08         0.00000E+00
    0.00000E+00         0.00000E+00        -0.81185E-07
 
    0.55131E+06         0.85150E+05         0.00000E+00
    0.85150E+05        -0.48495E+08         0.00000E+00
    0.00000E+00         0.00000E+00        -0.10148E-07
 
    0.50189E+06         0.10308E+06         0.00000E+00
    0.10308E+06        -0.48595E+08         0.00000E+00
    0.00000E+00         0.00000E+00        -0.15222E-07
 
    0.45796E+06         0.11966E+06         0.00000E+00
    0.11966E+06        -0.48695E+08         0.00000E+00
    0.00000E+00         0.00000E+00        -0.60888E-07
 
    0.41913E+06         0.13486E+06         0.00000E+00
    0.13486E+06        -0.48795E+08         0.00000E+00
    0.00000E+00         0.00000E+00        -0.71037E-07
 
    0.38499E+06         0.14871E+06         0.00000E+00
    0.14871E+06        -0.48896E+08         0.00000E+00
    0.00000E+00         0.00000E+00         0.25370E-07
 
    0.35513E+06         0.16128E+06         0.00000E+00
    0.16128E+06        -0.48998E+08         0.00000E+00
    0.00000E+00         0.00000E+00        -0.10148E-07
 
    0.32914E+06         0.17268E+06         0.00000E+00
    0.17268E+06        -0.49100E+08         0.00000E+00
    0.00000E+00         0.00000E+00         0.71037E-07
 
    0.30661E+06         0.18300E+06         0.00000E+00
    0.18300E+06        -0.49202E+08         0.00000E+00
    0.00000E+00         0.00000E+00         0.20296E-07
 
    0.28717E+06         0.19237E+06         0.00000E+00
    0.19237E+06        -0.49305E+08         0.00000E+00
    0.00000E+00         0.00000E+00        -0.91333E-07
 
    0.27049E+06         0.20089E+06         0.00000E+00
    0.20089E+06        -0.49409E+08         0.00000E+00
    0.00000E+00         0.00000E+00         0.45475E-12
 
    0.25625E+06         0.20867E+06         0.00000E+00
    0.20867E+06        -0.49513E+08         0.00000E+00
    0.00000E+00         0.00000E+00         0.20296E-07
 
    0.24416E+06         0.21580E+06         0.00000E+00
    0.21580E+06        -0.49619E+08         0.00000E+00
    0.00000E+00         0.00000E+00        -0.20296E-07
 
    0.23397E+06         0.22238E+06         0.00000E+00
    0.22238E+06        -0.49725E+08         0.00000E+00
    0.00000E+00         0.00000E+00         0.40593E-07
 
    0.22545E+06         0.22847E+06         0.00000E+00
    0.22847E+06        -0.49831E+08         0.00000E+00
    0.00000E+00         0.00000E+00        -0.50741E-07
 
    0.21839E+06         0.23416E+06         0.00000E+00
    0.23416E+06        -0.49939E+08         0.00000E+00
    0.00000E+00         0.00000E+00         0.14207E-06
 
    0.21260E+06         0.23950E+06         0.00000E+00
    0.23950E+06        -0.50048E+08         0.00000E+00
    0.00000E+00         0.00000E+00        -0.50741E-07
 
    0.20792E+06         0.24454E+06         0.00000E+00
    0.24454E+06        -0.50158E+08         0.00000E+00
    0.00000E+00         0.00000E+00         0.00000E+00
 
    0.20421E+06         0.24934E+06         0.00000E+00
    0.24934E+06        -0.50269E+08         0.00000E+00
    0.00000E+00         0.00000E+00        -0.10148E-07
 
    0.20133E+06         0.25392E+06         0.00000E+00
    0.25392E+06        -0.50381E+08         0.00000E+00
    0.00000E+00         0.00000E+00         0.10148E-07
 
    0.19917E+06         0.25833E+06         0.00000E+00
    0.25833E+06        -0.50494E+08         0.00000E+00
    0.00000E+00         0.00000E+00         0.40593E-07
 
    0.19763E+06         0.26259E+06         0.00000E+00
    0.26259E+06        -0.50609E+08         0.00000E+00
    0.00000E+00         0.00000E+00         0.81185E-07
 
    0.19661E+06         0.26673E+06         0.00000E+00
    0.26673E+06        -0.50725E+08         0.00000E+00
    0.00000E+00         0.00000E+00        -0.60889E-07
 
    0.19604E+06         0.27077E+06         0.00000E+00
    0.27077E+06        -0.50842E+08         0.00000E+00
    0.00000E+00         0.00000E+00        -0.20296E-07
 
    0.19584E+06         0.27473E+06         0.00000E+00
    0.27473E+06        -0.50960E+08         0.00000E+00
    0.00000E+00         0.00000E+00        -0.40593E-07
 
    0.19594E+06         0.27861E+06         0.00000E+00
    0.27861E+06        -0.51080E+08         0.00000E+00
    0.00000E+00         0.00000E+00        -0.40593E-07
 
    0.19629E+06         0.28245E+06         0.00000E+00
    0.28245E+06        -0.51201E+08         0.00000E+00
    0.00000E+00         0.00000E+00         0.91333E-07
 
    0.19683E+06         0.28624E+06         0.00000E+00
    0.28624E+06        -0.51324E+08         0.00000E+00
    0.00000E+00         0.00000E+00         0.00000E+00
 
    0.19753E+06         0.28999E+06         0.00000E+00
    0.28999E+06        -0.51448E+08         0.00000E+00
    0.00000E+00         0.00000E+00        -0.10148E-07
 
    0.19832E+06         0.29371E+06         0.00000E+00
    0.29371E+06        -0.51574E+08         0.00000E+00
    0.00000E+00         0.00000E+00        -0.81185E-07
 
    0.19919E+06         0.29741E+06         0.00000E+00
    0.29741E+06        -0.51702E+08         0.00000E+00
    0.00000E+00         0.00000E+00         0.00000E+00
 
    0.20008E+06         0.30109E+06         0.00000E+00
    0.30109E+06        -0.51831E+08         0.00000E+00
    0.00000E+00         0.00000E+00         0.40593E-07
 
    0.20097E+06         0.30475E+06         0.00000E+00
    0.30475E+06        -0.51961E+08         0.00000E+00
    0.00000E+00         0.00000E+00         0.30444E-07
 
    0.20182E+06         0.30840E+06         0.00000E+00
    0.30840E+06        -0.52093E+08         0.00000E+00
    0.00000E+00         0.00000E+00         0.30444E-07
 
    0.20261E+06         0.31203E+06         0.00000E+00
    0.31203E+06        -0.52227E+08         0.00000E+00
    0.00000E+00         0.00000E+00        -0.10148E-07
 
    0.20332E+06         0.31565E+06         0.00000E+00
    0.31565E+06        -0.52363E+08         0.00000E+00
    0.00000E+00         0.00000E+00         0.00000E+00
 
    0.20391E+06         0.31926E+06         0.00000E+00
    0.31926E+06        -0.52500E+08         0.00000E+00
    0.00000E+00         0.00000E+00         0.00000E+00
 
    0.20435E+06         0.32285E+06         0.00000E+00
    0.32285E+06        -0.52639E+08         0.00000E+00
    0.00000E+00         0.00000E+00         0.81185E-07
 
    0.20464E+06         0.32642E+06         0.00000E+00
    0.32642E+06        -0.52780E+08         0.00000E+00
    0.00000E+00         0.00000E+00        -0.20296E-07
 
    0.20474E+06         0.32998E+06         0.00000E+00
    0.32998E+06        -0.52922E+08         0.00000E+00
    0.00000E+00         0.00000E+00        -0.45475E-12
 
    0.20463E+06         0.33350E+06         0.00000E+00
    0.33350E+06        -0.53066E+08         0.00000E+00
    0.00000E+00         0.00000E+00         0.30444E-07
 
    0.20429E+06         0.33700E+06         0.00000E+00
    0.33700E+06        -0.53212E+08         0.00000E+00
    0.00000E+00         0.00000E+00        -0.40593E-07
 
    0.20369E+06         0.34047E+06         0.00000E+00
    0.34047E+06        -0.53360E+08         0.00000E+00
    0.00000E+00         0.00000E+00         0.14207E-06
 
    0.20281E+06         0.34390E+06         0.00000E+00
    0.34390E+06        -0.53510E+08         0.00000E+00
    0.00000E+00         0.00000E+00         0.60889E-07
 
    0.20163E+06         0.34728E+06         0.00000E+00
    0.34728E+06        -0.53661E+08         0.00000E+00
    0.00000E+00         0.00000E+00         0.00000E+00
 
    0.20012E+06         0.35061E+06         0.00000E+00
    0.35061E+06        -0.53814E+08         0.00000E+00
    0.00000E+00         0.00000E+00        -0.40593E-07
 
    0.19825E+06         0.35388E+06         0.00000E+00
    0.35388E+06        -0.53970E+08         0.00000E+00
    0.00000E+00         0.00000E+00        -0.10148E-07
 
    0.19599E+06         0.35708E+06         0.00000E+00
    0.35708E+06        -0.54126E+08         0.00000E+00
    0.00000E+00         0.00000E+00         0.10148E-07
 
    0.19332E+06         0.36020E+06         0.00000E+00
    0.36020E+06        -0.54285E+08         0.00000E+00
    0.00000E+00         0.00000E+00         0.00000E+00
 
    0.19019E+06         0.36323E+06         0.00000E+00
    0.36323E+06        -0.54446E+08         0.00000E+00
    0.00000E+00         0.00000E+00        -0.50741E-07
 
    0.18657E+06         0.36616E+06         0.00000E+00
    0.36616E+06        -0.54608E+08         0.00000E+00
    0.00000E+00         0.00000E+00        -0.71037E-07
 
    0.18242E+06         0.36897E+06         0.00000E+00
    0.36897E+06        -0.54773E+08         0.00000E+00
    0.00000E+00         0.00000E+00         0.10148E-07
 
    0.17770E+06         0.37165E+06         0.00000E+00
    0.37165E+06        -0.54939E+08         0.00000E+00
    0.00000E+00         0.00000E+00         0.40593E-07
 
    0.17235E+06         0.37419E+06         0.00000E+00
    0.37419E+06        -0.55107E+08         0.00000E+00
    0.00000E+00         0.00000E+00         0.00000E+00
 
    0.16633E+06         0.37656E+06         0.00000E+00
    0.37656E+06        -0.55276E+08         0.00000E+00
    0.00000E+00         0.00000E+00        -0.30444E-07
 
    0.15956E+06         0.37874E+06         0.00000E+00
    0.37874E+06        -0.55448E+08         0.00000E+00
    0.00000E+00         0.00000E+00        -0.10148E-07
 
    0.15198E+06         0.38072E+06         0.00000E+00
    0.38072E+06        -0.55621E+08         0.00000E+00
    0.00000E+00         0.00000E+00         0.00000E+00
 
    0.14353E+06         0.38246E+06         0.00000E+00
    0.38246E+06        -0.55796E+08         0.00000E+00
    0.00000E+00         0.00000E+00        -0.20296E-07
 
    0.13410E+06         0.38395E+06         0.00000E+00
    0.38395E+06        -0.55973E+08         0.00000E+00
    0.00000E+00         0.00000E+00        -0.30444E-07
 
    0.12360E+06         0.38514E+06         0.00000E+00
    0.38514E+06        -0.56151E+08         0.00000E+00
    0.00000E+00         0.00000E+00        -0.71037E-07
 
    0.11193E+06         0.38600E+06         0.00000E+00
    0.38600E+06        -0.56331E+08         0.00000E+00
    0.00000E+00         0.00000E+00        -0.20296E-07
 
    0.98970E+05         0.38649E+06         0.00000E+00
    0.38649E+06        -0.56513E+08         0.00000E+00
    0.00000E+00         0.00000E+00         0.60889E-07
 
    0.84573E+05         0.38656E+06         0.00000E+00
    0.38656E+06        -0.56697E+08         0.00000E+00
    0.00000E+00         0.00000E+00         0.00000E+00
 
    0.68588E+05         0.38617E+06         0.00000E+00
    0.38617E+06        -0.56882E+08         0.00000E+00
    0.00000E+00         0.00000E+00        -0.10148E-06
 
    0.50840E+05         0.38524E+06         0.00000E+00
    0.38524E+06        -0.57069E+08         0.00000E+00
    0.00000E+00         0.00000E+00         0.00000E+00
 
    0.31130E+05         0.38372E+06         0.00000E+00
    0.38372E+06        -0.57257E+08         0.00000E+00
    0.00000E+00         0.00000E+00         0.30444E-07
 
    0.92335E+04         0.38152E+06         0.00000E+00
    0.38152E+06        -0.57447E+08         0.00000E+00
    0.00000E+00         0.00000E+00        -0.10148E-07
 
   -0.15102E+05         0.37855E+06         0.00000E+00
    0.37855E+06        -0.57638E+08         0.00000E+00
    0.00000E+00         0.00000E+00         0.10148E-07
 
   -0.42163E+05         0.37471E+06         0.00000E+00
    0.37471E+06        -0.57831E+08         0.00000E+00
    0.00000E+00         0.00000E+00         0.50741E-07
 
   -0.72273E+05         0.36989E+06         0.00000E+00
    0.36989E+06        -0.58026E+08         0.00000E+00
    0.00000E+00         0.00000E+00        -0.10148E-07
 
   -0.10579E+06         0.36394E+06         0.00000E+00
    0.36394E+06        -0.58222E+08         0.00000E+00
    0.00000E+00         0.00000E+00        -0.10148E-07
 
   -0.14313E+06         0.35673E+06         0.00000E+00
    0.35673E+06        -0.58419E+08         0.00000E+00
    0.00000E+00         0.00000E+00         0.60889E-07
 
   -0.18475E+06         0.34808E+06         0.00000E+00
    0.34808E+06        -0.58618E+08         0.00000E+00
    0.00000E+00         0.00000E+00        -0.81185E-07
 
   -0.23115E+06         0.33780E+06         0.00000E+00
    0.33780E+06        -0.58818E+08         0.00000E+00
    0.00000E+00         0.00000E+00        -0.71037E-07
 
   -0.28289E+06         0.32570E+06         0.00000E+00
    0.32570E+06        -0.59020E+08         0.00000E+00
    0.00000E+00         0.00000E+00        -0.10148E-07
 
   -0.34060E+06         0.31155E+06         0.00000E+00
    0.31155E+06        -0.59223E+08         0.00000E+00
    0.00000E+00         0.00000E+00         0.81185E-07
 
   -0.40496E+06         0.29513E+06         0.00000E+00
    0.29513E+06        -0.59427E+08         0.00000E+00
    0.00000E+00         0.00000E+00         0.60889E-07
 
   -0.47669E+06         0.27620E+06         0.00000E+00
    0.27620E+06        -0.59633E+08         0.00000E+00
    0.00000E+00         0.00000E+00        -0.60889E-07
 
   -0.55656E+06         0.25454E+06         0.00000E+00
    0.25454E+06        -0.59839E+08         0.00000E+00
    0.00000E+00         0.00000E+00         0.81185E-07
 
   -0.64537E+06         0.22995E+06         0.00000E+00
    0.22995E+06        -0.60047E+08         0.00000E+00
    0.00000E+00         0.00000E+00         0.30444E-07
 
   -0.74395E+06         0.20231E+06         0.00000E+00
    0.20231E+06        -0.60256E+08         0.00000E+00
    0.00000E+00         0.00000E+00        -0.81185E-07
 
   -0.85307E+06         0.17155E+06         0.00000E+00
    0.17155E+06        -0.60465E+08         0.00000E+00
    0.00000E+00         0.00000E+00        -0.12178E-06
 
   -0.97343E+06         0.13777E+06         0.00000E+00
    0.13777E+06        -0.60675E+08         0.00000E+00
    0.00000E+00         0.00000E+00        -0.81185E-07
 
   -0.11056E+07         0.10127E+06         0.00000E+00
    0.10127E+06        -0.60885E+08         0.00000E+00
    0.00000E+00         0.00000E+00        -0.91333E-07
 
   -0.12497E+07         0.62655E+05         0.00000E+00
    0.62655E+05        -0.61094E+08         0.00000E+00
    0.00000E+00         0.00000E+00         0.10148E-07
 
   -0.14058E+07         0.22964E+05         0.00000E+00
    0.22964E+05        -0.61303E+08         0.00000E+00
    0.00000E+00         0.00000E+00         0.60889E-07
 
   -0.15727E+07        -0.16112E+05         0.00000E+00
   -0.16112E+05        -0.61510E+08         0.00000E+00
    0.00000E+00         0.00000E+00         0.91333E-07
 
   -0.17487E+07        -0.51849E+05         0.00000E+00
   -0.51849E+05        -0.61714E+08         0.00000E+00
    0.00000E+00         0.00000E+00         0.91333E-07
 
   -0.19302E+07        -0.79705E+05         0.00000E+00
   -0.79705E+05        -0.61912E+08         0.00000E+00
    0.00000E+00         0.00000E+00        -0.10148E-07
 
   -0.21131E+07        -0.91793E+05         0.00000E+00
   -0.91793E+05        -0.62098E+08         0.00000E+00
    0.00000E+00         0.00000E+00         0.30444E-07
 
   -0.22958E+07        -0.77090E+05         0.00000E+00
   -0.77090E+05        -0.62254E+08         0.00000E+00
    0.00000E+00         0.00000E+00        -0.60889E-07
 
   -0.24853E+07        -0.30798E+05         0.00000E+00
   -0.30798E+05        -0.62347E+08         0.00000E+00
    0.00000E+00         0.00000E+00         0.50741E-07
 
    0.12495E+07        -0.14274E+05         0.00000E+00
   -0.14274E+05        -0.47709E+08         0.00000E+00
    0.00000E+00         0.00000E+00         0.00000E+00
 
    0.11614E+07        -0.34810E+05         0.00000E+00
   -0.34810E+05        -0.47756E+08         0.00000E+00
    0.00000E+00         0.00000E+00         0.71037E-07
 
    0.10762E+07        -0.39466E+05         0.00000E+00
   -0.39466E+05        -0.47831E+08         0.00000E+00
    0.00000E+00         0.00000E+00         0.20296E-07
 
    0.99075E+06        -0.31587E+05         0.00000E+00
   -0.31587E+05        -0.47919E+08         0.00000E+00
    0.00000E+00         0.00000E+00         0.12178E-06
 
    0.90651E+06        -0.16893E+05         0.00000E+00
   -0.16893E+05        -0.48012E+08         0.00000E+00
    0.00000E+00         0.00000E+00         0.71037E-07
 
    0.82582E+06         0.10122E+04         0.00000E+00
    0.10122E+04        -0.48107E+08         0.00000E+00
    0.00000E+00         0.00000E+00        -0.10148E-07
 
    0.75030E+06         0.20202E+05         0.00000E+00
    0.20202E+05        -0.48204E+08         0.00000E+00
    0.00000E+00         0.00000E+00         0.10148E-07
 
    0.68078E+06         0.39550E+05         0.00000E+00
    0.39550E+05        -0.48302E+08         0.00000E+00
    0.00000E+00         0.00000E+00        -0.10148E-07
 
    0.61758E+06         0.58367E+05         0.00000E+00
    0.58367E+05        -0.48400E+08         0.00000E+00
    0.00000E+00         0.00000E+00        -0.10148E-07
 
    0.56069E+06         0.76239E+05         0.00000E+00
    0.76239E+05        -0.48499E+08         0.00000E+00
    0.00000E+00         0.00000E+00         0.00000E+00
 
    0.50988E+06         0.92930E+05         0.00000E+00
    0.92930E+05        -0.48598E+08         0.00000E+00
    0.00000E+00         0.00000E+00        -0.10148E-07
 
    0.46482E+06         0.10833E+06         0.00000E+00
    0.10833E+06        -0.48698E+08         0.00000E+00
    0.00000E+00         0.00000E+00         0.40593E-07
 
    0.42508E+06         0.12243E+06         0.00000E+00
    0.12243E+06        -0.48798E+08         0.00000E+00
    0.00000E+00         0.00000E+00        -0.40593E-07
 
    0.39022E+06         0.13525E+06         0.00000E+00
    0.13525E+06        -0.48899E+08         0.00000E+00
    0.00000E+00         0.00000E+00         0.30444E-07
 
    0.35979E+06         0.14687E+06         0.00000E+00
    0.14687E+06        -0.49000E+08         0.00000E+00
    0.00000E+00         0.00000E+00         0.10148E-07
 
    0.33335E+06         0.15739E+06         0.00000E+00
    0.15739E+06        -0.49102E+08         0.00000E+00
    0.00000E+00         0.00000E+00        -0.10148E-07
 
    0.31048E+06         0.16690E+06         0.00000E+00
    0.16690E+06        -0.49204E+08         0.00000E+00
    0.00000E+00         0.00000E+00         0.20296E-07
 
    0.29080E+06         0.17553E+06         0.00000E+00
    0.17553E+06        -0.49307E+08         0.00000E+00
    0.00000E+00         0.00000E+00        -0.10149E-07
 
    0.27393E+06         0.18336E+06         0.00000E+00
    0.18336E+06        -0.49411E+08         0.00000E+00
    0.00000E+00         0.00000E+00         0.30444E-07
 
    0.25956E+06         0.19050E+06         0.00000E+00
    0.19050E+06        -0.49515E+08         0.00000E+00
    0.00000E+00         0.00000E+00         0.10148E-07
 
    0.24739E+06         0.19705E+06         0.00000E+00
    0.19705E+06        -0.49620E+08         0.00000E+00
    0.00000E+00         0.00000E+00        -0.71037E-07
 
    0.23715E+06         0.20307E+06         0.00000E+00
    0.20307E+06        -0.49726E+08         0.00000E+00
    0.00000E+00         0.00000E+00        -0.81185E-07
 
    0.22861E+06         0.20866E+06         0.00000E+00
    0.20866E+06        -0.49833E+08         0.00000E+00
    0.00000E+00         0.00000E+00         0.40593E-07
 
    0.22154E+06         0.21386E+06         0.00000E+00
    0.21386E+06        -0.49940E+08         0.00000E+00
    0.00000E+00         0.00000E+00        -0.10148E-07
 
    0.21577E+06         0.21874E+06         0.00000E+00
    0.21874E+06        -0.50049E+08         0.00000E+00
    0.00000E+00         0.00000E+00        -0.40592E-07
 
    0.21111E+06         0.22335E+06         0.00000E+00
    0.22335E+06        -0.50159E+08         0.00000E+00
    0.00000E+00         0.00000E+00        -0.40593E-07
 
    0.20744E+06         0.22773E+06         0.00000E+00
    0.22773E+06        -0.50270E+08         0.00000E+00
    0.00000E+00         0.00000E+00        -0.20296E-07
 
    0.20460E+06         0.23192E+06         0.00000E+00
    0.23192E+06        -0.50382E+08         0.00000E+00
    0.00000E+00         0.00000E+00         0.60889E-07
 
    0.20249E+06         0.23595E+06         0.00000E+00
    0.23595E+06        -0.50495E+08         0.00000E+00
    0.00000E+00         0.00000E+00         0.20296E-07
 
    0.20100E+06         0.23984E+06         0.00000E+00
    0.23984E+06        -0.50610E+08         0.00000E+00
    0.00000E+00         0.00000E+00         0.50740E-07
 
    0.20003E+06         0.24361E+06         0.00000E+00
    0.24361E+06        -0.50725E+08         0.00000E+00
    0.00000E+00         0.00000E+00         0.71037E-07
 
    0.19951E+06         0.24730E+06         0.00000E+00
    0.24730E+06        -0.50843E+08         0.00000E+00
    0.00000E+00         0.00000E+00         0.91333E-07
 
    0.19937E+06         0.25091E+06         0.00000E+00
    0.25091E+06        -0.50961E+08         0.00000E+00
    0.00000E+00         0.00000E+00        -0.30444E-07
 
    0.19952E+06         0.25446E+06         0.00000E+00
    0.25446E+06        -0.51081E+08         0.00000E+00
    0.00000E+00         0.00000E+00         0.20296E-07
 
    0.19993E+06         0.25796E+06         0.00000E+00
    0.25796E+06        -0.51202E+08         0.00000E+00
    0.00000E+00         0.00000E+00         0.20296E-07
 
    0.20053E+06         0.26141E+06         0.00000E+00
    0.26141E+06        -0.51325E+08         0.00000E+00
    0.00000E+00         0.00000E+00        -0.11163E-06
 
    0.20127E+06         0.26484E+06         0.00000E+00
    0.26484E+06        -0.51449E+08         0.00000E+00
    0.00000E+00         0.00000E+00         0.20296E-07
 
    0.20212E+06         0.26823E+06         0.00000E+00
    0.26823E+06        -0.51575E+08         0.00000E+00
    0.00000E+00         0.00000E+00         0.30444E-07
 
    0.20303E+06         0.27161E+06         0.00000E+00
    0.27161E+06        -0.51702E+08         0.00000E+00
    0.00000E+00         0.00000E+00         0.50741E-07
 
    0.20397E+06         0.27496E+06         0.00000E+00
    0.27496E+06        -0.51831E+08         0.00000E+00
    0.00000E+00         0.00000E+00        -0.10148E-06
 
    0.20491E+06         0.27830E+06         0.00000E+00
    0.27830E+06        -0.51962E+08         0.00000E+00
    0.00000E+00         0.00000E+00        -0.10148E-07
 
    0.20581E+06         0.28163E+06         0.00000E+00
    0.28163E+06        -0.52094E+08         0.00000E+00
    0.00000E+00         0.00000E+00        -0.10148E-07
 
    0.20664E+06         0.28495E+06         0.00000E+00
    0.28495E+06        -0.52228E+08         0.00000E+00
    0.00000E+00         0.00000E+00        -0.60889E-07
 
    0.20738E+06         0.28825E+06         0.00000E+00
    0.28825E+06        -0.52363E+08         0.00000E+00
    0.00000E+00         0.00000E+00        -0.81185E-07
 
    0.20800E+06         0.29154E+06         0.00000E+00
    0.29154E+06        -0.52501E+08         0.00000E+00
    0.00000E+00         0.00000E+00        -0.40593E-07
 
    0.20848E+06         0.29481E+06         0.00000E+00
    0.29481E+06        -0.52639E+08         0.00000E+00
    0.00000E+00         0.00000E+00        -0.10148E-07
 
    0.20879E+06         0.29807E+06         0.00000E+00
    0.29807E+06        -0.52780E+08         0.00000E+00
    0.00000E+00         0.00000E+00         0.71037E-07
 
    0.20891E+06         0.30131E+06         0.00000E+00
    0.30131E+06        -0.52923E+08         0.00000E+00
    0.00000E+00         0.00000E+00         0.81185E-07
 
    0.20882E+06         0.30453E+06         0.00000E+00
    0.30453E+06        -0.53067E+08         0.00000E+00
    0.00000E+00         0.00000E+00         0.20296E-07
 
    0.20849E+06         0.30772E+06         0.00000E+00
    0.30772E+06        -0.53213E+08         0.00000E+00
    0.00000E+00         0.00000E+00        -0.10148E-07
 
    0.20791E+06         0.31088E+06         0.00000E+00
    0.31088E+06        -0.53361E+08         0.00000E+00
    0.00000E+00         0.00000E+00         0.10148E-07
 
    0.20704E+06         0.31401E+06         0.00000E+00
    0.31401E+06        -0.53510E+08         0.00000E+00
    0.00000E+00         0.00000E+00        -0.81185E-07
 
    0.20585E+06         0.31709E+06         0.00000E+00
    0.31709E+06        -0.53662E+08         0.00000E+00
    0.00000E+00         0.00000E+00         0.20296E-07
 
    0.20434E+06         0.32012E+06         0.00000E+00
    0.32012E+06        -0.53815E+08         0.00000E+00
    0.00000E+00         0.00000E+00         0.71037E-07
 
    0.20246E+06         0.32310E+06         0.00000E+00
    0.32310E+06        -0.53970E+08         0.00000E+00
    0.00000E+00         0.00000E+00         0.10148E-07
 
    0.20018E+06         0.32602E+06         0.00000E+00
    0.32602E+06        -0.54127E+08         0.00000E+00
    0.00000E+00         0.00000E+00        -0.81185E-07
 
    0.19749E+06         0.32886E+06         0.00000E+00
    0.32886E+06        -0.54286E+08         0.00000E+00
    0.00000E+00         0.00000E+00        -0.91333E-07
 
    0.19433E+06         0.33163E+06         0.00000E+00
    0.33163E+06        -0.54446E+08         0.00000E+00
    0.00000E+00         0.00000E+00         0.10148E-07
 
    0.19068E+06         0.33429E+06         0.00000E+00
    0.33429E+06        -0.54609E+08         0.00000E+00
    0.00000E+00         0.00000E+00         0.20296E-07
 
    0.18649E+06         0.33686E+06         0.00000E+00
    0.33686E+06        -0.54773E+08         0.00000E+00
    0.00000E+00         0.00000E+00        -0.60889E-07
 
    0.18172E+06         0.33930E+06         0.00000E+00
    0.33930E+06        -0.54939E+08         0.00000E+00
    0.00000E+00         0.00000E+00         0.00000E+00
 
    0.17632E+06         0.34161E+06         0.00000E+00
    0.34161E+06        -0.55107E+08         0.00000E+00
    0.00000E+00         0.00000E+00        -0.20296E-07
 
    0.17023E+06         0.34377E+06         0.00000E+00
    0.34377E+06        -0.55277E+08         0.00000E+00
    0.00000E+00         0.00000E+00        -0.10148E-07
 
    0.16340E+06         0.34576E+06         0.00000E+00
    0.34576E+06        -0.55448E+08         0.00000E+00
    0.00000E+00         0.00000E+00         0.10148E-07
 
    0.15575E+06         0.34756E+06         0.00000E+00
    0.34756E+06        -0.55621E+08         0.00000E+00
    0.00000E+00         0.00000E+00         0.40593E-07
 
    0.14720E+06         0.34914E+06         0.00000E+00
    0.34914E+06        -0.55796E+08         0.00000E+00
    0.00000E+00         0.00000E+00         0.20296E-07
 
    0.13768E+06         0.35049E+06         0.00000E+00
    0.35049E+06        -0.55973E+08         0.00000E+00
    0.00000E+00         0.00000E+00        -0.30444E-07
 
    0.12708E+06         0.35157E+06         0.00000E+00
    0.35157E+06        -0.56151E+08         0.00000E+00
    0.00000E+00         0.00000E+00         0.30444E-07
 
    0.11529E+06         0.35235E+06         0.00000E+00
    0.35235E+06        -0.56331E+08         0.00000E+00
    0.00000E+00         0.00000E+00        -0.50741E-07
 
    0.10220E+06         0.35279E+06         0.00000E+00
    0.35279E+06        -0.56513E+08         0.00000E+00
    0.00000E+00         0.00000E+00        -0.81185E-07
 
    0.87660E+05         0.35285E+06         0.00000E+00
    0.35285E+06        -0.56697E+08         0.00000E+00
    0.00000E+00         0.00000E+00         0.20296E-07
 
    0.71517E+05         0.35248E+06         0.00000E+00
    0.35248E+06        -0.56882E+08         0.00000E+00
    0.00000E+00         0.00000E+00        -0.40593E-07
 
    0.53593E+05         0.35162E+06         0.00000E+00
    0.35162E+06        -0.57068E+08         0.00000E+00
    0.00000E+00         0.00000E+00         0.10148E-07
 
    0.33686E+05         0.35022E+06         0.00000E+00
    0.35022E+06        -0.57257E+08         0.00000E+00
    0.00000E+00         0.00000E+00         0.30444E-07
 
    0.11568E+05         0.34819E+06         0.00000E+00
    0.34819E+06        -0.57446E+08         0.00000E+00
    0.00000E+00         0.00000E+00        -0.60889E-07
 
   -0.13018E+05         0.34546E+06         0.00000E+00
    0.34546E+06        -0.57638E+08         0.00000E+00
    0.00000E+00         0.00000E+00        -0.12178E-06
 
   -0.40365E+05         0.34193E+06         0.00000E+00
    0.34193E+06        -0.57831E+08         0.00000E+00
    0.00000E+00         0.00000E+00        -0.40593E-07
 
   -0.70803E+05         0.33749E+06         0.00000E+00
    0.33749E+06        -0.58025E+08         0.00000E+00
    0.00000E+00         0.00000E+00        -0.10148E-07
 
   -0.10471E+06         0.33202E+06         0.00000E+00
    0.33202E+06        -0.58221E+08         0.00000E+00
    0.00000E+00         0.00000E+00        -0.14207E-06
 
   -0.14249E+06         0.32537E+06         0.00000E+00
    0.32537E+06        -0.58418E+08         0.00000E+00
    0.00000E+00         0.00000E+00         0.30444E-07
 
   -0.18464E+06         0.31740E+06         0.00000E+00
    0.31740E+06        -0.58616E+08         0.00000E+00
    0.00000E+00         0.00000E+00         0.30444E-07
 
   -0.23166E+06         0.30793E+06         0.00000E+00
    0.30793E+06        -0.58816E+08         0.00000E+00
    0.00000E+00         0.00000E+00        -0.50741E-07
 
   -0.28416E+06         0.29675E+06         0.00000E+00
    0.29675E+06        -0.59018E+08         0.00000E+00
    0.00000E+00         0.00000E+00        -0.20296E-07
 
   -0.34278E+06         0.28368E+06         0.00000E+00
    0.28368E+06        -0.59220E+08         0.00000E+00
    0.00000E+00         0.00000E+00         0.10148E-07
 
   -0.40823E+06         0.26849E+06         0.00000E+00
    0.26849E+06        -0.59424E+08         0.00000E+00
    0.00000E+00         0.00000E+00        -0.11163E-06
 
   -0.48127E+06         0.25096E+06         0.00000E+00
    0.25096E+06        -0.59629E+08         0.00000E+00
    0.00000E+00         0.00000E+00         0.50741E-07
 
   -0.56274E+06         0.23087E+06         0.00000E+00
    0.23087E+06        -0.59835E+08         0.00000E+00
    0.00000E+00         0.00000E+00         0.40593E-07
 
   -0.65349E+06         0.20804E+06         0.00000E+00
    0.20804E+06        -0.60042E+08         0.00000E+00
    0.00000E+00         0.00000E+00         0.00000E+00
 
   -0.75440E+06         0.18233E+06         0.00000E+00
    0.18233E+06        -0.60250E+08         0.00000E+00
    0.00000E+00         0.00000E+00        -0.81185E-07
 
   -0.86631E+06         0.15368E+06         0.00000E+00
    0.15368E+06        -0.60459E+08         0.00000E+00
    0.00000E+00         0.00000E+00         0.60889E-07
 
   -0.99000E+06         0.12216E+06         0.00000E+00
    0.12216E+06        -0.60668E+08         0.00000E+00
    0.00000E+00         0.00000E+00        -0.10148E-07
 
   -0.11261E+07         0.88020E+05         0.00000E+00
    0.88020E+05        -0.60877E+08         0.00000E+00
    0.00000E+00         0.00000E+00         0.40593E-07
 
   -0.12749E+07         0.51801E+05         0.00000E+00
    0.51801E+05        -0.61087E+08         0.00000E+00
    0.00000E+00         0.00000E+00        -0.30444E-07
 
   -0.14363E+07         0.14426E+05         0.00000E+00
    0.14426E+05        -0.61295E+08         0.00000E+00
    0.00000E+00         0.00000E+00        -0.10148E-07
 
   -0.16095E+07        -0.22591E+05         0.00000E+00
   -0.22591E+05        -0.61503E+08         0.00000E+00
    0.00000E+00         0.00000E+00         0.00000E+00
 
   -0.17924E+07        -0.56793E+05         0.00000E+00
   -0.56793E+05        -0.61708E+08         0.00000E+00
    0.00000E+00         0.00000E+00        -0.20296E-07
 
   -0.19814E+07        -0.84005E+05         0.00000E+00
   -0.84005E+05        -0.61908E+08         0.00000E+00
    0.00000E+00         0.00000E+00        -0.60889E-07
 
   -0.21713E+07        -0.96463E+05         0.00000E+00
   -0.96463E+05        -0.62097E+08         0.00000E+00
    0.00000E+00         0.00000E+00        -0.91333E-07
 
   -0.23587E+07        -0.81878E+05         0.00000E+00
   -0.81878E+05        -0.62260E+08         0.00000E+00
    0.00000E+00         0.00000E+00         0.40592E-07
 
   -0.25500E+07        -0.33062E+05         0.00000E+00
   -0.33062E+05        -0.62360E+08         0.00000E+00
    0.00000E+00         0.00000E+00        -0.20296E-07
 
    0.12815E+07        -0.15374E+05         0.00000E+00
   -0.15374E+05        -0.47704E+08         0.00000E+00
    0.00000E+00         0.00000E+00        -0.10148E-07
 
    0.11924E+07        -0.36998E+05         0.00000E+00
   -0.36998E+05        -0.47753E+08         0.00000E+00
    0.00000E+00         0.00000E+00         0.10148E-06
 
    0.11045E+07        -0.41453E+05         0.00000E+00
   -0.41453E+05        -0.47832E+08         0.00000E+00
    0.00000E+00         0.00000E+00         0.30444E-07
 
    0.10155E+07        -0.33459E+05         0.00000E+00
   -0.33459E+05        -0.47922E+08         0.00000E+00
    0.00000E+00         0.00000E+00        -0.50741E-07
 
    0.92757E+06        -0.19274E+05         0.00000E+00
   -0.19274E+05        -0.48015E+08         0.00000E+00
    0.00000E+00         0.00000E+00        -0.60889E-07
 
    0.84361E+06        -0.23333E+04         0.00000E+00
   -0.23333E+04        -0.48111E+08         0.00000E+00
    0.00000E+00         0.00000E+00        -0.50741E-07
 
    0.76526E+06         0.15642E+05         0.00000E+00
    0.15642E+05        -0.48208E+08         0.00000E+00
    0.00000E+00         0.00000E+00         0.00000E+00
 
    0.69334E+06         0.33656E+05         0.00000E+00
    0.33656E+05        -0.48305E+08         0.00000E+00
    0.00000E+00         0.00000E+00        -0.10148E-07
 
    0.62812E+06         0.51106E+05         0.00000E+00
    0.51106E+05        -0.48403E+08         0.00000E+00
    0.00000E+00         0.00000E+00        -0.10148E-07
 
    0.56957E+06         0.67630E+05         0.00000E+00
    0.67630E+05        -0.48502E+08         0.00000E+00
    0.00000E+00         0.00000E+00         0.81185E-07
 
    0.51740E+06         0.83027E+05         0.00000E+00
    0.83027E+05        -0.48601E+08         0.00000E+00
    0.00000E+00         0.00000E+00        -0.20296E-07
 
    0.47124E+06         0.97206E+05         0.00000E+00
    0.97206E+05        -0.48701E+08         0.00000E+00
    0.00000E+00         0.00000E+00         0.00000E+00
 
    0.43062E+06         0.11016E+06         0.00000E+00
    0.11016E+06        -0.48801E+08         0.00000E+00
    0.00000E+00         0.00000E+00        -0.40593E-07
 
    0.39507E+06         0.12192E+06         0.00000E+00
    0.12192E+06        -0.48901E+08         0.00000E+00
    0.00000E+00         0.00000E+00        -0.40593E-07
 
    0.36410E+06         0.13256E+06         0.00000E+00
    0.13256E+06        -0.49002E+08         0.00000E+00
    0.00000E+00         0.00000E+00         0.10148E-07
 
    0.33725E+06         0.14218E+06         0.00000E+00
    0.14218E+06        -0.49104E+08         0.00000E+00
    0.00000E+00         0.00000E+00         0.10148E-07
 
    0.31407E+06         0.15086E+06         0.00000E+00
    0.15086E+06        -0.49206E+08         0.00000E+00
    0.00000E+00         0.00000E+00         0.00000E+00
 
    0.29416E+06         0.15873E+06         0.00000E+00
    0.15873E+06        -0.49309E+08         0.00000E+00
    0.00000E+00         0.00000E+00         0.50741E-07
 
    0.27714E+06         0.16586E+06         0.00000E+00
    0.16586E+06        -0.49412E+08         0.00000E+00
    0.00000E+00         0.00000E+00         0.10148E-07
 
    0.26266E+06         0.17236E+06         0.00000E+00
    0.17236E+06        -0.49516E+08         0.00000E+00
    0.00000E+00         0.00000E+00        -0.20296E-07
 
    0.25043E+06         0.17830E+06         0.00000E+00
    0.17830E+06        -0.49621E+08         0.00000E+00
    0.00000E+00         0.00000E+00        -0.10148E-07
 
    0.24016E+06         0.18377E+06         0.00000E+00
    0.18377E+06        -0.49727E+08         0.00000E+00
    0.00000E+00         0.00000E+00         0.10148E-07
 
    0.23160E+06         0.18884E+06         0.00000E+00
    0.18884E+06        -0.49834E+08         0.00000E+00
    0.00000E+00         0.00000E+00         0.20296E-07
 
    0.22455E+06         0.19356E+06         0.00000E+00
    0.19356E+06        -0.49941E+08         0.00000E+00
    0.00000E+00         0.00000E+00        -0.81185E-07
 
    0.21880E+06         0.19798E+06         0.00000E+00
    0.19798E+06        -0.50050E+08         0.00000E+00
    0.00000E+00         0.00000E+00        -0.50741E-07
 
    0.21418E+06         0.20215E+06         0.00000E+00
    0.20215E+06        -0.50160E+08         0.00000E+00
    0.00000E+00         0.00000E+00         0.20296E-07
 
    0.21055E+06         0.20612E+06         0.00000E+00
    0.20612E+06        -0.50271E+08         0.00000E+00
    0.00000E+00         0.00000E+00         0.30444E-07
 
    0.20776E+06         0.20991E+06         0.00000E+00
    0.20991E+06        -0.50383E+08         0.00000E+00
    0.00000E+00         0.00000E+00        -0.91333E-07
 
    0.20570E+06         0.21355E+06         0.00000E+00
    0.21355E+06        -0.50496E+08         0.00000E+00
    0.00000E+00         0.00000E+00         0.00000E+00
 
    0.20427E+06         0.21707E+06         0.00000E+00
    0.21707E+06        -0.50610E+08         0.00000E+00
    0.00000E+00         0.00000E+00         0.71037E-07
 
    0.20336E+06         0.22049E+06         0.00000E+00
    0.22049E+06        -0.50726E+08         0.00000E+00
    0.00000E+00         0.00000E+00        -0.71037E-07
 
    0.20290E+06         0.22382E+06         0.00000E+00
    0.22382E+06        -0.50843E+08         0.00000E+00
    0.00000E+00         0.00000E+00         0.00000E+00
 
    0.20281E+06         0.22708E+06         0.00000E+00
    0.22708E+06        -0.50962E+08         0.00000E+00
    0.00000E+00         0.00000E+00         0.00000E+00
 
    0.20303E+06         0.23029E+06         0.00000E+00
    0.23029E+06        -0.51082E+08         0.00000E+00
    0.00000E+00         0.00000E+00         0.20296E-07
 
    0.20349E+06         0.23345E+06         0.00000E+00
    0.23345E+06        -0.51203E+08         0.00000E+00
    0.00000E+00         0.00000E+00        -0.20296E-07
 
    0.20415E+06         0.23658E+06         0.00000E+00
    0.23658E+06        -0.51326E+08         0.00000E+00
    0.00000E+00         0.00000E+00        -0.10148E-07
 
    0.20495E+06         0.23967E+06         0.00000E+00
    0.23967E+06        -0.51450E+08         0.00000E+00
    0.00000E+00         0.00000E+00         0.10148E-07
 
    0.20585E+06         0.24274E+06         0.00000E+00
    0.24274E+06        -0.51576E+08         0.00000E+00
    0.00000E+00         0.00000E+00         0.30444E-07
 
    0.20682E+06         0.24579E+06         0.00000E+00
    0.24579E+06        -0.51703E+08         0.00000E+00
    0.00000E+00         0.00000E+00         0.60889E-07
 
    0.20781E+06         0.24883E+06         0.00000E+00
    0.24883E+06        -0.51832E+08         0.00000E+00
    0.00000E+00         0.00000E+00         0.20296E-07
 
    0.20879E+06         0.25185E+06         0.00000E+00
    0.25185E+06        -0.51962E+08         0.00000E+00
    0.00000E+00         0.00000E+00         0.20296E-07
 
    0.20973E+06         0.25485E+06         0.00000E+00
    0.25485E+06        -0.52095E+08         0.00000E+00
    0.00000E+00         0.00000E+00        -0.20296E-07
 
    0.21060E+06         0.25785E+06         0.00000E+00
    0.25785E+06        -0.52228E+08         0.00000E+00
    0.00000E+00         0.00000E+00         0.20296E-07
 
    0.21138E+06         0.26083E+06         0.00000E+00
    0.26083E+06        -0.52364E+08         0.00000E+00
    0.00000E+00         0.00000E+00         0.40593E-07
 
    0.21204E+06         0.26381E+06         0.00000E+00
    0.26381E+06        -0.52501E+08         0.00000E+00
    0.00000E+00         0.00000E+00        -0.81185E-07
 
    0.21255E+06         0.26677E+06         0.00000E+00
    0.26677E+06        -0.52640E+08         0.00000E+00
    0.00000E+00         0.00000E+00         0.10148E-07
 
    0.21289E+06         0.26971E+06         0.00000E+00
    0.26971E+06        -0.52781E+08         0.00000E+00
    0.00000E+00         0.00000E+00        -0.20296E-07
 
    0.21303E+06         0.27264E+06         0.00000E+00
    0.27264E+06        -0.52923E+08         0.00000E+00
    0.00000E+00         0.00000E+00         0.10148E-07
 
    0.21296E+06         0.27555E+06         0.00000E+00
    0.27555E+06        -0.53067E+08         0.00000E+00
    0.00000E+00         0.00000E+00         0.50741E-07
 
    0.21265E+06         0.27843E+06         0.00000E+00
    0.27843E+06        -0.53213E+08         0.00000E+00
    0.00000E+00         0.00000E+00         0.00000E+00
 
    0.21207E+06         0.28129E+06         0.00000E+00
    0.28129E+06        -0.53361E+08         0.00000E+00
    0.00000E+00         0.00000E+00         0.81185E-07
 
    0.21121E+06         0.28411E+06         0.00000E+00
    0.28411E+06        -0.53511E+08         0.00000E+00
    0.00000E+00         0.00000E+00         0.30444E-07
 
    0.21003E+06         0.28690E+06         0.00000E+00
    0.28690E+06        -0.53662E+08         0.00000E+00
    0.00000E+00         0.00000E+00         0.00000E+00
 
    0.20851E+06         0.28964E+06         0.00000E+00
    0.28964E+06        -0.53816E+08         0.00000E+00
    0.00000E+00         0.00000E+00        -0.20296E-07
 
    0.20662E+06         0.29233E+06         0.00000E+00
    0.29233E+06        -0.53971E+08         0.00000E+00
    0.00000E+00         0.00000E+00         0.00000E+00
 
    0.20434E+06         0.29496E+06         0.00000E+00
    0.29496E+06        -0.54128E+08         0.00000E+00
    0.00000E+00         0.00000E+00        -0.20297E-07
 
    0.20162E+06         0.29753E+06         0.00000E+00
    0.29753E+06        -0.54286E+08         0.00000E+00
    0.00000E+00         0.00000E+00        -0.10148E-07
 
    0.19844E+06         0.30003E+06         0.00000E+00
    0.30003E+06        -0.54447E+08         0.00000E+00
    0.00000E+00         0.00000E+00        -0.10148E-07
 
    0.19476E+06         0.30244E+06         0.00000E+00
    0.30244E+06        -0.54609E+08         0.00000E+00
    0.00000E+00         0.00000E+00        -0.10148E-07
 
    0.19054E+06         0.30475E+06         0.00000E+00
    0.30475E+06        -0.54774E+08         0.00000E+00
    0.00000E+00         0.00000E+00        -0.10148E-06
 
    0.18573E+06         0.30696E+06         0.00000E+00
    0.30696E+06        -0.54940E+08         0.00000E+00
    0.00000E+00         0.00000E+00        -0.10148E-06
 
    0.18028E+06         0.30904E+06         0.00000E+00
    0.30904E+06        -0.55107E+08         0.00000E+00
    0.00000E+00         0.00000E+00         0.40593E-07
 
    0.17413E+06         0.31099E+06         0.00000E+00
    0.31099E+06        -0.55277E+08         0.00000E+00
    0.00000E+00         0.00000E+00        -0.60889E-07
 
    0.16723E+06         0.31279E+06         0.00000E+00
    0.31279E+06        -0.55448E+08         0.00000E+00
    0.00000E+00         0.00000E+00        -0.30444E-07
 
    0.15951E+06         0.31441E+06         0.00000E+00
    0.31441E+06        -0.55622E+08         0.00000E+00
    0.00000E+00         0.00000E+00         0.00000E+00
 
    0.15089E+06         0.31584E+06         0.00000E+00
    0.31584E+06        -0.55796E+08         0.00000E+00
    0.00000E+00         0.00000E+00         0.00000E+00
 
    0.14128E+06         0.31706E+06         0.00000E+00
    0.31706E+06        -0.55973E+08         0.00000E+00
    0.00000E+00         0.00000E+00         0.81185E-07
 
    0.13058E+06         0.31803E+06         0.00000E+00
    0.31803E+06        -0.56152E+08         0.00000E+00
    0.00000E+00         0.00000E+00         0.60889E-07
 
    0.11869E+06         0.31873E+06         0.00000E+00
    0.31873E+06        -0.56332E+08         0.00000E+00
    0.00000E+00         0.00000E+00         0.30444E-07
 
    0.10548E+06         0.31912E+06         0.00000E+00
    0.31912E+06        -0.56513E+08         0.00000E+00
    0.00000E+00         0.00000E+00        -0.71037E-07
 
    0.90814E+05         0.31917E+06         0.00000E+00
    0.31917E+06        -0.56697E+08         0.00000E+00
    0.00000E+00         0.00000E+00        -0.30444E-07
 
    0.74529E+05         0.31882E+06         0.00000E+00
    0.31882E+06        -0.56882E+08         0.00000E+00
    0.00000E+00         0.00000E+00        -0.60889E-07
 
    0.56446E+05         0.31804E+06         0.00000E+00
    0.31804E+06        -0.57068E+08         0.00000E+00
    0.00000E+00         0.00000E+00        -0.81185E-07
 
    0.36363E+05         0.31676E+06         0.00000E+00
    0.31676E+06        -0.57256E+08         0.00000E+00
    0.00000E+00         0.00000E+00         0.00000E+00
 
    0.14047E+05         0.31491E+06         0.00000E+00
    0.31491E+06        -0.57446E+08         0.00000E+00
    0.00000E+00         0.00000E+00         0.60888E-07
 
   -0.10764E+05         0.31242E+06         0.00000E+00
    0.31242E+06        -0.57637E+08         0.00000E+00
    0.00000E+00         0.00000E+00         0.40593E-07
 
   -0.38368E+05         0.30921E+06         0.00000E+00
    0.30921E+06        -0.57830E+08         0.00000E+00
    0.00000E+00         0.00000E+00         0.40593E-07
 
   -0.69103E+05         0.30516E+06         0.00000E+00
    0.30516E+06        -0.58024E+08         0.00000E+00
    0.00000E+00         0.00000E+00         0.20296E-07
 
   -0.10335E+06         0.30017E+06         0.00000E+00
    0.30017E+06        -0.58220E+08         0.00000E+00
    0.00000E+00         0.00000E+00         0.10148E-07
 
   -0.14154E+06         0.29411E+06         0.00000E+00
    0.29411E+06        -0.58416E+08         0.00000E+00
    0.00000E+00         0.00000E+00        -0.30444E-07
 
   -0.18417E+06         0.28684E+06         0.00000E+00
    0.28684E+06        -0.58615E+08         0.00000E+00
    0.00000E+00         0.00000E+00        -0.40593E-07
 
   -0.23178E+06         0.27818E+06         0.00000E+00
    0.27818E+06        -0.58814E+08         0.00000E+00
    0.00000E+00         0.00000E+00        -0.40593E-07
 
   -0.28497E+06         0.26797E+06         0.00000E+00
    0.26797E+06        -0.59015E+08         0.00000E+00
    0.00000E+00         0.00000E+00         0.20296E-07
 
   -0.34443E+06         0.25601E+06         0.00000E+00
    0.25601E+06        -0.59217E+08         0.00000E+00
    0.00000E+00         0.00000E+00         0.71037E-07
 
   -0.41091E+06         0.24209E+06         0.00000E+00
    0.24209E+06        -0.59421E+08         0.00000E+00
    0.00000E+00         0.00000E+00        -0.30444E-07
 
   -0.48521E+06         0.22600E+06         0.00000E+00
    0.22600E+06        -0.59625E+08         0.00000E+00
    0.00000E+00         0.00000E+00         0.10148E-07
 
   -0.56821E+06         0.20755E+06         0.00000E+00
    0.20755E+06        -0.59831E+08         0.00000E+00
    0.00000E+00         0.00000E+00        -0.20296E-07
 
   -0.66082E+06         0.18655E+06         0.00000E+00
    0.18655E+06        -0.60037E+08         0.00000E+00
    0.00000E+00         0.00000E+00        -0.30444E-07
 
   -0.76399E+06         0.16286E+06         0.00000E+00
    0.16286E+06        -0.60245E+08         0.00000E+00
    0.00000E+00         0.00000E+00        -0.40593E-07
 
   -0.87864E+06         0.13642E+06         0.00000E+00
    0.13642E+06        -0.60453E+08         0.00000E+00
    0.00000E+00         0.00000E+00        -0.10148E-07
 
   -0.10056E+07         0.10727E+06         0.00000E+00
    0.10727E+06        -0.60662E+08         0.00000E+00
    0.00000E+00         0.00000E+00        -0.20295E-07
 
   -0.11456E+07         0.75627E+05         0.00000E+00
    0.75627E+05        -0.60871E+08         0.00000E+00
    0.00000E+00         0.00000E+00        -0.81185E-07
 
   -0.12991E+07         0.41956E+05         0.00000E+00
    0.41956E+05        -0.61080E+08         0.00000E+00
    0.00000E+00         0.00000E+00        -0.12178E-06
 
   -0.14660E+07         0.70629E+04         0.00000E+00
    0.70629E+04        -0.61288E+08         0.00000E+00
    0.00000E+00         0.00000E+00         0.00000E+00
 
   -0.16456E+07        -0.27723E+05         0.00000E+00
   -0.27723E+05        -0.61496E+08         0.00000E+00
    0.00000E+00         0.00000E+00         0.10148E-07
 
   -0.18358E+07        -0.60227E+05         0.00000E+00
   -0.60227E+05        -0.61701E+08         0.00000E+00
    0.00000E+00         0.00000E+00         0.20296E-07
 
   -0.20329E+07        -0.86718E+05         0.00000E+00
   -0.86718E+05        -0.61903E+08         0.00000E+00
    0.00000E+00         0.00000E+00        -0.81185E-07
 
   -0.22307E+07        -0.99794E+05         0.00000E+00
   -0.99794E+05        -0.62097E+08         0.00000E+00
    0.00000E+00         0.00000E+00         0.40593E-07
 
   -0.24239E+07        -0.86007E+05         0.00000E+00
   -0.86007E+05        -0.62266E+08         0.00000E+00
    0.00000E+00         0.00000E+00         0.11163E-06
 
   -0.26175E+07        -0.35231E+05         0.00000E+00
   -0.35231E+05        -0.62373E+08         0.00000E+00
    0.00000E+00         0.00000E+00         0.10148E-07
 
    0.13149E+07        -0.16420E+05         0.00000E+00
   -0.16420E+05        -0.47698E+08         0.00000E+00
    0.00000E+00         0.00000E+00         0.40593E-07
 
    0.12245E+07        -0.38805E+05         0.00000E+00
   -0.38805E+05        -0.47751E+08         0.00000E+00
    0.00000E+00         0.00000E+00        -0.40593E-07
 
    0.11334E+07        -0.42715E+05         0.00000E+00
   -0.42715E+05        -0.47832E+08         0.00000E+00
    0.00000E+00         0.00000E+00         0.00000E+00
 
    0.10402E+07        -0.34533E+05         0.00000E+00
   -0.34533E+05        -0.47924E+08         0.00000E+00
    0.00000E+00         0.00000E+00         0.00000E+00
 
    0.94837E+06        -0.20933E+05         0.00000E+00
   -0.20933E+05        -0.48019E+08         0.00000E+00
    0.00000E+00         0.00000E+00        -0.50741E-07
 
    0.86097E+06        -0.50554E+04         0.00000E+00
   -0.50554E+04        -0.48114E+08         0.00000E+00
    0.00000E+00         0.00000E+00        -0.20296E-07
 
    0.77971E+06         0.11610E+05         0.00000E+00
    0.11610E+05        -0.48211E+08         0.00000E+00
    0.00000E+00         0.00000E+00        -0.30444E-07
 
    0.70535E+06         0.28205E+05         0.00000E+00
    0.28205E+05        -0.48309E+08         0.00000E+00
    0.00000E+00         0.00000E+00         0.00000E+00
 
    0.63813E+06         0.44211E+05         0.00000E+00
    0.44211E+05        -0.48407E+08         0.00000E+00
    0.00000E+00         0.00000E+00        -0.81185E-07
 
    0.57792E+06         0.59321E+05         0.00000E+00
    0.59321E+05        -0.48505E+08         0.00000E+00
    0.00000E+00         0.00000E+00        -0.10148E-07
 
    0.52442E+06         0.73365E+05         0.00000E+00
    0.73365E+05        -0.48604E+08         0.00000E+00
    0.00000E+00         0.00000E+00        -0.10148E-07
 
    0.47719E+06         0.86272E+05         0.00000E+00
    0.86272E+05        -0.48703E+08         0.00000E+00
    0.00000E+00         0.00000E+00         0.40593E-07
 
    0.43573E+06         0.98037E+05         0.00000E+00
    0.98037E+05        -0.48803E+08         0.00000E+00
    0.00000E+00         0.00000E+00        -0.20296E-07
 
    0.39952E+06         0.10870E+06         0.00000E+00
    0.10870E+06        -0.48903E+08         0.00000E+00
    0.00000E+00         0.00000E+00         0.10148E-07
 
    0.36805E+06         0.11834E+06         0.00000E+00
    0.11834E+06        -0.49004E+08         0.00000E+00
    0.00000E+00         0.00000E+00        -0.91333E-07
 
    0.34082E+06         0.12703E+06         0.00000E+00
    0.12703E+06        -0.49105E+08         0.00000E+00
    0.00000E+00         0.00000E+00         0.71037E-07
 
    0.31737E+06         0.13487E+06         0.00000E+00
    0.13487E+06        -0.49207E+08         0.00000E+00
    0.00000E+00         0.00000E+00         0.40593E-07
 
    0.29726E+06         0.14196E+06         0.00000E+00
    0.14196E+06        -0.49310E+08         0.00000E+00
    0.00000E+00         0.00000E+00         0.30444E-07
 
    0.28011E+06         0.14838E+06         0.00000E+00
    0.14838E+06        -0.49413E+08         0.00000E+00
    0.00000E+00         0.00000E+00        -0.20296E-07
 
    0.26555E+06         0.15422E+06         0.00000E+00
    0.15422E+06        -0.49517E+08         0.00000E+00
    0.00000E+00         0.00000E+00         0.00000E+00
 
    0.25327E+06         0.15957E+06         0.00000E+00
    0.15957E+06        -0.49622E+08         0.00000E+00
    0.00000E+00         0.00000E+00        -0.10148E-07
 
    0.24298E+06         0.16448E+06         0.00000E+00
    0.16448E+06        -0.49728E+08         0.00000E+00
    0.00000E+00         0.00000E+00        -0.81185E-07
 
    0.23443E+06         0.16902E+06         0.00000E+00
    0.16902E+06        -0.49835E+08         0.00000E+00
    0.00000E+00         0.00000E+00        -0.30444E-07
 
    0.22740E+06         0.17325E+06         0.00000E+00
    0.17325E+06        -0.49942E+08         0.00000E+00
    0.00000E+00         0.00000E+00        -0.81185E-07
 
    0.22169E+06         0.17721E+06         0.00000E+00
    0.17721E+06        -0.50051E+08         0.00000E+00
    0.00000E+00         0.00000E+00         0.81185E-07
 
    0.21712E+06         0.18095E+06         0.00000E+00
    0.18095E+06        -0.50161E+08         0.00000E+00
    0.00000E+00         0.00000E+00         0.00000E+00
 
    0.21354E+06         0.18450E+06         0.00000E+00
    0.18450E+06        -0.50271E+08         0.00000E+00
    0.00000E+00         0.00000E+00        -0.50741E-07
 
    0.21081E+06         0.18789E+06         0.00000E+00
    0.18789E+06        -0.50383E+08         0.00000E+00
    0.00000E+00         0.00000E+00         0.10148E-07
 
    0.20881E+06         0.19114E+06         0.00000E+00
    0.19114E+06        -0.50497E+08         0.00000E+00
    0.00000E+00         0.00000E+00         0.10148E-07
 
    0.20744E+06         0.19429E+06         0.00000E+00
    0.19429E+06        -0.50611E+08         0.00000E+00
    0.00000E+00         0.00000E+00         0.40593E-07
 
    0.20660E+06         0.19735E+06         0.00000E+00
    0.19735E+06        -0.50727E+08         0.00000E+00
    0.00000E+00         0.00000E+00         0.30444E-07
 
    0.20620E+06         0.20033E+06         0.00000E+00
    0.20033E+06        -0.50844E+08         0.00000E+00
    0.00000E+00         0.00000E+00        -0.81185E-07
 
    0.20618E+06         0.20325E+06         0.00000E+00
    0.20325E+06        -0.50962E+08         0.00000E+00
    0.00000E+00         0.00000E+00         0.10148E-07
 
    0.20646E+06         0.20611E+06         0.00000E+00
    0.20611E+06        -0.51082E+08         0.00000E+00
    0.00000E+00         0.00000E+00         0.60889E-07
 
    0.20698E+06         0.20894E+06         0.00000E+00
    0.20894E+06        -0.51203E+08         0.00000E+00
    0.00000E+00         0.00000E+00         0.81185E-07
 
    0.20770E+06         0.21173E+06         0.00000E+00
    0.21173E+06        -0.51326E+08         0.00000E+00
    0.00000E+00         0.00000E+00         0.20296E-07
 
    0.20856E+06         0.21450E+06         0.00000E+00
    0.21450E+06        -0.51450E+08         0.00000E+00
    0.00000E+00         0.00000E+00        -0.10148E-07
 
    0.20952E+06         0.21724E+06         0.00000E+00
    0.21724E+06        -0.51576E+08         0.00000E+00
    0.00000E+00         0.00000E+00         0.71037E-07
 
    0.21053E+06         0.21997E+06         0.00000E+00
    0.21997E+06        -0.51703E+08         0.00000E+00
    0.00000E+00         0.00000E+00         0.00000E+00
 
    0.21157E+06         0.22268E+06         0.00000E+00
    0.22268E+06        -0.51832E+08         0.00000E+00
    0.00000E+00         0.00000E+00         0.60889E-07
 
    0.21260E+06         0.22538E+06         0.00000E+00
    0.22538E+06        -0.51963E+08         0.00000E+00
    0.00000E+00         0.00000E+00        -0.40593E-07
 
    0.21359E+06         0.22807E+06         0.00000E+00
    0.22807E+06        -0.52095E+08         0.00000E+00
    0.00000E+00         0.00000E+00        -0.71037E-07
 
    0.21451E+06         0.23075E+06         0.00000E+00
    0.23075E+06        -0.52229E+08         0.00000E+00
    0.00000E+00         0.00000E+00         0.19281E-06
 
    0.21532E+06         0.23341E+06         0.00000E+00
    0.23341E+06        -0.52364E+08         0.00000E+00
    0.00000E+00         0.00000E+00        -0.91333E-07
 
    0.21602E+06         0.23607E+06         0.00000E+00
    0.23607E+06        -0.52502E+08         0.00000E+00
    0.00000E+00         0.00000E+00         0.30444E-07
 
    0.21656E+06         0.23872E+06         0.00000E+00
    0.23872E+06        -0.52641E+08         0.00000E+00
    0.00000E+00         0.00000E+00        -0.10148E-07
 
    0.21693E+06         0.24135E+06         0.00000E+00
    0.24135E+06        -0.52781E+08         0.00000E+00
    0.00000E+00         0.00000E+00        -0.17252E-06
 
    0.21710E+06         0.24396E+06         0.00000E+00
    0.24396E+06        -0.52924E+08         0.00000E+00
    0.00000E+00         0.00000E+00        -0.81185E-07
 
    0.21705E+06         0.24656E+06         0.00000E+00
    0.24656E+06        -0.53068E+08         0.00000E+00
    0.00000E+00         0.00000E+00         0.30444E-07
 
    0.21675E+06         0.24914E+06         0.00000E+00
    0.24914E+06        -0.53214E+08         0.00000E+00
    0.00000E+00         0.00000E+00         0.50741E-07
 
    0.21619E+06         0.25169E+06         0.00000E+00
    0.25169E+06        -0.53362E+08         0.00000E+00
    0.00000E+00         0.00000E+00         0.00000E+00
 
    0.21534E+06         0.25421E+06         0.00000E+00
    0.25421E+06        -0.53511E+08         0.00000E+00
    0.00000E+00         0.00000E+00        -0.81185E-07
 
    0.21416E+06         0.25670E+06         0.00000E+00
    0.25670E+06        -0.53663E+08         0.00000E+00
    0.00000E+00         0.00000E+00         0.20296E-07
 
    0.21264E+06         0.25915E+06         0.00000E+00
    0.25915E+06        -0.53816E+08         0.00000E+00
    0.00000E+00         0.00000E+00         0.10148E-07
 
    0.21075E+06         0.26156E+06         0.00000E+00
    0.26156E+06        -0.53971E+08         0.00000E+00
    0.00000E+00         0.00000E+00         0.20296E-07
 
    0.20845E+06         0.26391E+06         0.00000E+00
    0.26391E+06        -0.54128E+08         0.00000E+00
    0.00000E+00         0.00000E+00         0.71037E-07
 
    0.20572E+06         0.26621E+06         0.00000E+00
    0.26621E+06        -0.54287E+08         0.00000E+00
    0.00000E+00         0.00000E+00         0.40593E-07
 
    0.20252E+06         0.26843E+06         0.00000E+00
    0.26843E+06        -0.54447E+08         0.00000E+00
    0.00000E+00         0.00000E+00        -0.50741E-07
 
    0.19881E+06         0.27059E+06         0.00000E+00
    0.27059E+06        -0.54610E+08         0.00000E+00
    0.00000E+00         0.00000E+00        -0.10148E-07
 
    0.19456E+06         0.27265E+06         0.00000E+00
    0.27265E+06        -0.54774E+08         0.00000E+00
    0.00000E+00         0.00000E+00         0.20296E-07
 
    0.18971E+06         0.27462E+06         0.00000E+00
    0.27462E+06        -0.54940E+08         0.00000E+00
    0.00000E+00         0.00000E+00        -0.50741E-07
 
    0.18422E+06         0.27648E+06         0.00000E+00
    0.27648E+06        -0.55108E+08         0.00000E+00
    0.00000E+00         0.00000E+00        -0.14207E-06
 
    0.17802E+06         0.27822E+06         0.00000E+00
    0.27822E+06        -0.55277E+08         0.00000E+00
    0.00000E+00         0.00000E+00         0.00000E+00
 
    0.17107E+06         0.27983E+06         0.00000E+00
    0.27983E+06        -0.55449E+08         0.00000E+00
    0.00000E+00         0.00000E+00         0.30444E-07
 
    0.16328E+06         0.28128E+06         0.00000E+00
    0.28128E+06        -0.55622E+08         0.00000E+00
    0.00000E+00         0.00000E+00        -0.20296E-07
 
    0.15459E+06         0.28255E+06         0.00000E+00
    0.28255E+06        -0.55797E+08         0.00000E+00
    0.00000E+00         0.00000E+00         0.81185E-07
 
    0.14490E+06         0.28364E+06         0.00000E+00
    0.28364E+06        -0.55973E+08         0.00000E+00
    0.00000E+00         0.00000E+00        -0.20296E-07
 
    0.13412E+06         0.28450E+06         0.00000E+00
    0.28450E+06        -0.56152E+08         0.00000E+00
    0.00000E+00         0.00000E+00         0.20296E-07
 
    0.12213E+06         0.28512E+06         0.00000E+00
    0.28512E+06        -0.56332E+08         0.00000E+00
    0.00000E+00         0.00000E+00         0.60889E-07
 
    0.10882E+06         0.28547E+06         0.00000E+00
    0.28547E+06        -0.56513E+08         0.00000E+00
    0.00000E+00         0.00000E+00         0.13193E-06
 
    0.94036E+05         0.28551E+06         0.00000E+00
    0.28551E+06        -0.56697E+08         0.00000E+00
    0.00000E+00         0.00000E+00        -0.50741E-07
 
    0.77624E+05         0.28519E+06         0.00000E+00
    0.28519E+06        -0.56882E+08         0.00000E+00
    0.00000E+00         0.00000E+00         0.20296E-07
 
    0.59402E+05         0.28449E+06         0.00000E+00
    0.28449E+06        -0.57068E+08         0.00000E+00
    0.00000E+00         0.00000E+00        -0.50741E-07
 
    0.39162E+05         0.28333E+06         0.00000E+00
    0.28333E+06        -0.57256E+08         0.00000E+00
    0.00000E+00         0.00000E+00        -0.30444E-07
 
    0.16671E+05         0.28167E+06         0.00000E+00
    0.28167E+06        -0.57446E+08         0.00000E+00
    0.00000E+00         0.00000E+00        -0.60889E-07
 
   -0.83391E+04         0.27943E+06         0.00000E+00
    0.27943E+06        -0.57637E+08         0.00000E+00
    0.00000E+00         0.00000E+00         0.10148E-06
 
   -0.36171E+05         0.27654E+06         0.00000E+00
    0.27654E+06        -0.57829E+08         0.00000E+00
    0.00000E+00         0.00000E+00         0.81185E-07
 
   -0.67169E+05         0.27289E+06         0.00000E+00
    0.27289E+06        -0.58023E+08         0.00000E+00
    0.00000E+00         0.00000E+00        -0.12178E-06
 
   -0.10173E+06         0.26840E+06         0.00000E+00
    0.26840E+06        -0.58218E+08         0.00000E+00
    0.00000E+00         0.00000E+00         0.10148E-07
 
   -0.14028E+06         0.26294E+06         0.00000E+00
    0.26294E+06        -0.58415E+08         0.00000E+00
    0.00000E+00         0.00000E+00         0.40593E-07
 
   -0.18335E+06         0.25638E+06         0.00000E+00
    0.25638E+06        -0.58613E+08         0.00000E+00
    0.00000E+00         0.00000E+00         0.40593E-07
 
   -0.23148E+06         0.24856E+06         0.00000E+00
    0.24856E+06        -0.58813E+08         0.00000E+00
    0.00000E+00         0.00000E+00         0.91333E-07
 
   -0.28531E+06         0.23933E+06         0.00000E+00
    0.23933E+06        -0.59013E+08         0.00000E+00
    0.00000E+00         0.00000E+00        -0.40593E-07
 
   -0.34556E+06         0.22851E+06         0.00000E+00
    0.22851E+06        -0.59215E+08         0.00000E+00
    0.00000E+00         0.00000E+00        -0.20296E-07
 
   -0.41300E+06         0.21590E+06         0.00000E+00
    0.21590E+06        -0.59418E+08         0.00000E+00
    0.00000E+00         0.00000E+00         0.40593E-07
 
   -0.48848E+06         0.20131E+06         0.00000E+00
    0.20131E+06        -0.59622E+08         0.00000E+00
    0.00000E+00         0.00000E+00         0.14207E-06
 
   -0.57293E+06         0.18456E+06         0.00000E+00
    0.18456E+06        -0.59827E+08         0.00000E+00
    0.00000E+00         0.00000E+00        -0.60889E-07
 
   -0.66733E+06         0.16546E+06         0.00000E+00
    0.16546E+06        -0.60033E+08         0.00000E+00
    0.00000E+00         0.00000E+00        -0.60889E-07
 
   -0.77268E+06         0.14388E+06         0.00000E+00
    0.14388E+06        -0.60240E+08         0.00000E+00
    0.00000E+00         0.00000E+00         0.11163E-06
 
   -0.89000E+06         0.11975E+06         0.00000E+00
    0.11975E+06        -0.60448E+08         0.00000E+00
    0.00000E+00         0.00000E+00        -0.91333E-07
 
   -0.10202E+07         0.93092E+05         0.00000E+00
    0.93092E+05        -0.60656E+08         0.00000E+00
    0.00000E+00         0.00000E+00         0.40593E-07
 
   -0.11641E+07         0.64089E+05         0.00000E+00
    0.64089E+05        -0.60864E+08         0.00000E+00
    0.00000E+00         0.00000E+00        -0.50741E-07
 
   -0.13223E+07         0.33127E+05         0.00000E+00
    0.33127E+05        -0.61073E+08         0.00000E+00
    0.00000E+00         0.00000E+00         0.60889E-07
 
   -0.14948E+07         0.89710E+03         0.00000E+00
    0.89710E+03        -0.61281E+08         0.00000E+00
    0.00000E+00         0.00000E+00        -0.40593E-07
 
   -0.16809E+07        -0.31459E+05         0.00000E+00
   -0.31459E+05        -0.61489E+08         0.00000E+00
    0.00000E+00         0.00000E+00         0.81185E-07
 
   -0.18787E+07        -0.62060E+05         0.00000E+00
   -0.62060E+05        -0.61695E+08         0.00000E+00
    0.00000E+00         0.00000E+00        -0.10148E-07
 
   -0.20846E+07        -0.87676E+05         0.00000E+00
   -0.87676E+05        -0.61899E+08         0.00000E+00
    0.00000E+00         0.00000E+00        -0.50741E-07
 
   -0.22914E+07        -0.10153E+06         0.00000E+00
   -0.10153E+06        -0.62096E+08         0.00000E+00
    0.00000E+00         0.00000E+00        -0.10148E-07
 
   -0.24916E+07        -0.89299E+05         0.00000E+00
   -0.89299E+05        -0.62273E+08         0.00000E+00
    0.00000E+00         0.00000E+00         0.81185E-07
 
   -0.26882E+07        -0.37279E+05         0.00000E+00
   -0.37279E+05        -0.62387E+08         0.00000E+00
    0.00000E+00         0.00000E+00        -0.71037E-07
 
    0.13501E+07        -0.17394E+05         0.00000E+00
   -0.17394E+05        -0.47691E+08         0.00000E+00
    0.00000E+00         0.00000E+00        -0.20296E-07
 
    0.12578E+07        -0.40117E+05         0.00000E+00
   -0.40117E+05        -0.47748E+08         0.00000E+00
    0.00000E+00         0.00000E+00        -0.10148E-07
 
    0.11628E+07        -0.43114E+05         0.00000E+00
   -0.43114E+05        -0.47833E+08         0.00000E+00
    0.00000E+00         0.00000E+00         0.00000E+00
 
    0.10649E+07        -0.34726E+05         0.00000E+00
   -0.34726E+05        -0.47926E+08         0.00000E+00
    0.00000E+00         0.00000E+00        -0.71037E-07
 
    0.96882E+06        -0.21828E+05         0.00000E+00
   -0.21828E+05        -0.48022E+08         0.00000E+00
    0.00000E+00         0.00000E+00        -0.10148E-07
 
    0.87785E+06        -0.71329E+04         0.00000E+00
   -0.71329E+04        -0.48118E+08         0.00000E+00
    0.00000E+00         0.00000E+00        -0.40593E-07
 
    0.79361E+06         0.81166E+04         0.00000E+00
    0.81166E+04        -0.48214E+08         0.00000E+00
    0.00000E+00         0.00000E+00        -0.30444E-07
 
    0.71679E+06         0.23198E+05         0.00000E+00
    0.23198E+05        -0.48312E+08         0.00000E+00
    0.00000E+00         0.00000E+00        -0.10148E-07
 
    0.64756E+06         0.37680E+05         0.00000E+00
    0.37680E+05        -0.48410E+08         0.00000E+00
    0.00000E+00         0.00000E+00        -0.40593E-07
 
    0.58572E+06         0.51307E+05         0.00000E+00
    0.51307E+05        -0.48508E+08         0.00000E+00
    0.00000E+00         0.00000E+00        -0.10148E-07
 
    0.53092E+06         0.63939E+05         0.00000E+00
    0.63939E+05        -0.48607E+08         0.00000E+00
    0.00000E+00         0.00000E+00         0.30444E-07
 
    0.48266E+06         0.75524E+05         0.00000E+00
    0.75524E+05        -0.48706E+08         0.00000E+00
    0.00000E+00         0.00000E+00         0.20296E-07
 
    0.44039E+06         0.86063E+05         0.00000E+00
    0.86063E+05        -0.48805E+08         0.00000E+00
    0.00000E+00         0.00000E+00         0.30444E-07
 
    0.40357E+06         0.95599E+05         0.00000E+00
    0.95599E+05        -0.48905E+08         0.00000E+00
    0.00000E+00         0.00000E+00        -0.50741E-07
 
    0.37163E+06         0.10420E+06         0.00000E+00
    0.10420E+06        -0.49006E+08         0.00000E+00
    0.00000E+00         0.00000E+00         0.20296E-07
 
    0.34406E+06         0.11195E+06         0.00000E+00
    0.11195E+06        -0.49107E+08         0.00000E+00
    0.00000E+00         0.00000E+00        -0.50741E-07
 
    0.32036E+06         0.11893E+06         0.00000E+00
    0.11893E+06        -0.49209E+08         0.00000E+00
    0.00000E+00         0.00000E+00        -0.40593E-07
 
    0.30009E+06         0.12522E+06         0.00000E+00
    0.12522E+06        -0.49311E+08         0.00000E+00
    0.00000E+00         0.00000E+00        -0.20296E-07
 
    0.28283E+06         0.13092E+06         0.00000E+00
    0.13092E+06        -0.49414E+08         0.00000E+00
    0.00000E+00         0.00000E+00         0.20296E-07
 
    0.26821E+06         0.13610E+06         0.00000E+00
    0.13610E+06        -0.49518E+08         0.00000E+00
    0.00000E+00         0.00000E+00         0.81185E-07
 
    0.25591E+06         0.14083E+06         0.00000E+00
    0.14083E+06        -0.49623E+08         0.00000E+00
    0.00000E+00         0.00000E+00        -0.30444E-07
 
    0.24562E+06         0.14518E+06         0.00000E+00
    0.14518E+06        -0.49729E+08         0.00000E+00
    0.00000E+00         0.00000E+00         0.20296E-07
 
    0.23710E+06         0.14919E+06         0.00000E+00
    0.14919E+06        -0.49835E+08         0.00000E+00
    0.00000E+00         0.00000E+00        -0.20296E-07
 
    0.23011E+06         0.15293E+06         0.00000E+00
    0.15293E+06        -0.49943E+08         0.00000E+00
    0.00000E+00         0.00000E+00         0.10148E-06
 
    0.22445E+06         0.15643E+06         0.00000E+00
    0.15643E+06        -0.50052E+08         0.00000E+00
    0.00000E+00         0.00000E+00        -0.40593E-07
 
    0.21993E+06         0.15973E+06         0.00000E+00
    0.15973E+06        -0.50161E+08         0.00000E+00
    0.00000E+00         0.00000E+00        -0.30444E-07
 
    0.21642E+06         0.16286E+06         0.00000E+00
    0.16286E+06        -0.50272E+08         0.00000E+00
    0.00000E+00         0.00000E+00         0.71037E-07
 
    0.21375E+06         0.16585E+06         0.00000E+00
    0.16585E+06        -0.50384E+08         0.00000E+00
    0.00000E+00         0.00000E+00         0.20296E-07
 
    0.21183E+06         0.16872E+06         0.00000E+00
    0.16872E+06        -0.50497E+08         0.00000E+00
    0.00000E+00         0.00000E+00         0.20296E-07
 
    0.21052E+06         0.17150E+06         0.00000E+00
    0.17150E+06        -0.50612E+08         0.00000E+00
    0.00000E+00         0.00000E+00        -0.10148E-07
 
    0.20975E+06         0.17419E+06         0.00000E+00
    0.17419E+06        -0.50727E+08         0.00000E+00
    0.00000E+00         0.00000E+00         0.10148E-07
 
    0.20942E+06         0.17682E+06         0.00000E+00
    0.17682E+06        -0.50844E+08         0.00000E+00
    0.00000E+00         0.00000E+00         0.40593E-07
 
    0.20946E+06         0.17939E+06         0.00000E+00
    0.17939E+06        -0.50963E+08         0.00000E+00
    0.00000E+00         0.00000E+00        -0.11163E-06
 
    0.20981E+06         0.18192E+06         0.00000E+00
    0.18192E+06        -0.51083E+08         0.00000E+00
    0.00000E+00         0.00000E+00        -0.20296E-07
 
    0.21040E+06         0.18441E+06         0.00000E+00
    0.18441E+06        -0.51204E+08         0.00000E+00
    0.00000E+00         0.00000E+00         0.40593E-07
 
    0.21118E+06         0.18688E+06         0.00000E+00
    0.18688E+06        -0.51327E+08         0.00000E+00
    0.00000E+00         0.00000E+00        -0.60889E-07
 
    0.21209E+06         0.18932E+06         0.00000E+00
    0.18932E+06        -0.51451E+08         0.00000E+00
    0.00000E+00         0.00000E+00         0.10148E-07
 
    0.21311E+06         0.19173E+06         0.00000E+00
    0.19173E+06        -0.51577E+08         0.00000E+00
    0.00000E+00         0.00000E+00         0.20296E-07
 
    0.21418E+06         0.19414E+06         0.00000E+00
    0.19414E+06        -0.51704E+08         0.00000E+00
    0.00000E+00         0.00000E+00         0.60888E-07
 
    0.21528E+06         0.19653E+06         0.00000E+00
    0.19653E+06        -0.51833E+08         0.00000E+00
    0.00000E+00         0.00000E+00         0.60889E-07
 
    0.21636E+06         0.19891E+06         0.00000E+00
    0.19891E+06        -0.51963E+08         0.00000E+00
    0.00000E+00         0.00000E+00        -0.10148E-07
 
    0.21739E+06         0.20128E+06         0.00000E+00
    0.20128E+06        -0.52096E+08         0.00000E+00
    0.00000E+00         0.00000E+00         0.00000E+00
 
    0.21835E+06         0.20364E+06         0.00000E+00
    0.20364E+06        -0.52229E+08         0.00000E+00
    0.00000E+00         0.00000E+00         0.30444E-07
 
    0.21921E+06         0.20599E+06         0.00000E+00
    0.20599E+06        -0.52365E+08         0.00000E+00
    0.00000E+00         0.00000E+00        -0.10148E-07
 
    0.21994E+06         0.20833E+06         0.00000E+00
    0.20833E+06        -0.52502E+08         0.00000E+00
    0.00000E+00         0.00000E+00        -0.10148E-07
 
    0.22051E+06         0.21066E+06         0.00000E+00
    0.21066E+06        -0.52641E+08         0.00000E+00
    0.00000E+00         0.00000E+00        -0.71037E-07
 
    0.22091E+06         0.21298E+06         0.00000E+00
    0.21298E+06        -0.52782E+08         0.00000E+00
    0.00000E+00         0.00000E+00         0.00000E+00
 
    0.22111E+06         0.21529E+06         0.00000E+00
    0.21529E+06        -0.52924E+08         0.00000E+00
    0.00000E+00         0.00000E+00         0.20296E-07
 
    0.22109E+06         0.21757E+06         0.00000E+00
    0.21757E+06        -0.53068E+08         0.00000E+00
    0.00000E+00         0.00000E+00         0.71037E-07
 
    0.22081E+06         0.21985E+06         0.00000E+00
    0.21985E+06        -0.53215E+08         0.00000E+00
    0.00000E+00         0.00000E+00        -0.71037E-07
 
    0.22026E+06         0.22209E+06         0.00000E+00
    0.22209E+06        -0.53362E+08         0.00000E+00
    0.00000E+00         0.00000E+00         0.50741E-07
 
    0.21942E+06         0.22432E+06         0.00000E+00
    0.22432E+06        -0.53512E+08         0.00000E+00
    0.00000E+00         0.00000E+00         0.60889E-07
 
    0.21825E+06         0.22651E+06         0.00000E+00
    0.22651E+06        -0.53663E+08         0.00000E+00
    0.00000E+00         0.00000E+00         0.60889E-07
 
    0.21673E+06         0.22867E+06         0.00000E+00
    0.22867E+06        -0.53817E+08         0.00000E+00
    0.00000E+00         0.00000E+00         0.10148E-06
 
    0.21483E+06         0.23079E+06         0.00000E+00
    0.23079E+06        -0.53972E+08         0.00000E+00
    0.00000E+00         0.00000E+00         0.40593E-07
 
    0.21253E+06         0.23286E+06         0.00000E+00
    0.23286E+06        -0.54129E+08         0.00000E+00
    0.00000E+00         0.00000E+00        -0.40593E-07
 
    0.20979E+06         0.23488E+06         0.00000E+00
    0.23488E+06        -0.54287E+08         0.00000E+00
    0.00000E+00         0.00000E+00         0.40593E-07
 
    0.20657E+06         0.23685E+06         0.00000E+00
    0.23685E+06        -0.54448E+08         0.00000E+00
    0.00000E+00         0.00000E+00        -0.10148E-07
 
    0.20284E+06         0.23874E+06         0.00000E+00
    0.23874E+06        -0.54610E+08         0.00000E+00
    0.00000E+00         0.00000E+00        -0.71037E-07
 
    0.19856E+06         0.24056E+06         0.00000E+00
    0.24056E+06        -0.54774E+08         0.00000E+00
    0.00000E+00         0.00000E+00        -0.10148E-07
 
    0.19367E+06         0.24230E+06         0.00000E+00
    0.24230E+06        -0.54940E+08         0.00000E+00
    0.00000E+00         0.00000E+00        -0.30444E-07
 
    0.18814E+06         0.24394E+06         0.00000E+00
    0.24394E+06        -0.55108E+08         0.00000E+00
    0.00000E+00         0.00000E+00         0.81185E-07
 
    0.18190E+06         0.24547E+06         0.00000E+00
    0.24547E+06        -0.55278E+08         0.00000E+00
    0.00000E+00         0.00000E+00         0.10148E-07
 
    0.17490E+06         0.24688E+06         0.00000E+00
    0.24688E+06        -0.55449E+08         0.00000E+00
    0.00000E+00         0.00000E+00        -0.40593E-07
 
    0.16705E+06         0.24815E+06         0.00000E+00
    0.24815E+06        -0.55622E+08         0.00000E+00
    0.00000E+00         0.00000E+00        -0.50741E-07
 
    0.15830E+06         0.24928E+06         0.00000E+00
    0.24928E+06        -0.55797E+08         0.00000E+00
    0.00000E+00         0.00000E+00         0.60889E-07
 
    0.14854E+06         0.25023E+06         0.00000E+00
    0.25023E+06        -0.55974E+08         0.00000E+00
    0.00000E+00         0.00000E+00        -0.30444E-07
 
    0.13768E+06         0.25099E+06         0.00000E+00
    0.25099E+06        -0.56152E+08         0.00000E+00
    0.00000E+00         0.00000E+00         0.20296E-07
 
    0.12561E+06         0.25154E+06         0.00000E+00
    0.25154E+06        -0.56332E+08         0.00000E+00
    0.00000E+00         0.00000E+00         0.71037E-07
 
    0.11221E+06         0.25184E+06         0.00000E+00
    0.25184E+06        -0.56513E+08         0.00000E+00
    0.00000E+00         0.00000E+00        -0.71037E-07
 
    0.97327E+05         0.25187E+06         0.00000E+00
    0.25187E+06        -0.56697E+08         0.00000E+00
    0.00000E+00         0.00000E+00         0.00000E+00
 
    0.80805E+05         0.25159E+06         0.00000E+00
    0.25159E+06        -0.56881E+08         0.00000E+00
    0.00000E+00         0.00000E+00        -0.71037E-07
 
    0.62460E+05         0.25096E+06         0.00000E+00
    0.25096E+06        -0.57068E+08         0.00000E+00
    0.00000E+00         0.00000E+00        -0.30444E-07
 
    0.42085E+05         0.24994E+06         0.00000E+00
    0.24994E+06        -0.57256E+08         0.00000E+00
    0.00000E+00         0.00000E+00        -0.50741E-07
 
    0.19441E+05         0.24846E+06         0.00000E+00
    0.24846E+06        -0.57445E+08         0.00000E+00
    0.00000E+00         0.00000E+00         0.50741E-07
 
   -0.57414E+04         0.24648E+06         0.00000E+00
    0.24648E+06        -0.57636E+08         0.00000E+00
    0.00000E+00         0.00000E+00         0.10148E-07
 
   -0.33771E+05         0.24391E+06         0.00000E+00
    0.24391E+06        -0.57829E+08         0.00000E+00
    0.00000E+00         0.00000E+00         0.10148E-07
 
   -0.64999E+05         0.24068E+06         0.00000E+00
    0.24068E+06        -0.58022E+08         0.00000E+00
    0.00000E+00         0.00000E+00        -0.71037E-07
 
   -0.99826E+05         0.23669E+06         0.00000E+00
    0.23669E+06        -0.58218E+08         0.00000E+00
    0.00000E+00         0.00000E+00        -0.91333E-07
 
   -0.13871E+06         0.23184E+06         0.00000E+00
    0.23184E+06        -0.58414E+08         0.00000E+00
    0.00000E+00         0.00000E+00         0.20296E-07
 
   -0.18216E+06         0.22600E+06         0.00000E+00
    0.22600E+06        -0.58612E+08         0.00000E+00
    0.00000E+00         0.00000E+00        -0.40593E-07
 
   -0.23076E+06         0.21905E+06         0.00000E+00
    0.21905E+06        -0.58811E+08         0.00000E+00
    0.00000E+00         0.00000E+00        -0.71037E-07
 
   -0.28518E+06         0.21083E+06         0.00000E+00
    0.21083E+06        -0.59011E+08         0.00000E+00
    0.00000E+00         0.00000E+00         0.30444E-07
 
   -0.34614E+06         0.20118E+06         0.00000E+00
    0.20118E+06        -0.59213E+08         0.00000E+00
    0.00000E+00         0.00000E+00         0.91333E-07
 
   -0.41447E+06         0.18992E+06         0.00000E+00
    0.18992E+06        -0.59415E+08         0.00000E+00
    0.00000E+00         0.00000E+00         0.40593E-07
 
   -0.49106E+06         0.17688E+06         0.00000E+00
    0.17688E+06        -0.59619E+08         0.00000E+00
    0.00000E+00         0.00000E+00        -0.10148E-06
 
   -0.57688E+06         0.16188E+06         0.00000E+00
    0.16188E+06        -0.59824E+08         0.00000E+00
    0.00000E+00         0.00000E+00         0.30444E-07
 
   -0.67298E+06         0.14475E+06         0.00000E+00
    0.14475E+06        -0.60029E+08         0.00000E+00
    0.00000E+00         0.00000E+00         0.11163E-06
 
   -0.78044E+06         0.12537E+06         0.00000E+00
    0.12537E+06        -0.60236E+08         0.00000E+00
    0.00000E+00         0.00000E+00        -0.40593E-07
 
   -0.90035E+06         0.10366E+06         0.00000E+00
    0.10366E+06        -0.60443E+08         0.00000E+00
    0.00000E+00         0.00000E+00         0.30444E-07
 
   -0.10337E+07         0.79622E+05         0.00000E+00
    0.79622E+05        -0.60650E+08         0.00000E+00
    0.00000E+00         0.00000E+00         0.40593E-07
 
   -0.11815E+07         0.53403E+05         0.00000E+00
    0.53403E+05        -0.60859E+08         0.00000E+00
    0.00000E+00         0.00000E+00         0.00000E+00
 
   -0.13444E+07         0.25320E+05         0.00000E+00
    0.25320E+05        -0.61067E+08         0.00000E+00
    0.00000E+00         0.00000E+00        -0.20296E-07
 
   -0.15224E+07        -0.40494E+04         0.00000E+00
   -0.40494E+04        -0.61275E+08         0.00000E+00
    0.00000E+00         0.00000E+00         0.30444E-07
 
   -0.17153E+07        -0.33751E+05         0.00000E+00
   -0.33751E+05        -0.61483E+08         0.00000E+00
    0.00000E+00         0.00000E+00        -0.91333E-07
 
   -0.19211E+07        -0.62203E+05         0.00000E+00
   -0.62203E+05        -0.61690E+08         0.00000E+00
    0.00000E+00         0.00000E+00        -0.40593E-07
 
   -0.21363E+07        -0.86700E+05         0.00000E+00
   -0.86700E+05        -0.61895E+08         0.00000E+00
    0.00000E+00         0.00000E+00        -0.11163E-06
 
   -0.23534E+07        -0.10139E+06         0.00000E+00
   -0.10139E+06        -0.62095E+08         0.00000E+00
    0.00000E+00         0.00000E+00         0.60889E-07
 
   -0.25622E+07        -0.91507E+05         0.00000E+00
   -0.91507E+05        -0.62279E+08         0.00000E+00
    0.00000E+00         0.00000E+00         0.81185E-07
 
   -0.27628E+07        -0.39163E+05         0.00000E+00
   -0.39163E+05        -0.62401E+08         0.00000E+00
    0.00000E+00         0.00000E+00        -0.11163E-06
 
    0.13873E+07        -0.18267E+05         0.00000E+00
   -0.18267E+05        -0.47685E+08         0.00000E+00
    0.00000E+00         0.00000E+00         0.40593E-07
 
    0.12926E+07        -0.40779E+05         0.00000E+00
   -0.40779E+05        -0.47746E+08         0.00000E+00
    0.00000E+00         0.00000E+00        -0.10148E-07
 
    0.11927E+07        -0.42488E+05         0.00000E+00
   -0.42488E+05        -0.47834E+08         0.00000E+00
    0.00000E+00         0.00000E+00         0.40593E-07
 
    0.10895E+07        -0.33958E+05         0.00000E+00
   -0.33958E+05        -0.47929E+08         0.00000E+00
    0.00000E+00         0.00000E+00        -0.20296E-07
 
    0.98888E+06        -0.21923E+05         0.00000E+00
   -0.21923E+05        -0.48024E+08         0.00000E+00
    0.00000E+00         0.00000E+00        -0.30444E-07
 
    0.89419E+06        -0.85462E+04         0.00000E+00
   -0.85462E+04        -0.48121E+08         0.00000E+00
    0.00000E+00         0.00000E+00        -0.10148E-07
 
    0.80691E+06         0.51684E+04         0.00000E+00
    0.51684E+04        -0.48217E+08         0.00000E+00
    0.00000E+00         0.00000E+00        -0.20296E-07
 
    0.72762E+06         0.18636E+05         0.00000E+00
    0.18636E+05        -0.48315E+08         0.00000E+00
    0.00000E+00         0.00000E+00         0.40593E-07
 
    0.65638E+06         0.31509E+05         0.00000E+00
    0.31509E+05        -0.48412E+08         0.00000E+00
    0.00000E+00         0.00000E+00         0.60889E-07
 
    0.59295E+06         0.43581E+05         0.00000E+00
    0.43581E+05        -0.48510E+08         0.00000E+00
    0.00000E+00         0.00000E+00         0.20296E-07
 
    0.53688E+06         0.54742E+05         0.00000E+00
    0.54742E+05        -0.48609E+08         0.00000E+00
    0.00000E+00         0.00000E+00        -0.91333E-07
 
    0.48762E+06         0.64954E+05         0.00000E+00
    0.64954E+05        -0.48708E+08         0.00000E+00
    0.00000E+00         0.00000E+00        -0.10148E-07
 
    0.44460E+06         0.74225E+05         0.00000E+00
    0.74225E+05        -0.48807E+08         0.00000E+00
    0.00000E+00         0.00000E+00         0.00000E+00
 
    0.40720E+06         0.82599E+05         0.00000E+00
    0.82599E+05        -0.48907E+08         0.00000E+00
    0.00000E+00         0.00000E+00         0.10148E-07
 
    0.37484E+06         0.90138E+05         0.00000E+00
    0.90138E+05        -0.49007E+08         0.00000E+00
    0.00000E+00         0.00000E+00        -0.20296E-07
 
    0.34696E+06         0.96917E+05         0.00000E+00
    0.96917E+05        -0.49108E+08         0.00000E+00
    0.00000E+00         0.00000E+00        -0.40593E-07
 
    0.32305E+06         0.10302E+06         0.00000E+00
    0.10302E+06        -0.49210E+08         0.00000E+00
    0.00000E+00         0.00000E+00        -0.30444E-07
 
    0.30264E+06         0.10851E+06         0.00000E+00
    0.10851E+06        -0.49312E+08         0.00000E+00
    0.00000E+00         0.00000E+00        -0.71037E-07
 
    0.28530E+06         0.11348E+06         0.00000E+00
    0.11348E+06        -0.49415E+08         0.00000E+00
    0.00000E+00         0.00000E+00        -0.10148E-07
 
    0.27065E+06         0.11799E+06         0.00000E+00
    0.11799E+06        -0.49519E+08         0.00000E+00
    0.00000E+00         0.00000E+00         0.40593E-07
 
    0.25834E+06         0.12210E+06         0.00000E+00
    0.12210E+06        -0.49624E+08         0.00000E+00
    0.00000E+00         0.00000E+00        -0.81185E-07
 
    0.24808E+06         0.12588E+06         0.00000E+00
    0.12588E+06        -0.49730E+08         0.00000E+00
    0.00000E+00         0.00000E+00         0.20296E-07
 
    0.23960E+06         0.12936E+06         0.00000E+00
    0.12936E+06        -0.49836E+08         0.00000E+00
    0.00000E+00         0.00000E+00         0.10148E-07
 
    0.23266E+06         0.13260E+06         0.00000E+00
    0.13260E+06        -0.49944E+08         0.00000E+00
    0.00000E+00         0.00000E+00        -0.91333E-07
 
    0.22707E+06         0.13564E+06         0.00000E+00
    0.13564E+06        -0.50052E+08         0.00000E+00
    0.00000E+00         0.00000E+00         0.00000E+00
 
    0.22262E+06         0.13850E+06         0.00000E+00
    0.13850E+06        -0.50162E+08         0.00000E+00
    0.00000E+00         0.00000E+00         0.20296E-07
 
    0.21918E+06         0.14121E+06         0.00000E+00
    0.14121E+06        -0.50273E+08         0.00000E+00
    0.00000E+00         0.00000E+00         0.30444E-07
 
    0.21659E+06         0.14380E+06         0.00000E+00
    0.14380E+06        -0.50385E+08         0.00000E+00
    0.00000E+00         0.00000E+00        -0.10148E-07
 
    0.21474E+06         0.14629E+06         0.00000E+00
    0.14629E+06        -0.50498E+08         0.00000E+00
    0.00000E+00         0.00000E+00         0.50740E-07
 
    0.21351E+06         0.14869E+06         0.00000E+00
    0.14869E+06        -0.50612E+08         0.00000E+00
    0.00000E+00         0.00000E+00         0.00000E+00
 
    0.21281E+06         0.15103E+06         0.00000E+00
    0.15103E+06        -0.50728E+08         0.00000E+00
    0.00000E+00         0.00000E+00        -0.20296E-07
 
    0.21255E+06         0.15330E+06         0.00000E+00
    0.15330E+06        -0.50845E+08         0.00000E+00
    0.00000E+00         0.00000E+00         0.10148E-07
 
    0.21267E+06         0.15553E+06         0.00000E+00
    0.15553E+06        -0.50963E+08         0.00000E+00
    0.00000E+00         0.00000E+00         0.40593E-07
 
    0.21308E+06         0.15772E+06         0.00000E+00
    0.15772E+06        -0.51083E+08         0.00000E+00
    0.00000E+00         0.00000E+00         0.30444E-07
 
    0.21374E+06         0.15988E+06         0.00000E+00
    0.15988E+06        -0.51204E+08         0.00000E+00
    0.00000E+00         0.00000E+00         0.00000E+00
 
    0.21458E+06         0.16201E+06         0.00000E+00
    0.16201E+06        -0.51327E+08         0.00000E+00
    0.00000E+00         0.00000E+00        -0.60889E-07
 
    0.21556E+06         0.16412E+06         0.00000E+00
    0.16412E+06        -0.51451E+08         0.00000E+00
    0.00000E+00         0.00000E+00         0.71037E-07
 
    0.21664E+06         0.16621E+06         0.00000E+00
    0.16621E+06        -0.51577E+08         0.00000E+00
    0.00000E+00         0.00000E+00         0.20296E-07
 
    0.21777E+06         0.16829E+06         0.00000E+00
    0.16829E+06        -0.51704E+08         0.00000E+00
    0.00000E+00         0.00000E+00         0.40593E-07
 
    0.21892E+06         0.17036E+06         0.00000E+00
    0.17036E+06        -0.51833E+08         0.00000E+00
    0.00000E+00         0.00000E+00         0.40593E-07
 
    0.22005E+06         0.17242E+06         0.00000E+00
    0.17242E+06        -0.51964E+08         0.00000E+00
    0.00000E+00         0.00000E+00        -0.20296E-07
 
    0.22113E+06         0.17447E+06         0.00000E+00
    0.17447E+06        -0.52096E+08         0.00000E+00
    0.00000E+00         0.00000E+00         0.20296E-07
 
    0.22213E+06         0.17652E+06         0.00000E+00
    0.17652E+06        -0.52230E+08         0.00000E+00
    0.00000E+00         0.00000E+00         0.30444E-07
 
    0.22303E+06         0.17855E+06         0.00000E+00
    0.17855E+06        -0.52365E+08         0.00000E+00
    0.00000E+00         0.00000E+00         0.20296E-07
 
    0.22380E+06         0.18058E+06         0.00000E+00
    0.18058E+06        -0.52503E+08         0.00000E+00
    0.00000E+00         0.00000E+00         0.00000E+00
 
    0.22442E+06         0.18260E+06         0.00000E+00
    0.18260E+06        -0.52642E+08         0.00000E+00
    0.00000E+00         0.00000E+00        -0.50741E-07
 
    0.22485E+06         0.18460E+06         0.00000E+00
    0.18460E+06        -0.52782E+08         0.00000E+00
    0.00000E+00         0.00000E+00        -0.40593E-07
 
    0.22507E+06         0.18660E+06         0.00000E+00
    0.18660E+06        -0.52925E+08         0.00000E+00
    0.00000E+00         0.00000E+00         0.10148E-07
 
    0.22507E+06         0.18858E+06         0.00000E+00
    0.18858E+06        -0.53069E+08         0.00000E+00
    0.00000E+00         0.00000E+00         0.40593E-07
 
    0.22481E+06         0.19055E+06         0.00000E+00
    0.19055E+06        -0.53215E+08         0.00000E+00
    0.00000E+00         0.00000E+00         0.10148E-07
 
    0.22428E+06         0.19249E+06         0.00000E+00
    0.19249E+06        -0.53363E+08         0.00000E+00
    0.00000E+00         0.00000E+00        -0.40593E-07
 
    0.22345E+06         0.19442E+06         0.00000E+00
    0.19442E+06        -0.53512E+08         0.00000E+00
    0.00000E+00         0.00000E+00         0.10148E-07
 
    0.22229E+06         0.19632E+06         0.00000E+00
    0.19632E+06        -0.53664E+08         0.00000E+00
    0.00000E+00         0.00000E+00        -0.17252E-06
 
    0.22077E+06         0.19818E+06         0.00000E+00
    0.19818E+06        -0.53817E+08         0.00000E+00
    0.00000E+00         0.00000E+00         0.11163E-06
 
    0.21888E+06         0.20002E+06         0.00000E+00
    0.20002E+06        -0.53972E+08         0.00000E+00
    0.00000E+00         0.00000E+00         0.20296E-07
 
    0.21657E+06         0.20181E+06         0.00000E+00
    0.20181E+06        -0.54129E+08         0.00000E+00
    0.00000E+00         0.00000E+00         0.10148E-07
 
    0.21382E+06         0.20356E+06         0.00000E+00
    0.20356E+06        -0.54288E+08         0.00000E+00
    0.00000E+00         0.00000E+00         0.60889E-07
 
    0.21058E+06         0.20526E+06         0.00000E+00
    0.20526E+06        -0.54448E+08         0.00000E+00
    0.00000E+00         0.00000E+00         0.00000E+00
 
    0.20684E+06         0.20690E+06         0.00000E+00
    0.20690E+06        -0.54610E+08         0.00000E+00
    0.00000E+00         0.00000E+00         0.71037E-07
 
    0.20253E+06         0.20848E+06         0.00000E+00
    0.20848E+06        -0.54775E+08         0.00000E+00
    0.00000E+00         0.00000E+00        -0.50741E-07
 
    0.19762E+06         0.20998E+06         0.00000E+00
    0.20998E+06        -0.54941E+08         0.00000E+00
    0.00000E+00         0.00000E+00         0.30444E-07
 
    0.19205E+06         0.21140E+06         0.00000E+00
    0.21140E+06        -0.55108E+08         0.00000E+00
    0.00000E+00         0.00000E+00        -0.20296E-07
 
    0.18577E+06         0.21272E+06         0.00000E+00
    0.21272E+06        -0.55278E+08         0.00000E+00
    0.00000E+00         0.00000E+00         0.30444E-07
 
    0.17872E+06         0.21394E+06         0.00000E+00
    0.21394E+06        -0.55449E+08         0.00000E+00
    0.00000E+00         0.00000E+00        -0.30444E-07
 
    0.17083E+06         0.21504E+06         0.00000E+00
    0.21504E+06        -0.55622E+08         0.00000E+00
    0.00000E+00         0.00000E+00        -0.40593E-07
 
    0.16202E+06         0.21602E+06         0.00000E+00
    0.21602E+06        -0.55797E+08         0.00000E+00
    0.00000E+00         0.00000E+00        -0.10148E-07
 
    0.15220E+06         0.21684E+06         0.00000E+00
    0.21684E+06        -0.55974E+08         0.00000E+00
    0.00000E+00         0.00000E+00        -0.71037E-07
 
    0.14128E+06         0.21750E+06         0.00000E+00
    0.21750E+06        -0.56152E+08         0.00000E+00
    0.00000E+00         0.00000E+00        -0.50741E-07
 
    0.12914E+06         0.21797E+06         0.00000E+00
    0.21797E+06        -0.56332E+08         0.00000E+00
    0.00000E+00         0.00000E+00         0.60889E-07
 
    0.11566E+06         0.21823E+06         0.00000E+00
    0.21823E+06        -0.56513E+08         0.00000E+00
    0.00000E+00         0.00000E+00         0.00000E+00
 
    0.10069E+06         0.21825E+06         0.00000E+00
    0.21825E+06        -0.56697E+08         0.00000E+00
    0.00000E+00         0.00000E+00         0.00000E+00
 
    0.84070E+05         0.21801E+06         0.00000E+00
    0.21801E+06        -0.56881E+08         0.00000E+00
    0.00000E+00         0.00000E+00        -0.10148E-06
 
    0.65622E+05         0.21746E+06         0.00000E+00
    0.21746E+06        -0.57068E+08         0.00000E+00
    0.00000E+00         0.00000E+00        -0.10148E-07
 
    0.45131E+05         0.21657E+06         0.00000E+00
    0.21657E+06        -0.57256E+08         0.00000E+00
    0.00000E+00         0.00000E+00        -0.10148E-07
 
    0.22359E+05         0.21528E+06         0.00000E+00
    0.21528E+06        -0.57445E+08         0.00000E+00
    0.00000E+00         0.00000E+00        -0.60889E-07
 
   -0.29696E+04         0.21356E+06         0.00000E+00
    0.21356E+06        -0.57636E+08         0.00000E+00
    0.00000E+00         0.00000E+00         0.30444E-07
 
   -0.31167E+05         0.21132E+06         0.00000E+00
    0.21132E+06        -0.57828E+08         0.00000E+00
    0.00000E+00         0.00000E+00         0.60889E-07
 
   -0.62591E+05         0.20851E+06         0.00000E+00
    0.20851E+06        -0.58022E+08         0.00000E+00
    0.00000E+00         0.00000E+00         0.40593E-07
 
   -0.97649E+05         0.20503E+06         0.00000E+00
    0.20503E+06        -0.58217E+08         0.00000E+00
    0.00000E+00         0.00000E+00        -0.60889E-07
 
   -0.13681E+06         0.20080E+06         0.00000E+00
    0.20080E+06        -0.58413E+08         0.00000E+00
    0.00000E+00         0.00000E+00        -0.40593E-07
 
   -0.18060E+06         0.19571E+06         0.00000E+00
    0.19571E+06        -0.58611E+08         0.00000E+00
    0.00000E+00         0.00000E+00        -0.30444E-07
 
   -0.22962E+06         0.18964E+06         0.00000E+00
    0.18964E+06        -0.58809E+08         0.00000E+00
    0.00000E+00         0.00000E+00        -0.10148E-07
 
   -0.28456E+06         0.18245E+06         0.00000E+00
    0.18245E+06        -0.59010E+08         0.00000E+00
    0.00000E+00         0.00000E+00        -0.20296E-07
 
   -0.34617E+06         0.17400E+06         0.00000E+00
    0.17400E+06        -0.59211E+08         0.00000E+00
    0.00000E+00         0.00000E+00        -0.12178E-06
 
   -0.41531E+06         0.16413E+06         0.00000E+00
    0.16413E+06        -0.59413E+08         0.00000E+00
    0.00000E+00         0.00000E+00         0.20296E-06
 
   -0.49293E+06         0.15268E+06         0.00000E+00
    0.15268E+06        -0.59616E+08         0.00000E+00
    0.00000E+00         0.00000E+00        -0.30444E-07
 
   -0.58004E+06         0.13949E+06         0.00000E+00
    0.13949E+06        -0.59821E+08         0.00000E+00
    0.00000E+00         0.00000E+00        -0.20296E-07
 
   -0.67775E+06         0.12442E+06         0.00000E+00
    0.12442E+06        -0.60026E+08         0.00000E+00
    0.00000E+00         0.00000E+00         0.10148E-06
 
   -0.78723E+06         0.10732E+06         0.00000E+00
    0.10732E+06        -0.60232E+08         0.00000E+00
    0.00000E+00         0.00000E+00         0.20296E-07
 
   -0.90964E+06         0.88133E+05         0.00000E+00
    0.88133E+05        -0.60438E+08         0.00000E+00
    0.00000E+00         0.00000E+00         0.50741E-07
 
   -0.10461E+07         0.66846E+05         0.00000E+00
    0.66846E+05        -0.60646E+08         0.00000E+00
    0.00000E+00         0.00000E+00        -0.81185E-07
 
   -0.11977E+07         0.43563E+05         0.00000E+00
    0.43563E+05        -0.60853E+08         0.00000E+00
    0.00000E+00         0.00000E+00        -0.20296E-07
 
   -0.13652E+07         0.18539E+05         0.00000E+00
    0.18539E+05        -0.61061E+08         0.00000E+00
    0.00000E+00         0.00000E+00         0.40593E-07
 
   -0.15490E+07        -0.77585E+04         0.00000E+00
   -0.77585E+04        -0.61270E+08         0.00000E+00
    0.00000E+00         0.00000E+00        -0.10148E-07
 
   -0.17486E+07        -0.34557E+05         0.00000E+00
   -0.34557E+05        -0.61477E+08         0.00000E+00
    0.00000E+00         0.00000E+00         0.12178E-06
 
   -0.19628E+07        -0.60570E+05         0.00000E+00
   -0.60570E+05        -0.61685E+08         0.00000E+00
    0.00000E+00         0.00000E+00        -0.20296E-07
 
   -0.21879E+07        -0.83613E+05         0.00000E+00
   -0.83613E+05        -0.61891E+08         0.00000E+00
    0.00000E+00         0.00000E+00         0.10148E-06
 
   -0.24166E+07        -0.99010E+05         0.00000E+00
   -0.99010E+05        -0.62094E+08         0.00000E+00
    0.00000E+00         0.00000E+00        -0.91333E-07
 
   -0.26361E+07        -0.92296E+05         0.00000E+00
   -0.92296E+05        -0.62285E+08         0.00000E+00
    0.00000E+00         0.00000E+00         0.10148E-07
 
   -0.28419E+07        -0.40822E+05         0.00000E+00
   -0.40822E+05        -0.62416E+08         0.00000E+00
    0.00000E+00         0.00000E+00        -0.20297E-07
 
    0.14270E+07        -0.18996E+05         0.00000E+00
   -0.18996E+05        -0.47678E+08         0.00000E+00
    0.00000E+00         0.00000E+00         0.10148E-07
 
    0.13289E+07        -0.40574E+05         0.00000E+00
   -0.40574E+05        -0.47744E+08         0.00000E+00
    0.00000E+00         0.00000E+00        -0.20296E-07
 
    0.12230E+07        -0.40652E+05         0.00000E+00
   -0.40652E+05        -0.47836E+08         0.00000E+00
    0.00000E+00         0.00000E+00        -0.81185E-07
 
    0.11139E+07        -0.32151E+05         0.00000E+00
   -0.32151E+05        -0.47931E+08         0.00000E+00
    0.00000E+00         0.00000E+00        -0.30444E-07
 
    0.10085E+07        -0.21180E+05         0.00000E+00
   -0.21180E+05        -0.48027E+08         0.00000E+00
    0.00000E+00         0.00000E+00         0.10148E-06
 
    0.90994E+06        -0.92780E+04         0.00000E+00
   -0.92780E+04        -0.48123E+08         0.00000E+00
    0.00000E+00         0.00000E+00         0.50741E-07
 
    0.81956E+06         0.27715E+04         0.00000E+00
    0.27715E+04        -0.48220E+08         0.00000E+00
    0.00000E+00         0.00000E+00        -0.71037E-07
 
    0.73779E+06         0.14518E+05         0.00000E+00
    0.14518E+05        -0.48317E+08         0.00000E+00
    0.00000E+00         0.00000E+00         0.20296E-07
 
    0.66457E+06         0.25693E+05         0.00000E+00
    0.25693E+05        -0.48415E+08         0.00000E+00
    0.00000E+00         0.00000E+00         0.10148E-07
 
    0.59957E+06         0.36136E+05         0.00000E+00
    0.36136E+05        -0.48513E+08         0.00000E+00
    0.00000E+00         0.00000E+00         0.10148E-07
 
    0.54227E+06         0.45765E+05         0.00000E+00
    0.45765E+05        -0.48611E+08         0.00000E+00
    0.00000E+00         0.00000E+00         0.00000E+00
 
    0.49207E+06         0.54553E+05         0.00000E+00
    0.54553E+05        -0.48710E+08         0.00000E+00
    0.00000E+00         0.00000E+00         0.00000E+00
 
    0.44833E+06         0.62515E+05         0.00000E+00
    0.62515E+05        -0.48809E+08         0.00000E+00
    0.00000E+00         0.00000E+00         0.60889E-07
 
    0.41040E+06         0.69693E+05         0.00000E+00
    0.69693E+05        -0.48908E+08         0.00000E+00
    0.00000E+00         0.00000E+00        -0.71037E-07
 
    0.37765E+06         0.76144E+05         0.00000E+00
    0.76144E+05        -0.49009E+08         0.00000E+00
    0.00000E+00         0.00000E+00        -0.20296E-07
 
    0.34951E+06         0.81935E+05         0.00000E+00
    0.81935E+05        -0.49110E+08         0.00000E+00
    0.00000E+00         0.00000E+00         0.71037E-07
 
    0.32543E+06         0.87136E+05         0.00000E+00
    0.87136E+05        -0.49211E+08         0.00000E+00
    0.00000E+00         0.00000E+00         0.10148E-07
 
    0.30492E+06         0.91816E+05         0.00000E+00
    0.91816E+05        -0.49313E+08         0.00000E+00
    0.00000E+00         0.00000E+00        -0.91333E-07
 
    0.28753E+06         0.96041E+05         0.00000E+00
    0.96041E+05        -0.49416E+08         0.00000E+00
    0.00000E+00         0.00000E+00        -0.30444E-07
 
    0.27287E+06         0.99872E+05         0.00000E+00
    0.99872E+05        -0.49520E+08         0.00000E+00
    0.00000E+00         0.00000E+00         0.30444E-07
 
    0.26058E+06         0.10336E+06         0.00000E+00
    0.10336E+06        -0.49625E+08         0.00000E+00
    0.00000E+00         0.00000E+00         0.10148E-07
 
    0.25036E+06         0.10656E+06         0.00000E+00
    0.10656E+06        -0.49730E+08         0.00000E+00
    0.00000E+00         0.00000E+00        -0.20296E-07
 
    0.24194E+06         0.10952E+06         0.00000E+00
    0.10952E+06        -0.49837E+08         0.00000E+00
    0.00000E+00         0.00000E+00         0.10148E-07
 
    0.23507E+06         0.11226E+06         0.00000E+00
    0.11226E+06        -0.49944E+08         0.00000E+00
    0.00000E+00         0.00000E+00         0.20296E-07
 
    0.22955E+06         0.11483E+06         0.00000E+00
    0.11483E+06        -0.50053E+08         0.00000E+00
    0.00000E+00         0.00000E+00         0.91333E-07
 
    0.22518E+06         0.11725E+06         0.00000E+00
    0.11725E+06        -0.50162E+08         0.00000E+00
    0.00000E+00         0.00000E+00         0.30444E-07
 
    0.22182E+06         0.11955E+06         0.00000E+00
    0.11955E+06        -0.50273E+08         0.00000E+00
    0.00000E+00         0.00000E+00        -0.10148E-07
 
    0.21932E+06         0.12174E+06         0.00000E+00
    0.12174E+06        -0.50385E+08         0.00000E+00
    0.00000E+00         0.00000E+00         0.10148E-06
 
    0.21754E+06         0.12384E+06         0.00000E+00
    0.12384E+06        -0.50498E+08         0.00000E+00
    0.00000E+00         0.00000E+00         0.00000E+00
 
    0.21640E+06         0.12587E+06         0.00000E+00
    0.12587E+06        -0.50613E+08         0.00000E+00
    0.00000E+00         0.00000E+00        -0.20296E-07
 
    0.21578E+06         0.12784E+06         0.00000E+00
    0.12784E+06        -0.50728E+08         0.00000E+00
    0.00000E+00         0.00000E+00         0.10148E-07
 
    0.21560E+06         0.12977E+06         0.00000E+00
    0.12977E+06        -0.50845E+08         0.00000E+00
    0.00000E+00         0.00000E+00        -0.20296E-07
 
    0.21579E+06         0.13165E+06         0.00000E+00
    0.13165E+06        -0.50964E+08         0.00000E+00
    0.00000E+00         0.00000E+00        -0.10148E-06
 
    0.21628E+06         0.13350E+06         0.00000E+00
    0.13350E+06        -0.51084E+08         0.00000E+00
    0.00000E+00         0.00000E+00         0.10148E-07
 
    0.21701E+06         0.13532E+06         0.00000E+00
    0.13532E+06        -0.51205E+08         0.00000E+00
    0.00000E+00         0.00000E+00        -0.71037E-07
 
    0.21792E+06         0.13712E+06         0.00000E+00
    0.13712E+06        -0.51328E+08         0.00000E+00
    0.00000E+00         0.00000E+00        -0.20296E-07
 
    0.21896E+06         0.13891E+06         0.00000E+00
    0.13891E+06        -0.51452E+08         0.00000E+00
    0.00000E+00         0.00000E+00         0.30444E-07
 
    0.22010E+06         0.14068E+06         0.00000E+00
    0.14068E+06        -0.51577E+08         0.00000E+00
    0.00000E+00         0.00000E+00         0.20296E-07
 
    0.22129E+06         0.14244E+06         0.00000E+00
    0.14244E+06        -0.51705E+08         0.00000E+00
    0.00000E+00         0.00000E+00        -0.20296E-07
 
    0.22249E+06         0.14419E+06         0.00000E+00
    0.14419E+06        -0.51834E+08         0.00000E+00
    0.00000E+00         0.00000E+00         0.40593E-07
 
    0.22368E+06         0.14593E+06         0.00000E+00
    0.14593E+06        -0.51964E+08         0.00000E+00
    0.00000E+00         0.00000E+00         0.40593E-07
 
    0.22481E+06         0.14766E+06         0.00000E+00
    0.14766E+06        -0.52096E+08         0.00000E+00
    0.00000E+00         0.00000E+00        -0.71037E-07
 
    0.22586E+06         0.14939E+06         0.00000E+00
    0.14939E+06        -0.52230E+08         0.00000E+00
    0.00000E+00         0.00000E+00         0.71037E-07
 
    0.22680E+06         0.15111E+06         0.00000E+00
    0.15111E+06        -0.52366E+08         0.00000E+00
    0.00000E+00         0.00000E+00        -0.20296E-07
 
    0.22761E+06         0.15282E+06         0.00000E+00
    0.15282E+06        -0.52503E+08         0.00000E+00
    0.00000E+00         0.00000E+00        -0.20296E-07
 
    0.22826E+06         0.15453E+06         0.00000E+00
    0.15453E+06        -0.52642E+08         0.00000E+00
    0.00000E+00         0.00000E+00        -0.30444E-07
 
    0.22873E+06         0.15622E+06         0.00000E+00
    0.15622E+06        -0.52783E+08         0.00000E+00
    0.00000E+00         0.00000E+00        -0.10148E-07
 
    0.22898E+06         0.15791E+06         0.00000E+00
    0.15791E+06        -0.52925E+08         0.00000E+00
    0.00000E+00         0.00000E+00         0.00000E+00
 
    0.22900E+06         0.15959E+06         0.00000E+00
    0.15959E+06        -0.53069E+08         0.00000E+00
    0.00000E+00         0.00000E+00        -0.20296E-07
 
    0.22877E+06         0.16125E+06         0.00000E+00
    0.16125E+06        -0.53215E+08         0.00000E+00
    0.00000E+00         0.00000E+00         0.10148E-07
 
    0.22826E+06         0.16289E+06         0.00000E+00
    0.16289E+06        -0.53363E+08         0.00000E+00
    0.00000E+00         0.00000E+00         0.15222E-06
 
    0.22744E+06         0.16452E+06         0.00000E+00
    0.16452E+06        -0.53513E+08         0.00000E+00
    0.00000E+00         0.00000E+00        -0.91333E-07
 
    0.22629E+06         0.16612E+06         0.00000E+00
    0.16612E+06        -0.53664E+08         0.00000E+00
    0.00000E+00         0.00000E+00        -0.20296E-07
 
    0.22478E+06         0.16770E+06         0.00000E+00
    0.16770E+06        -0.53817E+08         0.00000E+00
    0.00000E+00         0.00000E+00         0.10148E-07
 
    0.22288E+06         0.16925E+06         0.00000E+00
    0.16925E+06        -0.53972E+08         0.00000E+00
    0.00000E+00         0.00000E+00         0.71037E-07
 
    0.22057E+06         0.17077E+06         0.00000E+00
    0.17077E+06        -0.54129E+08         0.00000E+00
    0.00000E+00         0.00000E+00        -0.17252E-06
 
    0.21781E+06         0.17224E+06         0.00000E+00
    0.17224E+06        -0.54288E+08         0.00000E+00
    0.00000E+00         0.00000E+00         0.81185E-07
 
    0.21457E+06         0.17368E+06         0.00000E+00
    0.17368E+06        -0.54448E+08         0.00000E+00
    0.00000E+00         0.00000E+00        -0.40593E-07
 
    0.21080E+06         0.17506E+06         0.00000E+00
    0.17506E+06        -0.54611E+08         0.00000E+00
    0.00000E+00         0.00000E+00        -0.10148E-07
 
    0.20648E+06         0.17640E+06         0.00000E+00
    0.17640E+06        -0.54775E+08         0.00000E+00
    0.00000E+00         0.00000E+00        -0.50741E-07
 
    0.20154E+06         0.17766E+06         0.00000E+00
    0.17766E+06        -0.54941E+08         0.00000E+00
    0.00000E+00         0.00000E+00        -0.50741E-07
 
    0.19595E+06         0.17886E+06         0.00000E+00
    0.17886E+06        -0.55109E+08         0.00000E+00
    0.00000E+00         0.00000E+00         0.20296E-07
 
    0.18964E+06         0.17998E+06         0.00000E+00
    0.17998E+06        -0.55278E+08         0.00000E+00
    0.00000E+00         0.00000E+00         0.10148E-07
 
    0.18255E+06         0.18101E+06         0.00000E+00
    0.18101E+06        -0.55449E+08         0.00000E+00
    0.00000E+00         0.00000E+00         0.20296E-07
 
    0.17462E+06         0.18194E+06         0.00000E+00
    0.18194E+06        -0.55623E+08         0.00000E+00
    0.00000E+00         0.00000E+00         0.15222E-06
 
    0.16576E+06         0.18277E+06         0.00000E+00
    0.18277E+06        -0.55797E+08         0.00000E+00
    0.00000E+00         0.00000E+00        -0.10148E-07
 
    0.15589E+06         0.18346E+06         0.00000E+00
    0.18346E+06        -0.55974E+08         0.00000E+00
    0.00000E+00         0.00000E+00        -0.10148E-07
 
    0.14491E+06         0.18402E+06         0.00000E+00
    0.18402E+06        -0.56152E+08         0.00000E+00
    0.00000E+00         0.00000E+00        -0.30444E-07
 
    0.13271E+06         0.18441E+06         0.00000E+00
    0.18441E+06        -0.56332E+08         0.00000E+00
    0.00000E+00         0.00000E+00         0.71037E-07
 
    0.11916E+06         0.18463E+06         0.00000E+00
    0.18463E+06        -0.56513E+08         0.00000E+00
    0.00000E+00         0.00000E+00         0.60889E-07
 
    0.10412E+06         0.18465E+06         0.00000E+00
    0.18465E+06        -0.56697E+08         0.00000E+00
    0.00000E+00         0.00000E+00        -0.20296E-07
 
    0.87421E+05         0.18444E+06         0.00000E+00
    0.18444E+06        -0.56881E+08         0.00000E+00
    0.00000E+00         0.00000E+00         0.00000E+00
 
    0.68887E+05         0.18398E+06         0.00000E+00
    0.18398E+06        -0.57068E+08         0.00000E+00
    0.00000E+00         0.00000E+00         0.30444E-07
 
    0.48303E+05         0.18322E+06         0.00000E+00
    0.18322E+06        -0.57255E+08         0.00000E+00
    0.00000E+00         0.00000E+00        -0.40593E-07
 
    0.25425E+05         0.18213E+06         0.00000E+00
    0.18213E+06        -0.57445E+08         0.00000E+00
    0.00000E+00         0.00000E+00         0.12178E-06
 
   -0.22535E+02         0.18067E+06         0.00000E+00
    0.18067E+06        -0.57635E+08         0.00000E+00
    0.00000E+00         0.00000E+00        -0.13193E-06
 
   -0.28357E+05         0.17877E+06         0.00000E+00
    0.17877E+06        -0.57828E+08         0.00000E+00
    0.00000E+00         0.00000E+00        -0.30444E-07
 
   -0.59942E+05         0.17638E+06         0.00000E+00
    0.17638E+06        -0.58021E+08         0.00000E+00
    0.00000E+00         0.00000E+00         0.20296E-07
 
   -0.95193E+05         0.17342E+06         0.00000E+00
    0.17342E+06        -0.58216E+08         0.00000E+00
    0.00000E+00         0.00000E+00         0.40593E-07
 
   -0.13459E+06         0.16982E+06         0.00000E+00
    0.16982E+06        -0.58412E+08         0.00000E+00
    0.00000E+00         0.00000E+00         0.10148E-07
 
   -0.17866E+06         0.16549E+06         0.00000E+00
    0.16549E+06        -0.58610E+08         0.00000E+00
    0.00000E+00         0.00000E+00         0.30444E-07
 
   -0.22805E+06         0.16031E+06         0.00000E+00
    0.16031E+06        -0.58808E+08         0.00000E+00
    0.00000E+00         0.00000E+00         0.00000E+00
 
   -0.28344E+06         0.15417E+06         0.00000E+00
    0.15417E+06        -0.59008E+08         0.00000E+00
    0.00000E+00         0.00000E+00         0.17252E-06
 
   -0.34563E+06         0.14695E+06         0.00000E+00
    0.14695E+06        -0.59209E+08         0.00000E+00
    0.00000E+00         0.00000E+00        -0.40593E-07
 
   -0.41551E+06         0.13851E+06         0.00000E+00
    0.13851E+06        -0.59411E+08         0.00000E+00
    0.00000E+00         0.00000E+00        -0.71037E-07
 
   -0.49406E+06         0.12871E+06         0.00000E+00
    0.12871E+06        -0.59614E+08         0.00000E+00
    0.00000E+00         0.00000E+00        -0.40593E-07
 
   -0.58237E+06         0.11739E+06         0.00000E+00
    0.11739E+06        -0.59818E+08         0.00000E+00
    0.00000E+00         0.00000E+00        -0.81184E-07
 
   -0.68161E+06         0.10443E+06         0.00000E+00
    0.10443E+06        -0.60023E+08         0.00000E+00
    0.00000E+00         0.00000E+00        -0.20296E-07
 
   -0.79300E+06         0.89711E+05         0.00000E+00
    0.89711E+05        -0.60228E+08         0.00000E+00
    0.00000E+00         0.00000E+00        -0.12178E-06
 
   -0.91783E+06         0.73156E+05         0.00000E+00
    0.73156E+05        -0.60435E+08         0.00000E+00
    0.00000E+00         0.00000E+00        -0.60889E-07
 
   -0.10573E+07         0.54749E+05         0.00000E+00
    0.54749E+05        -0.60642E+08         0.00000E+00
    0.00000E+00         0.00000E+00        -0.30444E-07
 
   -0.12127E+07         0.34559E+05         0.00000E+00
    0.34559E+05        -0.60849E+08         0.00000E+00
    0.00000E+00         0.00000E+00         0.40593E-07
 
   -0.13848E+07         0.12782E+05         0.00000E+00
    0.12782E+05        -0.61057E+08         0.00000E+00
    0.00000E+00         0.00000E+00         0.40593E-07
 
   -0.15742E+07        -0.10216E+05         0.00000E+00
   -0.10216E+05        -0.61265E+08         0.00000E+00
    0.00000E+00         0.00000E+00        -0.40593E-07
 
   -0.17809E+07        -0.33836E+05         0.00000E+00
   -0.33836E+05        -0.61472E+08         0.00000E+00
    0.00000E+00         0.00000E+00         0.91333E-07
 
   -0.20035E+07        -0.57084E+05         0.00000E+00
   -0.57084E+05        -0.61680E+08         0.00000E+00
    0.00000E+00         0.00000E+00        -0.40593E-07
 
   -0.22392E+07        -0.78250E+05         0.00000E+00
   -0.78250E+05        -0.61887E+08         0.00000E+00
    0.00000E+00         0.00000E+00         0.30444E-07
 
   -0.24809E+07        -0.93997E+05         0.00000E+00
   -0.93997E+05        -0.62092E+08         0.00000E+00
    0.00000E+00         0.00000E+00         0.71037E-07
 
   -0.27134E+07        -0.91201E+05         0.00000E+00
   -0.91201E+05        -0.62289E+08         0.00000E+00
    0.00000E+00         0.00000E+00         0.50741E-07
 
   -0.29266E+07        -0.42164E+05         0.00000E+00
   -0.42164E+05        -0.62431E+08         0.00000E+00
    0.00000E+00         0.00000E+00         0.20296E-07
 
    0.14697E+07        -0.19513E+05         0.00000E+00
   -0.19513E+05        -0.47671E+08         0.00000E+00
    0.00000E+00         0.00000E+00        -0.20296E-07
 
    0.13669E+07        -0.39199E+05         0.00000E+00
   -0.39199E+05        -0.47742E+08         0.00000E+00
    0.00000E+00         0.00000E+00        -0.10148E-07
 
    0.12535E+07        -0.37405E+05         0.00000E+00
   -0.37405E+05        -0.47837E+08         0.00000E+00
    0.00000E+00         0.00000E+00         0.20296E-07
 
    0.11379E+07        -0.29242E+05         0.00000E+00
   -0.29242E+05        -0.47933E+08         0.00000E+00
    0.00000E+00         0.00000E+00        -0.40593E-07
 
    0.10275E+07        -0.19569E+05         0.00000E+00
   -0.19569E+05        -0.48029E+08         0.00000E+00
    0.00000E+00         0.00000E+00        -0.10148E-07
 
    0.92502E+06        -0.93140E+04         0.00000E+00
   -0.93140E+04        -0.48125E+08         0.00000E+00
    0.00000E+00         0.00000E+00        -0.20296E-07
 
    0.83151E+06         0.92960E+03         0.00000E+00
    0.92960E+03        -0.48222E+08         0.00000E+00
    0.00000E+00         0.00000E+00         0.20296E-07
 
    0.74726E+06         0.10843E+05         0.00000E+00
    0.10843E+05        -0.48319E+08         0.00000E+00
    0.00000E+00         0.00000E+00         0.20296E-07
 
    0.67209E+06         0.20227E+05         0.00000E+00
    0.20227E+05        -0.48417E+08         0.00000E+00
    0.00000E+00         0.00000E+00        -0.71037E-07
 
    0.60556E+06         0.28965E+05         0.00000E+00
    0.28965E+05        -0.48514E+08         0.00000E+00
    0.00000E+00         0.00000E+00         0.50741E-07
 
    0.54708E+06         0.36998E+05         0.00000E+00
    0.36998E+05        -0.48613E+08         0.00000E+00
    0.00000E+00         0.00000E+00        -0.10148E-07
 
    0.49598E+06         0.44313E+05         0.00000E+00
    0.44313E+05        -0.48711E+08         0.00000E+00
    0.00000E+00         0.00000E+00         0.20296E-07
 
    0.45157E+06         0.50925E+05         0.00000E+00
    0.50925E+05        -0.48810E+08         0.00000E+00
    0.00000E+00         0.00000E+00        -0.20296E-07
 
    0.41316E+06         0.56873E+05         0.00000E+00
    0.56873E+05        -0.48910E+08         0.00000E+00
    0.00000E+00         0.00000E+00        -0.30444E-07
 
    0.38008E+06         0.62210E+05         0.00000E+00
    0.62210E+05        -0.49010E+08         0.00000E+00
    0.00000E+00         0.00000E+00        -0.40593E-07
 
    0.35171E+06         0.66992E+05         0.00000E+00
    0.66992E+05        -0.49111E+08         0.00000E+00
    0.00000E+00         0.00000E+00         0.10148E-07
 
    0.32749E+06         0.71280E+05         0.00000E+00
    0.71280E+05        -0.49212E+08         0.00000E+00
    0.00000E+00         0.00000E+00         0.00000E+00
 
    0.30691E+06         0.75133E+05         0.00000E+00
    0.75133E+05        -0.49314E+08         0.00000E+00
    0.00000E+00         0.00000E+00        -0.10148E-07
 
    0.28950E+06         0.78607E+05         0.00000E+00
    0.78607E+05        -0.49417E+08         0.00000E+00
    0.00000E+00         0.00000E+00        -0.60889E-07
 
    0.27486E+06         0.81753E+05         0.00000E+00
    0.81753E+05        -0.49521E+08         0.00000E+00
    0.00000E+00         0.00000E+00        -0.71037E-07
 
    0.26262E+06         0.84617E+05         0.00000E+00
    0.84617E+05        -0.49625E+08         0.00000E+00
    0.00000E+00         0.00000E+00        -0.50741E-07
 
    0.25246E+06         0.87241E+05         0.00000E+00
    0.87241E+05        -0.49731E+08         0.00000E+00
    0.00000E+00         0.00000E+00         0.20296E-07
 
    0.24411E+06         0.89661E+05         0.00000E+00
    0.89661E+05        -0.49837E+08         0.00000E+00
    0.00000E+00         0.00000E+00        -0.10148E-07
 
    0.23733E+06         0.91907E+05         0.00000E+00
    0.91907E+05        -0.49945E+08         0.00000E+00
    0.00000E+00         0.00000E+00         0.40593E-07
 
    0.23189E+06         0.94008E+05         0.00000E+00
    0.94008E+05        -0.50053E+08         0.00000E+00
    0.00000E+00         0.00000E+00         0.00000E+00
 
    0.22762E+06         0.95987E+05         0.00000E+00
    0.95987E+05        -0.50163E+08         0.00000E+00
    0.00000E+00         0.00000E+00         0.60889E-07
 
    0.22435E+06         0.97863E+05         0.00000E+00
    0.97863E+05        -0.50273E+08         0.00000E+00
    0.00000E+00         0.00000E+00         0.20296E-07
 
    0.22193E+06         0.99653E+05         0.00000E+00
    0.99653E+05        -0.50385E+08         0.00000E+00
    0.00000E+00         0.00000E+00        -0.10148E-07
 
    0.22025E+06         0.10137E+06         0.00000E+00
    0.10137E+06        -0.50499E+08         0.00000E+00
    0.00000E+00         0.00000E+00         0.40593E-07
 
    0.21919E+06         0.10303E+06         0.00000E+00
    0.10303E+06        -0.50613E+08         0.00000E+00
    0.00000E+00         0.00000E+00         0.10148E-07
 
    0.21866E+06         0.10464E+06         0.00000E+00
    0.10464E+06        -0.50729E+08         0.00000E+00
    0.00000E+00         0.00000E+00         0.40593E-07
 
    0.21856E+06         0.10622E+06         0.00000E+00
    0.10622E+06        -0.50846E+08         0.00000E+00
    0.00000E+00         0.00000E+00        -0.13193E-06
 
    0.21883E+06         0.10775E+06         0.00000E+00
    0.10775E+06        -0.50964E+08         0.00000E+00
    0.00000E+00         0.00000E+00         0.81185E-07
 
    0.21940E+06         0.10927E+06         0.00000E+00
    0.10927E+06        -0.51084E+08         0.00000E+00
    0.00000E+00         0.00000E+00         0.30444E-07
 
    0.22020E+06         0.11076E+06         0.00000E+00
    0.11076E+06        -0.51205E+08         0.00000E+00
    0.00000E+00         0.00000E+00         0.30444E-07
 
    0.22118E+06         0.11223E+06         0.00000E+00
    0.11223E+06        -0.51328E+08         0.00000E+00
    0.00000E+00         0.00000E+00        -0.20296E-07
 
    0.22229E+06         0.11369E+06         0.00000E+00
    0.11369E+06        -0.51452E+08         0.00000E+00
    0.00000E+00         0.00000E+00         0.20296E-07
 
    0.22350E+06         0.11513E+06         0.00000E+00
    0.11513E+06        -0.51578E+08         0.00000E+00
    0.00000E+00         0.00000E+00         0.10148E-07
 
    0.22475E+06         0.11657E+06         0.00000E+00
    0.11657E+06        -0.51705E+08         0.00000E+00
    0.00000E+00         0.00000E+00         0.91333E-07
 
    0.22601E+06         0.11800E+06         0.00000E+00
    0.11800E+06        -0.51834E+08         0.00000E+00
    0.00000E+00         0.00000E+00         0.20296E-07
 
    0.22724E+06         0.11942E+06         0.00000E+00
    0.11942E+06        -0.51965E+08         0.00000E+00
    0.00000E+00         0.00000E+00         0.10148E-07
 
    0.22843E+06         0.12084E+06         0.00000E+00
    0.12084E+06        -0.52097E+08         0.00000E+00
    0.00000E+00         0.00000E+00        -0.10148E-07
 
    0.22953E+06         0.12225E+06         0.00000E+00
    0.12225E+06        -0.52231E+08         0.00000E+00
    0.00000E+00         0.00000E+00        -0.20296E-07
 
    0.23052E+06         0.12366E+06         0.00000E+00
    0.12366E+06        -0.52366E+08         0.00000E+00
    0.00000E+00         0.00000E+00         0.30444E-07
 
    0.23137E+06         0.12506E+06         0.00000E+00
    0.12506E+06        -0.52503E+08         0.00000E+00
    0.00000E+00         0.00000E+00        -0.40592E-07
 
    0.23205E+06         0.12645E+06         0.00000E+00
    0.12645E+06        -0.52642E+08         0.00000E+00
    0.00000E+00         0.00000E+00        -0.12178E-06
 
    0.23255E+06         0.12784E+06         0.00000E+00
    0.12784E+06        -0.52783E+08         0.00000E+00
    0.00000E+00         0.00000E+00        -0.10148E-07
 
    0.23284E+06         0.12921E+06         0.00000E+00
    0.12921E+06        -0.52925E+08         0.00000E+00
    0.00000E+00         0.00000E+00         0.50741E-07
 
    0.23289E+06         0.13058E+06         0.00000E+00
    0.13058E+06        -0.53070E+08         0.00000E+00
    0.00000E+00         0.00000E+00        -0.20296E-07
 
    0.23268E+06         0.13194E+06         0.00000E+00
    0.13194E+06        -0.53216E+08         0.00000E+00
    0.00000E+00         0.00000E+00         0.40593E-07
 
    0.23218E+06         0.13328E+06         0.00000E+00
    0.13328E+06        -0.53363E+08         0.00000E+00
    0.00000E+00         0.00000E+00        -0.30444E-07
 
    0.23138E+06         0.13461E+06         0.00000E+00
    0.13461E+06        -0.53513E+08         0.00000E+00
    0.00000E+00         0.00000E+00        -0.13193E-06
 
    0.23024E+06         0.13592E+06         0.00000E+00
    0.13592E+06        -0.53664E+08         0.00000E+00
    0.00000E+00         0.00000E+00         0.00000E+00
 
    0.22874E+06         0.13721E+06         0.00000E+00
    0.13721E+06        -0.53818E+08         0.00000E+00
    0.00000E+00         0.00000E+00         0.91333E-07
 
    0.22685E+06         0.13848E+06         0.00000E+00
    0.13848E+06        -0.53973E+08         0.00000E+00
    0.00000E+00         0.00000E+00        -0.81185E-07
 
    0.22454E+06         0.13972E+06         0.00000E+00
    0.13972E+06        -0.54130E+08         0.00000E+00
    0.00000E+00         0.00000E+00        -0.20296E-07
 
    0.22177E+06         0.14093E+06         0.00000E+00
    0.14093E+06        -0.54288E+08         0.00000E+00
    0.00000E+00         0.00000E+00        -0.40593E-07
 
    0.21852E+06         0.14210E+06         0.00000E+00
    0.14210E+06        -0.54449E+08         0.00000E+00
    0.00000E+00         0.00000E+00         0.16237E-06
 
    0.21475E+06         0.14323E+06         0.00000E+00
    0.14323E+06        -0.54611E+08         0.00000E+00
    0.00000E+00         0.00000E+00        -0.10148E-07
 
    0.21040E+06         0.14432E+06         0.00000E+00
    0.14432E+06        -0.54775E+08         0.00000E+00
    0.00000E+00         0.00000E+00         0.10148E-07
 
    0.20545E+06         0.14535E+06         0.00000E+00
    0.14535E+06        -0.54941E+08         0.00000E+00
    0.00000E+00         0.00000E+00         0.00000E+00
 
    0.19983E+06         0.14633E+06         0.00000E+00
    0.14633E+06        -0.55109E+08         0.00000E+00
    0.00000E+00         0.00000E+00        -0.20296E-07
 
    0.19349E+06         0.14725E+06         0.00000E+00
    0.14725E+06        -0.55278E+08         0.00000E+00
    0.00000E+00         0.00000E+00        -0.40593E-07
 
    0.18637E+06         0.14809E+06         0.00000E+00
    0.14809E+06        -0.55450E+08         0.00000E+00
    0.00000E+00         0.00000E+00        -0.20296E-07
 
    0.17840E+06         0.14885E+06         0.00000E+00
    0.14885E+06        -0.55623E+08         0.00000E+00
    0.00000E+00         0.00000E+00        -0.10148E-07
 
    0.16951E+06         0.14952E+06         0.00000E+00
    0.14952E+06        -0.55797E+08         0.00000E+00
    0.00000E+00         0.00000E+00        -0.50741E-07
 
    0.15959E+06         0.15009E+06         0.00000E+00
    0.15009E+06        -0.55974E+08         0.00000E+00
    0.00000E+00         0.00000E+00        -0.11163E-06
 
    0.14857E+06         0.15054E+06         0.00000E+00
    0.15054E+06        -0.56152E+08         0.00000E+00
    0.00000E+00         0.00000E+00         0.40593E-07
 
    0.13632E+06         0.15087E+06         0.00000E+00
    0.15087E+06        -0.56332E+08         0.00000E+00
    0.00000E+00         0.00000E+00        -0.40593E-07
 
    0.12271E+06         0.15105E+06         0.00000E+00
    0.15105E+06        -0.56513E+08         0.00000E+00
    0.00000E+00         0.00000E+00         0.00000E+00
 
    0.10761E+06         0.15106E+06         0.00000E+00
    0.15106E+06        -0.56696E+08         0.00000E+00
    0.00000E+00         0.00000E+00        -0.20296E-07
 
    0.90858E+05         0.15089E+06         0.00000E+00
    0.15089E+06        -0.56881E+08         0.00000E+00
    0.00000E+00         0.00000E+00        -0.30444E-07
 
    0.72257E+05         0.15051E+06         0.00000E+00
    0.15051E+06        -0.57067E+08         0.00000E+00
    0.00000E+00         0.00000E+00         0.71037E-07
 
    0.51599E+05         0.14989E+06         0.00000E+00
    0.14989E+06        -0.57255E+08         0.00000E+00
    0.00000E+00         0.00000E+00        -0.30444E-07
 
    0.28640E+05         0.14900E+06         0.00000E+00
    0.14900E+06        -0.57444E+08         0.00000E+00
    0.00000E+00         0.00000E+00         0.20296E-07
 
    0.31007E+04         0.14780E+06         0.00000E+00
    0.14780E+06        -0.57635E+08         0.00000E+00
    0.00000E+00         0.00000E+00        -0.12178E-06
 
   -0.25340E+05         0.14624E+06         0.00000E+00
    0.14624E+06        -0.57827E+08         0.00000E+00
    0.00000E+00         0.00000E+00        -0.10148E-07
 
   -0.57050E+05         0.14428E+06         0.00000E+00
    0.14428E+06        -0.58021E+08         0.00000E+00
    0.00000E+00         0.00000E+00         0.20296E-07
 
   -0.92454E+05         0.14185E+06         0.00000E+00
    0.14185E+06        -0.58215E+08         0.00000E+00
    0.00000E+00         0.00000E+00        -0.15222E-06
 
   -0.13204E+06         0.13889E+06         0.00000E+00
    0.13889E+06        -0.58411E+08         0.00000E+00
    0.00000E+00         0.00000E+00        -0.10148E-07
 
   -0.17635E+06         0.13532E+06         0.00000E+00
    0.13532E+06        -0.58609E+08         0.00000E+00
    0.00000E+00         0.00000E+00        -0.50741E-07
 
   -0.22604E+06         0.13106E+06         0.00000E+00
    0.13106E+06        -0.58807E+08         0.00000E+00
    0.00000E+00         0.00000E+00        -0.20296E-07
 
   -0.28182E+06         0.12600E+06         0.00000E+00
    0.12600E+06        -0.59007E+08         0.00000E+00
    0.00000E+00         0.00000E+00        -0.71037E-07
 
   -0.34451E+06         0.12003E+06         0.00000E+00
    0.12003E+06        -0.59208E+08         0.00000E+00
    0.00000E+00         0.00000E+00        -0.60889E-07
 
   -0.41505E+06         0.11305E+06         0.00000E+00
    0.11305E+06        -0.59409E+08         0.00000E+00
    0.00000E+00         0.00000E+00         0.20296E-07
 
   -0.49445E+06         0.10493E+06         0.00000E+00
    0.10493E+06        -0.59612E+08         0.00000E+00
    0.00000E+00         0.00000E+00         0.40593E-07
 
   -0.58386E+06         0.95544E+05         0.00000E+00
    0.95544E+05        -0.59816E+08         0.00000E+00
    0.00000E+00         0.00000E+00         0.10148E-07
 
   -0.68452E+06         0.84775E+05         0.00000E+00
    0.84775E+05        -0.60020E+08         0.00000E+00
    0.00000E+00         0.00000E+00        -0.40593E-07
 
   -0.79773E+06         0.72521E+05         0.00000E+00
    0.72521E+05        -0.60225E+08         0.00000E+00
    0.00000E+00         0.00000E+00         0.13193E-06
 
   -0.92486E+06         0.58709E+05         0.00000E+00
    0.58709E+05        -0.60431E+08         0.00000E+00
    0.00000E+00         0.00000E+00        -0.91333E-07
 
   -0.10673E+07         0.43314E+05         0.00000E+00
    0.43314E+05        -0.60638E+08         0.00000E+00
    0.00000E+00         0.00000E+00         0.30444E-07
 
   -0.12263E+07         0.26380E+05         0.00000E+00
    0.26380E+05        -0.60845E+08         0.00000E+00
    0.00000E+00         0.00000E+00         0.30444E-07
 
   -0.14030E+07         0.80479E+04         0.00000E+00
    0.80479E+04        -0.61053E+08         0.00000E+00
    0.00000E+00         0.00000E+00        -0.30444E-07
 
   -0.15981E+07        -0.11413E+05         0.00000E+00
   -0.11413E+05        -0.61260E+08         0.00000E+00
    0.00000E+00         0.00000E+00        -0.10148E-07
 
   -0.18118E+07        -0.31556E+05         0.00000E+00
   -0.31556E+05        -0.61468E+08         0.00000E+00
    0.00000E+00         0.00000E+00        -0.10148E-07
 
   -0.20433E+07        -0.51674E+05         0.00000E+00
   -0.51674E+05        -0.61676E+08         0.00000E+00
    0.00000E+00         0.00000E+00         0.12178E-06
 
   -0.22900E+07        -0.70468E+05         0.00000E+00
   -0.70468E+05        -0.61883E+08         0.00000E+00
    0.00000E+00         0.00000E+00        -0.30444E-07
 
   -0.25459E+07        -0.85916E+05         0.00000E+00
   -0.85916E+05        -0.62089E+08         0.00000E+00
    0.00000E+00         0.00000E+00        -0.10148E-07
 
   -0.27945E+07        -0.87572E+05         0.00000E+00
   -0.87572E+05        -0.62293E+08         0.00000E+00
    0.00000E+00         0.00000E+00         0.13193E-06
 
   -0.30180E+07        -0.43040E+05         0.00000E+00
   -0.43040E+05        -0.62447E+08         0.00000E+00
    0.00000E+00         0.00000E+00        -0.10148E-07
 
    0.15162E+07        -0.19704E+05         0.00000E+00
   -0.19704E+05        -0.47664E+08         0.00000E+00
    0.00000E+00         0.00000E+00        -0.10148E-07
 
    0.14065E+07        -0.36227E+05         0.00000E+00
   -0.36227E+05        -0.47742E+08         0.00000E+00
    0.00000E+00         0.00000E+00         0.20296E-07
 
    0.12841E+07        -0.32547E+05         0.00000E+00
   -0.32547E+05        -0.47838E+08         0.00000E+00
    0.00000E+00         0.00000E+00        -0.10148E-07
 
    0.11615E+07        -0.25181E+05         0.00000E+00
   -0.25181E+05        -0.47934E+08         0.00000E+00
    0.00000E+00         0.00000E+00        -0.60888E-07
 
    0.10459E+07        -0.17058E+05         0.00000E+00
   -0.17058E+05        -0.48031E+08         0.00000E+00
    0.00000E+00         0.00000E+00        -0.30444E-07
 
    0.93937E+06        -0.86437E+04         0.00000E+00
   -0.86437E+04        -0.48127E+08         0.00000E+00
    0.00000E+00         0.00000E+00         0.30444E-07
 
    0.84272E+06        -0.35603E+03         0.00000E+00
   -0.35603E+03        -0.48224E+08         0.00000E+00
    0.00000E+00         0.00000E+00         0.10148E-07
 
    0.75600E+06         0.76051E+04         0.00000E+00
    0.76051E+04        -0.48321E+08         0.00000E+00
    0.00000E+00         0.00000E+00        -0.10148E-07
 
    0.67890E+06         0.15103E+05         0.00000E+00
    0.15103E+05        -0.48418E+08         0.00000E+00
    0.00000E+00         0.00000E+00         0.60889E-07
 
    0.61089E+06         0.22058E+05         0.00000E+00
    0.22058E+05        -0.48516E+08         0.00000E+00
    0.00000E+00         0.00000E+00        -0.81185E-07
 
    0.55128E+06         0.28433E+05         0.00000E+00
    0.28433E+05        -0.48614E+08         0.00000E+00
    0.00000E+00         0.00000E+00        -0.40593E-07
 
    0.49934E+06         0.34222E+05         0.00000E+00
    0.34222E+05        -0.48712E+08         0.00000E+00
    0.00000E+00         0.00000E+00        -0.40593E-07
 
    0.45431E+06         0.39443E+05         0.00000E+00
    0.39443E+05        -0.48811E+08         0.00000E+00
    0.00000E+00         0.00000E+00         0.00000E+00
 
    0.41547E+06         0.44130E+05         0.00000E+00
    0.44130E+05        -0.48911E+08         0.00000E+00
    0.00000E+00         0.00000E+00        -0.30444E-07
 
    0.38209E+06         0.48326E+05         0.00000E+00
    0.48326E+05        -0.49011E+08         0.00000E+00
    0.00000E+00         0.00000E+00         0.40593E-07
 
    0.35355E+06         0.52080E+05         0.00000E+00
    0.52080E+05        -0.49111E+08         0.00000E+00
    0.00000E+00         0.00000E+00         0.20296E-07
 
    0.32923E+06         0.55441E+05         0.00000E+00
    0.55441E+05        -0.49213E+08         0.00000E+00
    0.00000E+00         0.00000E+00        -0.10148E-07
 
    0.30861E+06         0.58456E+05         0.00000E+00
    0.58456E+05        -0.49315E+08         0.00000E+00
    0.00000E+00         0.00000E+00         0.20296E-07
 
    0.29122E+06         0.61170E+05         0.00000E+00
    0.61170E+05        -0.49418E+08         0.00000E+00
    0.00000E+00         0.00000E+00         0.60889E-07
 
    0.27662E+06         0.63625E+05         0.00000E+00
    0.63625E+05        -0.49521E+08         0.00000E+00
    0.00000E+00         0.00000E+00        -0.50741E-07
 
    0.26445E+06         0.65858E+05         0.00000E+00
    0.65858E+05        -0.49626E+08         0.00000E+00
    0.00000E+00         0.00000E+00        -0.10148E-07
 
    0.25437E+06         0.67902E+05         0.00000E+00
    0.67902E+05        -0.49731E+08         0.00000E+00
    0.00000E+00         0.00000E+00         0.20296E-07
 
    0.24612E+06         0.69785E+05         0.00000E+00
    0.69785E+05        -0.49838E+08         0.00000E+00
    0.00000E+00         0.00000E+00         0.91333E-07
 
    0.23943E+06         0.71532E+05         0.00000E+00
    0.71532E+05        -0.49945E+08         0.00000E+00
    0.00000E+00         0.00000E+00         0.20296E-07
 
    0.23410E+06         0.73166E+05         0.00000E+00
    0.73166E+05        -0.50054E+08         0.00000E+00
    0.00000E+00         0.00000E+00         0.50741E-07
 
    0.22993E+06         0.74703E+05         0.00000E+00
    0.74703E+05        -0.50163E+08         0.00000E+00
    0.00000E+00         0.00000E+00         0.00000E+00
 
    0.22676E+06         0.76161E+05         0.00000E+00
    0.76161E+05        -0.50274E+08         0.00000E+00
    0.00000E+00         0.00000E+00         0.20296E-07
 
    0.22445E+06         0.77552E+05         0.00000E+00
    0.77552E+05        -0.50386E+08         0.00000E+00
    0.00000E+00         0.00000E+00        -0.50741E-07
 
    0.22286E+06         0.78887E+05         0.00000E+00
    0.78887E+05        -0.50499E+08         0.00000E+00
    0.00000E+00         0.00000E+00         0.12178E-06
 
    0.22190E+06         0.80177E+05         0.00000E+00
    0.80177E+05        -0.50613E+08         0.00000E+00
    0.00000E+00         0.00000E+00         0.13193E-06
 
    0.22145E+06         0.81428E+05         0.00000E+00
    0.81428E+05        -0.50729E+08         0.00000E+00
    0.00000E+00         0.00000E+00         0.40593E-07
 
    0.22144E+06         0.82649E+05         0.00000E+00
    0.82649E+05        -0.50846E+08         0.00000E+00
    0.00000E+00         0.00000E+00        -0.20296E-07
 
    0.22180E+06         0.83844E+05         0.00000E+00
    0.83844E+05        -0.50964E+08         0.00000E+00
    0.00000E+00         0.00000E+00        -0.11163E-06
 
    0.22244E+06         0.85018E+05         0.00000E+00
    0.85018E+05        -0.51084E+08         0.00000E+00
    0.00000E+00         0.00000E+00         0.20296E-07
 
    0.22332E+06         0.86175E+05         0.00000E+00
    0.86175E+05        -0.51205E+08         0.00000E+00
    0.00000E+00         0.00000E+00        -0.20296E-07
 
    0.22437E+06         0.87318E+05         0.00000E+00
    0.87318E+05        -0.51328E+08         0.00000E+00
    0.00000E+00         0.00000E+00        -0.13193E-06
 
    0.22556E+06         0.88451E+05         0.00000E+00
    0.88451E+05        -0.51452E+08         0.00000E+00
    0.00000E+00         0.00000E+00        -0.71037E-07
 
    0.22682E+06         0.89575E+05         0.00000E+00
    0.89575E+05        -0.51578E+08         0.00000E+00
    0.00000E+00         0.00000E+00        -0.10148E-06
 
    0.22814E+06         0.90691E+05         0.00000E+00
    0.90691E+05        -0.51705E+08         0.00000E+00
    0.00000E+00         0.00000E+00        -0.91333E-07
 
    0.22946E+06         0.91801E+05         0.00000E+00
    0.91801E+05        -0.51834E+08         0.00000E+00
    0.00000E+00         0.00000E+00        -0.20296E-07
 
    0.23075E+06         0.92906E+05         0.00000E+00
    0.92906E+05        -0.51965E+08         0.00000E+00
    0.00000E+00         0.00000E+00         0.00000E+00
 
    0.23199E+06         0.94007E+05         0.00000E+00
    0.94007E+05        -0.52097E+08         0.00000E+00
    0.00000E+00         0.00000E+00        -0.40593E-07
 
    0.23314E+06         0.95103E+05         0.00000E+00
    0.95103E+05        -0.52231E+08         0.00000E+00
    0.00000E+00         0.00000E+00         0.10148E-07
 
    0.23417E+06         0.96195E+05         0.00000E+00
    0.96195E+05        -0.52366E+08         0.00000E+00
    0.00000E+00         0.00000E+00         0.40593E-07
 
    0.23506E+06         0.97282E+05         0.00000E+00
    0.97282E+05        -0.52504E+08         0.00000E+00
    0.00000E+00         0.00000E+00         0.50741E-07
 
    0.23579E+06         0.98365E+05         0.00000E+00
    0.98365E+05        -0.52642E+08         0.00000E+00
    0.00000E+00         0.00000E+00         0.50741E-07
 
    0.23632E+06         0.99442E+05         0.00000E+00
    0.99442E+05        -0.52783E+08         0.00000E+00
    0.00000E+00         0.00000E+00         0.81185E-07
 
    0.23664E+06         0.10051E+06         0.00000E+00
    0.10051E+06        -0.52926E+08         0.00000E+00
    0.00000E+00         0.00000E+00        -0.20296E-07
 
    0.23672E+06         0.10158E+06         0.00000E+00
    0.10158E+06        -0.53070E+08         0.00000E+00
    0.00000E+00         0.00000E+00         0.10148E-07
 
    0.23653E+06         0.10263E+06         0.00000E+00
    0.10263E+06        -0.53216E+08         0.00000E+00
    0.00000E+00         0.00000E+00         0.40593E-07
 
    0.23606E+06         0.10367E+06         0.00000E+00
    0.10367E+06        -0.53364E+08         0.00000E+00
    0.00000E+00         0.00000E+00         0.50741E-07
 
    0.23527E+06         0.10471E+06         0.00000E+00
    0.10471E+06        -0.53513E+08         0.00000E+00
    0.00000E+00         0.00000E+00        -0.91333E-07
 
    0.23415E+06         0.10572E+06         0.00000E+00
    0.10572E+06        -0.53665E+08         0.00000E+00
    0.00000E+00         0.00000E+00        -0.40593E-07
 
    0.23266E+06         0.10673E+06         0.00000E+00
    0.10673E+06        -0.53818E+08         0.00000E+00
    0.00000E+00         0.00000E+00         0.50741E-07
 
    0.23077E+06         0.10771E+06         0.00000E+00
    0.10771E+06        -0.53973E+08         0.00000E+00
    0.00000E+00         0.00000E+00         0.60889E-07
 
    0.22847E+06         0.10867E+06         0.00000E+00
    0.10867E+06        -0.54130E+08         0.00000E+00
    0.00000E+00         0.00000E+00        -0.40593E-07
 
    0.22570E+06         0.10961E+06         0.00000E+00
    0.10961E+06        -0.54288E+08         0.00000E+00
    0.00000E+00         0.00000E+00        -0.40593E-07
 
    0.22245E+06         0.11052E+06         0.00000E+00
    0.11052E+06        -0.54449E+08         0.00000E+00
    0.00000E+00         0.00000E+00         0.10148E-06
 
    0.21866E+06         0.11140E+06         0.00000E+00
    0.11140E+06        -0.54611E+08         0.00000E+00
    0.00000E+00         0.00000E+00        -0.60889E-07
 
    0.21431E+06         0.11225E+06         0.00000E+00
    0.11225E+06        -0.54775E+08         0.00000E+00
    0.00000E+00         0.00000E+00         0.00000E+00
 
    0.20933E+06         0.11305E+06         0.00000E+00
    0.11305E+06        -0.54941E+08         0.00000E+00
    0.00000E+00         0.00000E+00         0.40593E-07
 
    0.20370E+06         0.11381E+06         0.00000E+00
    0.11381E+06        -0.55109E+08         0.00000E+00
    0.00000E+00         0.00000E+00        -0.30444E-07
 
    0.19734E+06         0.11452E+06         0.00000E+00
    0.11452E+06        -0.55278E+08         0.00000E+00
    0.00000E+00         0.00000E+00         0.20296E-07
 
    0.19019E+06         0.11518E+06         0.00000E+00
    0.11518E+06        -0.55450E+08         0.00000E+00
    0.00000E+00         0.00000E+00        -0.91333E-07
 
    0.18219E+06         0.11577E+06         0.00000E+00
    0.11577E+06        -0.55623E+08         0.00000E+00
    0.00000E+00         0.00000E+00         0.14207E-06
 
    0.17327E+06         0.11629E+06         0.00000E+00
    0.11629E+06        -0.55798E+08         0.00000E+00
    0.00000E+00         0.00000E+00        -0.50741E-07
 
    0.16332E+06         0.11673E+06         0.00000E+00
    0.11673E+06        -0.55974E+08         0.00000E+00
    0.00000E+00         0.00000E+00        -0.40593E-07
 
    0.15226E+06         0.11708E+06         0.00000E+00
    0.11708E+06        -0.56152E+08         0.00000E+00
    0.00000E+00         0.00000E+00         0.30444E-07
 
    0.13997E+06         0.11733E+06         0.00000E+00
    0.11733E+06        -0.56332E+08         0.00000E+00
    0.00000E+00         0.00000E+00        -0.40593E-07
 
    0.12632E+06         0.11747E+06         0.00000E+00
    0.11747E+06        -0.56513E+08         0.00000E+00
    0.00000E+00         0.00000E+00        -0.71037E-07
 
    0.11118E+06         0.11749E+06         0.00000E+00
    0.11749E+06        -0.56696E+08         0.00000E+00
    0.00000E+00         0.00000E+00        -0.20296E-07
 
    0.94380E+05         0.11735E+06         0.00000E+00
    0.11735E+06        -0.56881E+08         0.00000E+00
    0.00000E+00         0.00000E+00         0.81185E-07
 
    0.75731E+05         0.11706E+06         0.00000E+00
    0.11706E+06        -0.57067E+08         0.00000E+00
    0.00000E+00         0.00000E+00        -0.40593E-07
 
    0.55021E+05         0.11658E+06         0.00000E+00
    0.11658E+06        -0.57255E+08         0.00000E+00
    0.00000E+00         0.00000E+00         0.20296E-07
 
    0.32005E+05         0.11588E+06         0.00000E+00
    0.11588E+06        -0.57444E+08         0.00000E+00
    0.00000E+00         0.00000E+00        -0.30444E-07
 
    0.64007E+04         0.11495E+06         0.00000E+00
    0.11495E+06        -0.57635E+08         0.00000E+00
    0.00000E+00         0.00000E+00         0.40593E-07
 
   -0.22115E+05         0.11373E+06         0.00000E+00
    0.11373E+06        -0.57827E+08         0.00000E+00
    0.00000E+00         0.00000E+00        -0.10147E-07
 
   -0.53915E+05         0.11220E+06         0.00000E+00
    0.11220E+06        -0.58020E+08         0.00000E+00
    0.00000E+00         0.00000E+00         0.12178E-06
 
   -0.89430E+05         0.11031E+06         0.00000E+00
    0.11031E+06        -0.58215E+08         0.00000E+00
    0.00000E+00         0.00000E+00         0.91333E-07
 
   -0.12915E+06         0.10800E+06         0.00000E+00
    0.10800E+06        -0.58411E+08         0.00000E+00
    0.00000E+00         0.00000E+00         0.10148E-06
 
   -0.17365E+06         0.10521E+06         0.00000E+00
    0.10521E+06        -0.58608E+08         0.00000E+00
    0.00000E+00         0.00000E+00        -0.91333E-07
 
   -0.22358E+06         0.10187E+06         0.00000E+00
    0.10187E+06        -0.58806E+08         0.00000E+00
    0.00000E+00         0.00000E+00         0.20296E-07
 
   -0.27968E+06         0.97901E+05         0.00000E+00
    0.97901E+05        -0.59006E+08         0.00000E+00
    0.00000E+00         0.00000E+00         0.40593E-07
 
   -0.34281E+06         0.93222E+05         0.00000E+00
    0.93222E+05        -0.59206E+08         0.00000E+00
    0.00000E+00         0.00000E+00         0.30444E-07
 
   -0.41392E+06         0.87734E+05         0.00000E+00
    0.87734E+05        -0.59408E+08         0.00000E+00
    0.00000E+00         0.00000E+00         0.40593E-07
 
   -0.49408E+06         0.81340E+05         0.00000E+00
    0.81340E+05        -0.59611E+08         0.00000E+00
    0.00000E+00         0.00000E+00         0.71037E-07
 
   -0.58449E+06         0.73938E+05         0.00000E+00
    0.73938E+05        -0.59814E+08         0.00000E+00
    0.00000E+00         0.00000E+00         0.20296E-07
 
   -0.68645E+06         0.65429E+05         0.00000E+00
    0.65429E+05        -0.60018E+08         0.00000E+00
    0.00000E+00         0.00000E+00        -0.40593E-07
 
   -0.80136E+06         0.55728E+05         0.00000E+00
    0.55728E+05        -0.60223E+08         0.00000E+00
    0.00000E+00         0.00000E+00         0.71037E-07
 
   -0.93070E+06         0.44769E+05         0.00000E+00
    0.44769E+05        -0.60429E+08         0.00000E+00
    0.00000E+00         0.00000E+00        -0.60889E-07
 
   -0.10759E+07         0.32523E+05         0.00000E+00
    0.32523E+05        -0.60635E+08         0.00000E+00
    0.00000E+00         0.00000E+00        -0.11163E-06
 
   -0.12385E+07         0.19012E+05         0.00000E+00
    0.19012E+05        -0.60842E+08         0.00000E+00
    0.00000E+00         0.00000E+00         0.30444E-07
 
   -0.14197E+07         0.43282E+04         0.00000E+00
    0.43282E+04        -0.61049E+08         0.00000E+00
    0.00000E+00         0.00000E+00        -0.30444E-07
 
   -0.16205E+07        -0.11343E+05         0.00000E+00
   -0.11343E+05        -0.61257E+08         0.00000E+00
    0.00000E+00         0.00000E+00         0.20296E-07
 
   -0.18413E+07        -0.27692E+05         0.00000E+00
   -0.27692E+05        -0.61464E+08         0.00000E+00
    0.00000E+00         0.00000E+00        -0.10148E-06
 
   -0.20818E+07        -0.44270E+05         0.00000E+00
   -0.44270E+05        -0.61672E+08         0.00000E+00
    0.00000E+00         0.00000E+00        -0.60889E-07
 
   -0.23399E+07        -0.60161E+05         0.00000E+00
   -0.60161E+05        -0.61880E+08         0.00000E+00
    0.00000E+00         0.00000E+00        -0.12178E-06
 
   -0.26111E+07        -0.74336E+05         0.00000E+00
   -0.74336E+05        -0.62087E+08         0.00000E+00
    0.00000E+00         0.00000E+00        -0.20296E-07
 
   -0.28794E+07        -0.80487E+05         0.00000E+00
   -0.80487E+05        -0.62295E+08         0.00000E+00
    0.00000E+00         0.00000E+00        -0.30445E-07
 
   -0.31176E+07        -0.43205E+05         0.00000E+00
   -0.43205E+05        -0.62462E+08         0.00000E+00
    0.00000E+00         0.00000E+00         0.15222E-06
 
    0.15674E+07        -0.19366E+05         0.00000E+00
   -0.19366E+05        -0.47657E+08         0.00000E+00
    0.00000E+00         0.00000E+00         0.20296E-07
 
    0.14477E+07        -0.31050E+05         0.00000E+00
   -0.31050E+05        -0.47742E+08         0.00000E+00
    0.00000E+00         0.00000E+00         0.40593E-07
 
    0.13144E+07        -0.25921E+05         0.00000E+00
   -0.25921E+05        -0.47840E+08         0.00000E+00
    0.00000E+00         0.00000E+00        -0.60889E-07
 
    0.11845E+07        -0.19934E+05         0.00000E+00
   -0.19934E+05        -0.47936E+08         0.00000E+00
    0.00000E+00         0.00000E+00         0.60889E-07
 
    0.10635E+07        -0.13619E+05         0.00000E+00
   -0.13619E+05        -0.48032E+08         0.00000E+00
    0.00000E+00         0.00000E+00         0.81185E-07
 
    0.95292E+06        -0.72618E+04         0.00000E+00
   -0.72618E+04        -0.48129E+08         0.00000E+00
    0.00000E+00         0.00000E+00        -0.30444E-07
 
    0.85312E+06        -0.10860E+04         0.00000E+00
   -0.10860E+04        -0.48225E+08         0.00000E+00
    0.00000E+00         0.00000E+00        -0.10148E-07
 
    0.76395E+06         0.47997E+04         0.00000E+00
    0.47997E+04        -0.48322E+08         0.00000E+00
    0.00000E+00         0.00000E+00         0.50740E-07
 
    0.68498E+06         0.10312E+05         0.00000E+00
    0.10312E+05        -0.48420E+08         0.00000E+00
    0.00000E+00         0.00000E+00         0.00000E+00
 
    0.61553E+06         0.15405E+05         0.00000E+00
    0.15405E+05        -0.48517E+08         0.00000E+00
    0.00000E+00         0.00000E+00        -0.20296E-07
 
    0.55485E+06         0.20057E+05         0.00000E+00
    0.20057E+05        -0.48615E+08         0.00000E+00
    0.00000E+00         0.00000E+00        -0.10148E-07
 
    0.50212E+06         0.24269E+05         0.00000E+00
    0.24269E+05        -0.48713E+08         0.00000E+00
    0.00000E+00         0.00000E+00         0.10148E-07
 
    0.45654E+06         0.28058E+05         0.00000E+00
    0.28058E+05        -0.48812E+08         0.00000E+00
    0.00000E+00         0.00000E+00        -0.20296E-07
 
    0.41731E+06         0.31452E+05         0.00000E+00
    0.31452E+05        -0.48911E+08         0.00000E+00
    0.00000E+00         0.00000E+00        -0.10148E-07
 
    0.38370E+06         0.34485E+05         0.00000E+00
    0.34485E+05        -0.49011E+08         0.00000E+00
    0.00000E+00         0.00000E+00         0.30444E-07
 
    0.35502E+06         0.37191E+05         0.00000E+00
    0.37191E+05        -0.49112E+08         0.00000E+00
    0.00000E+00         0.00000E+00         0.91332E-07
 
    0.33065E+06         0.39610E+05         0.00000E+00
    0.39610E+05        -0.49213E+08         0.00000E+00
    0.00000E+00         0.00000E+00         0.60889E-07
 
    0.31003E+06         0.41777E+05         0.00000E+00
    0.41777E+05        -0.49315E+08         0.00000E+00
    0.00000E+00         0.00000E+00        -0.20296E-07
 
    0.29268E+06         0.43724E+05         0.00000E+00
    0.43724E+05        -0.49418E+08         0.00000E+00
    0.00000E+00         0.00000E+00         0.10148E-07
 
    0.27815E+06         0.45483E+05         0.00000E+00
    0.45483E+05        -0.49522E+08         0.00000E+00
    0.00000E+00         0.00000E+00        -0.10148E-06
 
    0.26607E+06         0.47081E+05         0.00000E+00
    0.47081E+05        -0.49626E+08         0.00000E+00
    0.00000E+00         0.00000E+00         0.00000E+00
 
    0.25610E+06         0.48543E+05         0.00000E+00
    0.48543E+05        -0.49732E+08         0.00000E+00
    0.00000E+00         0.00000E+00         0.40593E-07
 
    0.24796E+06         0.49888E+05         0.00000E+00
    0.49888E+05        -0.49838E+08         0.00000E+00
    0.00000E+00         0.00000E+00         0.40593E-07
 
    0.24139E+06         0.51136E+05         0.00000E+00
    0.51136E+05        -0.49945E+08         0.00000E+00
    0.00000E+00         0.00000E+00        -0.40593E-07
 
    0.23617E+06         0.52302E+05         0.00000E+00
    0.52302E+05        -0.50054E+08         0.00000E+00
    0.00000E+00         0.00000E+00         0.40592E-07
 
    0.23211E+06         0.53398E+05         0.00000E+00
    0.53398E+05        -0.50163E+08         0.00000E+00
    0.00000E+00         0.00000E+00        -0.20296E-07
 
    0.22906E+06         0.54438E+05         0.00000E+00
    0.54438E+05        -0.50274E+08         0.00000E+00
    0.00000E+00         0.00000E+00        -0.50741E-07
 
    0.22685E+06         0.55430E+05         0.00000E+00
    0.55430E+05        -0.50386E+08         0.00000E+00
    0.00000E+00         0.00000E+00        -0.10148E-07
 
    0.22537E+06         0.56382E+05         0.00000E+00
    0.56382E+05        -0.50499E+08         0.00000E+00
    0.00000E+00         0.00000E+00         0.40593E-07
 
    0.22450E+06         0.57301E+05         0.00000E+00
    0.57301E+05        -0.50613E+08         0.00000E+00
    0.00000E+00         0.00000E+00         0.60889E-07
 
    0.22416E+06         0.58194E+05         0.00000E+00
    0.58194E+05        -0.50729E+08         0.00000E+00
    0.00000E+00         0.00000E+00        -0.15222E-06
 
    0.22424E+06         0.59064E+05         0.00000E+00
    0.59064E+05        -0.50846E+08         0.00000E+00
    0.00000E+00         0.00000E+00         0.60889E-07
 
    0.22468E+06         0.59916E+05         0.00000E+00
    0.59916E+05        -0.50965E+08         0.00000E+00
    0.00000E+00         0.00000E+00         0.00000E+00
 
    0.22541E+06         0.60753E+05         0.00000E+00
    0.60753E+05        -0.51084E+08         0.00000E+00
    0.00000E+00         0.00000E+00         0.30444E-07
 
    0.22636E+06         0.61578E+05         0.00000E+00
    0.61578E+05        -0.51206E+08         0.00000E+00
    0.00000E+00         0.00000E+00         0.00000E+00
 
    0.22749E+06         0.62394E+05         0.00000E+00
    0.62394E+05        -0.51328E+08         0.00000E+00
    0.00000E+00         0.00000E+00        -0.10148E-07
 
    0.22875E+06         0.63202E+05         0.00000E+00
    0.63202E+05        -0.51453E+08         0.00000E+00
    0.00000E+00         0.00000E+00         0.10148E-07
 
    0.23009E+06         0.64003E+05         0.00000E+00
    0.64003E+05        -0.51578E+08         0.00000E+00
    0.00000E+00         0.00000E+00         0.20296E-07
 
    0.23146E+06         0.64799E+05         0.00000E+00
    0.64799E+05        -0.51706E+08         0.00000E+00
    0.00000E+00         0.00000E+00        -0.20296E-07
 
    0.23285E+06         0.65591E+05         0.00000E+00
    0.65591E+05        -0.51834E+08         0.00000E+00
    0.00000E+00         0.00000E+00         0.20296E-07
 
    0.23420E+06         0.66379E+05         0.00000E+00
    0.66379E+05        -0.51965E+08         0.00000E+00
    0.00000E+00         0.00000E+00         0.11163E-06
 
    0.23549E+06         0.67164E+05         0.00000E+00
    0.67164E+05        -0.52097E+08         0.00000E+00
    0.00000E+00         0.00000E+00         0.00000E+00
 
    0.23669E+06         0.67946E+05         0.00000E+00
    0.67946E+05        -0.52231E+08         0.00000E+00
    0.00000E+00         0.00000E+00         0.00000E+00
 
    0.23777E+06         0.68725E+05         0.00000E+00
    0.68725E+05        -0.52366E+08         0.00000E+00
    0.00000E+00         0.00000E+00         0.50741E-07
 
    0.23870E+06         0.69501E+05         0.00000E+00
    0.69501E+05        -0.52504E+08         0.00000E+00
    0.00000E+00         0.00000E+00        -0.10148E-07
 
    0.23947E+06         0.70273E+05         0.00000E+00
    0.70273E+05        -0.52643E+08         0.00000E+00
    0.00000E+00         0.00000E+00         0.50741E-07
 
    0.24004E+06         0.71041E+05         0.00000E+00
    0.71041E+05        -0.52783E+08         0.00000E+00
    0.00000E+00         0.00000E+00        -0.20296E-07
 
    0.24039E+06         0.71805E+05         0.00000E+00
    0.71805E+05        -0.52926E+08         0.00000E+00
    0.00000E+00         0.00000E+00         0.30444E-07
 
    0.24050E+06         0.72564E+05         0.00000E+00
    0.72564E+05        -0.53070E+08         0.00000E+00
    0.00000E+00         0.00000E+00        -0.20296E-07
 
    0.24034E+06         0.73316E+05         0.00000E+00
    0.73316E+05        -0.53216E+08         0.00000E+00
    0.00000E+00         0.00000E+00         0.20296E-07
 
    0.23989E+06         0.74060E+05         0.00000E+00
    0.74060E+05        -0.53364E+08         0.00000E+00
    0.00000E+00         0.00000E+00        -0.60889E-07
 
    0.23912E+06         0.74797E+05         0.00000E+00
    0.74797E+05        -0.53513E+08         0.00000E+00
    0.00000E+00         0.00000E+00        -0.10148E-06
 
    0.23801E+06         0.75523E+05         0.00000E+00
    0.75523E+05        -0.53665E+08         0.00000E+00
    0.00000E+00         0.00000E+00        -0.20296E-07
 
    0.23654E+06         0.76237E+05         0.00000E+00
    0.76237E+05        -0.53818E+08         0.00000E+00
    0.00000E+00         0.00000E+00        -0.81185E-07
 
    0.23466E+06         0.76939E+05         0.00000E+00
    0.76939E+05        -0.53973E+08         0.00000E+00
    0.00000E+00         0.00000E+00        -0.40593E-07
 
    0.23236E+06         0.77625E+05         0.00000E+00
    0.77625E+05        -0.54130E+08         0.00000E+00
    0.00000E+00         0.00000E+00         0.30444E-07
 
    0.22960E+06         0.78294E+05         0.00000E+00
    0.78294E+05        -0.54289E+08         0.00000E+00
    0.00000E+00         0.00000E+00        -0.20296E-07
 
    0.22634E+06         0.78944E+05         0.00000E+00
    0.78944E+05        -0.54449E+08         0.00000E+00
    0.00000E+00         0.00000E+00         0.50741E-07
 
    0.22255E+06         0.79571E+05         0.00000E+00
    0.79571E+05        -0.54611E+08         0.00000E+00
    0.00000E+00         0.00000E+00        -0.91333E-07
 
    0.21819E+06         0.80174E+05         0.00000E+00
    0.80174E+05        -0.54775E+08         0.00000E+00
    0.00000E+00         0.00000E+00        -0.10148E-07
 
    0.21320E+06         0.80748E+05         0.00000E+00
    0.80748E+05        -0.54941E+08         0.00000E+00
    0.00000E+00         0.00000E+00         0.91333E-07
 
    0.20755E+06         0.81291E+05         0.00000E+00
    0.81291E+05        -0.55109E+08         0.00000E+00
    0.00000E+00         0.00000E+00        -0.20296E-07
 
    0.20117E+06         0.81798E+05         0.00000E+00
    0.81798E+05        -0.55279E+08         0.00000E+00
    0.00000E+00         0.00000E+00        -0.14207E-06
 
    0.19401E+06         0.82265E+05         0.00000E+00
    0.82265E+05        -0.55450E+08         0.00000E+00
    0.00000E+00         0.00000E+00        -0.10148E-06
 
    0.18599E+06         0.82687E+05         0.00000E+00
    0.82687E+05        -0.55623E+08         0.00000E+00
    0.00000E+00         0.00000E+00        -0.40593E-07
 
    0.17704E+06         0.83059E+05         0.00000E+00
    0.83059E+05        -0.55798E+08         0.00000E+00
    0.00000E+00         0.00000E+00        -0.10148E-06
 
    0.16707E+06         0.83374E+05         0.00000E+00
    0.83374E+05        -0.55974E+08         0.00000E+00
    0.00000E+00         0.00000E+00         0.00000E+00
 
    0.15598E+06         0.83626E+05         0.00000E+00
    0.83626E+05        -0.56152E+08         0.00000E+00
    0.00000E+00         0.00000E+00         0.10148E-07
 
    0.14366E+06         0.83807E+05         0.00000E+00
    0.83807E+05        -0.56332E+08         0.00000E+00
    0.00000E+00         0.00000E+00        -0.12178E-06
 
    0.12999E+06         0.83907E+05         0.00000E+00
    0.83907E+05        -0.56513E+08         0.00000E+00
    0.00000E+00         0.00000E+00         0.17252E-06
 
    0.11482E+06         0.83916E+05         0.00000E+00
    0.83916E+05        -0.56696E+08         0.00000E+00
    0.00000E+00         0.00000E+00        -0.60889E-07
 
    0.97989E+05         0.83822E+05         0.00000E+00
    0.83822E+05        -0.56881E+08         0.00000E+00
    0.00000E+00         0.00000E+00         0.10148E-07
 
    0.79310E+05         0.83611E+05         0.00000E+00
    0.83611E+05        -0.57067E+08         0.00000E+00
    0.00000E+00         0.00000E+00        -0.30444E-07
 
    0.58569E+05         0.83268E+05         0.00000E+00
    0.83268E+05        -0.57255E+08         0.00000E+00
    0.00000E+00         0.00000E+00        -0.20296E-07
 
    0.35519E+05         0.82773E+05         0.00000E+00
    0.82773E+05        -0.57444E+08         0.00000E+00
    0.00000E+00         0.00000E+00         0.10148E-06
 
    0.98782E+04         0.82104E+05         0.00000E+00
    0.82104E+05        -0.57635E+08         0.00000E+00
    0.00000E+00         0.00000E+00        -0.20296E-07
 
   -0.18681E+05         0.81237E+05         0.00000E+00
    0.81237E+05        -0.57827E+08         0.00000E+00
    0.00000E+00         0.00000E+00        -0.19281E-06
 
   -0.50535E+05         0.80142E+05         0.00000E+00
    0.80142E+05        -0.58020E+08         0.00000E+00
    0.00000E+00         0.00000E+00        -0.40593E-07
 
   -0.86120E+05         0.78786E+05         0.00000E+00
    0.78786E+05        -0.58215E+08         0.00000E+00
    0.00000E+00         0.00000E+00         0.10148E-07
 
   -0.12594E+06         0.77129E+05         0.00000E+00
    0.77129E+05        -0.58410E+08         0.00000E+00
    0.00000E+00         0.00000E+00         0.10148E-07
 
   -0.17057E+06         0.75126E+05         0.00000E+00
    0.75126E+05        -0.58608E+08         0.00000E+00
    0.00000E+00         0.00000E+00        -0.30444E-07
 
   -0.22068E+06         0.72726E+05         0.00000E+00
    0.72726E+05        -0.58806E+08         0.00000E+00
    0.00000E+00         0.00000E+00         0.10148E-07
 
   -0.27703E+06         0.69872E+05         0.00000E+00
    0.69872E+05        -0.59005E+08         0.00000E+00
    0.00000E+00         0.00000E+00        -0.30444E-07
 
   -0.34051E+06         0.66499E+05         0.00000E+00
    0.66499E+05        -0.59206E+08         0.00000E+00
    0.00000E+00         0.00000E+00         0.50741E-07
 
   -0.41209E+06         0.62537E+05         0.00000E+00
    0.62537E+05        -0.59407E+08         0.00000E+00
    0.00000E+00         0.00000E+00        -0.40593E-07
 
   -0.49291E+06         0.57913E+05         0.00000E+00
    0.57913E+05        -0.59609E+08         0.00000E+00
    0.00000E+00         0.00000E+00         0.40593E-07
 
   -0.58422E+06         0.52549E+05         0.00000E+00
    0.52549E+05        -0.59813E+08         0.00000E+00
    0.00000E+00         0.00000E+00        -0.10148E-07
 
   -0.68737E+06         0.46370E+05         0.00000E+00
    0.46370E+05        -0.60017E+08         0.00000E+00
    0.00000E+00         0.00000E+00        -0.14207E-06
 
   -0.80387E+06         0.39310E+05         0.00000E+00
    0.39310E+05        -0.60221E+08         0.00000E+00
    0.00000E+00         0.00000E+00         0.00000E+00
 
   -0.93528E+06         0.31314E+05         0.00000E+00
    0.31314E+05        -0.60427E+08         0.00000E+00
    0.00000E+00         0.00000E+00        -0.10148E-07
 
   -0.10832E+07         0.22355E+05         0.00000E+00
    0.22355E+05        -0.60633E+08         0.00000E+00
    0.00000E+00         0.00000E+00         0.30444E-07
 
   -0.12493E+07         0.12436E+05         0.00000E+00
    0.12436E+05        -0.60839E+08         0.00000E+00
    0.00000E+00         0.00000E+00         0.40593E-07
 
   -0.14349E+07         0.16121E+04         0.00000E+00
    0.16121E+04        -0.61046E+08         0.00000E+00
    0.00000E+00         0.00000E+00         0.50741E-07
 
   -0.16413E+07        -0.10007E+05         0.00000E+00
   -0.10007E+05        -0.61254E+08         0.00000E+00
    0.00000E+00         0.00000E+00        -0.91333E-07
 
   -0.18693E+07        -0.22230E+05         0.00000E+00
   -0.22230E+05        -0.61461E+08         0.00000E+00
    0.00000E+00         0.00000E+00        -0.12178E-06
 
   -0.21189E+07        -0.34810E+05         0.00000E+00
   -0.34810E+05        -0.61669E+08         0.00000E+00
    0.00000E+00         0.00000E+00        -0.20296E-07
 
   -0.23888E+07        -0.47250E+05         0.00000E+00
   -0.47250E+05        -0.61877E+08         0.00000E+00
    0.00000E+00         0.00000E+00         0.50741E-07
 
   -0.26759E+07        -0.58916E+05         0.00000E+00
   -0.58916E+05        -0.62084E+08         0.00000E+00
    0.00000E+00         0.00000E+00        -0.20296E-07
 
   -0.29677E+07        -0.68644E+05         0.00000E+00
   -0.68644E+05        -0.62295E+08         0.00000E+00
    0.00000E+00         0.00000E+00         0.91333E-07
 
   -0.32276E+07        -0.42225E+05         0.00000E+00
   -0.42225E+05        -0.62477E+08         0.00000E+00
    0.00000E+00         0.00000E+00        -0.22737E-12
 
    0.16249E+07        -0.18127E+05         0.00000E+00
   -0.18127E+05        -0.47651E+08         0.00000E+00
    0.00000E+00         0.00000E+00         0.00000E+00
 
    0.14898E+07        -0.22805E+05         0.00000E+00
   -0.22805E+05        -0.47743E+08         0.00000E+00
    0.00000E+00         0.00000E+00         0.10148E-07
 
    0.13441E+07        -0.17490E+05         0.00000E+00
   -0.17490E+05        -0.47841E+08         0.00000E+00
    0.00000E+00         0.00000E+00         0.50741E-07
 
    0.12067E+07        -0.13459E+05         0.00000E+00
   -0.13459E+05        -0.47937E+08         0.00000E+00
    0.00000E+00         0.00000E+00         0.10148E-07
 
    0.10803E+07        -0.92335E+04         0.00000E+00
   -0.92335E+04        -0.48033E+08         0.00000E+00
    0.00000E+00         0.00000E+00        -0.30444E-07
 
    0.96560E+06        -0.51674E+04         0.00000E+00
   -0.51674E+04        -0.48130E+08         0.00000E+00
    0.00000E+00         0.00000E+00         0.20296E-07
 
    0.86265E+06        -0.12632E+04         0.00000E+00
   -0.12632E+04        -0.48226E+08         0.00000E+00
    0.00000E+00         0.00000E+00        -0.60889E-07
 
    0.77108E+06         0.24179E+04         0.00000E+00
    0.24179E+04        -0.48323E+08         0.00000E+00
    0.00000E+00         0.00000E+00         0.10148E-07
 
    0.69027E+06         0.58440E+04         0.00000E+00
    0.58440E+04        -0.48420E+08         0.00000E+00
    0.00000E+00         0.00000E+00        -0.30444E-07
 
    0.61945E+06         0.89930E+04         0.00000E+00
    0.89930E+04        -0.48518E+08         0.00000E+00
    0.00000E+00         0.00000E+00         0.60889E-07
 
    0.55776E+06         0.11858E+05         0.00000E+00
    0.11858E+05        -0.48616E+08         0.00000E+00
    0.00000E+00         0.00000E+00        -0.71037E-07
 
    0.50431E+06         0.14443E+05         0.00000E+00
    0.14443E+05        -0.48714E+08         0.00000E+00
    0.00000E+00         0.00000E+00        -0.40593E-07
 
    0.45824E+06         0.16760E+05         0.00000E+00
    0.16760E+05        -0.48813E+08         0.00000E+00
    0.00000E+00         0.00000E+00         0.10148E-07
 
    0.41869E+06         0.18830E+05         0.00000E+00
    0.18830E+05        -0.48912E+08         0.00000E+00
    0.00000E+00         0.00000E+00         0.20296E-07
 
    0.38489E+06         0.20674E+05         0.00000E+00
    0.20674E+05        -0.49012E+08         0.00000E+00
    0.00000E+00         0.00000E+00        -0.60889E-07
 
    0.35612E+06         0.22316E+05         0.00000E+00
    0.22316E+05        -0.49112E+08         0.00000E+00
    0.00000E+00         0.00000E+00        -0.30444E-07
 
    0.33173E+06         0.23780E+05         0.00000E+00
    0.23780E+05        -0.49214E+08         0.00000E+00
    0.00000E+00         0.00000E+00         0.91333E-07
 
    0.31116E+06         0.25089E+05         0.00000E+00
    0.25089E+05        -0.49316E+08         0.00000E+00
    0.00000E+00         0.00000E+00         0.10148E-06
 
    0.29388E+06         0.26263E+05         0.00000E+00
    0.26263E+05        -0.49418E+08         0.00000E+00
    0.00000E+00         0.00000E+00         0.30444E-07
 
    0.27945E+06         0.27322E+05         0.00000E+00
    0.27322E+05        -0.49522E+08         0.00000E+00
    0.00000E+00         0.00000E+00         0.40593E-07
 
    0.26749E+06         0.28283E+05         0.00000E+00
    0.28283E+05        -0.49626E+08         0.00000E+00
    0.00000E+00         0.00000E+00         0.10148E-07
 
    0.25765E+06         0.29160E+05         0.00000E+00
    0.29160E+05        -0.49732E+08         0.00000E+00
    0.00000E+00         0.00000E+00         0.20296E-07
 
    0.24963E+06         0.29967E+05         0.00000E+00
    0.29967E+05        -0.49838E+08         0.00000E+00
    0.00000E+00         0.00000E+00        -0.71037E-07
 
    0.24319E+06         0.30715E+05         0.00000E+00
    0.30715E+05        -0.49946E+08         0.00000E+00
    0.00000E+00         0.00000E+00         0.00000E+00
 
    0.23810E+06         0.31413E+05         0.00000E+00
    0.31413E+05        -0.50054E+08         0.00000E+00
    0.00000E+00         0.00000E+00        -0.20296E-07
 
    0.23417E+06         0.32070E+05         0.00000E+00
    0.32070E+05        -0.50164E+08         0.00000E+00
    0.00000E+00         0.00000E+00         0.00000E+00
 
    0.23124E+06         0.32692E+05         0.00000E+00
    0.32692E+05        -0.50274E+08         0.00000E+00
    0.00000E+00         0.00000E+00         0.30444E-07
 
    0.22915E+06         0.33286E+05         0.00000E+00
    0.33286E+05        -0.50386E+08         0.00000E+00
    0.00000E+00         0.00000E+00        -0.50741E-07
 
    0.22778E+06         0.33856E+05         0.00000E+00
    0.33856E+05        -0.50499E+08         0.00000E+00
    0.00000E+00         0.00000E+00         0.30444E-07
 
    0.22702E+06         0.34406E+05         0.00000E+00
    0.34406E+05        -0.50614E+08         0.00000E+00
    0.00000E+00         0.00000E+00        -0.12178E-06
 
    0.22677E+06         0.34940E+05         0.00000E+00
    0.34940E+05        -0.50729E+08         0.00000E+00
    0.00000E+00         0.00000E+00        -0.10148E-07
 
    0.22695E+06         0.35461E+05         0.00000E+00
    0.35461E+05        -0.50846E+08         0.00000E+00
    0.00000E+00         0.00000E+00        -0.81185E-07
 
    0.22748E+06         0.35971E+05         0.00000E+00
    0.35971E+05        -0.50965E+08         0.00000E+00
    0.00000E+00         0.00000E+00         0.00000E+00
 
    0.22830E+06         0.36472E+05         0.00000E+00
    0.36472E+05        -0.51084E+08         0.00000E+00
    0.00000E+00         0.00000E+00        -0.81185E-07
 
    0.22934E+06         0.36966E+05         0.00000E+00
    0.36966E+05        -0.51206E+08         0.00000E+00
    0.00000E+00         0.00000E+00        -0.50741E-07
 
    0.23055E+06         0.37454E+05         0.00000E+00
    0.37454E+05        -0.51328E+08         0.00000E+00
    0.00000E+00         0.00000E+00         0.00000E+00
 
    0.23188E+06         0.37938E+05         0.00000E+00
    0.37938E+05        -0.51453E+08         0.00000E+00
    0.00000E+00         0.00000E+00        -0.20296E-07
 
    0.23328E+06         0.38418E+05         0.00000E+00
    0.38418E+05        -0.51578E+08         0.00000E+00
    0.00000E+00         0.00000E+00        -0.20296E-07
 
    0.23473E+06         0.38895E+05         0.00000E+00
    0.38895E+05        -0.51706E+08         0.00000E+00
    0.00000E+00         0.00000E+00        -0.10148E-06
 
    0.23617E+06         0.39369E+05         0.00000E+00
    0.39369E+05        -0.51835E+08         0.00000E+00
    0.00000E+00         0.00000E+00         0.16237E-06
 
    0.23758E+06         0.39841E+05         0.00000E+00
    0.39841E+05        -0.51965E+08         0.00000E+00
    0.00000E+00         0.00000E+00        -0.10148E-07
 
    0.23893E+06         0.40311E+05         0.00000E+00
    0.40311E+05        -0.52097E+08         0.00000E+00
    0.00000E+00         0.00000E+00        -0.20296E-07
 
    0.24018E+06         0.40779E+05         0.00000E+00
    0.40779E+05        -0.52231E+08         0.00000E+00
    0.00000E+00         0.00000E+00        -0.50741E-07
 
    0.24131E+06         0.41246E+05         0.00000E+00
    0.41246E+05        -0.52367E+08         0.00000E+00
    0.00000E+00         0.00000E+00        -0.40593E-07
 
    0.24229E+06         0.41711E+05         0.00000E+00
    0.41711E+05        -0.52504E+08         0.00000E+00
    0.00000E+00         0.00000E+00        -0.30444E-07
 
    0.24310E+06         0.42173E+05         0.00000E+00
    0.42173E+05        -0.52643E+08         0.00000E+00
    0.00000E+00         0.00000E+00        -0.10148E-07
 
    0.24371E+06         0.42633E+05         0.00000E+00
    0.42633E+05        -0.52783E+08         0.00000E+00
    0.00000E+00         0.00000E+00        -0.50741E-07
 
    0.24409E+06         0.43091E+05         0.00000E+00
    0.43091E+05        -0.52926E+08         0.00000E+00
    0.00000E+00         0.00000E+00        -0.20296E-07
 
    0.24423E+06         0.43545E+05         0.00000E+00
    0.43545E+05        -0.53070E+08         0.00000E+00
    0.00000E+00         0.00000E+00        -0.12178E-06
 
    0.24410E+06         0.43996E+05         0.00000E+00
    0.43996E+05        -0.53216E+08         0.00000E+00
    0.00000E+00         0.00000E+00         0.20296E-07
 
    0.24368E+06         0.44442E+05         0.00000E+00
    0.44442E+05        -0.53364E+08         0.00000E+00
    0.00000E+00         0.00000E+00         0.00000E+00
 
    0.24293E+06         0.44883E+05         0.00000E+00
    0.44883E+05        -0.53513E+08         0.00000E+00
    0.00000E+00         0.00000E+00        -0.50741E-07
 
    0.24184E+06         0.45318E+05         0.00000E+00
    0.45318E+05        -0.53665E+08         0.00000E+00
    0.00000E+00         0.00000E+00        -0.20296E-07
 
    0.24037E+06         0.45746E+05         0.00000E+00
    0.45746E+05        -0.53818E+08         0.00000E+00
    0.00000E+00         0.00000E+00         0.10148E-06
 
    0.23851E+06         0.46166E+05         0.00000E+00
    0.46166E+05        -0.53973E+08         0.00000E+00
    0.00000E+00         0.00000E+00         0.12178E-06
 
    0.23621E+06         0.46577E+05         0.00000E+00
    0.46577E+05        -0.54130E+08         0.00000E+00
    0.00000E+00         0.00000E+00         0.20296E-07
 
    0.23346E+06         0.46978E+05         0.00000E+00
    0.46978E+05        -0.54289E+08         0.00000E+00
    0.00000E+00         0.00000E+00         0.00000E+00
 
    0.23020E+06         0.47367E+05         0.00000E+00
    0.47367E+05        -0.54449E+08         0.00000E+00
    0.00000E+00         0.00000E+00         0.00000E+00
 
    0.22641E+06         0.47743E+05         0.00000E+00
    0.47743E+05        -0.54611E+08         0.00000E+00
    0.00000E+00         0.00000E+00         0.15222E-06
 
    0.22204E+06         0.48104E+05         0.00000E+00
    0.48104E+05        -0.54776E+08         0.00000E+00
    0.00000E+00         0.00000E+00        -0.23341E-06
 
    0.21705E+06         0.48448E+05         0.00000E+00
    0.48448E+05        -0.54941E+08         0.00000E+00
    0.00000E+00         0.00000E+00        -0.10148E-06
 
    0.21139E+06         0.48773E+05         0.00000E+00
    0.48773E+05        -0.55109E+08         0.00000E+00
    0.00000E+00         0.00000E+00        -0.20296E-07
 
    0.20500E+06         0.49077E+05         0.00000E+00
    0.49077E+05        -0.55279E+08         0.00000E+00
    0.00000E+00         0.00000E+00         0.10148E-07
 
    0.19783E+06         0.49357E+05         0.00000E+00
    0.49357E+05        -0.55450E+08         0.00000E+00
    0.00000E+00         0.00000E+00        -0.10148E-07
 
    0.18980E+06         0.49611E+05         0.00000E+00
    0.49611E+05        -0.55623E+08         0.00000E+00
    0.00000E+00         0.00000E+00        -0.71037E-07
 
    0.18083E+06         0.49834E+05         0.00000E+00
    0.49834E+05        -0.55798E+08         0.00000E+00
    0.00000E+00         0.00000E+00         0.30444E-07
 
    0.17084E+06         0.50023E+05         0.00000E+00
    0.50023E+05        -0.55974E+08         0.00000E+00
    0.00000E+00         0.00000E+00        -0.50740E-07
 
    0.15974E+06         0.50175E+05         0.00000E+00
    0.50175E+05        -0.56152E+08         0.00000E+00
    0.00000E+00         0.00000E+00         0.40593E-07
 
    0.14740E+06         0.50284E+05         0.00000E+00
    0.50284E+05        -0.56332E+08         0.00000E+00
    0.00000E+00         0.00000E+00         0.40593E-07
 
    0.13371E+06         0.50344E+05         0.00000E+00
    0.50344E+05        -0.56513E+08         0.00000E+00
    0.00000E+00         0.00000E+00         0.30444E-07
 
    0.11853E+06         0.50350E+05         0.00000E+00
    0.50350E+05        -0.56696E+08         0.00000E+00
    0.00000E+00         0.00000E+00         0.00000E+00
 
    0.10168E+06         0.50295E+05         0.00000E+00
    0.50295E+05        -0.56881E+08         0.00000E+00
    0.00000E+00         0.00000E+00        -0.71037E-07
 
    0.82994E+05         0.50169E+05         0.00000E+00
    0.50169E+05        -0.57067E+08         0.00000E+00
    0.00000E+00         0.00000E+00         0.12178E-06
 
    0.62242E+05         0.49964E+05         0.00000E+00
    0.49964E+05        -0.57255E+08         0.00000E+00
    0.00000E+00         0.00000E+00        -0.11163E-06
 
    0.39184E+05         0.49668E+05         0.00000E+00
    0.49668E+05        -0.57444E+08         0.00000E+00
    0.00000E+00         0.00000E+00         0.50741E-07
 
    0.13533E+05         0.49268E+05         0.00000E+00
    0.49268E+05        -0.57635E+08         0.00000E+00
    0.00000E+00         0.00000E+00         0.50741E-07
 
   -0.15038E+05         0.48748E+05         0.00000E+00
    0.48748E+05        -0.57826E+08         0.00000E+00
    0.00000E+00         0.00000E+00         0.71037E-07
 
   -0.46909E+05         0.48091E+05         0.00000E+00
    0.48091E+05        -0.58020E+08         0.00000E+00
    0.00000E+00         0.00000E+00        -0.20296E-07
 
   -0.82521E+05         0.47275E+05         0.00000E+00
    0.47275E+05        -0.58214E+08         0.00000E+00
    0.00000E+00         0.00000E+00         0.10148E-07
 
   -0.12238E+06         0.46278E+05         0.00000E+00
    0.46278E+05        -0.58410E+08         0.00000E+00
    0.00000E+00         0.00000E+00        -0.91333E-07
 
   -0.16709E+06         0.45070E+05         0.00000E+00
    0.45070E+05        -0.58607E+08         0.00000E+00
    0.00000E+00         0.00000E+00         0.12178E-06
 
   -0.21732E+06         0.43621E+05         0.00000E+00
    0.43621E+05        -0.58805E+08         0.00000E+00
    0.00000E+00         0.00000E+00         0.10148E-06
 
   -0.27385E+06         0.41894E+05         0.00000E+00
    0.41894E+05        -0.59005E+08         0.00000E+00
    0.00000E+00         0.00000E+00        -0.30444E-07
 
   -0.33759E+06         0.39849E+05         0.00000E+00
    0.39849E+05        -0.59205E+08         0.00000E+00
    0.00000E+00         0.00000E+00        -0.50741E-07
 
   -0.40957E+06         0.37443E+05         0.00000E+00
    0.37443E+05        -0.59406E+08         0.00000E+00
    0.00000E+00         0.00000E+00         0.30444E-07
 
   -0.49095E+06         0.34627E+05         0.00000E+00
    0.34627E+05        -0.59609E+08         0.00000E+00
    0.00000E+00         0.00000E+00         0.60889E-07
 
   -0.58303E+06         0.31354E+05         0.00000E+00
    0.31354E+05        -0.59812E+08         0.00000E+00
    0.00000E+00         0.00000E+00        -0.71036E-07
 
   -0.68726E+06         0.27573E+05         0.00000E+00
    0.27573E+05        -0.60016E+08         0.00000E+00
    0.00000E+00         0.00000E+00        -0.91333E-07
 
   -0.80521E+06         0.23241E+05         0.00000E+00
    0.23241E+05        -0.60220E+08         0.00000E+00
    0.00000E+00         0.00000E+00         0.10148E-07
 
   -0.93857E+06         0.18319E+05         0.00000E+00
    0.18319E+05        -0.60425E+08         0.00000E+00
    0.00000E+00         0.00000E+00        -0.10148E-06
 
   -0.10891E+07         0.12784E+05         0.00000E+00
    0.12784E+05        -0.60631E+08         0.00000E+00
    0.00000E+00         0.00000E+00         0.91333E-07
 
   -0.12585E+07         0.66322E+04         0.00000E+00
    0.66322E+04        -0.60838E+08         0.00000E+00
    0.00000E+00         0.00000E+00         0.12178E-06
 
   -0.14484E+07        -0.11669E+03         0.00000E+00
   -0.11669E+03        -0.61045E+08         0.00000E+00
    0.00000E+00         0.00000E+00         0.40593E-07
 
   -0.16604E+07        -0.74081E+04         0.00000E+00
   -0.74081E+04        -0.61252E+08         0.00000E+00
    0.00000E+00         0.00000E+00         0.20296E-07
 
   -0.18955E+07        -0.15166E+05         0.00000E+00
   -0.15166E+05        -0.61459E+08         0.00000E+00
    0.00000E+00         0.00000E+00        -0.40593E-07
 
   -0.21543E+07        -0.23250E+05         0.00000E+00
   -0.23250E+05        -0.61667E+08         0.00000E+00
    0.00000E+00         0.00000E+00        -0.91333E-07
 
   -0.24363E+07        -0.31644E+05         0.00000E+00
   -0.31644E+05        -0.61875E+08         0.00000E+00
    0.00000E+00         0.00000E+00         0.20296E-07
 
   -0.27397E+07        -0.39574E+05         0.00000E+00
   -0.39574E+05        -0.62082E+08         0.00000E+00
    0.00000E+00         0.00000E+00         0.10148E-07
 
   -0.30583E+07        -0.50187E+05         0.00000E+00
   -0.50187E+05        -0.62293E+08         0.00000E+00
    0.00000E+00         0.00000E+00         0.10148E-06
 
   -0.33511E+07        -0.39298E+05         0.00000E+00
   -0.39298E+05        -0.62490E+08         0.00000E+00
    0.00000E+00         0.00000E+00         0.50741E-07
 
    0.16906E+07        -0.15258E+05         0.00000E+00
   -0.15258E+05        -0.47647E+08         0.00000E+00
    0.00000E+00         0.00000E+00        -0.20296E-07
 
    0.15314E+07        -0.10280E+05         0.00000E+00
   -0.10280E+05        -0.47745E+08         0.00000E+00
    0.00000E+00         0.00000E+00         0.40593E-07
 
    0.13731E+07        -0.74927E+04         0.00000E+00
   -0.74927E+04        -0.47841E+08         0.00000E+00
    0.00000E+00         0.00000E+00         0.40593E-07
 
    0.12281E+07        -0.56391E+04         0.00000E+00
   -0.56391E+04        -0.47938E+08         0.00000E+00
    0.00000E+00         0.00000E+00         0.20296E-07
 
    0.10961E+07        -0.39207E+04         0.00000E+00
   -0.39207E+04        -0.48034E+08         0.00000E+00
    0.00000E+00         0.00000E+00        -0.40592E-07
 
    0.97733E+06        -0.23536E+04         0.00000E+00
   -0.23536E+04        -0.48130E+08         0.00000E+00
    0.00000E+00         0.00000E+00        -0.10148E-07
 
    0.87126E+06        -0.89695E+03         0.00000E+00
   -0.89695E+03        -0.48227E+08         0.00000E+00
    0.00000E+00         0.00000E+00        -0.60889E-07
 
    0.77734E+06         0.45052E+03         0.00000E+00
    0.45052E+03        -0.48324E+08         0.00000E+00
    0.00000E+00         0.00000E+00        -0.71037E-07
 
    0.69476E+06         0.16866E+04         0.00000E+00
    0.16866E+04        -0.48421E+08         0.00000E+00
    0.00000E+00         0.00000E+00         0.00000E+00
 
    0.62263E+06         0.28104E+04         0.00000E+00
    0.28104E+04        -0.48518E+08         0.00000E+00
    0.00000E+00         0.00000E+00        -0.60889E-07
 
    0.56000E+06         0.38232E+04         0.00000E+00
    0.38232E+04        -0.48616E+08         0.00000E+00
    0.00000E+00         0.00000E+00        -0.71037E-07
 
    0.50590E+06         0.47296E+04         0.00000E+00
    0.47296E+04        -0.48714E+08         0.00000E+00
    0.00000E+00         0.00000E+00         0.81185E-07
 
    0.45939E+06         0.55363E+04         0.00000E+00
    0.55363E+04        -0.48813E+08         0.00000E+00
    0.00000E+00         0.00000E+00         0.00000E+00
 
    0.41958E+06         0.62518E+04         0.00000E+00
    0.62518E+04        -0.48912E+08         0.00000E+00
    0.00000E+00         0.00000E+00        -0.30444E-07
 
    0.38565E+06         0.68853E+04         0.00000E+00
    0.68853E+04        -0.49012E+08         0.00000E+00
    0.00000E+00         0.00000E+00        -0.40593E-07
 
    0.35684E+06         0.74461E+04         0.00000E+00
    0.74461E+04        -0.49113E+08         0.00000E+00
    0.00000E+00         0.00000E+00        -0.10148E-07
 
    0.33249E+06         0.79434E+04         0.00000E+00
    0.79434E+04        -0.49214E+08         0.00000E+00
    0.00000E+00         0.00000E+00         0.40593E-07
 
    0.31199E+06         0.83858E+04         0.00000E+00
    0.83858E+04        -0.49316E+08         0.00000E+00
    0.00000E+00         0.00000E+00         0.50741E-07
 
    0.29482E+06         0.87811E+04         0.00000E+00
    0.87811E+04        -0.49418E+08         0.00000E+00
    0.00000E+00         0.00000E+00         0.81185E-07
 
    0.28052E+06         0.91361E+04         0.00000E+00
    0.91361E+04        -0.49522E+08         0.00000E+00
    0.00000E+00         0.00000E+00         0.20296E-07
 
    0.26870E+06         0.94572E+04         0.00000E+00
    0.94572E+04        -0.49626E+08         0.00000E+00
    0.00000E+00         0.00000E+00        -0.10148E-07
 
    0.25901E+06         0.97497E+04         0.00000E+00
    0.97497E+04        -0.49732E+08         0.00000E+00
    0.00000E+00         0.00000E+00         0.00000E+00
 
    0.25114E+06         0.10018E+05         0.00000E+00
    0.10018E+05        -0.49838E+08         0.00000E+00
    0.00000E+00         0.00000E+00         0.50741E-07
 
    0.24485E+06         0.10266E+05         0.00000E+00
    0.10266E+05        -0.49946E+08         0.00000E+00
    0.00000E+00         0.00000E+00        -0.50741E-07
 
    0.23990E+06         0.10498E+05         0.00000E+00
    0.10498E+05        -0.50054E+08         0.00000E+00
    0.00000E+00         0.00000E+00         0.60888E-07
 
    0.23611E+06         0.10716E+05         0.00000E+00
    0.10716E+05        -0.50164E+08         0.00000E+00
    0.00000E+00         0.00000E+00        -0.10148E-07
 
    0.23330E+06         0.10922E+05         0.00000E+00
    0.10922E+05        -0.50274E+08         0.00000E+00
    0.00000E+00         0.00000E+00         0.10148E-07
 
    0.23134E+06         0.11118E+05         0.00000E+00
    0.11118E+05        -0.50386E+08         0.00000E+00
    0.00000E+00         0.00000E+00        -0.40592E-07
 
    0.23009E+06         0.11307E+05         0.00000E+00
    0.11307E+05        -0.50499E+08         0.00000E+00
    0.00000E+00         0.00000E+00         0.00000E+00
 
    0.22944E+06         0.11489E+05         0.00000E+00
    0.11489E+05        -0.50614E+08         0.00000E+00
    0.00000E+00         0.00000E+00         0.60889E-07
 
    0.22930E+06         0.11666E+05         0.00000E+00
    0.11666E+05        -0.50729E+08         0.00000E+00
    0.00000E+00         0.00000E+00         0.71037E-07
 
    0.22958E+06         0.11839E+05         0.00000E+00
    0.11839E+05        -0.50846E+08         0.00000E+00
    0.00000E+00         0.00000E+00        -0.81185E-07
 
    0.23021E+06         0.12008E+05         0.00000E+00
    0.12008E+05        -0.50965E+08         0.00000E+00
    0.00000E+00         0.00000E+00         0.00000E+00
 
    0.23111E+06         0.12174E+05         0.00000E+00
    0.12174E+05        -0.51085E+08         0.00000E+00
    0.00000E+00         0.00000E+00         0.20296E-07
 
    0.23224E+06         0.12337E+05         0.00000E+00
    0.12337E+05        -0.51206E+08         0.00000E+00
    0.00000E+00         0.00000E+00        -0.30444E-07
 
    0.23353E+06         0.12499E+05         0.00000E+00
    0.12499E+05        -0.51328E+08         0.00000E+00
    0.00000E+00         0.00000E+00        -0.50741E-07
 
    0.23494E+06         0.12660E+05         0.00000E+00
    0.12660E+05        -0.51453E+08         0.00000E+00
    0.00000E+00         0.00000E+00        -0.60889E-07
 
    0.23641E+06         0.12819E+05         0.00000E+00
    0.12819E+05        -0.51578E+08         0.00000E+00
    0.00000E+00         0.00000E+00         0.10148E-07
 
    0.23793E+06         0.12977E+05         0.00000E+00
    0.12977E+05        -0.51706E+08         0.00000E+00
    0.00000E+00         0.00000E+00         0.00000E+00
 
    0.23944E+06         0.13134E+05         0.00000E+00
    0.13134E+05        -0.51835E+08         0.00000E+00
    0.00000E+00         0.00000E+00        -0.40593E-07
 
    0.24091E+06         0.13291E+05         0.00000E+00
    0.13291E+05        -0.51965E+08         0.00000E+00
    0.00000E+00         0.00000E+00        -0.10148E-07
 
    0.24231E+06         0.13447E+05         0.00000E+00
    0.13447E+05        -0.52097E+08         0.00000E+00
    0.00000E+00         0.00000E+00         0.00000E+00
 
    0.24362E+06         0.13603E+05         0.00000E+00
    0.13603E+05        -0.52231E+08         0.00000E+00
    0.00000E+00         0.00000E+00         0.30444E-07
 
    0.24480E+06         0.13757E+05         0.00000E+00
    0.13757E+05        -0.52367E+08         0.00000E+00
    0.00000E+00         0.00000E+00        -0.11163E-06
 
    0.24582E+06         0.13912E+05         0.00000E+00
    0.13912E+05        -0.52504E+08         0.00000E+00
    0.00000E+00         0.00000E+00        -0.50741E-07
 
    0.24667E+06         0.14065E+05         0.00000E+00
    0.14065E+05        -0.52643E+08         0.00000E+00
    0.00000E+00         0.00000E+00        -0.40593E-07
 
    0.24732E+06         0.14218E+05         0.00000E+00
    0.14218E+05        -0.52784E+08         0.00000E+00
    0.00000E+00         0.00000E+00        -0.91333E-07
 
    0.24774E+06         0.14370E+05         0.00000E+00
    0.14370E+05        -0.52926E+08         0.00000E+00
    0.00000E+00         0.00000E+00         0.10148E-07
 
    0.24792E+06         0.14521E+05         0.00000E+00
    0.14521E+05        -0.53070E+08         0.00000E+00
    0.00000E+00         0.00000E+00         0.00000E+00
 
    0.24781E+06         0.14670E+05         0.00000E+00
    0.14670E+05        -0.53216E+08         0.00000E+00
    0.00000E+00         0.00000E+00        -0.12178E-06
 
    0.24741E+06         0.14819E+05         0.00000E+00
    0.14819E+05        -0.53364E+08         0.00000E+00
    0.00000E+00         0.00000E+00        -0.40593E-07
 
    0.24669E+06         0.14965E+05         0.00000E+00
    0.14965E+05        -0.53514E+08         0.00000E+00
    0.00000E+00         0.00000E+00        -0.20296E-07
 
    0.24562E+06         0.15109E+05         0.00000E+00
    0.15109E+05        -0.53665E+08         0.00000E+00
    0.00000E+00         0.00000E+00         0.20296E-07
 
    0.24417E+06         0.15252E+05         0.00000E+00
    0.15252E+05        -0.53818E+08         0.00000E+00
    0.00000E+00         0.00000E+00         0.20296E-07
 
    0.24232E+06         0.15391E+05         0.00000E+00
    0.15391E+05        -0.53973E+08         0.00000E+00
    0.00000E+00         0.00000E+00         0.71037E-07
 
    0.24004E+06         0.15528E+05         0.00000E+00
    0.15528E+05        -0.54130E+08         0.00000E+00
    0.00000E+00         0.00000E+00        -0.40592E-07
 
    0.23728E+06         0.15661E+05         0.00000E+00
    0.15661E+05        -0.54289E+08         0.00000E+00
    0.00000E+00         0.00000E+00        -0.11163E-06
 
    0.23403E+06         0.15790E+05         0.00000E+00
    0.15790E+05        -0.54449E+08         0.00000E+00
    0.00000E+00         0.00000E+00         0.60889E-07
 
    0.23025E+06         0.15915E+05         0.00000E+00
    0.15915E+05        -0.54612E+08         0.00000E+00
    0.00000E+00         0.00000E+00         0.81185E-07
 
    0.22588E+06         0.16035E+05         0.00000E+00
    0.16035E+05        -0.54776E+08         0.00000E+00
    0.00000E+00         0.00000E+00        -0.12178E-06
 
    0.22089E+06         0.16150E+05         0.00000E+00
    0.16150E+05        -0.54942E+08         0.00000E+00
    0.00000E+00         0.00000E+00         0.20296E-07
 
    0.21522E+06         0.16258E+05         0.00000E+00
    0.16258E+05        -0.55109E+08         0.00000E+00
    0.00000E+00         0.00000E+00        -0.40593E-07
 
    0.20883E+06         0.16359E+05         0.00000E+00
    0.16359E+05        -0.55279E+08         0.00000E+00
    0.00000E+00         0.00000E+00        -0.60889E-07
 
    0.20165E+06         0.16452E+05         0.00000E+00
    0.16452E+05        -0.55450E+08         0.00000E+00
    0.00000E+00         0.00000E+00        -0.10148E-07
 
    0.19360E+06         0.16536E+05         0.00000E+00
    0.16536E+05        -0.55623E+08         0.00000E+00
    0.00000E+00         0.00000E+00         0.30444E-07
 
    0.18463E+06         0.16611E+05         0.00000E+00
    0.16611E+05        -0.55798E+08         0.00000E+00
    0.00000E+00         0.00000E+00        -0.40593E-07
 
    0.17463E+06         0.16674E+05         0.00000E+00
    0.16674E+05        -0.55974E+08         0.00000E+00
    0.00000E+00         0.00000E+00         0.20296E-07
 
    0.16352E+06         0.16725E+05         0.00000E+00
    0.16725E+05        -0.56152E+08         0.00000E+00
    0.00000E+00         0.00000E+00         0.19281E-06
 
    0.15118E+06         0.16762E+05         0.00000E+00
    0.16762E+05        -0.56332E+08         0.00000E+00
    0.00000E+00         0.00000E+00         0.20296E-07
 
    0.13749E+06         0.16783E+05         0.00000E+00
    0.16783E+05        -0.56513E+08         0.00000E+00
    0.00000E+00         0.00000E+00        -0.40593E-07
 
    0.12231E+06         0.16786E+05         0.00000E+00
    0.16786E+05        -0.56696E+08         0.00000E+00
    0.00000E+00         0.00000E+00        -0.10148E-07
 
    0.10546E+06         0.16768E+05         0.00000E+00
    0.16768E+05        -0.56881E+08         0.00000E+00
    0.00000E+00         0.00000E+00        -0.40593E-07
 
    0.86781E+05         0.16728E+05         0.00000E+00
    0.16728E+05        -0.57067E+08         0.00000E+00
    0.00000E+00         0.00000E+00         0.13193E-06
 
    0.66041E+05         0.16660E+05         0.00000E+00
    0.16660E+05        -0.57255E+08         0.00000E+00
    0.00000E+00         0.00000E+00         0.40593E-07
 
    0.42998E+05         0.16563E+05         0.00000E+00
    0.16563E+05        -0.57444E+08         0.00000E+00
    0.00000E+00         0.00000E+00        -0.71037E-07
 
    0.17366E+05         0.16431E+05         0.00000E+00
    0.16431E+05        -0.57634E+08         0.00000E+00
    0.00000E+00         0.00000E+00        -0.60889E-07
 
   -0.11184E+05         0.16258E+05         0.00000E+00
    0.16258E+05        -0.57826E+08         0.00000E+00
    0.00000E+00         0.00000E+00        -0.10148E-07
 
   -0.43036E+05         0.16039E+05         0.00000E+00
    0.16039E+05        -0.58020E+08         0.00000E+00
    0.00000E+00         0.00000E+00        -0.81185E-07
 
   -0.78634E+05         0.15767E+05         0.00000E+00
    0.15767E+05        -0.58214E+08         0.00000E+00
    0.00000E+00         0.00000E+00         0.11163E-06
 
   -0.11849E+06         0.15433E+05         0.00000E+00
    0.15433E+05        -0.58410E+08         0.00000E+00
    0.00000E+00         0.00000E+00         0.10148E-06
 
   -0.16322E+06         0.15027E+05         0.00000E+00
    0.15027E+05        -0.58607E+08         0.00000E+00
    0.00000E+00         0.00000E+00        -0.81185E-07
 
   -0.21349E+06         0.14537E+05         0.00000E+00
    0.14537E+05        -0.58805E+08         0.00000E+00
    0.00000E+00         0.00000E+00        -0.30444E-07
 
   -0.27013E+06         0.13952E+05         0.00000E+00
    0.13952E+05        -0.59004E+08         0.00000E+00
    0.00000E+00         0.00000E+00         0.30444E-07
 
   -0.33406E+06         0.13255E+05         0.00000E+00
    0.13255E+05        -0.59205E+08         0.00000E+00
    0.00000E+00         0.00000E+00         0.40593E-07
 
   -0.40633E+06         0.12431E+05         0.00000E+00
    0.12431E+05        -0.59406E+08         0.00000E+00
    0.00000E+00         0.00000E+00         0.00000E+00
 
   -0.48816E+06         0.11462E+05         0.00000E+00
    0.11462E+05        -0.59608E+08         0.00000E+00
    0.00000E+00         0.00000E+00        -0.71037E-07
 
   -0.58090E+06         0.10329E+05         0.00000E+00
    0.10329E+05        -0.59811E+08         0.00000E+00
    0.00000E+00         0.00000E+00         0.71036E-07
 
   -0.68608E+06         0.90126E+04         0.00000E+00
    0.90126E+04        -0.60015E+08         0.00000E+00
    0.00000E+00         0.00000E+00        -0.30444E-07
 
   -0.80535E+06         0.74938E+04         0.00000E+00
    0.74938E+04        -0.60220E+08         0.00000E+00
    0.00000E+00         0.00000E+00        -0.10148E-06
 
   -0.94051E+06         0.57560E+04         0.00000E+00
    0.57560E+04        -0.60425E+08         0.00000E+00
    0.00000E+00         0.00000E+00        -0.15222E-06
 
   -0.10934E+07         0.37858E+04         0.00000E+00
    0.37858E+04        -0.60631E+08         0.00000E+00
    0.00000E+00         0.00000E+00         0.81185E-07
 
   -0.12660E+07         0.15755E+04         0.00000E+00
    0.15755E+04        -0.60837E+08         0.00000E+00
    0.00000E+00         0.00000E+00         0.00000E+00
 
   -0.14602E+07        -0.87603E+03         0.00000E+00
   -0.87603E+03        -0.61044E+08         0.00000E+00
    0.00000E+00         0.00000E+00        -0.10148E-06
 
   -0.16776E+07        -0.35643E+04         0.00000E+00
   -0.35643E+04        -0.61251E+08         0.00000E+00
    0.00000E+00         0.00000E+00         0.20296E-07
 
   -0.19198E+07        -0.64817E+04         0.00000E+00
   -0.64817E+04        -0.61458E+08         0.00000E+00
    0.00000E+00         0.00000E+00        -0.50741E-07
 
   -0.21878E+07        -0.96276E+04         0.00000E+00
   -0.96276E+04        -0.61666E+08         0.00000E+00
    0.00000E+00         0.00000E+00        -0.10148E-06
 
   -0.24821E+07        -0.13085E+05         0.00000E+00
   -0.13085E+05        -0.61874E+08         0.00000E+00
    0.00000E+00         0.00000E+00        -0.81185E-07
 
   -0.28022E+07        -0.16814E+05         0.00000E+00
   -0.16814E+05        -0.62082E+08         0.00000E+00
    0.00000E+00         0.00000E+00        -0.20296E-07
 
   -0.31481E+07        -0.22517E+05         0.00000E+00
   -0.22517E+05        -0.62289E+08         0.00000E+00
    0.00000E+00         0.00000E+00        -0.14207E-06
 
   -0.34928E+07        -0.32864E+05         0.00000E+00
   -0.32864E+05        -0.62500E+08         0.00000E+00
    0.00000E+00         0.00000E+00         0.50741E-07
 
TENSORS stresstot double 
   -0.49922E+08         0.72566E+05         0.00000E+00
    0.72566E+05        -0.97427E+08         0.00000E+00
    0.00000E+00         0.00000E+00        -0.49952E+08
 
   -0.49837E+08         0.19173E+06         0.00000E+00
    0.19173E+06        -0.97370E+08         0.00000E+00
    0.00000E+00         0.00000E+00        -0.49856E+08
 
   -0.49744E+08         0.27620E+06         0.00000E+00
    0.27620E+06        -0.97333E+08         0.00000E+00
    0.00000E+00         0.00000E+00        -0.49759E+08
 
   -0.49650E+08         0.34625E+06         0.00000E+00
    0.34625E+06        -0.97308E+08         0.00000E+00
    0.00000E+00         0.00000E+00        -0.49663E+08
 
   -0.49555E+08         0.40691E+06         0.00000E+00
    0.40691E+06        -0.97295E+08         0.00000E+00
    0.00000E+00         0.00000E+00        -0.49567E+08
 
   -0.49460E+08         0.46125E+06         0.00000E+00
    0.46125E+06        -0.97291E+08         0.00000E+00
    0.00000E+00         0.00000E+00        -0.49470E+08
 
   -0.49364E+08         0.51101E+06         0.00000E+00
    0.51101E+06        -0.97294E+08         0.00000E+00
    0.00000E+00         0.00000E+00        -0.49374E+08
 
   -0.49268E+08         0.55722E+06         0.00000E+00
    0.55722E+06        -0.97303E+08         0.00000E+00
    0.00000E+00         0.00000E+00        -0.49277E+08
 
   -0.49171E+08         0.60050E+06         0.00000E+00
    0.60050E+06        -0.97315E+08         0.00000E+00
    0.00000E+00         0.00000E+00        -0.49180E+08
 
   -0.49074E+08         0.64123E+06         0.00000E+00
    0.64123E+06        -0.97330E+08         0.00000E+00
    0.00000E+00         0.00000E+00        -0.49082E+08
 
   -0.48977E+08         0.67962E+06         0.00000E+00
    0.67962E+06        -0.97346E+08         0.00000E+00
    0.00000E+00         0.00000E+00        -0.48984E+08
 
   -0.48879E+08         0.71584E+06         0.00000E+00
    0.71584E+06        -0.97362E+08         0.00000E+00
    0.00000E+00         0.00000E+00        -0.48886E+08
 
   -0.48781E+08         0.75000E+06         0.00000E+00
    0.75000E+06        -0.97378E+08         0.00000E+00
    0.00000E+00         0.00000E+00        -0.48787E+08
 
   -0.48682E+08         0.78222E+06         0.00000E+00
    0.78222E+06        -0.97394E+08         0.00000E+00
    0.00000E+00         0.00000E+00        -0.48688E+08
 
   -0.48582E+08         0.81261E+06         0.00000E+00
    0.81261E+06        -0.97409E+08         0.00000E+00
    0.00000E+00         0.00000E+00        -0.48588E+08
 
   -0.48482E+08         0.84127E+06         0.00000E+00
    0.84127E+06        -0.97423E+08         0.00000E+00
    0.00000E+00         0.00000E+00        -0.48487E+08
 
   -0.48381E+08         0.86833E+06         0.00000E+00
    0.86833E+06        -0.97436E+08         0.00000E+00
    0.00000E+00         0.00000E+00        -0.48386E+08
 
   -0.48279E+08         0.89392E+06         0.00000E+00
    0.89392E+06        -0.97447E+08         0.00000E+00
    0.00000E+00         0.00000E+00        -0.48284E+08
 
   -0.48177E+08         0.91815E+06         0.00000E+00
    0.91815E+06        -0.97458E+08         0.00000E+00
    0.00000E+00         0.00000E+00        -0.48181E+08
 
   -0.48073E+08         0.94116E+06         0.00000E+00
    0.94116E+06        -0.97467E+08         0.00000E+00
    0.00000E+00         0.00000E+00        -0.48078E+08
 
   -0.47969E+08         0.96307E+06         0.00000E+00
    0.96307E+06        -0.97475E+08         0.00000E+00
    0.00000E+00         0.00000E+00        -0.47973E+08
 
   -0.47864E+08         0.98400E+06         0.00000E+00
    0.98400E+06        -0.97483E+08         0.00000E+00
    0.00000E+00         0.00000E+00        -0.47868E+08
 
   -0.47758E+08         0.10041E+07         0.00000E+00
    0.10041E+07        -0.97489E+08         0.00000E+00
    0.00000E+00         0.00000E+00        -0.47762E+08
 
   -0.47650E+08         0.10234E+07         0.00000E+00
    0.10234E+07        -0.97494E+08         0.00000E+00
    0.00000E+00         0.00000E+00        -0.47654E+08
 
   -0.47542E+08         0.10421E+07         0.00000E+00
    0.10421E+07        -0.97499E+08         0.00000E+00
    0.00000E+00         0.00000E+00        -0.47546E+08
 
   -0.47433E+08         0.10602E+07         0.00000E+00
    0.10602E+07        -0.97503E+08         0.00000E+00
    0.00000E+00         0.00000E+00        -0.47436E+08
 
   -0.47322E+08         0.10778E+07         0.00000E+00
    0.10778E+07        -0.97507E+08         0.00000E+00
    0.00000E+00         0.00000E+00        -0.47325E+08
 
   -0.47210E+08         0.10950E+07         0.00000E+00
    0.10950E+07        -0.97509E+08         0.00000E+00
    0.00000E+00         0.00000E+00        -0.47214E+08
 
   -0.47097E+08         0.11120E+07         0.00000E+00
    0.11120E+07        -0.97512E+08         0.00000E+00
    0.00000E+00         0.00000E+00        -0.47100E+08
 
   -0.46983E+08         0.11286E+07         0.00000E+00
    0.11286E+07        -0.97514E+08         0.00000E+00
    0.00000E+00         0.00000E+00        -0.46986E+08
 
   -0.46867E+08         0.11451E+07         0.00000E+00
    0.11451E+07        -0.97515E+08         0.00000E+00
    0.00000E+00         0.00000E+00        -0.46870E+08
 
   -0.46750E+08         0.11613E+07         0.00000E+00
    0.11613E+07        -0.97517E+08         0.00000E+00
    0.00000E+00         0.00000E+00        -0.46753E+08
 
   -0.46632E+08         0.11775E+07         0.00000E+00
    0.11775E+07        -0.97518E+08         0.00000E+00
    0.00000E+00         0.00000E+00        -0.46635E+08
 
   -0.46512E+08         0.11936E+07         0.00000E+00
    0.11936E+07        -0.97519E+08         0.00000E+00
    0.00000E+00         0.00000E+00        -0.46515E+08
 
   -0.46391E+08         0.12096E+07         0.00000E+00
    0.12096E+07        -0.97519E+08         0.00000E+00
    0.00000E+00         0.00000E+00        -0.46394E+08
 
   -0.46268E+08         0.12256E+07         0.00000E+00
    0.12256E+07        -0.97520E+08         0.00000E+00
    0.00000E+00         0.00000E+00        -0.46271E+08
 
   -0.46144E+08         0.12415E+07         0.00000E+00
    0.12415E+07        -0.97520E+08         0.00000E+00
    0.00000E+00         0.00000E+00        -0.46147E+08
 
   -0.46018E+08         0.12575E+07         0.00000E+00
    0.12575E+07        -0.97521E+08         0.00000E+00
    0.00000E+00         0.00000E+00        -0.46021E+08
 
   -0.45891E+08         0.12735E+07         0.00000E+00
    0.12735E+07        -0.97521E+08         0.00000E+00
    0.00000E+00         0.00000E+00        -0.45894E+08
 
   -0.45762E+08         0.12895E+07         0.00000E+00
    0.12895E+07        -0.97521E+08         0.00000E+00
    0.00000E+00         0.00000E+00        -0.45765E+08
 
   -0.45631E+08         0.13056E+07         0.00000E+00
    0.13056E+07        -0.97521E+08         0.00000E+00
    0.00000E+00         0.00000E+00        -0.45634E+08
 
   -0.45499E+08         0.13216E+07         0.00000E+00
    0.13216E+07        -0.97521E+08         0.00000E+00
    0.00000E+00         0.00000E+00        -0.45502E+08
 
   -0.45365E+08         0.13377E+07         0.00000E+00
    0.13377E+07        -0.97521E+08         0.00000E+00
    0.00000E+00         0.00000E+00        -0.45368E+08
 
   -0.45230E+08         0.13539E+07         0.00000E+00
    0.13539E+07        -0.97521E+08         0.00000E+00
    0.00000E+00         0.00000E+00        -0.45233E+08
 
   -0.45092E+08         0.13700E+07         0.00000E+00
    0.13700E+07        -0.97521E+08         0.00000E+00
    0.00000E+00         0.00000E+00        -0.45096E+08
 
   -0.44953E+08         0.13862E+07         0.00000E+00
    0.13862E+07        -0.97522E+08         0.00000E+00
    0.00000E+00         0.00000E+00        -0.44957E+08
 
   -0.44813E+08         0.14023E+07         0.00000E+00
    0.14023E+07        -0.97522E+08         0.00000E+00
    0.00000E+00         0.00000E+00        -0.44816E+08
 
   -0.44670E+08         0.14185E+07         0.00000E+00
    0.14185E+07        -0.97522E+08         0.00000E+00
    0.00000E+00         0.00000E+00        -0.44674E+08
 
   -0.44526E+08         0.14346E+07         0.00000E+00
    0.14346E+07        -0.97523E+08         0.00000E+00
    0.00000E+00         0.00000E+00        -0.44529E+08
 
   -0.44380E+08         0.14506E+07         0.00000E+00
    0.14506E+07        -0.97523E+08         0.00000E+00
    0.00000E+00         0.00000E+00        -0.44383E+08
 
   -0.44232E+08         0.14666E+07         0.00000E+00
    0.14666E+07        -0.97524E+08         0.00000E+00
    0.00000E+00         0.00000E+00        -0.44235E+08
 
   -0.44083E+08         0.14825E+07         0.00000E+00
    0.14825E+07        -0.97524E+08         0.00000E+00
    0.00000E+00         0.00000E+00        -0.44086E+08
 
   -0.43931E+08         0.14983E+07         0.00000E+00
    0.14983E+07        -0.97525E+08         0.00000E+00
    0.00000E+00         0.00000E+00        -0.43934E+08
 
   -0.43778E+08         0.15140E+07         0.00000E+00
    0.15140E+07        -0.97526E+08         0.00000E+00
    0.00000E+00         0.00000E+00        -0.43781E+08
 
   -0.43623E+08         0.15294E+07         0.00000E+00
    0.15294E+07        -0.97527E+08         0.00000E+00
    0.00000E+00         0.00000E+00        -0.43626E+08
 
   -0.43466E+08         0.15447E+07         0.00000E+00
    0.15447E+07        -0.97529E+08         0.00000E+00
    0.00000E+00         0.00000E+00        -0.43469E+08
 
   -0.43308E+08         0.15597E+07         0.00000E+00
    0.15597E+07        -0.97530E+08         0.00000E+00
    0.00000E+00         0.00000E+00        -0.43311E+08
 
   -0.43147E+08         0.15745E+07         0.00000E+00
    0.15745E+07        -0.97532E+08         0.00000E+00
    0.00000E+00         0.00000E+00        -0.43150E+08
 
   -0.42985E+08         0.15889E+07         0.00000E+00
    0.15889E+07        -0.97534E+08         0.00000E+00
    0.00000E+00         0.00000E+00        -0.42988E+08
 
   -0.42821E+08         0.16030E+07         0.00000E+00
    0.16030E+07        -0.97536E+08         0.00000E+00
    0.00000E+00         0.00000E+00        -0.42824E+08
 
   -0.42655E+08         0.16166E+07         0.00000E+00
    0.16166E+07        -0.97539E+08         0.00000E+00
    0.00000E+00         0.00000E+00        -0.42658E+08
 
   -0.42488E+08         0.16298E+07         0.00000E+00
    0.16298E+07        -0.97542E+08         0.00000E+00
    0.00000E+00         0.00000E+00        -0.42490E+08
 
   -0.42318E+08         0.16424E+07         0.00000E+00
    0.16424E+07        -0.97545E+08         0.00000E+00
    0.00000E+00         0.00000E+00        -0.42321E+08
 
   -0.42147E+08         0.16545E+07         0.00000E+00
    0.16545E+07        -0.97549E+08         0.00000E+00
    0.00000E+00         0.00000E+00        -0.42149E+08
 
   -0.41974E+08         0.16658E+07         0.00000E+00
    0.16658E+07        -0.97553E+08         0.00000E+00
    0.00000E+00         0.00000E+00        -0.41976E+08
 
   -0.41800E+08         0.16764E+07         0.00000E+00
    0.16764E+07        -0.97558E+08         0.00000E+00
    0.00000E+00         0.00000E+00        -0.41802E+08
 
   -0.41623E+08         0.16862E+07         0.00000E+00
    0.16862E+07        -0.97563E+08         0.00000E+00
    0.00000E+00         0.00000E+00        -0.41625E+08
 
   -0.41445E+08         0.16950E+07         0.00000E+00
    0.16950E+07        -0.97569E+08         0.00000E+00
    0.00000E+00         0.00000E+00        -0.41447E+08
 
   -0.41266E+08         0.17028E+07         0.00000E+00
    0.17028E+07        -0.97575E+08         0.00000E+00
    0.00000E+00         0.00000E+00        -0.41267E+08
 
   -0.41085E+08         0.17095E+07         0.00000E+00
    0.17095E+07        -0.97582E+08         0.00000E+00
    0.00000E+00         0.00000E+00        -0.41086E+08
 
   -0.40902E+08         0.17148E+07         0.00000E+00
    0.17148E+07        -0.97591E+08         0.00000E+00
    0.00000E+00         0.00000E+00        -0.40903E+08
 
   -0.40718E+08         0.17188E+07         0.00000E+00
    0.17188E+07        -0.97600E+08         0.00000E+00
    0.00000E+00         0.00000E+00        -0.40718E+08
 
   -0.40532E+08         0.17212E+07         0.00000E+00
    0.17212E+07        -0.97610E+08         0.00000E+00
    0.00000E+00         0.00000E+00        -0.40532E+08
 
   -0.40345E+08         0.17218E+07         0.00000E+00
    0.17218E+07        -0.97621E+08         0.00000E+00
    0.00000E+00         0.00000E+00        -0.40345E+08
 
   -0.40156E+08         0.17206E+07         0.00000E+00
    0.17206E+07        -0.97633E+08         0.00000E+00
    0.00000E+00         0.00000E+00        -0.40156E+08
 
   -0.39966E+08         0.17172E+07         0.00000E+00
    0.17172E+07        -0.97647E+08         0.00000E+00
    0.00000E+00         0.00000E+00        -0.39965E+08
 
   -0.39775E+08         0.17115E+07         0.00000E+00
    0.17115E+07        -0.97662E+08         0.00000E+00
    0.00000E+00         0.00000E+00        -0.39773E+08
 
   -0.39582E+08         0.17033E+07         0.00000E+00
    0.17033E+07        -0.97680E+08         0.00000E+00
    0.00000E+00         0.00000E+00        -0.39580E+08
 
   -0.39388E+08         0.16923E+07         0.00000E+00
    0.16923E+07        -0.97699E+08         0.00000E+00
    0.00000E+00         0.00000E+00        -0.39385E+08
 
   -0.39193E+08         0.16783E+07         0.00000E+00
    0.16783E+07        -0.97720E+08         0.00000E+00
    0.00000E+00         0.00000E+00        -0.39190E+08
 
   -0.38997E+08         0.16610E+07         0.00000E+00
    0.16610E+07        -0.97743E+08         0.00000E+00
    0.00000E+00         0.00000E+00        -0.38993E+08
 
   -0.38799E+08         0.16401E+07         0.00000E+00
    0.16401E+07        -0.97768E+08         0.00000E+00
    0.00000E+00         0.00000E+00        -0.38795E+08
 
   -0.38601E+08         0.16154E+07         0.00000E+00
    0.16154E+07        -0.97796E+08         0.00000E+00
    0.00000E+00         0.00000E+00        -0.38595E+08
 
   -0.38401E+08         0.15866E+07         0.00000E+00
    0.15866E+07        -0.97826E+08         0.00000E+00
    0.00000E+00         0.00000E+00        -0.38395E+08
 
   -0.38201E+08         0.15534E+07         0.00000E+00
    0.15534E+07        -0.97859E+08         0.00000E+00
    0.00000E+00         0.00000E+00        -0.38194E+08
 
   -0.38000E+08         0.15156E+07         0.00000E+00
    0.15156E+07        -0.97894E+08         0.00000E+00
    0.00000E+00         0.00000E+00        -0.37992E+08
 
   -0.37798E+08         0.14729E+07         0.00000E+00
    0.14729E+07        -0.97931E+08         0.00000E+00
    0.00000E+00         0.00000E+00        -0.37789E+08
 
   -0.37595E+08         0.14250E+07         0.00000E+00
    0.14250E+07        -0.97970E+08         0.00000E+00
    0.00000E+00         0.00000E+00        -0.37585E+08
 
   -0.37392E+08         0.13719E+07         0.00000E+00
    0.13719E+07        -0.98010E+08         0.00000E+00
    0.00000E+00         0.00000E+00        -0.37381E+08
 
   -0.37188E+08         0.13132E+07         0.00000E+00
    0.13132E+07        -0.98049E+08         0.00000E+00
    0.00000E+00         0.00000E+00        -0.37176E+08
 
   -0.36984E+08         0.12488E+07         0.00000E+00
    0.12488E+07        -0.98088E+08         0.00000E+00
    0.00000E+00         0.00000E+00        -0.36970E+08
 
   -0.36779E+08         0.11784E+07         0.00000E+00
    0.11784E+07        -0.98123E+08         0.00000E+00
    0.00000E+00         0.00000E+00        -0.36764E+08
 
   -0.36573E+08         0.11014E+07         0.00000E+00
    0.11014E+07        -0.98152E+08         0.00000E+00
    0.00000E+00         0.00000E+00        -0.36557E+08
 
   -0.36368E+08         0.10173E+07         0.00000E+00
    0.10173E+07        -0.98173E+08         0.00000E+00
    0.00000E+00         0.00000E+00        -0.36350E+08
 
   -0.36163E+08         0.92466E+06         0.00000E+00
    0.92466E+06        -0.98182E+08         0.00000E+00
    0.00000E+00         0.00000E+00        -0.36143E+08
 
   -0.35957E+08         0.82139E+06         0.00000E+00
    0.82139E+06        -0.98175E+08         0.00000E+00
    0.00000E+00         0.00000E+00        -0.35935E+08
 
   -0.35753E+08         0.70385E+06         0.00000E+00
    0.70385E+06        -0.98149E+08         0.00000E+00
    0.00000E+00         0.00000E+00        -0.35728E+08
 
   -0.35550E+08         0.56552E+06         0.00000E+00
    0.56552E+06        -0.98096E+08         0.00000E+00
    0.00000E+00         0.00000E+00        -0.35520E+08
 
   -0.35350E+08         0.39564E+06         0.00000E+00
    0.39564E+06        -0.98017E+08         0.00000E+00
    0.00000E+00         0.00000E+00        -0.35312E+08
 
   -0.35165E+08         0.15060E+06         0.00000E+00
    0.15060E+06        -0.97894E+08         0.00000E+00
    0.00000E+00         0.00000E+00        -0.35104E+08
 
   -0.49866E+08         0.63172E+05         0.00000E+00
    0.63172E+05        -0.97454E+08         0.00000E+00
    0.00000E+00         0.00000E+00        -0.49952E+08
 
   -0.49799E+08         0.17361E+06         0.00000E+00
    0.17361E+06        -0.97389E+08         0.00000E+00
    0.00000E+00         0.00000E+00        -0.49856E+08
 
   -0.49713E+08         0.25823E+06         0.00000E+00
    0.25823E+06        -0.97348E+08         0.00000E+00
    0.00000E+00         0.00000E+00        -0.49759E+08
 
   -0.49624E+08         0.32766E+06         0.00000E+00
    0.32766E+06        -0.97321E+08         0.00000E+00
    0.00000E+00         0.00000E+00        -0.49663E+08
 
   -0.49532E+08         0.38812E+06         0.00000E+00
    0.38812E+06        -0.97306E+08         0.00000E+00
    0.00000E+00         0.00000E+00        -0.49567E+08
 
   -0.49439E+08         0.44229E+06         0.00000E+00
    0.44229E+06        -0.97301E+08         0.00000E+00
    0.00000E+00         0.00000E+00        -0.49470E+08
 
   -0.49345E+08         0.49193E+06         0.00000E+00
    0.49193E+06        -0.97304E+08         0.00000E+00
    0.00000E+00         0.00000E+00        -0.49374E+08
 
   -0.49250E+08         0.53805E+06         0.00000E+00
    0.53805E+06        -0.97312E+08         0.00000E+00
    0.00000E+00         0.00000E+00        -0.49277E+08
 
   -0.49154E+08         0.58124E+06         0.00000E+00
    0.58124E+06        -0.97323E+08         0.00000E+00
    0.00000E+00         0.00000E+00        -0.49180E+08
 
   -0.49058E+08         0.62188E+06         0.00000E+00
    0.62188E+06        -0.97337E+08         0.00000E+00
    0.00000E+00         0.00000E+00        -0.49082E+08
 
   -0.48962E+08         0.66018E+06         0.00000E+00
    0.66018E+06        -0.97353E+08         0.00000E+00
    0.00000E+00         0.00000E+00        -0.48984E+08
 
   -0.48865E+08         0.69630E+06         0.00000E+00
    0.69630E+06        -0.97369E+08         0.00000E+00
    0.00000E+00         0.00000E+00        -0.48886E+08
 
   -0.48767E+08         0.73035E+06         0.00000E+00
    0.73035E+06        -0.97385E+08         0.00000E+00
    0.00000E+00         0.00000E+00        -0.48787E+08
 
   -0.48669E+08         0.76245E+06         0.00000E+00
    0.76245E+06        -0.97400E+08         0.00000E+00
    0.00000E+00         0.00000E+00        -0.48688E+08
 
   -0.48570E+08         0.79271E+06         0.00000E+00
    0.79271E+06        -0.97415E+08         0.00000E+00
    0.00000E+00         0.00000E+00        -0.48588E+08
 
   -0.48471E+08         0.82123E+06         0.00000E+00
    0.82123E+06        -0.97429E+08         0.00000E+00
    0.00000E+00         0.00000E+00        -0.48487E+08
 
   -0.48370E+08         0.84814E+06         0.00000E+00
    0.84814E+06        -0.97441E+08         0.00000E+00
    0.00000E+00         0.00000E+00        -0.48386E+08
 
   -0.48269E+08         0.87356E+06         0.00000E+00
    0.87356E+06        -0.97452E+08         0.00000E+00
    0.00000E+00         0.00000E+00        -0.48284E+08
 
   -0.48167E+08         0.89762E+06         0.00000E+00
    0.89762E+06        -0.97463E+08         0.00000E+00
    0.00000E+00         0.00000E+00        -0.48181E+08
 
   -0.48064E+08         0.92044E+06         0.00000E+00
    0.92044E+06        -0.97472E+08         0.00000E+00
    0.00000E+00         0.00000E+00        -0.48078E+08
 
   -0.47961E+08         0.94216E+06         0.00000E+00
    0.94216E+06        -0.97480E+08         0.00000E+00
    0.00000E+00         0.00000E+00        -0.47973E+08
 
   -0.47856E+08         0.96289E+06         0.00000E+00
    0.96289E+06        -0.97487E+08         0.00000E+00
    0.00000E+00         0.00000E+00        -0.47868E+08
 
   -0.47750E+08         0.98276E+06         0.00000E+00
    0.98276E+06        -0.97493E+08         0.00000E+00
    0.00000E+00         0.00000E+00        -0.47762E+08
 
   -0.47643E+08         0.10019E+07         0.00000E+00
    0.10019E+07        -0.97498E+08         0.00000E+00
    0.00000E+00         0.00000E+00        -0.47654E+08
 
   -0.47535E+08         0.10203E+07         0.00000E+00
    0.10203E+07        -0.97503E+08         0.00000E+00
    0.00000E+00         0.00000E+00        -0.47546E+08
 
   -0.47425E+08         0.10382E+07         0.00000E+00
    0.10382E+07        -0.97507E+08         0.00000E+00
    0.00000E+00         0.00000E+00        -0.47436E+08
 
   -0.47315E+08         0.10556E+07         0.00000E+00
    0.10556E+07        -0.97510E+08         0.00000E+00
    0.00000E+00         0.00000E+00        -0.47325E+08
 
   -0.47203E+08         0.10726E+07         0.00000E+00
    0.10726E+07        -0.97513E+08         0.00000E+00
    0.00000E+00         0.00000E+00        -0.47214E+08
 
   -0.47090E+08         0.10892E+07         0.00000E+00
    0.10892E+07        -0.97515E+08         0.00000E+00
    0.00000E+00         0.00000E+00        -0.47100E+08
 
   -0.46976E+08         0.11056E+07         0.00000E+00
    0.11056E+07        -0.97517E+08         0.00000E+00
    0.00000E+00         0.00000E+00        -0.46986E+08
 
   -0.46861E+08         0.11218E+07         0.00000E+00
    0.11218E+07        -0.97519E+08         0.00000E+00
    0.00000E+00         0.00000E+00        -0.46870E+08
 
   -0.46744E+08         0.11378E+07         0.00000E+00
    0.11378E+07        -0.97520E+08         0.00000E+00
    0.00000E+00         0.00000E+00        -0.46753E+08
 
   -0.46625E+08         0.11537E+07         0.00000E+00
    0.11537E+07        -0.97521E+08         0.00000E+00
    0.00000E+00         0.00000E+00        -0.46635E+08
 
   -0.46505E+08         0.11695E+07         0.00000E+00
    0.11695E+07        -0.97522E+08         0.00000E+00
    0.00000E+00         0.00000E+00        -0.46515E+08
 
   -0.46384E+08         0.11852E+07         0.00000E+00
    0.11852E+07        -0.97523E+08         0.00000E+00
    0.00000E+00         0.00000E+00        -0.46394E+08
 
   -0.46262E+08         0.12009E+07         0.00000E+00
    0.12009E+07        -0.97523E+08         0.00000E+00
    0.00000E+00         0.00000E+00        -0.46271E+08
 
   -0.46137E+08         0.12165E+07         0.00000E+00
    0.12165E+07        -0.97523E+08         0.00000E+00
    0.00000E+00         0.00000E+00        -0.46147E+08
 
   -0.46012E+08         0.12322E+07         0.00000E+00
    0.12322E+07        -0.97524E+08         0.00000E+00
    0.00000E+00         0.00000E+00        -0.46021E+08
 
   -0.45884E+08         0.12479E+07         0.00000E+00
    0.12479E+07        -0.97524E+08         0.00000E+00
    0.00000E+00         0.00000E+00        -0.45894E+08
 
   -0.45755E+08         0.12636E+07         0.00000E+00
    0.12636E+07        -0.97524E+08         0.00000E+00
    0.00000E+00         0.00000E+00        -0.45765E+08
 
   -0.45625E+08         0.12793E+07         0.00000E+00
    0.12793E+07        -0.97524E+08         0.00000E+00
    0.00000E+00         0.00000E+00        -0.45634E+08
 
   -0.45493E+08         0.12950E+07         0.00000E+00
    0.12950E+07        -0.97524E+08         0.00000E+00
    0.00000E+00         0.00000E+00        -0.45502E+08
 
   -0.45359E+08         0.13108E+07         0.00000E+00
    0.13108E+07        -0.97524E+08         0.00000E+00
    0.00000E+00         0.00000E+00        -0.45368E+08
 
   -0.45223E+08         0.13266E+07         0.00000E+00
    0.13266E+07        -0.97524E+08         0.00000E+00
    0.00000E+00         0.00000E+00        -0.45233E+08
 
   -0.45086E+08         0.13424E+07         0.00000E+00
    0.13424E+07        -0.97525E+08         0.00000E+00
    0.00000E+00         0.00000E+00        -0.45096E+08
 
   -0.44947E+08         0.13582E+07         0.00000E+00
    0.13582E+07        -0.97525E+08         0.00000E+00
    0.00000E+00         0.00000E+00        -0.44957E+08
 
   -0.44806E+08         0.13740E+07         0.00000E+00
    0.13740E+07        -0.97525E+08         0.00000E+00
    0.00000E+00         0.00000E+00        -0.44816E+08
 
   -0.44664E+08         0.13898E+07         0.00000E+00
    0.13898E+07        -0.97525E+08         0.00000E+00
    0.00000E+00         0.00000E+00        -0.44674E+08
 
   -0.44520E+08         0.14055E+07         0.00000E+00
    0.14055E+07        -0.97526E+08         0.00000E+00
    0.00000E+00         0.00000E+00        -0.44529E+08
 
   -0.44374E+08         0.14213E+07         0.00000E+00
    0.14213E+07        -0.97526E+08         0.00000E+00
    0.00000E+00         0.00000E+00        -0.44383E+08
 
   -0.44226E+08         0.14369E+07         0.00000E+00
    0.14369E+07        -0.97527E+08         0.00000E+00
    0.00000E+00         0.00000E+00        -0.44235E+08
 
   -0.44076E+08         0.14524E+07         0.00000E+00
    0.14524E+07        -0.97527E+08         0.00000E+00
    0.00000E+00         0.00000E+00        -0.44086E+08
 
   -0.43925E+08         0.14679E+07         0.00000E+00
    0.14679E+07        -0.97528E+08         0.00000E+00
    0.00000E+00         0.00000E+00        -0.43934E+08
 
   -0.43772E+08         0.14832E+07         0.00000E+00
    0.14832E+07        -0.97529E+08         0.00000E+00
    0.00000E+00         0.00000E+00        -0.43781E+08
 
   -0.43617E+08         0.14983E+07         0.00000E+00
    0.14983E+07        -0.97530E+08         0.00000E+00
    0.00000E+00         0.00000E+00        -0.43626E+08
 
   -0.43460E+08         0.15132E+07         0.00000E+00
    0.15132E+07        -0.97532E+08         0.00000E+00
    0.00000E+00         0.00000E+00        -0.43469E+08
 
   -0.43302E+08         0.15278E+07         0.00000E+00
    0.15278E+07        -0.97533E+08         0.00000E+00
    0.00000E+00         0.00000E+00        -0.43311E+08
 
   -0.43141E+08         0.15422E+07         0.00000E+00
    0.15422E+07        -0.97535E+08         0.00000E+00
    0.00000E+00         0.00000E+00        -0.43150E+08
 
   -0.42979E+08         0.15563E+07         0.00000E+00
    0.15563E+07        -0.97537E+08         0.00000E+00
    0.00000E+00         0.00000E+00        -0.42988E+08
 
   -0.42815E+08         0.15700E+07         0.00000E+00
    0.15700E+07        -0.97539E+08         0.00000E+00
    0.00000E+00         0.00000E+00        -0.42824E+08
 
   -0.42650E+08         0.15833E+07         0.00000E+00
    0.15833E+07        -0.97542E+08         0.00000E+00
    0.00000E+00         0.00000E+00        -0.42658E+08
 
   -0.42482E+08         0.15961E+07         0.00000E+00
    0.15961E+07        -0.97545E+08         0.00000E+00
    0.00000E+00         0.00000E+00        -0.42490E+08
 
   -0.42313E+08         0.16084E+07         0.00000E+00
    0.16084E+07        -0.97548E+08         0.00000E+00
    0.00000E+00         0.00000E+00        -0.42321E+08
 
   -0.42142E+08         0.16201E+07         0.00000E+00
    0.16201E+07        -0.97551E+08         0.00000E+00
    0.00000E+00         0.00000E+00        -0.42149E+08
 
   -0.41970E+08         0.16311E+07         0.00000E+00
    0.16311E+07        -0.97555E+08         0.00000E+00
    0.00000E+00         0.00000E+00        -0.41976E+08
 
   -0.41796E+08         0.16414E+07         0.00000E+00
    0.16414E+07        -0.97560E+08         0.00000E+00
    0.00000E+00         0.00000E+00        -0.41802E+08
 
   -0.41620E+08         0.16508E+07         0.00000E+00
    0.16508E+07        -0.97565E+08         0.00000E+00
    0.00000E+00         0.00000E+00        -0.41625E+08
 
   -0.41442E+08         0.16593E+07         0.00000E+00
    0.16593E+07        -0.97570E+08         0.00000E+00
    0.00000E+00         0.00000E+00        -0.41447E+08
 
   -0.41263E+08         0.16668E+07         0.00000E+00
    0.16668E+07        -0.97577E+08         0.00000E+00
    0.00000E+00         0.00000E+00        -0.41267E+08
 
   -0.41082E+08         0.16731E+07         0.00000E+00
    0.16731E+07        -0.97584E+08         0.00000E+00
    0.00000E+00         0.00000E+00        -0.41086E+08
 
   -0.40900E+08         0.16782E+07         0.00000E+00
    0.16782E+07        -0.97591E+08         0.00000E+00
    0.00000E+00         0.00000E+00        -0.40903E+08
 
   -0.40716E+08         0.16819E+07         0.00000E+00
    0.16819E+07        -0.97600E+08         0.00000E+00
    0.00000E+00         0.00000E+00        -0.40718E+08
 
   -0.40531E+08         0.16839E+07         0.00000E+00
    0.16839E+07        -0.97610E+08         0.00000E+00
    0.00000E+00         0.00000E+00        -0.40532E+08
 
   -0.40345E+08         0.16843E+07         0.00000E+00
    0.16843E+07        -0.97621E+08         0.00000E+00
    0.00000E+00         0.00000E+00        -0.40345E+08
 
   -0.40157E+08         0.16828E+07         0.00000E+00
    0.16828E+07        -0.97633E+08         0.00000E+00
    0.00000E+00         0.00000E+00        -0.40156E+08
 
   -0.39968E+08         0.16791E+07         0.00000E+00
    0.16791E+07        -0.97646E+08         0.00000E+00
    0.00000E+00         0.00000E+00        -0.39965E+08
 
   -0.39777E+08         0.16732E+07         0.00000E+00
    0.16732E+07        -0.97661E+08         0.00000E+00
    0.00000E+00         0.00000E+00        -0.39773E+08
 
   -0.39586E+08         0.16647E+07         0.00000E+00
    0.16647E+07        -0.97678E+08         0.00000E+00
    0.00000E+00         0.00000E+00        -0.39580E+08
 
   -0.39393E+08         0.16535E+07         0.00000E+00
    0.16535E+07        -0.97696E+08         0.00000E+00
    0.00000E+00         0.00000E+00        -0.39385E+08
 
   -0.39199E+08         0.16393E+07         0.00000E+00
    0.16393E+07        -0.97716E+08         0.00000E+00
    0.00000E+00         0.00000E+00        -0.39190E+08
 
   -0.39004E+08         0.16218E+07         0.00000E+00
    0.16218E+07        -0.97739E+08         0.00000E+00
    0.00000E+00         0.00000E+00        -0.38993E+08
 
   -0.38808E+08         0.16007E+07         0.00000E+00
    0.16007E+07        -0.97764E+08         0.00000E+00
    0.00000E+00         0.00000E+00        -0.38795E+08
 
   -0.38611E+08         0.15758E+07         0.00000E+00
    0.15758E+07        -0.97791E+08         0.00000E+00
    0.00000E+00         0.00000E+00        -0.38595E+08
 
   -0.38414E+08         0.15468E+07         0.00000E+00
    0.15468E+07        -0.97820E+08         0.00000E+00
    0.00000E+00         0.00000E+00        -0.38395E+08
 
   -0.38215E+08         0.15134E+07         0.00000E+00
    0.15134E+07        -0.97852E+08         0.00000E+00
    0.00000E+00         0.00000E+00        -0.38194E+08
 
   -0.38016E+08         0.14755E+07         0.00000E+00
    0.14755E+07        -0.97886E+08         0.00000E+00
    0.00000E+00         0.00000E+00        -0.37992E+08
 
   -0.37816E+08         0.14326E+07         0.00000E+00
    0.14326E+07        -0.97922E+08         0.00000E+00
    0.00000E+00         0.00000E+00        -0.37789E+08
 
   -0.37615E+08         0.13846E+07         0.00000E+00
    0.13846E+07        -0.97960E+08         0.00000E+00
    0.00000E+00         0.00000E+00        -0.37585E+08
 
   -0.37414E+08         0.13314E+07         0.00000E+00
    0.13314E+07        -0.97999E+08         0.00000E+00
    0.00000E+00         0.00000E+00        -0.37381E+08
 
   -0.37213E+08         0.12726E+07         0.00000E+00
    0.12726E+07        -0.98037E+08         0.00000E+00
    0.00000E+00         0.00000E+00        -0.37176E+08
 
   -0.37011E+08         0.12081E+07         0.00000E+00
    0.12081E+07        -0.98074E+08         0.00000E+00
    0.00000E+00         0.00000E+00        -0.36970E+08
 
   -0.36808E+08         0.11376E+07         0.00000E+00
    0.11376E+07        -0.98108E+08         0.00000E+00
    0.00000E+00         0.00000E+00        -0.36764E+08
 
   -0.36606E+08         0.10606E+07         0.00000E+00
    0.10606E+07        -0.98136E+08         0.00000E+00
    0.00000E+00         0.00000E+00        -0.36557E+08
 
   -0.36404E+08         0.97651E+06         0.00000E+00
    0.97651E+06        -0.98156E+08         0.00000E+00
    0.00000E+00         0.00000E+00        -0.36350E+08
 
   -0.36202E+08         0.88398E+06         0.00000E+00
    0.88398E+06        -0.98163E+08         0.00000E+00
    0.00000E+00         0.00000E+00        -0.36143E+08
 
   -0.36002E+08         0.78097E+06         0.00000E+00
    0.78097E+06        -0.98154E+08         0.00000E+00
    0.00000E+00         0.00000E+00        -0.35935E+08
 
   -0.35804E+08         0.66378E+06         0.00000E+00
    0.66378E+06        -0.98123E+08         0.00000E+00
    0.00000E+00         0.00000E+00        -0.35728E+08
 
   -0.35611E+08         0.52673E+06         0.00000E+00
    0.52673E+06        -0.98067E+08         0.00000E+00
    0.00000E+00         0.00000E+00        -0.35520E+08
 
   -0.35427E+08         0.35652E+06         0.00000E+00
    0.35652E+06        -0.97978E+08         0.00000E+00
    0.00000E+00         0.00000E+00        -0.35312E+08
 
   -0.35282E+08         0.13031E+06         0.00000E+00
    0.13031E+06        -0.97839E+08         0.00000E+00
    0.00000E+00         0.00000E+00        -0.35104E+08
 
   -0.49815E+08         0.56068E+05         0.00000E+00
    0.56068E+05        -0.97477E+08         0.00000E+00
    0.00000E+00         0.00000E+00        -0.49952E+08
 
   -0.49760E+08         0.15817E+06         0.00000E+00
    0.15817E+06        -0.97408E+08         0.00000E+00
    0.00000E+00         0.00000E+00        -0.49856E+08
 
   -0.49683E+08         0.24115E+06         0.00000E+00
    0.24115E+06        -0.97363E+08         0.00000E+00
    0.00000E+00         0.00000E+00        -0.49759E+08
 
   -0.49597E+08         0.30984E+06         0.00000E+00
    0.30984E+06        -0.97334E+08         0.00000E+00
    0.00000E+00         0.00000E+00        -0.49663E+08
 
   -0.49509E+08         0.36981E+06         0.00000E+00
    0.36981E+06        -0.97318E+08         0.00000E+00
    0.00000E+00         0.00000E+00        -0.49567E+08
 
   -0.49418E+08         0.42371E+06         0.00000E+00
    0.42371E+06        -0.97312E+08         0.00000E+00
    0.00000E+00         0.00000E+00        -0.49470E+08
 
   -0.49325E+08         0.47315E+06         0.00000E+00
    0.47315E+06        -0.97313E+08         0.00000E+00
    0.00000E+00         0.00000E+00        -0.49374E+08
 
   -0.49232E+08         0.51912E+06         0.00000E+00
    0.51912E+06        -0.97321E+08         0.00000E+00
    0.00000E+00         0.00000E+00        -0.49277E+08
 
   -0.49137E+08         0.56220E+06         0.00000E+00
    0.56220E+06        -0.97332E+08         0.00000E+00
    0.00000E+00         0.00000E+00        -0.49180E+08
 
   -0.49042E+08         0.60272E+06         0.00000E+00
    0.60272E+06        -0.97345E+08         0.00000E+00
    0.00000E+00         0.00000E+00        -0.49082E+08
 
   -0.48947E+08         0.64092E+06         0.00000E+00
    0.64092E+06        -0.97360E+08         0.00000E+00
    0.00000E+00         0.00000E+00        -0.48984E+08
 
   -0.48851E+08         0.67693E+06         0.00000E+00
    0.67693E+06        -0.97376E+08         0.00000E+00
    0.00000E+00         0.00000E+00        -0.48886E+08
 
   -0.48754E+08         0.71086E+06         0.00000E+00
    0.71086E+06        -0.97392E+08         0.00000E+00
    0.00000E+00         0.00000E+00        -0.48787E+08
 
   -0.48657E+08         0.74283E+06         0.00000E+00
    0.74283E+06        -0.97407E+08         0.00000E+00
    0.00000E+00         0.00000E+00        -0.48688E+08
 
   -0.48559E+08         0.77294E+06         0.00000E+00
    0.77294E+06        -0.97421E+08         0.00000E+00
    0.00000E+00         0.00000E+00        -0.48588E+08
 
   -0.48460E+08         0.80131E+06         0.00000E+00
    0.80131E+06        -0.97434E+08         0.00000E+00
    0.00000E+00         0.00000E+00        -0.48487E+08
 
   -0.48360E+08         0.82805E+06         0.00000E+00
    0.82805E+06        -0.97446E+08         0.00000E+00
    0.00000E+00         0.00000E+00        -0.48386E+08
 
   -0.48260E+08         0.85330E+06         0.00000E+00
    0.85330E+06        -0.97457E+08         0.00000E+00
    0.00000E+00         0.00000E+00        -0.48284E+08
 
   -0.48158E+08         0.87718E+06         0.00000E+00
    0.87718E+06        -0.97467E+08         0.00000E+00
    0.00000E+00         0.00000E+00        -0.48181E+08
 
   -0.48056E+08         0.89981E+06         0.00000E+00
    0.89981E+06        -0.97476E+08         0.00000E+00
    0.00000E+00         0.00000E+00        -0.48078E+08
 
   -0.47952E+08         0.92133E+06         0.00000E+00
    0.92133E+06        -0.97484E+08         0.00000E+00
    0.00000E+00         0.00000E+00        -0.47973E+08
 
   -0.47848E+08         0.94186E+06         0.00000E+00
    0.94186E+06        -0.97491E+08         0.00000E+00
    0.00000E+00         0.00000E+00        -0.47868E+08
 
   -0.47742E+08         0.96150E+06         0.00000E+00
    0.96150E+06        -0.97497E+08         0.00000E+00
    0.00000E+00         0.00000E+00        -0.47762E+08
 
   -0.47635E+08         0.98038E+06         0.00000E+00
    0.98038E+06        -0.97502E+08         0.00000E+00
    0.00000E+00         0.00000E+00        -0.47654E+08
 
   -0.47527E+08         0.99859E+06         0.00000E+00
    0.99859E+06        -0.97506E+08         0.00000E+00
    0.00000E+00         0.00000E+00        -0.47546E+08
 
   -0.47418E+08         0.10162E+07         0.00000E+00
    0.10162E+07        -0.97510E+08         0.00000E+00
    0.00000E+00         0.00000E+00        -0.47436E+08
 
   -0.47308E+08         0.10334E+07         0.00000E+00
    0.10334E+07        -0.97513E+08         0.00000E+00
    0.00000E+00         0.00000E+00        -0.47325E+08
 
   -0.47197E+08         0.10501E+07         0.00000E+00
    0.10501E+07        -0.97516E+08         0.00000E+00
    0.00000E+00         0.00000E+00        -0.47214E+08
 
   -0.47084E+08         0.10665E+07         0.00000E+00
    0.10665E+07        -0.97518E+08         0.00000E+00
    0.00000E+00         0.00000E+00        -0.47100E+08
 
   -0.46970E+08         0.10826E+07         0.00000E+00
    0.10826E+07        -0.97520E+08         0.00000E+00
    0.00000E+00         0.00000E+00        -0.46986E+08
 
   -0.46854E+08         0.10986E+07         0.00000E+00
    0.10986E+07        -0.97522E+08         0.00000E+00
    0.00000E+00         0.00000E+00        -0.46870E+08
 
   -0.46737E+08         0.11143E+07         0.00000E+00
    0.11143E+07        -0.97523E+08         0.00000E+00
    0.00000E+00         0.00000E+00        -0.46753E+08
 
   -0.46619E+08         0.11299E+07         0.00000E+00
    0.11299E+07        -0.97524E+08         0.00000E+00
    0.00000E+00         0.00000E+00        -0.46635E+08
 
   -0.46499E+08         0.11454E+07         0.00000E+00
    0.11454E+07        -0.97525E+08         0.00000E+00
    0.00000E+00         0.00000E+00        -0.46515E+08
 
   -0.46378E+08         0.11608E+07         0.00000E+00
    0.11608E+07        -0.97526E+08         0.00000E+00
    0.00000E+00         0.00000E+00        -0.46394E+08
 
   -0.46255E+08         0.11762E+07         0.00000E+00
    0.11762E+07        -0.97526E+08         0.00000E+00
    0.00000E+00         0.00000E+00        -0.46271E+08
 
   -0.46131E+08         0.11915E+07         0.00000E+00
    0.11915E+07        -0.97527E+08         0.00000E+00
    0.00000E+00         0.00000E+00        -0.46147E+08
 
   -0.46005E+08         0.12069E+07         0.00000E+00
    0.12069E+07        -0.97527E+08         0.00000E+00
    0.00000E+00         0.00000E+00        -0.46021E+08
 
   -0.45878E+08         0.12222E+07         0.00000E+00
    0.12222E+07        -0.97527E+08         0.00000E+00
    0.00000E+00         0.00000E+00        -0.45894E+08
 
   -0.45749E+08         0.12376E+07         0.00000E+00
    0.12376E+07        -0.97527E+08         0.00000E+00
    0.00000E+00         0.00000E+00        -0.45765E+08
 
   -0.45618E+08         0.12530E+07         0.00000E+00
    0.12530E+07        -0.97527E+08         0.00000E+00
    0.00000E+00         0.00000E+00        -0.45634E+08
 
   -0.45486E+08         0.12684E+07         0.00000E+00
    0.12684E+07        -0.97527E+08         0.00000E+00
    0.00000E+00         0.00000E+00        -0.45502E+08
 
   -0.45352E+08         0.12839E+07         0.00000E+00
    0.12839E+07        -0.97527E+08         0.00000E+00
    0.00000E+00         0.00000E+00        -0.45368E+08
 
   -0.45217E+08         0.12993E+07         0.00000E+00
    0.12993E+07        -0.97528E+08         0.00000E+00
    0.00000E+00         0.00000E+00        -0.45233E+08
 
   -0.45079E+08         0.13148E+07         0.00000E+00
    0.13148E+07        -0.97528E+08         0.00000E+00
    0.00000E+00         0.00000E+00        -0.45096E+08
 
   -0.44941E+08         0.13302E+07         0.00000E+00
    0.13302E+07        -0.97528E+08         0.00000E+00
    0.00000E+00         0.00000E+00        -0.44957E+08
 
   -0.44800E+08         0.13457E+07         0.00000E+00
    0.13457E+07        -0.97528E+08         0.00000E+00
    0.00000E+00         0.00000E+00        -0.44816E+08
 
   -0.44657E+08         0.13611E+07         0.00000E+00
    0.13611E+07        -0.97528E+08         0.00000E+00
    0.00000E+00         0.00000E+00        -0.44674E+08
 
   -0.44513E+08         0.13765E+07         0.00000E+00
    0.13765E+07        -0.97529E+08         0.00000E+00
    0.00000E+00         0.00000E+00        -0.44529E+08
 
   -0.44367E+08         0.13919E+07         0.00000E+00
    0.13919E+07        -0.97529E+08         0.00000E+00
    0.00000E+00         0.00000E+00        -0.44383E+08
 
   -0.44220E+08         0.14072E+07         0.00000E+00
    0.14072E+07        -0.97530E+08         0.00000E+00
    0.00000E+00         0.00000E+00        -0.44235E+08
 
   -0.44070E+08         0.14224E+07         0.00000E+00
    0.14224E+07        -0.97531E+08         0.00000E+00
    0.00000E+00         0.00000E+00        -0.44086E+08
 
   -0.43919E+08         0.14374E+07         0.00000E+00
    0.14374E+07        -0.97531E+08         0.00000E+00
    0.00000E+00         0.00000E+00        -0.43934E+08
 
   -0.43766E+08         0.14524E+07         0.00000E+00
    0.14524E+07        -0.97532E+08         0.00000E+00
    0.00000E+00         0.00000E+00        -0.43781E+08
 
   -0.43611E+08         0.14671E+07         0.00000E+00
    0.14671E+07        -0.97533E+08         0.00000E+00
    0.00000E+00         0.00000E+00        -0.43626E+08
 
   -0.43454E+08         0.14817E+07         0.00000E+00
    0.14817E+07        -0.97535E+08         0.00000E+00
    0.00000E+00         0.00000E+00        -0.43469E+08
 
   -0.43296E+08         0.14960E+07         0.00000E+00
    0.14960E+07        -0.97536E+08         0.00000E+00
    0.00000E+00         0.00000E+00        -0.43311E+08
 
   -0.43136E+08         0.15100E+07         0.00000E+00
    0.15100E+07        -0.97538E+08         0.00000E+00
    0.00000E+00         0.00000E+00        -0.43150E+08
 
   -0.42974E+08         0.15237E+07         0.00000E+00
    0.15237E+07        -0.97540E+08         0.00000E+00
    0.00000E+00         0.00000E+00        -0.42988E+08
 
   -0.42810E+08         0.15371E+07         0.00000E+00
    0.15371E+07        -0.97542E+08         0.00000E+00
    0.00000E+00         0.00000E+00        -0.42824E+08
 
   -0.42644E+08         0.15500E+07         0.00000E+00
    0.15500E+07        -0.97544E+08         0.00000E+00
    0.00000E+00         0.00000E+00        -0.42658E+08
 
   -0.42477E+08         0.15625E+07         0.00000E+00
    0.15625E+07        -0.97547E+08         0.00000E+00
    0.00000E+00         0.00000E+00        -0.42490E+08
 
   -0.42308E+08         0.15744E+07         0.00000E+00
    0.15744E+07        -0.97550E+08         0.00000E+00
    0.00000E+00         0.00000E+00        -0.42321E+08
 
   -0.42138E+08         0.15858E+07         0.00000E+00
    0.15858E+07        -0.97554E+08         0.00000E+00
    0.00000E+00         0.00000E+00        -0.42149E+08
 
   -0.41965E+08         0.15965E+07         0.00000E+00
    0.15965E+07        -0.97557E+08         0.00000E+00
    0.00000E+00         0.00000E+00        -0.41976E+08
 
   -0.41791E+08         0.16064E+07         0.00000E+00
    0.16064E+07        -0.97562E+08         0.00000E+00
    0.00000E+00         0.00000E+00        -0.41802E+08
 
   -0.41616E+08         0.16155E+07         0.00000E+00
    0.16155E+07        -0.97567E+08         0.00000E+00
    0.00000E+00         0.00000E+00        -0.41625E+08
 
   -0.41439E+08         0.16237E+07         0.00000E+00
    0.16237E+07        -0.97572E+08         0.00000E+00
    0.00000E+00         0.00000E+00        -0.41447E+08
 
   -0.41260E+08         0.16309E+07         0.00000E+00
    0.16309E+07        -0.97578E+08         0.00000E+00
    0.00000E+00         0.00000E+00        -0.41267E+08
 
   -0.41080E+08         0.16369E+07         0.00000E+00
    0.16369E+07        -0.97585E+08         0.00000E+00
    0.00000E+00         0.00000E+00        -0.41086E+08
 
   -0.40898E+08         0.16417E+07         0.00000E+00
    0.16417E+07        -0.97592E+08         0.00000E+00
    0.00000E+00         0.00000E+00        -0.40903E+08
 
   -0.40715E+08         0.16450E+07         0.00000E+00
    0.16450E+07        -0.97601E+08         0.00000E+00
    0.00000E+00         0.00000E+00        -0.40718E+08
 
   -0.40531E+08         0.16468E+07         0.00000E+00
    0.16468E+07        -0.97610E+08         0.00000E+00
    0.00000E+00         0.00000E+00        -0.40532E+08
 
   -0.40345E+08         0.16469E+07         0.00000E+00
    0.16469E+07        -0.97621E+08         0.00000E+00
    0.00000E+00         0.00000E+00        -0.40345E+08
 
   -0.40158E+08         0.16451E+07         0.00000E+00
    0.16451E+07        -0.97632E+08         0.00000E+00
    0.00000E+00         0.00000E+00        -0.40156E+08
 
   -0.39969E+08         0.16413E+07         0.00000E+00
    0.16413E+07        -0.97645E+08         0.00000E+00
    0.00000E+00         0.00000E+00        -0.39965E+08
 
   -0.39780E+08         0.16351E+07         0.00000E+00
    0.16351E+07        -0.97660E+08         0.00000E+00
    0.00000E+00         0.00000E+00        -0.39773E+08
 
   -0.39589E+08         0.16264E+07         0.00000E+00
    0.16264E+07        -0.97676E+08         0.00000E+00
    0.00000E+00         0.00000E+00        -0.39580E+08
 
   -0.39398E+08         0.16150E+07         0.00000E+00
    0.16150E+07        -0.97693E+08         0.00000E+00
    0.00000E+00         0.00000E+00        -0.39385E+08
 
   -0.39205E+08         0.16005E+07         0.00000E+00
    0.16005E+07        -0.97713E+08         0.00000E+00
    0.00000E+00         0.00000E+00        -0.39190E+08
 
   -0.39011E+08         0.15828E+07         0.00000E+00
    0.15828E+07        -0.97735E+08         0.00000E+00
    0.00000E+00         0.00000E+00        -0.38993E+08
 
   -0.38817E+08         0.15616E+07         0.00000E+00
    0.15616E+07        -0.97759E+08         0.00000E+00
    0.00000E+00         0.00000E+00        -0.38795E+08
 
   -0.38622E+08         0.15365E+07         0.00000E+00
    0.15365E+07        -0.97785E+08         0.00000E+00
    0.00000E+00         0.00000E+00        -0.38595E+08
 
   -0.38426E+08         0.15074E+07         0.00000E+00
    0.15074E+07        -0.97814E+08         0.00000E+00
    0.00000E+00         0.00000E+00        -0.38395E+08
 
   -0.38229E+08         0.14739E+07         0.00000E+00
    0.14739E+07        -0.97845E+08         0.00000E+00
    0.00000E+00         0.00000E+00        -0.38194E+08
 
   -0.38032E+08         0.14357E+07         0.00000E+00
    0.14357E+07        -0.97878E+08         0.00000E+00
    0.00000E+00         0.00000E+00        -0.37992E+08
 
   -0.37834E+08         0.13928E+07         0.00000E+00
    0.13928E+07        -0.97913E+08         0.00000E+00
    0.00000E+00         0.00000E+00        -0.37789E+08
 
   -0.37636E+08         0.13447E+07         0.00000E+00
    0.13447E+07        -0.97950E+08         0.00000E+00
    0.00000E+00         0.00000E+00        -0.37585E+08
 
   -0.37437E+08         0.12913E+07         0.00000E+00
    0.12913E+07        -0.97987E+08         0.00000E+00
    0.00000E+00         0.00000E+00        -0.37381E+08
 
   -0.37237E+08         0.12325E+07         0.00000E+00
    0.12325E+07        -0.98025E+08         0.00000E+00
    0.00000E+00         0.00000E+00        -0.37176E+08
 
   -0.37038E+08         0.11679E+07         0.00000E+00
    0.11679E+07        -0.98061E+08         0.00000E+00
    0.00000E+00         0.00000E+00        -0.36970E+08
 
   -0.36838E+08         0.10974E+07         0.00000E+00
    0.10974E+07        -0.98093E+08         0.00000E+00
    0.00000E+00         0.00000E+00        -0.36764E+08
 
   -0.36639E+08         0.10204E+07         0.00000E+00
    0.10204E+07        -0.98120E+08         0.00000E+00
    0.00000E+00         0.00000E+00        -0.36557E+08
 
   -0.36440E+08         0.93643E+06         0.00000E+00
    0.93643E+06        -0.98138E+08         0.00000E+00
    0.00000E+00         0.00000E+00        -0.36350E+08
 
   -0.36242E+08         0.84418E+06         0.00000E+00
    0.84418E+06        -0.98143E+08         0.00000E+00
    0.00000E+00         0.00000E+00        -0.36143E+08
 
   -0.36047E+08         0.74166E+06         0.00000E+00
    0.74166E+06        -0.98132E+08         0.00000E+00
    0.00000E+00         0.00000E+00        -0.35935E+08
 
   -0.35856E+08         0.62544E+06         0.00000E+00
    0.62544E+06        -0.98098E+08         0.00000E+00
    0.00000E+00         0.00000E+00        -0.35728E+08
 
   -0.35673E+08         0.48990E+06         0.00000E+00
    0.48990E+06        -0.98037E+08         0.00000E+00
    0.00000E+00         0.00000E+00        -0.35520E+08
 
   -0.35505E+08         0.32319E+06         0.00000E+00
    0.32319E+06        -0.97939E+08         0.00000E+00
    0.00000E+00         0.00000E+00        -0.35312E+08
 
   -0.35387E+08         0.11497E+06         0.00000E+00
    0.11497E+06        -0.97791E+08         0.00000E+00
    0.00000E+00         0.00000E+00        -0.35104E+08
 
   -0.49768E+08         0.50443E+05         0.00000E+00
    0.50443E+05        -0.97498E+08         0.00000E+00
    0.00000E+00         0.00000E+00        -0.49952E+08
 
   -0.49722E+08         0.14484E+06         0.00000E+00
    0.14484E+06        -0.97426E+08         0.00000E+00
    0.00000E+00         0.00000E+00        -0.49856E+08
 
   -0.49651E+08         0.22512E+06         0.00000E+00
    0.22512E+06        -0.97377E+08         0.00000E+00
    0.00000E+00         0.00000E+00        -0.49759E+08
 
   -0.49571E+08         0.29275E+06         0.00000E+00
    0.29275E+06        -0.97347E+08         0.00000E+00
    0.00000E+00         0.00000E+00        -0.49663E+08
 
   -0.49485E+08         0.35203E+06         0.00000E+00
    0.35203E+06        -0.97329E+08         0.00000E+00
    0.00000E+00         0.00000E+00        -0.49567E+08
 
   -0.49396E+08         0.40551E+06         0.00000E+00
    0.40551E+06        -0.97322E+08         0.00000E+00
    0.00000E+00         0.00000E+00        -0.49470E+08
 
   -0.49306E+08         0.45467E+06         0.00000E+00
    0.45467E+06        -0.97323E+08         0.00000E+00
    0.00000E+00         0.00000E+00        -0.49374E+08
 
   -0.49213E+08         0.50045E+06         0.00000E+00
    0.50045E+06        -0.97329E+08         0.00000E+00
    0.00000E+00         0.00000E+00        -0.49277E+08
 
   -0.49120E+08         0.54338E+06         0.00000E+00
    0.54338E+06        -0.97340E+08         0.00000E+00
    0.00000E+00         0.00000E+00        -0.49180E+08
 
   -0.49026E+08         0.58378E+06         0.00000E+00
    0.58378E+06        -0.97353E+08         0.00000E+00
    0.00000E+00         0.00000E+00        -0.49082E+08
 
   -0.48932E+08         0.62185E+06         0.00000E+00
    0.62185E+06        -0.97368E+08         0.00000E+00
    0.00000E+00         0.00000E+00        -0.48984E+08
 
   -0.48837E+08         0.65773E+06         0.00000E+00
    0.65773E+06        -0.97383E+08         0.00000E+00
    0.00000E+00         0.00000E+00        -0.48886E+08
 
   -0.48741E+08         0.69153E+06         0.00000E+00
    0.69153E+06        -0.97398E+08         0.00000E+00
    0.00000E+00         0.00000E+00        -0.48787E+08
 
   -0.48644E+08         0.72336E+06         0.00000E+00
    0.72336E+06        -0.97413E+08         0.00000E+00
    0.00000E+00         0.00000E+00        -0.48688E+08
 
   -0.48547E+08         0.75332E+06         0.00000E+00
    0.75332E+06        -0.97427E+08         0.00000E+00
    0.00000E+00         0.00000E+00        -0.48588E+08
 
   -0.48449E+08         0.78152E+06         0.00000E+00
    0.78152E+06        -0.97440E+08         0.00000E+00
    0.00000E+00         0.00000E+00        -0.48487E+08
 
   -0.48350E+08         0.80809E+06         0.00000E+00
    0.80809E+06        -0.97451E+08         0.00000E+00
    0.00000E+00         0.00000E+00        -0.48386E+08
 
   -0.48250E+08         0.83316E+06         0.00000E+00
    0.83316E+06        -0.97462E+08         0.00000E+00
    0.00000E+00         0.00000E+00        -0.48284E+08
 
   -0.48149E+08         0.85684E+06         0.00000E+00
    0.85684E+06        -0.97472E+08         0.00000E+00
    0.00000E+00         0.00000E+00        -0.48181E+08
 
   -0.48047E+08         0.87927E+06         0.00000E+00
    0.87927E+06        -0.97480E+08         0.00000E+00
    0.00000E+00         0.00000E+00        -0.48078E+08
 
   -0.47944E+08         0.90058E+06         0.00000E+00
    0.90058E+06        -0.97488E+08         0.00000E+00
    0.00000E+00         0.00000E+00        -0.47973E+08
 
   -0.47840E+08         0.92088E+06         0.00000E+00
    0.92088E+06        -0.97495E+08         0.00000E+00
    0.00000E+00         0.00000E+00        -0.47868E+08
 
   -0.47734E+08         0.94030E+06         0.00000E+00
    0.94030E+06        -0.97501E+08         0.00000E+00
    0.00000E+00         0.00000E+00        -0.47762E+08
 
   -0.47628E+08         0.95895E+06         0.00000E+00
    0.95895E+06        -0.97506E+08         0.00000E+00
    0.00000E+00         0.00000E+00        -0.47654E+08
 
   -0.47520E+08         0.97692E+06         0.00000E+00
    0.97692E+06        -0.97510E+08         0.00000E+00
    0.00000E+00         0.00000E+00        -0.47546E+08
 
   -0.47411E+08         0.99431E+06         0.00000E+00
    0.99431E+06        -0.97514E+08         0.00000E+00
    0.00000E+00         0.00000E+00        -0.47436E+08
 
   -0.47301E+08         0.10112E+07         0.00000E+00
    0.10112E+07        -0.97517E+08         0.00000E+00
    0.00000E+00         0.00000E+00        -0.47325E+08
 
   -0.47190E+08         0.10277E+07         0.00000E+00
    0.10277E+07        -0.97519E+08         0.00000E+00
    0.00000E+00         0.00000E+00        -0.47214E+08
 
   -0.47077E+08         0.10438E+07         0.00000E+00
    0.10438E+07        -0.97522E+08         0.00000E+00
    0.00000E+00         0.00000E+00        -0.47100E+08
 
   -0.46963E+08         0.10597E+07         0.00000E+00
    0.10597E+07        -0.97523E+08         0.00000E+00
    0.00000E+00         0.00000E+00        -0.46986E+08
 
   -0.46848E+08         0.10753E+07         0.00000E+00
    0.10753E+07        -0.97525E+08         0.00000E+00
    0.00000E+00         0.00000E+00        -0.46870E+08
 
   -0.46731E+08         0.10908E+07         0.00000E+00
    0.10908E+07        -0.97526E+08         0.00000E+00
    0.00000E+00         0.00000E+00        -0.46753E+08
 
   -0.46613E+08         0.11061E+07         0.00000E+00
    0.11061E+07        -0.97527E+08         0.00000E+00
    0.00000E+00         0.00000E+00        -0.46635E+08
 
   -0.46493E+08         0.11213E+07         0.00000E+00
    0.11213E+07        -0.97528E+08         0.00000E+00
    0.00000E+00         0.00000E+00        -0.46515E+08
 
   -0.46372E+08         0.11364E+07         0.00000E+00
    0.11364E+07        -0.97529E+08         0.00000E+00
    0.00000E+00         0.00000E+00        -0.46394E+08
 
   -0.46249E+08         0.11515E+07         0.00000E+00
    0.11515E+07        -0.97529E+08         0.00000E+00
    0.00000E+00         0.00000E+00        -0.46271E+08
 
   -0.46125E+08         0.11665E+07         0.00000E+00
    0.11665E+07        -0.97530E+08         0.00000E+00
    0.00000E+00         0.00000E+00        -0.46147E+08
 
   -0.45999E+08         0.11816E+07         0.00000E+00
    0.11816E+07        -0.97530E+08         0.00000E+00
    0.00000E+00         0.00000E+00        -0.46021E+08
 
   -0.45872E+08         0.11966E+07         0.00000E+00
    0.11966E+07        -0.97530E+08         0.00000E+00
    0.00000E+00         0.00000E+00        -0.45894E+08
 
   -0.45743E+08         0.12117E+07         0.00000E+00
    0.12117E+07        -0.97530E+08         0.00000E+00
    0.00000E+00         0.00000E+00        -0.45765E+08
 
   -0.45612E+08         0.12267E+07         0.00000E+00
    0.12267E+07        -0.97530E+08         0.00000E+00
    0.00000E+00         0.00000E+00        -0.45634E+08
 
   -0.45480E+08         0.12418E+07         0.00000E+00
    0.12418E+07        -0.97530E+08         0.00000E+00
    0.00000E+00         0.00000E+00        -0.45502E+08
 
   -0.45346E+08         0.12569E+07         0.00000E+00
    0.12569E+07        -0.97531E+08         0.00000E+00
    0.00000E+00         0.00000E+00        -0.45368E+08
 
   -0.45210E+08         0.12720E+07         0.00000E+00
    0.12720E+07        -0.97531E+08         0.00000E+00
    0.00000E+00         0.00000E+00        -0.45233E+08
 
   -0.45073E+08         0.12871E+07         0.00000E+00
    0.12871E+07        -0.97531E+08         0.00000E+00
    0.00000E+00         0.00000E+00        -0.45096E+08
 
   -0.44934E+08         0.13023E+07         0.00000E+00
    0.13023E+07        -0.97531E+08         0.00000E+00
    0.00000E+00         0.00000E+00        -0.44957E+08
 
   -0.44794E+08         0.13174E+07         0.00000E+00
    0.13174E+07        -0.97531E+08         0.00000E+00
    0.00000E+00         0.00000E+00        -0.44816E+08
 
   -0.44651E+08         0.13325E+07         0.00000E+00
    0.13325E+07        -0.97531E+08         0.00000E+00
    0.00000E+00         0.00000E+00        -0.44674E+08
 
   -0.44507E+08         0.13475E+07         0.00000E+00
    0.13475E+07        -0.97532E+08         0.00000E+00
    0.00000E+00         0.00000E+00        -0.44529E+08
 
   -0.44361E+08         0.13625E+07         0.00000E+00
    0.13625E+07        -0.97532E+08         0.00000E+00
    0.00000E+00         0.00000E+00        -0.44383E+08
 
   -0.44213E+08         0.13775E+07         0.00000E+00
    0.13775E+07        -0.97533E+08         0.00000E+00
    0.00000E+00         0.00000E+00        -0.44235E+08
 
   -0.44064E+08         0.13923E+07         0.00000E+00
    0.13923E+07        -0.97533E+08         0.00000E+00
    0.00000E+00         0.00000E+00        -0.44086E+08
 
   -0.43913E+08         0.14070E+07         0.00000E+00
    0.14070E+07        -0.97534E+08         0.00000E+00
    0.00000E+00         0.00000E+00        -0.43934E+08
 
   -0.43760E+08         0.14216E+07         0.00000E+00
    0.14216E+07        -0.97535E+08         0.00000E+00
    0.00000E+00         0.00000E+00        -0.43781E+08
 
   -0.43605E+08         0.14360E+07         0.00000E+00
    0.14360E+07        -0.97536E+08         0.00000E+00
    0.00000E+00         0.00000E+00        -0.43626E+08
 
   -0.43448E+08         0.14502E+07         0.00000E+00
    0.14502E+07        -0.97537E+08         0.00000E+00
    0.00000E+00         0.00000E+00        -0.43469E+08
 
   -0.43290E+08         0.14641E+07         0.00000E+00
    0.14641E+07        -0.97539E+08         0.00000E+00
    0.00000E+00         0.00000E+00        -0.43311E+08
 
   -0.43130E+08         0.14778E+07         0.00000E+00
    0.14778E+07        -0.97541E+08         0.00000E+00
    0.00000E+00         0.00000E+00        -0.43150E+08
 
   -0.42968E+08         0.14912E+07         0.00000E+00
    0.14912E+07        -0.97542E+08         0.00000E+00
    0.00000E+00         0.00000E+00        -0.42988E+08
 
   -0.42804E+08         0.15042E+07         0.00000E+00
    0.15042E+07        -0.97544E+08         0.00000E+00
    0.00000E+00         0.00000E+00        -0.42824E+08
 
   -0.42639E+08         0.15168E+07         0.00000E+00
    0.15168E+07        -0.97547E+08         0.00000E+00
    0.00000E+00         0.00000E+00        -0.42658E+08
 
   -0.42472E+08         0.15289E+07         0.00000E+00
    0.15289E+07        -0.97549E+08         0.00000E+00
    0.00000E+00         0.00000E+00        -0.42490E+08
 
   -0.42303E+08         0.15405E+07         0.00000E+00
    0.15405E+07        -0.97552E+08         0.00000E+00
    0.00000E+00         0.00000E+00        -0.42321E+08
 
   -0.42133E+08         0.15515E+07         0.00000E+00
    0.15515E+07        -0.97556E+08         0.00000E+00
    0.00000E+00         0.00000E+00        -0.42149E+08
 
   -0.41961E+08         0.15619E+07         0.00000E+00
    0.15619E+07        -0.97559E+08         0.00000E+00
    0.00000E+00         0.00000E+00        -0.41976E+08
 
   -0.41787E+08         0.15715E+07         0.00000E+00
    0.15715E+07        -0.97564E+08         0.00000E+00
    0.00000E+00         0.00000E+00        -0.41802E+08
 
   -0.41612E+08         0.15803E+07         0.00000E+00
    0.15803E+07        -0.97568E+08         0.00000E+00
    0.00000E+00         0.00000E+00        -0.41625E+08
 
   -0.41435E+08         0.15882E+07         0.00000E+00
    0.15882E+07        -0.97574E+08         0.00000E+00
    0.00000E+00         0.00000E+00        -0.41447E+08
 
   -0.41257E+08         0.15950E+07         0.00000E+00
    0.15950E+07        -0.97579E+08         0.00000E+00
    0.00000E+00         0.00000E+00        -0.41267E+08
 
   -0.41078E+08         0.16008E+07         0.00000E+00
    0.16008E+07        -0.97586E+08         0.00000E+00
    0.00000E+00         0.00000E+00        -0.41086E+08
 
   -0.40896E+08         0.16052E+07         0.00000E+00
    0.16052E+07        -0.97593E+08         0.00000E+00
    0.00000E+00         0.00000E+00        -0.40903E+08
 
   -0.40714E+08         0.16083E+07         0.00000E+00
    0.16083E+07        -0.97601E+08         0.00000E+00
    0.00000E+00         0.00000E+00        -0.40718E+08
 
   -0.40530E+08         0.16099E+07         0.00000E+00
    0.16099E+07        -0.97610E+08         0.00000E+00
    0.00000E+00         0.00000E+00        -0.40532E+08
 
   -0.40345E+08         0.16097E+07         0.00000E+00
    0.16097E+07        -0.97620E+08         0.00000E+00
    0.00000E+00         0.00000E+00        -0.40345E+08
 
   -0.40159E+08         0.16077E+07         0.00000E+00
    0.16077E+07        -0.97632E+08         0.00000E+00
    0.00000E+00         0.00000E+00        -0.40156E+08
 
   -0.39971E+08         0.16036E+07         0.00000E+00
    0.16036E+07        -0.97644E+08         0.00000E+00
    0.00000E+00         0.00000E+00        -0.39965E+08
 
   -0.39783E+08         0.15972E+07         0.00000E+00
    0.15972E+07        -0.97658E+08         0.00000E+00
    0.00000E+00         0.00000E+00        -0.39773E+08
 
   -0.39593E+08         0.15883E+07         0.00000E+00
    0.15883E+07        -0.97674E+08         0.00000E+00
    0.00000E+00         0.00000E+00        -0.39580E+08
 
   -0.39402E+08         0.15767E+07         0.00000E+00
    0.15767E+07        -0.97691E+08         0.00000E+00
    0.00000E+00         0.00000E+00        -0.39385E+08
 
   -0.39211E+08         0.15620E+07         0.00000E+00
    0.15620E+07        -0.97710E+08         0.00000E+00
    0.00000E+00         0.00000E+00        -0.39190E+08
 
   -0.39019E+08         0.15442E+07         0.00000E+00
    0.15442E+07        -0.97731E+08         0.00000E+00
    0.00000E+00         0.00000E+00        -0.38993E+08
 
   -0.38826E+08         0.15228E+07         0.00000E+00
    0.15228E+07        -0.97754E+08         0.00000E+00
    0.00000E+00         0.00000E+00        -0.38795E+08
 
   -0.38632E+08         0.14976E+07         0.00000E+00
    0.14976E+07        -0.97780E+08         0.00000E+00
    0.00000E+00         0.00000E+00        -0.38595E+08
 
   -0.38438E+08         0.14683E+07         0.00000E+00
    0.14683E+07        -0.97808E+08         0.00000E+00
    0.00000E+00         0.00000E+00        -0.38395E+08
 
   -0.38243E+08         0.14346E+07         0.00000E+00
    0.14346E+07        -0.97838E+08         0.00000E+00
    0.00000E+00         0.00000E+00        -0.38194E+08
 
   -0.38048E+08         0.13964E+07         0.00000E+00
    0.13964E+07        -0.97870E+08         0.00000E+00
    0.00000E+00         0.00000E+00        -0.37992E+08
 
   -0.37852E+08         0.13533E+07         0.00000E+00
    0.13533E+07        -0.97904E+08         0.00000E+00
    0.00000E+00         0.00000E+00        -0.37789E+08
 
   -0.37656E+08         0.13052E+07         0.00000E+00
    0.13052E+07        -0.97940E+08         0.00000E+00
    0.00000E+00         0.00000E+00        -0.37585E+08
 
   -0.37459E+08         0.12517E+07         0.00000E+00
    0.12517E+07        -0.97976E+08         0.00000E+00
    0.00000E+00         0.00000E+00        -0.37381E+08
 
   -0.37262E+08         0.11928E+07         0.00000E+00
    0.11928E+07        -0.98013E+08         0.00000E+00
    0.00000E+00         0.00000E+00        -0.37176E+08
 
   -0.37065E+08         0.11282E+07         0.00000E+00
    0.11282E+07        -0.98047E+08         0.00000E+00
    0.00000E+00         0.00000E+00        -0.36970E+08
 
   -0.36868E+08         0.10577E+07         0.00000E+00
    0.10577E+07        -0.98079E+08         0.00000E+00
    0.00000E+00         0.00000E+00        -0.36764E+08
 
   -0.36672E+08         0.98085E+06         0.00000E+00
    0.98085E+06        -0.98104E+08         0.00000E+00
    0.00000E+00         0.00000E+00        -0.36557E+08
 
   -0.36476E+08         0.89708E+06         0.00000E+00
    0.89708E+06        -0.98120E+08         0.00000E+00
    0.00000E+00         0.00000E+00        -0.36350E+08
 
   -0.36283E+08         0.80528E+06         0.00000E+00
    0.80528E+06        -0.98124E+08         0.00000E+00
    0.00000E+00         0.00000E+00        -0.36143E+08
 
   -0.36093E+08         0.70352E+06         0.00000E+00
    0.70352E+06        -0.98110E+08         0.00000E+00
    0.00000E+00         0.00000E+00        -0.35935E+08
 
   -0.35909E+08         0.58868E+06         0.00000E+00
    0.58868E+06        -0.98073E+08         0.00000E+00
    0.00000E+00         0.00000E+00        -0.35728E+08
 
   -0.35735E+08         0.45538E+06         0.00000E+00
    0.45538E+06        -0.98008E+08         0.00000E+00
    0.00000E+00         0.00000E+00        -0.35520E+08
 
   -0.35583E+08         0.29445E+06         0.00000E+00
    0.29445E+06        -0.97903E+08         0.00000E+00
    0.00000E+00         0.00000E+00        -0.35312E+08
 
   -0.35484E+08         0.10283E+06         0.00000E+00
    0.10283E+06        -0.97748E+08         0.00000E+00
    0.00000E+00         0.00000E+00        -0.35104E+08
 
   -0.49724E+08         0.45817E+05         0.00000E+00
    0.45817E+05        -0.97517E+08         0.00000E+00
    0.00000E+00         0.00000E+00        -0.49952E+08
 
   -0.49685E+08         0.13319E+06         0.00000E+00
    0.13319E+06        -0.97443E+08         0.00000E+00
    0.00000E+00         0.00000E+00        -0.49856E+08
 
   -0.49620E+08         0.21016E+06         0.00000E+00
    0.21016E+06        -0.97392E+08         0.00000E+00
    0.00000E+00         0.00000E+00        -0.49759E+08
 
   -0.49544E+08         0.27635E+06         0.00000E+00
    0.27635E+06        -0.97359E+08         0.00000E+00
    0.00000E+00         0.00000E+00        -0.49663E+08
 
   -0.49461E+08         0.33477E+06         0.00000E+00
    0.33477E+06        -0.97340E+08         0.00000E+00
    0.00000E+00         0.00000E+00        -0.49567E+08
 
   -0.49375E+08         0.38770E+06         0.00000E+00
    0.38770E+06        -0.97332E+08         0.00000E+00
    0.00000E+00         0.00000E+00        -0.49470E+08
 
   -0.49286E+08         0.43651E+06         0.00000E+00
    0.43651E+06        -0.97332E+08         0.00000E+00
    0.00000E+00         0.00000E+00        -0.49374E+08
 
   -0.49195E+08         0.48205E+06         0.00000E+00
    0.48205E+06        -0.97338E+08         0.00000E+00
    0.00000E+00         0.00000E+00        -0.49277E+08
 
   -0.49103E+08         0.52479E+06         0.00000E+00
    0.52479E+06        -0.97348E+08         0.00000E+00
    0.00000E+00         0.00000E+00        -0.49180E+08
 
   -0.49011E+08         0.56504E+06         0.00000E+00
    0.56504E+06        -0.97361E+08         0.00000E+00
    0.00000E+00         0.00000E+00        -0.49082E+08
 
   -0.48917E+08         0.60297E+06         0.00000E+00
    0.60297E+06        -0.97375E+08         0.00000E+00
    0.00000E+00         0.00000E+00        -0.48984E+08
 
   -0.48823E+08         0.63871E+06         0.00000E+00
    0.63871E+06        -0.97390E+08         0.00000E+00
    0.00000E+00         0.00000E+00        -0.48886E+08
 
   -0.48728E+08         0.67237E+06         0.00000E+00
    0.67237E+06        -0.97405E+08         0.00000E+00
    0.00000E+00         0.00000E+00        -0.48787E+08
 
   -0.48632E+08         0.70404E+06         0.00000E+00
    0.70404E+06        -0.97419E+08         0.00000E+00
    0.00000E+00         0.00000E+00        -0.48688E+08
 
   -0.48535E+08         0.73384E+06         0.00000E+00
    0.73384E+06        -0.97432E+08         0.00000E+00
    0.00000E+00         0.00000E+00        -0.48588E+08
 
   -0.48438E+08         0.76187E+06         0.00000E+00
    0.76187E+06        -0.97445E+08         0.00000E+00
    0.00000E+00         0.00000E+00        -0.48487E+08
 
   -0.48340E+08         0.78825E+06         0.00000E+00
    0.78825E+06        -0.97457E+08         0.00000E+00
    0.00000E+00         0.00000E+00        -0.48386E+08
 
   -0.48240E+08         0.81312E+06         0.00000E+00
    0.81312E+06        -0.97467E+08         0.00000E+00
    0.00000E+00         0.00000E+00        -0.48284E+08
 
   -0.48140E+08         0.83659E+06         0.00000E+00
    0.83659E+06        -0.97476E+08         0.00000E+00
    0.00000E+00         0.00000E+00        -0.48181E+08
 
   -0.48038E+08         0.85881E+06         0.00000E+00
    0.85881E+06        -0.97485E+08         0.00000E+00
    0.00000E+00         0.00000E+00        -0.48078E+08
 
   -0.47936E+08         0.87990E+06         0.00000E+00
    0.87990E+06        -0.97492E+08         0.00000E+00
    0.00000E+00         0.00000E+00        -0.47973E+08
 
   -0.47832E+08         0.89998E+06         0.00000E+00
    0.89998E+06        -0.97499E+08         0.00000E+00
    0.00000E+00         0.00000E+00        -0.47868E+08
 
   -0.47727E+08         0.91916E+06         0.00000E+00
    0.91916E+06        -0.97504E+08         0.00000E+00
    0.00000E+00         0.00000E+00        -0.47762E+08
 
   -0.47621E+08         0.93757E+06         0.00000E+00
    0.93757E+06        -0.97509E+08         0.00000E+00
    0.00000E+00         0.00000E+00        -0.47654E+08
 
   -0.47513E+08         0.95529E+06         0.00000E+00
    0.95529E+06        -0.97513E+08         0.00000E+00
    0.00000E+00         0.00000E+00        -0.47546E+08
 
   -0.47405E+08         0.97243E+06         0.00000E+00
    0.97243E+06        -0.97517E+08         0.00000E+00
    0.00000E+00         0.00000E+00        -0.47436E+08
 
   -0.47295E+08         0.98908E+06         0.00000E+00
    0.98908E+06        -0.97520E+08         0.00000E+00
    0.00000E+00         0.00000E+00        -0.47325E+08
 
   -0.47183E+08         0.10053E+07         0.00000E+00
    0.10053E+07        -0.97523E+08         0.00000E+00
    0.00000E+00         0.00000E+00        -0.47214E+08
 
   -0.47071E+08         0.10212E+07         0.00000E+00
    0.10212E+07        -0.97525E+08         0.00000E+00
    0.00000E+00         0.00000E+00        -0.47100E+08
 
   -0.46957E+08         0.10368E+07         0.00000E+00
    0.10368E+07        -0.97527E+08         0.00000E+00
    0.00000E+00         0.00000E+00        -0.46986E+08
 
   -0.46841E+08         0.10521E+07         0.00000E+00
    0.10521E+07        -0.97528E+08         0.00000E+00
    0.00000E+00         0.00000E+00        -0.46870E+08
 
   -0.46725E+08         0.10673E+07         0.00000E+00
    0.10673E+07        -0.97529E+08         0.00000E+00
    0.00000E+00         0.00000E+00        -0.46753E+08
 
   -0.46606E+08         0.10823E+07         0.00000E+00
    0.10823E+07        -0.97530E+08         0.00000E+00
    0.00000E+00         0.00000E+00        -0.46635E+08
 
   -0.46487E+08         0.10972E+07         0.00000E+00
    0.10972E+07        -0.97531E+08         0.00000E+00
    0.00000E+00         0.00000E+00        -0.46515E+08
 
   -0.46365E+08         0.11120E+07         0.00000E+00
    0.11120E+07        -0.97532E+08         0.00000E+00
    0.00000E+00         0.00000E+00        -0.46394E+08
 
   -0.46243E+08         0.11268E+07         0.00000E+00
    0.11268E+07        -0.97532E+08         0.00000E+00
    0.00000E+00         0.00000E+00        -0.46271E+08
 
   -0.46119E+08         0.11415E+07         0.00000E+00
    0.11415E+07        -0.97533E+08         0.00000E+00
    0.00000E+00         0.00000E+00        -0.46147E+08
 
   -0.45993E+08         0.11563E+07         0.00000E+00
    0.11563E+07        -0.97533E+08         0.00000E+00
    0.00000E+00         0.00000E+00        -0.46021E+08
 
   -0.45865E+08         0.11710E+07         0.00000E+00
    0.11710E+07        -0.97533E+08         0.00000E+00
    0.00000E+00         0.00000E+00        -0.45894E+08
 
   -0.45736E+08         0.11857E+07         0.00000E+00
    0.11857E+07        -0.97533E+08         0.00000E+00
    0.00000E+00         0.00000E+00        -0.45765E+08
 
   -0.45606E+08         0.12005E+07         0.00000E+00
    0.12005E+07        -0.97533E+08         0.00000E+00
    0.00000E+00         0.00000E+00        -0.45634E+08
 
   -0.45474E+08         0.12152E+07         0.00000E+00
    0.12152E+07        -0.97533E+08         0.00000E+00
    0.00000E+00         0.00000E+00        -0.45502E+08
 
   -0.45340E+08         0.12300E+07         0.00000E+00
    0.12300E+07        -0.97534E+08         0.00000E+00
    0.00000E+00         0.00000E+00        -0.45368E+08
 
   -0.45204E+08         0.12447E+07         0.00000E+00
    0.12447E+07        -0.97534E+08         0.00000E+00
    0.00000E+00         0.00000E+00        -0.45233E+08
 
   -0.45067E+08         0.12595E+07         0.00000E+00
    0.12595E+07        -0.97534E+08         0.00000E+00
    0.00000E+00         0.00000E+00        -0.45096E+08
 
   -0.44928E+08         0.12743E+07         0.00000E+00
    0.12743E+07        -0.97534E+08         0.00000E+00
    0.00000E+00         0.00000E+00        -0.44957E+08
 
   -0.44787E+08         0.12891E+07         0.00000E+00
    0.12891E+07        -0.97534E+08         0.00000E+00
    0.00000E+00         0.00000E+00        -0.44816E+08
 
   -0.44645E+08         0.13038E+07         0.00000E+00
    0.13038E+07        -0.97534E+08         0.00000E+00
    0.00000E+00         0.00000E+00        -0.44674E+08
 
   -0.44501E+08         0.13185E+07         0.00000E+00
    0.13185E+07        -0.97535E+08         0.00000E+00
    0.00000E+00         0.00000E+00        -0.44529E+08
 
   -0.44355E+08         0.13332E+07         0.00000E+00
    0.13332E+07        -0.97535E+08         0.00000E+00
    0.00000E+00         0.00000E+00        -0.44383E+08
 
   -0.44207E+08         0.13477E+07         0.00000E+00
    0.13477E+07        -0.97536E+08         0.00000E+00
    0.00000E+00         0.00000E+00        -0.44236E+08
 
   -0.44058E+08         0.13622E+07         0.00000E+00
    0.13622E+07        -0.97536E+08         0.00000E+00
    0.00000E+00         0.00000E+00        -0.44086E+08
 
   -0.43907E+08         0.13766E+07         0.00000E+00
    0.13766E+07        -0.97537E+08         0.00000E+00
    0.00000E+00         0.00000E+00        -0.43935E+08
 
   -0.43754E+08         0.13908E+07         0.00000E+00
    0.13908E+07        -0.97538E+08         0.00000E+00
    0.00000E+00         0.00000E+00        -0.43781E+08
 
   -0.43599E+08         0.14048E+07         0.00000E+00
    0.14048E+07        -0.97539E+08         0.00000E+00
    0.00000E+00         0.00000E+00        -0.43626E+08
 
   -0.43442E+08         0.14187E+07         0.00000E+00
    0.14187E+07        -0.97540E+08         0.00000E+00
    0.00000E+00         0.00000E+00        -0.43469E+08
 
   -0.43284E+08         0.14323E+07         0.00000E+00
    0.14323E+07        -0.97542E+08         0.00000E+00
    0.00000E+00         0.00000E+00        -0.43311E+08
 
   -0.43124E+08         0.14456E+07         0.00000E+00
    0.14456E+07        -0.97543E+08         0.00000E+00
    0.00000E+00         0.00000E+00        -0.43150E+08
 
   -0.42963E+08         0.14586E+07         0.00000E+00
    0.14586E+07        -0.97545E+08         0.00000E+00
    0.00000E+00         0.00000E+00        -0.42988E+08
 
   -0.42799E+08         0.14713E+07         0.00000E+00
    0.14713E+07        -0.97547E+08         0.00000E+00
    0.00000E+00         0.00000E+00        -0.42824E+08
 
   -0.42634E+08         0.14835E+07         0.00000E+00
    0.14835E+07        -0.97549E+08         0.00000E+00
    0.00000E+00         0.00000E+00        -0.42658E+08
 
   -0.42467E+08         0.14953E+07         0.00000E+00
    0.14953E+07        -0.97552E+08         0.00000E+00
    0.00000E+00         0.00000E+00        -0.42490E+08
 
   -0.42299E+08         0.15066E+07         0.00000E+00
    0.15066E+07        -0.97555E+08         0.00000E+00
    0.00000E+00         0.00000E+00        -0.42321E+08
 
   -0.42129E+08         0.15173E+07         0.00000E+00
    0.15173E+07        -0.97558E+08         0.00000E+00
    0.00000E+00         0.00000E+00        -0.42149E+08
 
   -0.41957E+08         0.15273E+07         0.00000E+00
    0.15273E+07        -0.97561E+08         0.00000E+00
    0.00000E+00         0.00000E+00        -0.41976E+08
 
   -0.41783E+08         0.15366E+07         0.00000E+00
    0.15366E+07        -0.97565E+08         0.00000E+00
    0.00000E+00         0.00000E+00        -0.41802E+08
 
   -0.41609E+08         0.15451E+07         0.00000E+00
    0.15451E+07        -0.97570E+08         0.00000E+00
    0.00000E+00         0.00000E+00        -0.41625E+08
 
   -0.41432E+08         0.15527E+07         0.00000E+00
    0.15527E+07        -0.97575E+08         0.00000E+00
    0.00000E+00         0.00000E+00        -0.41447E+08
 
   -0.41254E+08         0.15593E+07         0.00000E+00
    0.15593E+07        -0.97581E+08         0.00000E+00
    0.00000E+00         0.00000E+00        -0.41267E+08
 
   -0.41075E+08         0.15647E+07         0.00000E+00
    0.15647E+07        -0.97587E+08         0.00000E+00
    0.00000E+00         0.00000E+00        -0.41086E+08
 
   -0.40894E+08         0.15689E+07         0.00000E+00
    0.15689E+07        -0.97594E+08         0.00000E+00
    0.00000E+00         0.00000E+00        -0.40903E+08
 
   -0.40713E+08         0.15718E+07         0.00000E+00
    0.15718E+07        -0.97602E+08         0.00000E+00
    0.00000E+00         0.00000E+00        -0.40718E+08
 
   -0.40529E+08         0.15730E+07         0.00000E+00
    0.15730E+07        -0.97610E+08         0.00000E+00
    0.00000E+00         0.00000E+00        -0.40532E+08
 
   -0.40345E+08         0.15727E+07         0.00000E+00
    0.15727E+07        -0.97620E+08         0.00000E+00
    0.00000E+00         0.00000E+00        -0.40345E+08
 
   -0.40159E+08         0.15704E+07         0.00000E+00
    0.15704E+07        -0.97631E+08         0.00000E+00
    0.00000E+00         0.00000E+00        -0.40156E+08
 
   -0.39973E+08         0.15661E+07         0.00000E+00
    0.15661E+07        -0.97643E+08         0.00000E+00
    0.00000E+00         0.00000E+00        -0.39965E+08
 
   -0.39785E+08         0.15595E+07         0.00000E+00
    0.15595E+07        -0.97657E+08         0.00000E+00
    0.00000E+00         0.00000E+00        -0.39773E+08
 
   -0.39597E+08         0.15504E+07         0.00000E+00
    0.15504E+07        -0.97672E+08         0.00000E+00
    0.00000E+00         0.00000E+00        -0.39580E+08
 
   -0.39407E+08         0.15386E+07         0.00000E+00
    0.15386E+07        -0.97688E+08         0.00000E+00
    0.00000E+00         0.00000E+00        -0.39385E+08
 
   -0.39217E+08         0.15238E+07         0.00000E+00
    0.15238E+07        -0.97707E+08         0.00000E+00
    0.00000E+00         0.00000E+00        -0.39190E+08
 
   -0.39026E+08         0.15058E+07         0.00000E+00
    0.15058E+07        -0.97727E+08         0.00000E+00
    0.00000E+00         0.00000E+00        -0.38993E+08
 
   -0.38835E+08         0.14842E+07         0.00000E+00
    0.14842E+07        -0.97750E+08         0.00000E+00
    0.00000E+00         0.00000E+00        -0.38795E+08
 
   -0.38643E+08         0.14589E+07         0.00000E+00
    0.14589E+07        -0.97774E+08         0.00000E+00
    0.00000E+00         0.00000E+00        -0.38595E+08
 
   -0.38450E+08         0.14295E+07         0.00000E+00
    0.14295E+07        -0.97801E+08         0.00000E+00
    0.00000E+00         0.00000E+00        -0.38395E+08
 
   -0.38257E+08         0.13958E+07         0.00000E+00
    0.13958E+07        -0.97831E+08         0.00000E+00
    0.00000E+00         0.00000E+00        -0.38194E+08
 
   -0.38064E+08         0.13575E+07         0.00000E+00
    0.13575E+07        -0.97862E+08         0.00000E+00
    0.00000E+00         0.00000E+00        -0.37992E+08
 
   -0.37870E+08         0.13143E+07         0.00000E+00
    0.13143E+07        -0.97895E+08         0.00000E+00
    0.00000E+00         0.00000E+00        -0.37789E+08
 
   -0.37676E+08         0.12661E+07         0.00000E+00
    0.12661E+07        -0.97930E+08         0.00000E+00
    0.00000E+00         0.00000E+00        -0.37585E+08
 
   -0.37481E+08         0.12126E+07         0.00000E+00
    0.12126E+07        -0.97965E+08         0.00000E+00
    0.00000E+00         0.00000E+00        -0.37381E+08
 
   -0.37287E+08         0.11536E+07         0.00000E+00
    0.11536E+07        -0.98000E+08         0.00000E+00
    0.00000E+00         0.00000E+00        -0.37176E+08
 
   -0.37093E+08         0.10890E+07         0.00000E+00
    0.10890E+07        -0.98034E+08         0.00000E+00
    0.00000E+00         0.00000E+00        -0.36970E+08
 
   -0.36898E+08         0.10186E+07         0.00000E+00
    0.10186E+07        -0.98064E+08         0.00000E+00
    0.00000E+00         0.00000E+00        -0.36764E+08
 
   -0.36705E+08         0.94192E+06         0.00000E+00
    0.94192E+06        -0.98088E+08         0.00000E+00
    0.00000E+00         0.00000E+00        -0.36557E+08
 
   -0.36513E+08         0.85848E+06         0.00000E+00
    0.85848E+06        -0.98103E+08         0.00000E+00
    0.00000E+00         0.00000E+00        -0.36350E+08
 
   -0.36324E+08         0.76727E+06         0.00000E+00
    0.76727E+06        -0.98105E+08         0.00000E+00
    0.00000E+00         0.00000E+00        -0.36143E+08
 
   -0.36139E+08         0.66655E+06         0.00000E+00
    0.66655E+06        -0.98089E+08         0.00000E+00
    0.00000E+00         0.00000E+00        -0.35935E+08
 
   -0.35961E+08         0.55348E+06         0.00000E+00
    0.55348E+06        -0.98049E+08         0.00000E+00
    0.00000E+00         0.00000E+00        -0.35728E+08
 
   -0.35797E+08         0.42319E+06         0.00000E+00
    0.42319E+06        -0.97979E+08         0.00000E+00
    0.00000E+00         0.00000E+00        -0.35520E+08
 
   -0.35659E+08         0.26934E+06         0.00000E+00
    0.26934E+06        -0.97868E+08         0.00000E+00
    0.00000E+00         0.00000E+00        -0.35312E+08
 
   -0.35574E+08         0.92858E+05         0.00000E+00
    0.92858E+05        -0.97709E+08         0.00000E+00
    0.00000E+00         0.00000E+00        -0.35104E+08
 
   -0.49683E+08         0.41895E+05         0.00000E+00
    0.41895E+05        -0.97535E+08         0.00000E+00
    0.00000E+00         0.00000E+00        -0.49952E+08
 
   -0.49648E+08         0.12287E+06         0.00000E+00
    0.12287E+06        -0.97459E+08         0.00000E+00
    0.00000E+00         0.00000E+00        -0.49856E+08
 
   -0.49589E+08         0.19621E+06         0.00000E+00
    0.19621E+06        -0.97406E+08         0.00000E+00
    0.00000E+00         0.00000E+00        -0.49759E+08
 
   -0.49517E+08         0.26064E+06         0.00000E+00
    0.26064E+06        -0.97371E+08         0.00000E+00
    0.00000E+00         0.00000E+00        -0.49663E+08
 
   -0.49437E+08         0.31802E+06         0.00000E+00
    0.31802E+06        -0.97351E+08         0.00000E+00
    0.00000E+00         0.00000E+00        -0.49567E+08
 
   -0.49353E+08         0.37029E+06         0.00000E+00
    0.37029E+06        -0.97342E+08         0.00000E+00
    0.00000E+00         0.00000E+00        -0.49470E+08
 
   -0.49266E+08         0.41868E+06         0.00000E+00
    0.41868E+06        -0.97342E+08         0.00000E+00
    0.00000E+00         0.00000E+00        -0.49374E+08
 
   -0.49177E+08         0.46392E+06         0.00000E+00
    0.46392E+06        -0.97347E+08         0.00000E+00
    0.00000E+00         0.00000E+00        -0.49277E+08
 
   -0.49086E+08         0.50644E+06         0.00000E+00
    0.50644E+06        -0.97357E+08         0.00000E+00
    0.00000E+00         0.00000E+00        -0.49180E+08
 
   -0.48995E+08         0.54652E+06         0.00000E+00
    0.54652E+06        -0.97369E+08         0.00000E+00
    0.00000E+00         0.00000E+00        -0.49082E+08
 
   -0.48902E+08         0.58429E+06         0.00000E+00
    0.58429E+06        -0.97383E+08         0.00000E+00
    0.00000E+00         0.00000E+00        -0.48984E+08
 
   -0.48809E+08         0.61988E+06         0.00000E+00
    0.61988E+06        -0.97397E+08         0.00000E+00
    0.00000E+00         0.00000E+00        -0.48886E+08
 
   -0.48715E+08         0.65338E+06         0.00000E+00
    0.65338E+06        -0.97411E+08         0.00000E+00
    0.00000E+00         0.00000E+00        -0.48787E+08
 
   -0.48620E+08         0.68489E+06         0.00000E+00
    0.68489E+06        -0.97425E+08         0.00000E+00
    0.00000E+00         0.00000E+00        -0.48688E+08
 
   -0.48524E+08         0.71450E+06         0.00000E+00
    0.71450E+06        -0.97438E+08         0.00000E+00
    0.00000E+00         0.00000E+00        -0.48588E+08
 
   -0.48427E+08         0.74234E+06         0.00000E+00
    0.74234E+06        -0.97450E+08         0.00000E+00
    0.00000E+00         0.00000E+00        -0.48487E+08
 
   -0.48329E+08         0.76853E+06         0.00000E+00
    0.76853E+06        -0.97462E+08         0.00000E+00
    0.00000E+00         0.00000E+00        -0.48386E+08
 
   -0.48231E+08         0.79319E+06         0.00000E+00
    0.79319E+06        -0.97472E+08         0.00000E+00
    0.00000E+00         0.00000E+00        -0.48284E+08
 
   -0.48131E+08         0.81645E+06         0.00000E+00
    0.81645E+06        -0.97481E+08         0.00000E+00
    0.00000E+00         0.00000E+00        -0.48181E+08
 
   -0.48030E+08         0.83844E+06         0.00000E+00
    0.83844E+06        -0.97489E+08         0.00000E+00
    0.00000E+00         0.00000E+00        -0.48078E+08
 
   -0.47927E+08         0.85930E+06         0.00000E+00
    0.85930E+06        -0.97496E+08         0.00000E+00
    0.00000E+00         0.00000E+00        -0.47973E+08
 
   -0.47824E+08         0.87914E+06         0.00000E+00
    0.87914E+06        -0.97503E+08         0.00000E+00
    0.00000E+00         0.00000E+00        -0.47868E+08
 
   -0.47719E+08         0.89808E+06         0.00000E+00
    0.89808E+06        -0.97508E+08         0.00000E+00
    0.00000E+00         0.00000E+00        -0.47762E+08
 
   -0.47613E+08         0.91624E+06         0.00000E+00
    0.91624E+06        -0.97513E+08         0.00000E+00
    0.00000E+00         0.00000E+00        -0.47654E+08
 
   -0.47506E+08         0.93371E+06         0.00000E+00
    0.93371E+06        -0.97517E+08         0.00000E+00
    0.00000E+00         0.00000E+00        -0.47546E+08
 
   -0.47398E+08         0.95059E+06         0.00000E+00
    0.95059E+06        -0.97520E+08         0.00000E+00
    0.00000E+00         0.00000E+00        -0.47436E+08
 
   -0.47288E+08         0.96697E+06         0.00000E+00
    0.96697E+06        -0.97523E+08         0.00000E+00
    0.00000E+00         0.00000E+00        -0.47325E+08
 
   -0.47177E+08         0.98292E+06         0.00000E+00
    0.98292E+06        -0.97526E+08         0.00000E+00
    0.00000E+00         0.00000E+00        -0.47214E+08
 
   -0.47064E+08         0.99852E+06         0.00000E+00
    0.99852E+06        -0.97528E+08         0.00000E+00
    0.00000E+00         0.00000E+00        -0.47100E+08
 
   -0.46950E+08         0.10138E+07         0.00000E+00
    0.10138E+07        -0.97530E+08         0.00000E+00
    0.00000E+00         0.00000E+00        -0.46986E+08
 
   -0.46835E+08         0.10289E+07         0.00000E+00
    0.10289E+07        -0.97531E+08         0.00000E+00
    0.00000E+00         0.00000E+00        -0.46870E+08
 
   -0.46718E+08         0.10438E+07         0.00000E+00
    0.10438E+07        -0.97532E+08         0.00000E+00
    0.00000E+00         0.00000E+00        -0.46753E+08
 
   -0.46600E+08         0.10585E+07         0.00000E+00
    0.10585E+07        -0.97533E+08         0.00000E+00
    0.00000E+00         0.00000E+00        -0.46635E+08
 
   -0.46481E+08         0.10731E+07         0.00000E+00
    0.10731E+07        -0.97534E+08         0.00000E+00
    0.00000E+00         0.00000E+00        -0.46515E+08
 
   -0.46359E+08         0.10876E+07         0.00000E+00
    0.10876E+07        -0.97535E+08         0.00000E+00
    0.00000E+00         0.00000E+00        -0.46394E+08
 
   -0.46237E+08         0.11021E+07         0.00000E+00
    0.11021E+07        -0.97535E+08         0.00000E+00
    0.00000E+00         0.00000E+00        -0.46271E+08
 
   -0.46112E+08         0.11165E+07         0.00000E+00
    0.11165E+07        -0.97535E+08         0.00000E+00
    0.00000E+00         0.00000E+00        -0.46147E+08
 
   -0.45987E+08         0.11309E+07         0.00000E+00
    0.11309E+07        -0.97536E+08         0.00000E+00
    0.00000E+00         0.00000E+00        -0.46021E+08
 
   -0.45859E+08         0.11454E+07         0.00000E+00
    0.11454E+07        -0.97536E+08         0.00000E+00
    0.00000E+00         0.00000E+00        -0.45894E+08
 
   -0.45730E+08         0.11598E+07         0.00000E+00
    0.11598E+07        -0.97536E+08         0.00000E+00
    0.00000E+00         0.00000E+00        -0.45765E+08
 
   -0.45600E+08         0.11742E+07         0.00000E+00
    0.11742E+07        -0.97536E+08         0.00000E+00
    0.00000E+00         0.00000E+00        -0.45634E+08
 
   -0.45467E+08         0.11886E+07         0.00000E+00
    0.11886E+07        -0.97536E+08         0.00000E+00
    0.00000E+00         0.00000E+00        -0.45502E+08
 
   -0.45334E+08         0.12030E+07         0.00000E+00
    0.12030E+07        -0.97536E+08         0.00000E+00
    0.00000E+00         0.00000E+00        -0.45368E+08
 
   -0.45198E+08         0.12175E+07         0.00000E+00
    0.12175E+07        -0.97537E+08         0.00000E+00
    0.00000E+00         0.00000E+00        -0.45233E+08
 
   -0.45061E+08         0.12319E+07         0.00000E+00
    0.12319E+07        -0.97537E+08         0.00000E+00
    0.00000E+00         0.00000E+00        -0.45096E+08
 
   -0.44922E+08         0.12463E+07         0.00000E+00
    0.12463E+07        -0.97537E+08         0.00000E+00
    0.00000E+00         0.00000E+00        -0.44957E+08
 
   -0.44781E+08         0.12608E+07         0.00000E+00
    0.12608E+07        -0.97537E+08         0.00000E+00
    0.00000E+00         0.00000E+00        -0.44816E+08
 
   -0.44639E+08         0.12752E+07         0.00000E+00
    0.12752E+07        -0.97537E+08         0.00000E+00
    0.00000E+00         0.00000E+00        -0.44674E+08
 
   -0.44495E+08         0.12895E+07         0.00000E+00
    0.12895E+07        -0.97538E+08         0.00000E+00
    0.00000E+00         0.00000E+00        -0.44529E+08
 
   -0.44349E+08         0.13038E+07         0.00000E+00
    0.13038E+07        -0.97538E+08         0.00000E+00
    0.00000E+00         0.00000E+00        -0.44383E+08
 
   -0.44201E+08         0.13180E+07         0.00000E+00
    0.13180E+07        -0.97539E+08         0.00000E+00
    0.00000E+00         0.00000E+00        -0.44236E+08
 
   -0.44052E+08         0.13322E+07         0.00000E+00
    0.13322E+07        -0.97539E+08         0.00000E+00
    0.00000E+00         0.00000E+00        -0.44086E+08
 
   -0.43901E+08         0.13462E+07         0.00000E+00
    0.13462E+07        -0.97540E+08         0.00000E+00
    0.00000E+00         0.00000E+00        -0.43935E+08
 
   -0.43748E+08         0.13600E+07         0.00000E+00
    0.13600E+07        -0.97541E+08         0.00000E+00
    0.00000E+00         0.00000E+00        -0.43781E+08
 
   -0.43593E+08         0.13737E+07         0.00000E+00
    0.13737E+07        -0.97542E+08         0.00000E+00
    0.00000E+00         0.00000E+00        -0.43626E+08
 
   -0.43437E+08         0.13872E+07         0.00000E+00
    0.13872E+07        -0.97543E+08         0.00000E+00
    0.00000E+00         0.00000E+00        -0.43469E+08
 
   -0.43278E+08         0.14005E+07         0.00000E+00
    0.14005E+07        -0.97544E+08         0.00000E+00
    0.00000E+00         0.00000E+00        -0.43311E+08
 
   -0.43119E+08         0.14135E+07         0.00000E+00
    0.14135E+07        -0.97546E+08         0.00000E+00
    0.00000E+00         0.00000E+00        -0.43150E+08
 
   -0.42957E+08         0.14261E+07         0.00000E+00
    0.14261E+07        -0.97547E+08         0.00000E+00
    0.00000E+00         0.00000E+00        -0.42988E+08
 
   -0.42794E+08         0.14385E+07         0.00000E+00
    0.14385E+07        -0.97549E+08         0.00000E+00
    0.00000E+00         0.00000E+00        -0.42824E+08
 
   -0.42629E+08         0.14504E+07         0.00000E+00
    0.14504E+07        -0.97552E+08         0.00000E+00
    0.00000E+00         0.00000E+00        -0.42658E+08
 
   -0.42462E+08         0.14618E+07         0.00000E+00
    0.14618E+07        -0.97554E+08         0.00000E+00
    0.00000E+00         0.00000E+00        -0.42490E+08
 
   -0.42294E+08         0.14728E+07         0.00000E+00
    0.14728E+07        -0.97557E+08         0.00000E+00
    0.00000E+00         0.00000E+00        -0.42321E+08
 
   -0.42124E+08         0.14831E+07         0.00000E+00
    0.14831E+07        -0.97560E+08         0.00000E+00
    0.00000E+00         0.00000E+00        -0.42149E+08
 
   -0.41953E+08         0.14928E+07         0.00000E+00
    0.14928E+07        -0.97563E+08         0.00000E+00
    0.00000E+00         0.00000E+00        -0.41976E+08
 
   -0.41780E+08         0.15018E+07         0.00000E+00
    0.15018E+07        -0.97567E+08         0.00000E+00
    0.00000E+00         0.00000E+00        -0.41802E+08
 
   -0.41605E+08         0.15100E+07         0.00000E+00
    0.15100E+07        -0.97572E+08         0.00000E+00
    0.00000E+00         0.00000E+00        -0.41625E+08
 
   -0.41429E+08         0.15173E+07         0.00000E+00
    0.15173E+07        -0.97576E+08         0.00000E+00
    0.00000E+00         0.00000E+00        -0.41447E+08
 
   -0.41252E+08         0.15236E+07         0.00000E+00
    0.15236E+07        -0.97582E+08         0.00000E+00
    0.00000E+00         0.00000E+00        -0.41267E+08
 
   -0.41073E+08         0.15288E+07         0.00000E+00
    0.15288E+07        -0.97588E+08         0.00000E+00
    0.00000E+00         0.00000E+00        -0.41086E+08
 
   -0.40893E+08         0.15327E+07         0.00000E+00
    0.15327E+07        -0.97595E+08         0.00000E+00
    0.00000E+00         0.00000E+00        -0.40903E+08
 
   -0.40711E+08         0.15353E+07         0.00000E+00
    0.15353E+07        -0.97602E+08         0.00000E+00
    0.00000E+00         0.00000E+00        -0.40718E+08
 
   -0.40529E+08         0.15364E+07         0.00000E+00
    0.15364E+07        -0.97610E+08         0.00000E+00
    0.00000E+00         0.00000E+00        -0.40532E+08
 
   -0.40345E+08         0.15357E+07         0.00000E+00
    0.15357E+07        -0.97620E+08         0.00000E+00
    0.00000E+00         0.00000E+00        -0.40345E+08
 
   -0.40160E+08         0.15333E+07         0.00000E+00
    0.15333E+07        -0.97630E+08         0.00000E+00
    0.00000E+00         0.00000E+00        -0.40156E+08
 
   -0.39974E+08         0.15287E+07         0.00000E+00
    0.15287E+07        -0.97642E+08         0.00000E+00
    0.00000E+00         0.00000E+00        -0.39965E+08
 
   -0.39788E+08         0.15220E+07         0.00000E+00
    0.15220E+07        -0.97655E+08         0.00000E+00
    0.00000E+00         0.00000E+00        -0.39773E+08
 
   -0.39600E+08         0.15127E+07         0.00000E+00
    0.15127E+07        -0.97669E+08         0.00000E+00
    0.00000E+00         0.00000E+00        -0.39580E+08
 
   -0.39412E+08         0.15007E+07         0.00000E+00
    0.15007E+07        -0.97686E+08         0.00000E+00
    0.00000E+00         0.00000E+00        -0.39385E+08
 
   -0.39223E+08         0.14858E+07         0.00000E+00
    0.14858E+07        -0.97703E+08         0.00000E+00
    0.00000E+00         0.00000E+00        -0.39190E+08
 
   -0.39033E+08         0.14677E+07         0.00000E+00
    0.14677E+07        -0.97723E+08         0.00000E+00
    0.00000E+00         0.00000E+00        -0.38993E+08
 
   -0.38843E+08         0.14460E+07         0.00000E+00
    0.14460E+07        -0.97745E+08         0.00000E+00
    0.00000E+00         0.00000E+00        -0.38795E+08
 
   -0.38653E+08         0.14206E+07         0.00000E+00
    0.14206E+07        -0.97769E+08         0.00000E+00
    0.00000E+00         0.00000E+00        -0.38595E+08
 
   -0.38462E+08         0.13911E+07         0.00000E+00
    0.13911E+07        -0.97795E+08         0.00000E+00
    0.00000E+00         0.00000E+00        -0.38395E+08
 
   -0.38271E+08         0.13574E+07         0.00000E+00
    0.13574E+07        -0.97823E+08         0.00000E+00
    0.00000E+00         0.00000E+00        -0.38194E+08
 
   -0.38079E+08         0.13190E+07         0.00000E+00
    0.13190E+07        -0.97854E+08         0.00000E+00
    0.00000E+00         0.00000E+00        -0.37992E+08
 
   -0.37888E+08         0.12757E+07         0.00000E+00
    0.12757E+07        -0.97886E+08         0.00000E+00
    0.00000E+00         0.00000E+00        -0.37789E+08
 
   -0.37696E+08         0.12275E+07         0.00000E+00
    0.12275E+07        -0.97919E+08         0.00000E+00
    0.00000E+00         0.00000E+00        -0.37585E+08
 
   -0.37504E+08         0.11739E+07         0.00000E+00
    0.11739E+07        -0.97954E+08         0.00000E+00
    0.00000E+00         0.00000E+00        -0.37381E+08
 
   -0.37312E+08         0.11150E+07         0.00000E+00
    0.11150E+07        -0.97988E+08         0.00000E+00
    0.00000E+00         0.00000E+00        -0.37176E+08
 
   -0.37120E+08         0.10504E+07         0.00000E+00
    0.10504E+07        -0.98020E+08         0.00000E+00
    0.00000E+00         0.00000E+00        -0.36970E+08
 
   -0.36929E+08         0.98007E+06         0.00000E+00
    0.98007E+06        -0.98049E+08         0.00000E+00
    0.00000E+00         0.00000E+00        -0.36764E+08
 
   -0.36738E+08         0.90364E+06         0.00000E+00
    0.90364E+06        -0.98072E+08         0.00000E+00
    0.00000E+00         0.00000E+00        -0.36557E+08
 
   -0.36550E+08         0.82063E+06         0.00000E+00
    0.82063E+06        -0.98086E+08         0.00000E+00
    0.00000E+00         0.00000E+00        -0.36350E+08
 
   -0.36365E+08         0.73017E+06         0.00000E+00
    0.73017E+06        -0.98086E+08         0.00000E+00
    0.00000E+00         0.00000E+00        -0.36143E+08
 
   -0.36185E+08         0.63073E+06         0.00000E+00
    0.63073E+06        -0.98068E+08         0.00000E+00
    0.00000E+00         0.00000E+00        -0.35935E+08
 
   -0.36014E+08         0.51979E+06         0.00000E+00
    0.51979E+06        -0.98025E+08         0.00000E+00
    0.00000E+00         0.00000E+00        -0.35728E+08
 
   -0.35859E+08         0.39323E+06         0.00000E+00
    0.39323E+06        -0.97951E+08         0.00000E+00
    0.00000E+00         0.00000E+00        -0.35520E+08
 
   -0.35733E+08         0.24712E+06         0.00000E+00
    0.24712E+06        -0.97836E+08         0.00000E+00
    0.00000E+00         0.00000E+00        -0.35312E+08
 
   -0.35658E+08         0.84411E+05         0.00000E+00
    0.84411E+05        -0.97674E+08         0.00000E+00
    0.00000E+00         0.00000E+00        -0.35104E+08
 
   -0.49644E+08         0.38486E+05         0.00000E+00
    0.38486E+05        -0.97551E+08         0.00000E+00
    0.00000E+00         0.00000E+00        -0.49952E+08
 
   -0.49613E+08         0.11360E+06         0.00000E+00
    0.11360E+06        -0.97474E+08         0.00000E+00
    0.00000E+00         0.00000E+00        -0.49856E+08
 
   -0.49559E+08         0.18321E+06         0.00000E+00
    0.18321E+06        -0.97419E+08         0.00000E+00
    0.00000E+00         0.00000E+00        -0.49759E+08
 
   -0.49490E+08         0.24559E+06         0.00000E+00
    0.24559E+06        -0.97383E+08         0.00000E+00
    0.00000E+00         0.00000E+00        -0.49663E+08
 
   -0.49413E+08         0.30177E+06         0.00000E+00
    0.30177E+06        -0.97362E+08         0.00000E+00
    0.00000E+00         0.00000E+00        -0.49567E+08
 
   -0.49331E+08         0.35328E+06         0.00000E+00
    0.35328E+06        -0.97352E+08         0.00000E+00
    0.00000E+00         0.00000E+00        -0.49470E+08
 
   -0.49246E+08         0.40117E+06         0.00000E+00
    0.40117E+06        -0.97351E+08         0.00000E+00
    0.00000E+00         0.00000E+00        -0.49374E+08
 
   -0.49158E+08         0.44607E+06         0.00000E+00
    0.44607E+06        -0.97356E+08         0.00000E+00
    0.00000E+00         0.00000E+00        -0.49277E+08
 
   -0.49069E+08         0.48835E+06         0.00000E+00
    0.48835E+06        -0.97365E+08         0.00000E+00
    0.00000E+00         0.00000E+00        -0.49180E+08
 
   -0.48979E+08         0.52822E+06         0.00000E+00
    0.52822E+06        -0.97377E+08         0.00000E+00
    0.00000E+00         0.00000E+00        -0.49082E+08
 
   -0.48887E+08         0.56582E+06         0.00000E+00
    0.56582E+06        -0.97390E+08         0.00000E+00
    0.00000E+00         0.00000E+00        -0.48984E+08
 
   -0.48795E+08         0.60123E+06         0.00000E+00
    0.60123E+06        -0.97404E+08         0.00000E+00
    0.00000E+00         0.00000E+00        -0.48886E+08
 
   -0.48702E+08         0.63456E+06         0.00000E+00
    0.63456E+06        -0.97418E+08         0.00000E+00
    0.00000E+00         0.00000E+00        -0.48787E+08
 
   -0.48608E+08         0.66589E+06         0.00000E+00
    0.66589E+06        -0.97431E+08         0.00000E+00
    0.00000E+00         0.00000E+00        -0.48688E+08
 
   -0.48513E+08         0.69531E+06         0.00000E+00
    0.69531E+06        -0.97444E+08         0.00000E+00
    0.00000E+00         0.00000E+00        -0.48588E+08
 
   -0.48417E+08         0.72295E+06         0.00000E+00
    0.72295E+06        -0.97456E+08         0.00000E+00
    0.00000E+00         0.00000E+00        -0.48487E+08
 
   -0.48319E+08         0.74893E+06         0.00000E+00
    0.74893E+06        -0.97467E+08         0.00000E+00
    0.00000E+00         0.00000E+00        -0.48386E+08
 
   -0.48221E+08         0.77337E+06         0.00000E+00
    0.77337E+06        -0.97477E+08         0.00000E+00
    0.00000E+00         0.00000E+00        -0.48284E+08
 
   -0.48122E+08         0.79640E+06         0.00000E+00
    0.79640E+06        -0.97485E+08         0.00000E+00
    0.00000E+00         0.00000E+00        -0.48181E+08
 
   -0.48021E+08         0.81816E+06         0.00000E+00
    0.81816E+06        -0.97493E+08         0.00000E+00
    0.00000E+00         0.00000E+00        -0.48078E+08
 
   -0.47919E+08         0.83877E+06         0.00000E+00
    0.83877E+06        -0.97500E+08         0.00000E+00
    0.00000E+00         0.00000E+00        -0.47973E+08
 
   -0.47816E+08         0.85837E+06         0.00000E+00
    0.85837E+06        -0.97506E+08         0.00000E+00
    0.00000E+00         0.00000E+00        -0.47868E+08
 
   -0.47712E+08         0.87706E+06         0.00000E+00
    0.87706E+06        -0.97512E+08         0.00000E+00
    0.00000E+00         0.00000E+00        -0.47762E+08
 
   -0.47606E+08         0.89496E+06         0.00000E+00
    0.89496E+06        -0.97516E+08         0.00000E+00
    0.00000E+00         0.00000E+00        -0.47654E+08
 
   -0.47499E+08         0.91217E+06         0.00000E+00
    0.91217E+06        -0.97520E+08         0.00000E+00
    0.00000E+00         0.00000E+00        -0.47546E+08
 
   -0.47391E+08         0.92878E+06         0.00000E+00
    0.92878E+06        -0.97524E+08         0.00000E+00
    0.00000E+00         0.00000E+00        -0.47436E+08
 
   -0.47281E+08         0.94489E+06         0.00000E+00
    0.94489E+06        -0.97527E+08         0.00000E+00
    0.00000E+00         0.00000E+00        -0.47325E+08
 
   -0.47170E+08         0.96057E+06         0.00000E+00
    0.96057E+06        -0.97529E+08         0.00000E+00
    0.00000E+00         0.00000E+00        -0.47214E+08
 
   -0.47058E+08         0.97589E+06         0.00000E+00
    0.97589E+06        -0.97531E+08         0.00000E+00
    0.00000E+00         0.00000E+00        -0.47100E+08
 
   -0.46944E+08         0.99091E+06         0.00000E+00
    0.99091E+06        -0.97533E+08         0.00000E+00
    0.00000E+00         0.00000E+00        -0.46986E+08
 
   -0.46829E+08         0.10057E+07         0.00000E+00
    0.10057E+07        -0.97534E+08         0.00000E+00
    0.00000E+00         0.00000E+00        -0.46870E+08
 
   -0.46712E+08         0.10203E+07         0.00000E+00
    0.10203E+07        -0.97535E+08         0.00000E+00
    0.00000E+00         0.00000E+00        -0.46753E+08
 
   -0.46594E+08         0.10347E+07         0.00000E+00
    0.10347E+07        -0.97536E+08         0.00000E+00
    0.00000E+00         0.00000E+00        -0.46635E+08
 
   -0.46474E+08         0.10490E+07         0.00000E+00
    0.10490E+07        -0.97537E+08         0.00000E+00
    0.00000E+00         0.00000E+00        -0.46515E+08
 
   -0.46353E+08         0.10632E+07         0.00000E+00
    0.10632E+07        -0.97538E+08         0.00000E+00
    0.00000E+00         0.00000E+00        -0.46394E+08
 
   -0.46231E+08         0.10774E+07         0.00000E+00
    0.10774E+07        -0.97538E+08         0.00000E+00
    0.00000E+00         0.00000E+00        -0.46271E+08
 
   -0.46106E+08         0.10915E+07         0.00000E+00
    0.10915E+07        -0.97538E+08         0.00000E+00
    0.00000E+00         0.00000E+00        -0.46147E+08
 
   -0.45981E+08         0.11056E+07         0.00000E+00
    0.11056E+07        -0.97539E+08         0.00000E+00
    0.00000E+00         0.00000E+00        -0.46021E+08
 
   -0.45853E+08         0.11197E+07         0.00000E+00
    0.11197E+07        -0.97539E+08         0.00000E+00
    0.00000E+00         0.00000E+00        -0.45894E+08
 
   -0.45724E+08         0.11338E+07         0.00000E+00
    0.11338E+07        -0.97539E+08         0.00000E+00
    0.00000E+00         0.00000E+00        -0.45765E+08
 
   -0.45594E+08         0.11479E+07         0.00000E+00
    0.11479E+07        -0.97539E+08         0.00000E+00
    0.00000E+00         0.00000E+00        -0.45634E+08
 
   -0.45461E+08         0.11620E+07         0.00000E+00
    0.11620E+07        -0.97539E+08         0.00000E+00
    0.00000E+00         0.00000E+00        -0.45502E+08
 
   -0.45327E+08         0.11761E+07         0.00000E+00
    0.11761E+07        -0.97539E+08         0.00000E+00
    0.00000E+00         0.00000E+00        -0.45368E+08
 
   -0.45192E+08         0.11902E+07         0.00000E+00
    0.11902E+07        -0.97539E+08         0.00000E+00
    0.00000E+00         0.00000E+00        -0.45233E+08
 
   -0.45055E+08         0.12043E+07         0.00000E+00
    0.12043E+07        -0.97540E+08         0.00000E+00
    0.00000E+00         0.00000E+00        -0.45096E+08
 
   -0.44916E+08         0.12184E+07         0.00000E+00
    0.12184E+07        -0.97540E+08         0.00000E+00
    0.00000E+00         0.00000E+00        -0.44957E+08
 
   -0.44775E+08         0.12325E+07         0.00000E+00
    0.12325E+07        -0.97540E+08         0.00000E+00
    0.00000E+00         0.00000E+00        -0.44816E+08
 
   -0.44633E+08         0.12465E+07         0.00000E+00
    0.12465E+07        -0.97540E+08         0.00000E+00
    0.00000E+00         0.00000E+00        -0.44674E+08
 
   -0.44488E+08         0.12605E+07         0.00000E+00
    0.12605E+07        -0.97541E+08         0.00000E+00
    0.00000E+00         0.00000E+00        -0.44529E+08
 
   -0.44343E+08         0.12745E+07         0.00000E+00
    0.12745E+07        -0.97541E+08         0.00000E+00
    0.00000E+00         0.00000E+00        -0.44383E+08
 
   -0.44195E+08         0.12883E+07         0.00000E+00
    0.12883E+07        -0.97541E+08         0.00000E+00
    0.00000E+00         0.00000E+00        -0.44236E+08
 
   -0.44046E+08         0.13021E+07         0.00000E+00
    0.13021E+07        -0.97542E+08         0.00000E+00
    0.00000E+00         0.00000E+00        -0.44086E+08
 
   -0.43895E+08         0.13158E+07         0.00000E+00
    0.13158E+07        -0.97543E+08         0.00000E+00
    0.00000E+00         0.00000E+00        -0.43935E+08
 
   -0.43742E+08         0.13293E+07         0.00000E+00
    0.13293E+07        -0.97544E+08         0.00000E+00
    0.00000E+00         0.00000E+00        -0.43781E+08
 
   -0.43587E+08         0.13426E+07         0.00000E+00
    0.13426E+07        -0.97545E+08         0.00000E+00
    0.00000E+00         0.00000E+00        -0.43626E+08
 
   -0.43431E+08         0.13558E+07         0.00000E+00
    0.13558E+07        -0.97546E+08         0.00000E+00
    0.00000E+00         0.00000E+00        -0.43469E+08
 
   -0.43273E+08         0.13687E+07         0.00000E+00
    0.13687E+07        -0.97547E+08         0.00000E+00
    0.00000E+00         0.00000E+00        -0.43311E+08
 
   -0.43113E+08         0.13813E+07         0.00000E+00
    0.13813E+07        -0.97548E+08         0.00000E+00
    0.00000E+00         0.00000E+00        -0.43150E+08
 
   -0.42952E+08         0.13937E+07         0.00000E+00
    0.13937E+07        -0.97550E+08         0.00000E+00
    0.00000E+00         0.00000E+00        -0.42988E+08
 
   -0.42788E+08         0.14056E+07         0.00000E+00
    0.14056E+07        -0.97552E+08         0.00000E+00
    0.00000E+00         0.00000E+00        -0.42824E+08
 
   -0.42624E+08         0.14172E+07         0.00000E+00
    0.14172E+07        -0.97554E+08         0.00000E+00
    0.00000E+00         0.00000E+00        -0.42658E+08
 
   -0.42457E+08         0.14284E+07         0.00000E+00
    0.14284E+07        -0.97556E+08         0.00000E+00
    0.00000E+00         0.00000E+00        -0.42490E+08
 
   -0.42289E+08         0.14390E+07         0.00000E+00
    0.14390E+07        -0.97559E+08         0.00000E+00
    0.00000E+00         0.00000E+00        -0.42321E+08
 
   -0.42120E+08         0.14490E+07         0.00000E+00
    0.14490E+07        -0.97562E+08         0.00000E+00
    0.00000E+00         0.00000E+00        -0.42149E+08
 
   -0.41948E+08         0.14584E+07         0.00000E+00
    0.14584E+07        -0.97565E+08         0.00000E+00
    0.00000E+00         0.00000E+00        -0.41976E+08
 
   -0.41776E+08         0.14671E+07         0.00000E+00
    0.14671E+07        -0.97569E+08         0.00000E+00
    0.00000E+00         0.00000E+00        -0.41802E+08
 
   -0.41601E+08         0.14750E+07         0.00000E+00
    0.14750E+07        -0.97573E+08         0.00000E+00
    0.00000E+00         0.00000E+00        -0.41625E+08
 
   -0.41426E+08         0.14820E+07         0.00000E+00
    0.14820E+07        -0.97578E+08         0.00000E+00
    0.00000E+00         0.00000E+00        -0.41447E+08
 
   -0.41249E+08         0.14880E+07         0.00000E+00
    0.14880E+07        -0.97583E+08         0.00000E+00
    0.00000E+00         0.00000E+00        -0.41267E+08
 
   -0.41070E+08         0.14929E+07         0.00000E+00
    0.14929E+07        -0.97589E+08         0.00000E+00
    0.00000E+00         0.00000E+00        -0.41086E+08
 
   -0.40891E+08         0.14966E+07         0.00000E+00
    0.14966E+07        -0.97595E+08         0.00000E+00
    0.00000E+00         0.00000E+00        -0.40903E+08
 
   -0.40710E+08         0.14990E+07         0.00000E+00
    0.14990E+07        -0.97602E+08         0.00000E+00
    0.00000E+00         0.00000E+00        -0.40718E+08
 
   -0.40528E+08         0.14998E+07         0.00000E+00
    0.14998E+07        -0.97610E+08         0.00000E+00
    0.00000E+00         0.00000E+00        -0.40532E+08
 
   -0.40345E+08         0.14989E+07         0.00000E+00
    0.14989E+07        -0.97619E+08         0.00000E+00
    0.00000E+00         0.00000E+00        -0.40345E+08
 
   -0.40161E+08         0.14963E+07         0.00000E+00
    0.14963E+07        -0.97630E+08         0.00000E+00
    0.00000E+00         0.00000E+00        -0.40156E+08
 
   -0.39976E+08         0.14916E+07         0.00000E+00
    0.14916E+07        -0.97641E+08         0.00000E+00
    0.00000E+00         0.00000E+00        -0.39965E+08
 
   -0.39790E+08         0.14846E+07         0.00000E+00
    0.14846E+07        -0.97653E+08         0.00000E+00
    0.00000E+00         0.00000E+00        -0.39773E+08
 
   -0.39604E+08         0.14752E+07         0.00000E+00
    0.14752E+07        -0.97667E+08         0.00000E+00
    0.00000E+00         0.00000E+00        -0.39580E+08
 
   -0.39417E+08         0.14631E+07         0.00000E+00
    0.14631E+07        -0.97683E+08         0.00000E+00
    0.00000E+00         0.00000E+00        -0.39385E+08
 
   -0.39229E+08         0.14481E+07         0.00000E+00
    0.14481E+07        -0.97700E+08         0.00000E+00
    0.00000E+00         0.00000E+00        -0.39190E+08
 
   -0.39041E+08         0.14299E+07         0.00000E+00
    0.14299E+07        -0.97719E+08         0.00000E+00
    0.00000E+00         0.00000E+00        -0.38993E+08
 
   -0.38852E+08         0.14081E+07         0.00000E+00
    0.14081E+07        -0.97740E+08         0.00000E+00
    0.00000E+00         0.00000E+00        -0.38795E+08
 
   -0.38663E+08         0.13826E+07         0.00000E+00
    0.13826E+07        -0.97763E+08         0.00000E+00
    0.00000E+00         0.00000E+00        -0.38595E+08
 
   -0.38474E+08         0.13531E+07         0.00000E+00
    0.13531E+07        -0.97789E+08         0.00000E+00
    0.00000E+00         0.00000E+00        -0.38395E+08
 
   -0.38284E+08         0.13193E+07         0.00000E+00
    0.13193E+07        -0.97816E+08         0.00000E+00
    0.00000E+00         0.00000E+00        -0.38194E+08
 
   -0.38095E+08         0.12808E+07         0.00000E+00
    0.12808E+07        -0.97846E+08         0.00000E+00
    0.00000E+00         0.00000E+00        -0.37992E+08
 
   -0.37905E+08         0.12376E+07         0.00000E+00
    0.12376E+07        -0.97877E+08         0.00000E+00
    0.00000E+00         0.00000E+00        -0.37789E+08
 
   -0.37716E+08         0.11893E+07         0.00000E+00
    0.11893E+07        -0.97909E+08         0.00000E+00
    0.00000E+00         0.00000E+00        -0.37585E+08
 
   -0.37526E+08         0.11358E+07         0.00000E+00
    0.11358E+07        -0.97943E+08         0.00000E+00
    0.00000E+00         0.00000E+00        -0.37381E+08
 
   -0.37337E+08         0.10769E+07         0.00000E+00
    0.10769E+07        -0.97975E+08         0.00000E+00
    0.00000E+00         0.00000E+00        -0.37176E+08
 
   -0.37148E+08         0.10124E+07         0.00000E+00
    0.10124E+07        -0.98007E+08         0.00000E+00
    0.00000E+00         0.00000E+00        -0.36970E+08
 
   -0.36959E+08         0.94217E+06         0.00000E+00
    0.94217E+06        -0.98035E+08         0.00000E+00
    0.00000E+00         0.00000E+00        -0.36764E+08
 
   -0.36772E+08         0.86604E+06         0.00000E+00
    0.86604E+06        -0.98056E+08         0.00000E+00
    0.00000E+00         0.00000E+00        -0.36557E+08
 
   -0.36587E+08         0.78356E+06         0.00000E+00
    0.78356E+06        -0.98068E+08         0.00000E+00
    0.00000E+00         0.00000E+00        -0.36350E+08
 
   -0.36406E+08         0.69400E+06         0.00000E+00
    0.69400E+06        -0.98067E+08         0.00000E+00
    0.00000E+00         0.00000E+00        -0.36143E+08
 
   -0.36232E+08         0.59606E+06         0.00000E+00
    0.59606E+06        -0.98047E+08         0.00000E+00
    0.00000E+00         0.00000E+00        -0.35935E+08
 
   -0.36068E+08         0.48757E+06         0.00000E+00
    0.48757E+06        -0.98002E+08         0.00000E+00
    0.00000E+00         0.00000E+00        -0.35728E+08
 
   -0.35921E+08         0.36532E+06         0.00000E+00
    0.36532E+06        -0.97925E+08         0.00000E+00
    0.00000E+00         0.00000E+00        -0.35520E+08
 
   -0.35805E+08         0.22722E+06         0.00000E+00
    0.22722E+06        -0.97806E+08         0.00000E+00
    0.00000E+00         0.00000E+00        -0.35312E+08
 
   -0.35738E+08         0.77078E+05         0.00000E+00
    0.77078E+05        -0.97642E+08         0.00000E+00
    0.00000E+00         0.00000E+00        -0.35104E+08
 
   -0.49606E+08         0.35463E+05         0.00000E+00
    0.35463E+05        -0.97565E+08         0.00000E+00
    0.00000E+00         0.00000E+00        -0.49952E+08
 
   -0.49578E+08         0.10520E+06         0.00000E+00
    0.10520E+06        -0.97489E+08         0.00000E+00
    0.00000E+00         0.00000E+00        -0.49856E+08
 
   -0.49528E+08         0.17104E+06         0.00000E+00
    0.17104E+06        -0.97432E+08         0.00000E+00
    0.00000E+00         0.00000E+00        -0.49759E+08
 
   -0.49463E+08         0.23119E+06         0.00000E+00
    0.23119E+06        -0.97395E+08         0.00000E+00
    0.00000E+00         0.00000E+00        -0.49663E+08
 
   -0.49389E+08         0.28602E+06         0.00000E+00
    0.28602E+06        -0.97373E+08         0.00000E+00
    0.00000E+00         0.00000E+00        -0.49567E+08
 
   -0.49309E+08         0.33667E+06         0.00000E+00
    0.33667E+06        -0.97362E+08         0.00000E+00
    0.00000E+00         0.00000E+00        -0.49470E+08
 
   -0.49226E+08         0.38399E+06         0.00000E+00
    0.38399E+06        -0.97360E+08         0.00000E+00
    0.00000E+00         0.00000E+00        -0.49374E+08
 
   -0.49140E+08         0.42850E+06         0.00000E+00
    0.42850E+06        -0.97364E+08         0.00000E+00
    0.00000E+00         0.00000E+00        -0.49277E+08
 
   -0.49052E+08         0.47050E+06         0.00000E+00
    0.47050E+06        -0.97373E+08         0.00000E+00
    0.00000E+00         0.00000E+00        -0.49180E+08
 
   -0.48963E+08         0.51015E+06         0.00000E+00
    0.51015E+06        -0.97384E+08         0.00000E+00
    0.00000E+00         0.00000E+00        -0.49082E+08
 
   -0.48872E+08         0.54755E+06         0.00000E+00
    0.54755E+06        -0.97397E+08         0.00000E+00
    0.00000E+00         0.00000E+00        -0.48984E+08
 
   -0.48781E+08         0.58278E+06         0.00000E+00
    0.58278E+06        -0.97411E+08         0.00000E+00
    0.00000E+00         0.00000E+00        -0.48886E+08
 
   -0.48689E+08         0.61592E+06         0.00000E+00
    0.61592E+06        -0.97424E+08         0.00000E+00
    0.00000E+00         0.00000E+00        -0.48787E+08
 
   -0.48596E+08         0.64705E+06         0.00000E+00
    0.64705E+06        -0.97437E+08         0.00000E+00
    0.00000E+00         0.00000E+00        -0.48688E+08
 
   -0.48501E+08         0.67627E+06         0.00000E+00
    0.67627E+06        -0.97450E+08         0.00000E+00
    0.00000E+00         0.00000E+00        -0.48588E+08
 
   -0.48406E+08         0.70370E+06         0.00000E+00
    0.70370E+06        -0.97461E+08         0.00000E+00
    0.00000E+00         0.00000E+00        -0.48487E+08
 
   -0.48309E+08         0.72945E+06         0.00000E+00
    0.72945E+06        -0.97472E+08         0.00000E+00
    0.00000E+00         0.00000E+00        -0.48386E+08
 
   -0.48212E+08         0.75365E+06         0.00000E+00
    0.75365E+06        -0.97481E+08         0.00000E+00
    0.00000E+00         0.00000E+00        -0.48284E+08
 
   -0.48113E+08         0.77645E+06         0.00000E+00
    0.77645E+06        -0.97490E+08         0.00000E+00
    0.00000E+00         0.00000E+00        -0.48181E+08
 
   -0.48013E+08         0.79796E+06         0.00000E+00
    0.79796E+06        -0.97498E+08         0.00000E+00
    0.00000E+00         0.00000E+00        -0.48078E+08
 
   -0.47911E+08         0.81832E+06         0.00000E+00
    0.81832E+06        -0.97504E+08         0.00000E+00
    0.00000E+00         0.00000E+00        -0.47973E+08
 
   -0.47809E+08         0.83766E+06         0.00000E+00
    0.83766E+06        -0.97510E+08         0.00000E+00
    0.00000E+00         0.00000E+00        -0.47868E+08
 
   -0.47705E+08         0.85609E+06         0.00000E+00
    0.85609E+06        -0.97515E+08         0.00000E+00
    0.00000E+00         0.00000E+00        -0.47762E+08
 
   -0.47599E+08         0.87373E+06         0.00000E+00
    0.87373E+06        -0.97520E+08         0.00000E+00
    0.00000E+00         0.00000E+00        -0.47654E+08
 
   -0.47492E+08         0.89067E+06         0.00000E+00
    0.89067E+06        -0.97524E+08         0.00000E+00
    0.00000E+00         0.00000E+00        -0.47546E+08
 
   -0.47384E+08         0.90701E+06         0.00000E+00
    0.90701E+06        -0.97527E+08         0.00000E+00
    0.00000E+00         0.00000E+00        -0.47436E+08
 
   -0.47275E+08         0.92284E+06         0.00000E+00
    0.92284E+06        -0.97530E+08         0.00000E+00
    0.00000E+00         0.00000E+00        -0.47325E+08
 
   -0.47164E+08         0.93824E+06         0.00000E+00
    0.93824E+06        -0.97532E+08         0.00000E+00
    0.00000E+00         0.00000E+00        -0.47214E+08
 
   -0.47052E+08         0.95328E+06         0.00000E+00
    0.95328E+06        -0.97534E+08         0.00000E+00
    0.00000E+00         0.00000E+00        -0.47100E+08
 
   -0.46938E+08         0.96802E+06         0.00000E+00
    0.96802E+06        -0.97536E+08         0.00000E+00
    0.00000E+00         0.00000E+00        -0.46986E+08
 
   -0.46823E+08         0.98251E+06         0.00000E+00
    0.98251E+06        -0.97537E+08         0.00000E+00
    0.00000E+00         0.00000E+00        -0.46870E+08
 
   -0.46706E+08         0.99680E+06         0.00000E+00
    0.99680E+06        -0.97538E+08         0.00000E+00
    0.00000E+00         0.00000E+00        -0.46753E+08
 
   -0.46588E+08         0.10109E+07         0.00000E+00
    0.10109E+07        -0.97539E+08         0.00000E+00
    0.00000E+00         0.00000E+00        -0.46635E+08
 
   -0.46468E+08         0.10249E+07         0.00000E+00
    0.10249E+07        -0.97540E+08         0.00000E+00
    0.00000E+00         0.00000E+00        -0.46515E+08
 
   -0.46347E+08         0.10389E+07         0.00000E+00
    0.10389E+07        -0.97540E+08         0.00000E+00
    0.00000E+00         0.00000E+00        -0.46394E+08
 
   -0.46225E+08         0.10527E+07         0.00000E+00
    0.10527E+07        -0.97541E+08         0.00000E+00
    0.00000E+00         0.00000E+00        -0.46271E+08
 
   -0.46100E+08         0.10665E+07         0.00000E+00
    0.10665E+07        -0.97541E+08         0.00000E+00
    0.00000E+00         0.00000E+00        -0.46147E+08
 
   -0.45975E+08         0.10803E+07         0.00000E+00
    0.10803E+07        -0.97541E+08         0.00000E+00
    0.00000E+00         0.00000E+00        -0.46021E+08
 
   -0.45847E+08         0.10941E+07         0.00000E+00
    0.10941E+07        -0.97542E+08         0.00000E+00
    0.00000E+00         0.00000E+00        -0.45894E+08
 
   -0.45718E+08         0.11078E+07         0.00000E+00
    0.11078E+07        -0.97542E+08         0.00000E+00
    0.00000E+00         0.00000E+00        -0.45765E+08
 
   -0.45588E+08         0.11216E+07         0.00000E+00
    0.11216E+07        -0.97542E+08         0.00000E+00
    0.00000E+00         0.00000E+00        -0.45634E+08
 
   -0.45455E+08         0.11354E+07         0.00000E+00
    0.11354E+07        -0.97542E+08         0.00000E+00
    0.00000E+00         0.00000E+00        -0.45502E+08
 
   -0.45321E+08         0.11491E+07         0.00000E+00
    0.11491E+07        -0.97542E+08         0.00000E+00
    0.00000E+00         0.00000E+00        -0.45368E+08
 
   -0.45186E+08         0.11629E+07         0.00000E+00
    0.11629E+07        -0.97542E+08         0.00000E+00
    0.00000E+00         0.00000E+00        -0.45233E+08
 
   -0.45049E+08         0.11767E+07         0.00000E+00
    0.11767E+07        -0.97542E+08         0.00000E+00
    0.00000E+00         0.00000E+00        -0.45096E+08
 
   -0.44910E+08         0.11904E+07         0.00000E+00
    0.11904E+07        -0.97543E+08         0.00000E+00
    0.00000E+00         0.00000E+00        -0.44957E+08
 
   -0.44769E+08         0.12042E+07         0.00000E+00
    0.12042E+07        -0.97543E+08         0.00000E+00
    0.00000E+00         0.00000E+00        -0.44816E+08
 
   -0.44626E+08         0.12179E+07         0.00000E+00
    0.12179E+07        -0.97543E+08         0.00000E+00
    0.00000E+00         0.00000E+00        -0.44674E+08
 
   -0.44482E+08         0.12315E+07         0.00000E+00
    0.12315E+07        -0.97543E+08         0.00000E+00
    0.00000E+00         0.00000E+00        -0.44529E+08
 
   -0.44337E+08         0.12451E+07         0.00000E+00
    0.12451E+07        -0.97544E+08         0.00000E+00
    0.00000E+00         0.00000E+00        -0.44383E+08
 
   -0.44189E+08         0.12586E+07         0.00000E+00
    0.12586E+07        -0.97544E+08         0.00000E+00
    0.00000E+00         0.00000E+00        -0.44236E+08
 
   -0.44040E+08         0.12721E+07         0.00000E+00
    0.12721E+07        -0.97545E+08         0.00000E+00
    0.00000E+00         0.00000E+00        -0.44086E+08
 
   -0.43889E+08         0.12854E+07         0.00000E+00
    0.12854E+07        -0.97545E+08         0.00000E+00
    0.00000E+00         0.00000E+00        -0.43935E+08
 
   -0.43736E+08         0.12986E+07         0.00000E+00
    0.12986E+07        -0.97546E+08         0.00000E+00
    0.00000E+00         0.00000E+00        -0.43781E+08
 
   -0.43581E+08         0.13116E+07         0.00000E+00
    0.13116E+07        -0.97547E+08         0.00000E+00
    0.00000E+00         0.00000E+00        -0.43626E+08
 
   -0.43425E+08         0.13244E+07         0.00000E+00
    0.13244E+07        -0.97548E+08         0.00000E+00
    0.00000E+00         0.00000E+00        -0.43469E+08
 
   -0.43267E+08         0.13369E+07         0.00000E+00
    0.13369E+07        -0.97549E+08         0.00000E+00
    0.00000E+00         0.00000E+00        -0.43311E+08
 
   -0.43108E+08         0.13492E+07         0.00000E+00
    0.13492E+07        -0.97551E+08         0.00000E+00
    0.00000E+00         0.00000E+00        -0.43150E+08
 
   -0.42946E+08         0.13612E+07         0.00000E+00
    0.13612E+07        -0.97552E+08         0.00000E+00
    0.00000E+00         0.00000E+00        -0.42988E+08
 
   -0.42783E+08         0.13729E+07         0.00000E+00
    0.13729E+07        -0.97554E+08         0.00000E+00
    0.00000E+00         0.00000E+00        -0.42824E+08
 
   -0.42619E+08         0.13841E+07         0.00000E+00
    0.13841E+07        -0.97556E+08         0.00000E+00
    0.00000E+00         0.00000E+00        -0.42658E+08
 
   -0.42452E+08         0.13949E+07         0.00000E+00
    0.13949E+07        -0.97558E+08         0.00000E+00
    0.00000E+00         0.00000E+00        -0.42490E+08
 
   -0.42285E+08         0.14052E+07         0.00000E+00
    0.14052E+07        -0.97561E+08         0.00000E+00
    0.00000E+00         0.00000E+00        -0.42321E+08
 
   -0.42115E+08         0.14150E+07         0.00000E+00
    0.14150E+07        -0.97564E+08         0.00000E+00
    0.00000E+00         0.00000E+00        -0.42149E+08
 
   -0.41944E+08         0.14241E+07         0.00000E+00
    0.14241E+07        -0.97567E+08         0.00000E+00
    0.00000E+00         0.00000E+00        -0.41976E+08
 
   -0.41772E+08         0.14325E+07         0.00000E+00
    0.14325E+07        -0.97571E+08         0.00000E+00
    0.00000E+00         0.00000E+00        -0.41802E+08
 
   -0.41598E+08         0.14401E+07         0.00000E+00
    0.14401E+07        -0.97575E+08         0.00000E+00
    0.00000E+00         0.00000E+00        -0.41625E+08
 
   -0.41423E+08         0.14468E+07         0.00000E+00
    0.14468E+07        -0.97579E+08         0.00000E+00
    0.00000E+00         0.00000E+00        -0.41447E+08
 
   -0.41246E+08         0.14525E+07         0.00000E+00
    0.14525E+07        -0.97584E+08         0.00000E+00
    0.00000E+00         0.00000E+00        -0.41267E+08
 
   -0.41068E+08         0.14572E+07         0.00000E+00
    0.14572E+07        -0.97590E+08         0.00000E+00
    0.00000E+00         0.00000E+00        -0.41086E+08
 
   -0.40889E+08         0.14606E+07         0.00000E+00
    0.14606E+07        -0.97596E+08         0.00000E+00
    0.00000E+00         0.00000E+00        -0.40903E+08
 
   -0.40709E+08         0.14627E+07         0.00000E+00
    0.14627E+07        -0.97603E+08         0.00000E+00
    0.00000E+00         0.00000E+00        -0.40718E+08
 
   -0.40527E+08         0.14633E+07         0.00000E+00
    0.14633E+07        -0.97610E+08         0.00000E+00
    0.00000E+00         0.00000E+00        -0.40532E+08
 
   -0.40345E+08         0.14623E+07         0.00000E+00
    0.14623E+07        -0.97619E+08         0.00000E+00
    0.00000E+00         0.00000E+00        -0.40345E+08
 
   -0.40162E+08         0.14595E+07         0.00000E+00
    0.14595E+07        -0.97629E+08         0.00000E+00
    0.00000E+00         0.00000E+00        -0.40156E+08
 
   -0.39978E+08         0.14546E+07         0.00000E+00
    0.14546E+07        -0.97640E+08         0.00000E+00
    0.00000E+00         0.00000E+00        -0.39965E+08
 
   -0.39793E+08         0.14475E+07         0.00000E+00
    0.14475E+07        -0.97652E+08         0.00000E+00
    0.00000E+00         0.00000E+00        -0.39773E+08
 
   -0.39607E+08         0.14380E+07         0.00000E+00
    0.14380E+07        -0.97665E+08         0.00000E+00
    0.00000E+00         0.00000E+00        -0.39580E+08
 
   -0.39421E+08         0.14258E+07         0.00000E+00
    0.14258E+07        -0.97680E+08         0.00000E+00
    0.00000E+00         0.00000E+00        -0.39385E+08
 
   -0.39235E+08         0.14106E+07         0.00000E+00
    0.14106E+07        -0.97697E+08         0.00000E+00
    0.00000E+00         0.00000E+00        -0.39190E+08
 
   -0.39048E+08         0.13923E+07         0.00000E+00
    0.13923E+07        -0.97715E+08         0.00000E+00
    0.00000E+00         0.00000E+00        -0.38993E+08
 
   -0.38860E+08         0.13705E+07         0.00000E+00
    0.13705E+07        -0.97736E+08         0.00000E+00
    0.00000E+00         0.00000E+00        -0.38795E+08
 
   -0.38673E+08         0.13450E+07         0.00000E+00
    0.13450E+07        -0.97758E+08         0.00000E+00
    0.00000E+00         0.00000E+00        -0.38595E+08
 
   -0.38486E+08         0.13154E+07         0.00000E+00
    0.13154E+07        -0.97782E+08         0.00000E+00
    0.00000E+00         0.00000E+00        -0.38395E+08
 
   -0.38298E+08         0.12816E+07         0.00000E+00
    0.12816E+07        -0.97809E+08         0.00000E+00
    0.00000E+00         0.00000E+00        -0.38194E+08
 
   -0.38110E+08         0.12431E+07         0.00000E+00
    0.12431E+07        -0.97837E+08         0.00000E+00
    0.00000E+00         0.00000E+00        -0.37992E+08
 
   -0.37923E+08         0.11999E+07         0.00000E+00
    0.11999E+07        -0.97868E+08         0.00000E+00
    0.00000E+00         0.00000E+00        -0.37789E+08
 
   -0.37736E+08         0.11516E+07         0.00000E+00
    0.11516E+07        -0.97899E+08         0.00000E+00
    0.00000E+00         0.00000E+00        -0.37585E+08
 
   -0.37548E+08         0.10981E+07         0.00000E+00
    0.10981E+07        -0.97931E+08         0.00000E+00
    0.00000E+00         0.00000E+00        -0.37381E+08
 
   -0.37362E+08         0.10392E+07         0.00000E+00
    0.10392E+07        -0.97963E+08         0.00000E+00
    0.00000E+00         0.00000E+00        -0.37176E+08
 
   -0.37175E+08         0.97488E+06         0.00000E+00
    0.97488E+06        -0.97993E+08         0.00000E+00
    0.00000E+00         0.00000E+00        -0.36970E+08
 
   -0.36990E+08         0.90489E+06         0.00000E+00
    0.90489E+06        -0.98020E+08         0.00000E+00
    0.00000E+00         0.00000E+00        -0.36764E+08
 
   -0.36806E+08         0.82912E+06         0.00000E+00
    0.82912E+06        -0.98040E+08         0.00000E+00
    0.00000E+00         0.00000E+00        -0.36557E+08
 
   -0.36625E+08         0.74726E+06         0.00000E+00
    0.74726E+06        -0.98051E+08         0.00000E+00
    0.00000E+00         0.00000E+00        -0.36350E+08
 
   -0.36448E+08         0.65874E+06         0.00000E+00
    0.65874E+06        -0.98048E+08         0.00000E+00
    0.00000E+00         0.00000E+00        -0.36143E+08
 
   -0.36279E+08         0.56250E+06         0.00000E+00
    0.56250E+06        -0.98027E+08         0.00000E+00
    0.00000E+00         0.00000E+00        -0.35935E+08
 
   -0.36121E+08         0.45679E+06         0.00000E+00
    0.45679E+06        -0.97980E+08         0.00000E+00
    0.00000E+00         0.00000E+00        -0.35728E+08
 
   -0.35982E+08         0.33925E+06         0.00000E+00
    0.33925E+06        -0.97899E+08         0.00000E+00
    0.00000E+00         0.00000E+00        -0.35520E+08
 
   -0.35874E+08         0.20919E+06         0.00000E+00
    0.20919E+06        -0.97778E+08         0.00000E+00
    0.00000E+00         0.00000E+00        -0.35312E+08
 
   -0.35815E+08         0.70584E+05         0.00000E+00
    0.70584E+05        -0.97612E+08         0.00000E+00
    0.00000E+00         0.00000E+00        -0.35104E+08
 
   -0.49570E+08         0.32738E+05         0.00000E+00
    0.32738E+05        -0.97579E+08         0.00000E+00
    0.00000E+00         0.00000E+00        -0.49952E+08
 
   -0.49545E+08         0.97505E+05         0.00000E+00
    0.97505E+05        -0.97502E+08         0.00000E+00
    0.00000E+00         0.00000E+00        -0.49856E+08
 
   -0.49498E+08         0.15962E+06         0.00000E+00
    0.15962E+06        -0.97445E+08         0.00000E+00
    0.00000E+00         0.00000E+00        -0.49759E+08
 
   -0.49436E+08         0.21740E+06         0.00000E+00
    0.21740E+06        -0.97406E+08         0.00000E+00
    0.00000E+00         0.00000E+00        -0.49663E+08
 
   -0.49365E+08         0.27076E+06         0.00000E+00
    0.27076E+06        -0.97383E+08         0.00000E+00
    0.00000E+00         0.00000E+00        -0.49567E+08
 
   -0.49287E+08         0.32046E+06         0.00000E+00
    0.32046E+06        -0.97372E+08         0.00000E+00
    0.00000E+00         0.00000E+00        -0.49470E+08
 
   -0.49206E+08         0.36716E+06         0.00000E+00
    0.36716E+06        -0.97369E+08         0.00000E+00
    0.00000E+00         0.00000E+00        -0.49374E+08
 
   -0.49121E+08         0.41123E+06         0.00000E+00
    0.41123E+06        -0.97373E+08         0.00000E+00
    0.00000E+00         0.00000E+00        -0.49277E+08
 
   -0.49035E+08         0.45292E+06         0.00000E+00
    0.45292E+06        -0.97381E+08         0.00000E+00
    0.00000E+00         0.00000E+00        -0.49179E+08
 
   -0.48947E+08         0.49231E+06         0.00000E+00
    0.49231E+06        -0.97392E+08         0.00000E+00
    0.00000E+00         0.00000E+00        -0.49082E+08
 
   -0.48858E+08         0.52950E+06         0.00000E+00
    0.52950E+06        -0.97404E+08         0.00000E+00
    0.00000E+00         0.00000E+00        -0.48984E+08
 
   -0.48767E+08         0.56452E+06         0.00000E+00
    0.56452E+06        -0.97417E+08         0.00000E+00
    0.00000E+00         0.00000E+00        -0.48886E+08
 
   -0.48676E+08         0.59746E+06         0.00000E+00
    0.59746E+06        -0.97431E+08         0.00000E+00
    0.00000E+00         0.00000E+00        -0.48787E+08
 
   -0.48584E+08         0.62837E+06         0.00000E+00
    0.62837E+06        -0.97443E+08         0.00000E+00
    0.00000E+00         0.00000E+00        -0.48688E+08
 
   -0.48490E+08         0.65738E+06         0.00000E+00
    0.65738E+06        -0.97455E+08         0.00000E+00
    0.00000E+00         0.00000E+00        -0.48588E+08
 
   -0.48396E+08         0.68457E+06         0.00000E+00
    0.68457E+06        -0.97466E+08         0.00000E+00
    0.00000E+00         0.00000E+00        -0.48487E+08
 
   -0.48300E+08         0.71009E+06         0.00000E+00
    0.71009E+06        -0.97477E+08         0.00000E+00
    0.00000E+00         0.00000E+00        -0.48386E+08
 
   -0.48203E+08         0.73405E+06         0.00000E+00
    0.73405E+06        -0.97486E+08         0.00000E+00
    0.00000E+00         0.00000E+00        -0.48284E+08
 
   -0.48104E+08         0.75659E+06         0.00000E+00
    0.75659E+06        -0.97494E+08         0.00000E+00
    0.00000E+00         0.00000E+00        -0.48181E+08
 
   -0.48004E+08         0.77785E+06         0.00000E+00
    0.77785E+06        -0.97502E+08         0.00000E+00
    0.00000E+00         0.00000E+00        -0.48078E+08
 
   -0.47903E+08         0.79795E+06         0.00000E+00
    0.79795E+06        -0.97508E+08         0.00000E+00
    0.00000E+00         0.00000E+00        -0.47973E+08
 
   -0.47801E+08         0.81702E+06         0.00000E+00
    0.81702E+06        -0.97514E+08         0.00000E+00
    0.00000E+00         0.00000E+00        -0.47868E+08
 
   -0.47697E+08         0.83518E+06         0.00000E+00
    0.83518E+06        -0.97519E+08         0.00000E+00
    0.00000E+00         0.00000E+00        -0.47762E+08
 
   -0.47592E+08         0.85254E+06         0.00000E+00
    0.85254E+06        -0.97523E+08         0.00000E+00
    0.00000E+00         0.00000E+00        -0.47654E+08
 
   -0.47486E+08         0.86921E+06         0.00000E+00
    0.86921E+06        -0.97527E+08         0.00000E+00
    0.00000E+00         0.00000E+00        -0.47546E+08
 
   -0.47378E+08         0.88527E+06         0.00000E+00
    0.88527E+06        -0.97530E+08         0.00000E+00
    0.00000E+00         0.00000E+00        -0.47436E+08
 
   -0.47269E+08         0.90083E+06         0.00000E+00
    0.90083E+06        -0.97533E+08         0.00000E+00
    0.00000E+00         0.00000E+00        -0.47325E+08
 
   -0.47158E+08         0.91594E+06         0.00000E+00
    0.91594E+06        -0.97535E+08         0.00000E+00
    0.00000E+00         0.00000E+00        -0.47214E+08
 
   -0.47046E+08         0.93069E+06         0.00000E+00
    0.93069E+06        -0.97537E+08         0.00000E+00
    0.00000E+00         0.00000E+00        -0.47100E+08
 
   -0.46932E+08         0.94514E+06         0.00000E+00
    0.94514E+06        -0.97539E+08         0.00000E+00
    0.00000E+00         0.00000E+00        -0.46986E+08
 
   -0.46817E+08         0.95933E+06         0.00000E+00
    0.95933E+06        -0.97540E+08         0.00000E+00
    0.00000E+00         0.00000E+00        -0.46870E+08
 
   -0.46700E+08         0.97333E+06         0.00000E+00
    0.97333E+06        -0.97541E+08         0.00000E+00
    0.00000E+00         0.00000E+00        -0.46753E+08
 
   -0.46582E+08         0.98716E+06         0.00000E+00
    0.98716E+06        -0.97542E+08         0.00000E+00
    0.00000E+00         0.00000E+00        -0.46635E+08
 
   -0.46463E+08         0.10009E+07         0.00000E+00
    0.10009E+07        -0.97542E+08         0.00000E+00
    0.00000E+00         0.00000E+00        -0.46515E+08
 
   -0.46341E+08         0.10145E+07         0.00000E+00
    0.10145E+07        -0.97543E+08         0.00000E+00
    0.00000E+00         0.00000E+00        -0.46394E+08
 
   -0.46219E+08         0.10280E+07         0.00000E+00
    0.10280E+07        -0.97543E+08         0.00000E+00
    0.00000E+00         0.00000E+00        -0.46271E+08
 
   -0.46095E+08         0.10415E+07         0.00000E+00
    0.10415E+07        -0.97544E+08         0.00000E+00
    0.00000E+00         0.00000E+00        -0.46147E+08
 
   -0.45969E+08         0.10550E+07         0.00000E+00
    0.10550E+07        -0.97544E+08         0.00000E+00
    0.00000E+00         0.00000E+00        -0.46021E+08
 
   -0.45841E+08         0.10684E+07         0.00000E+00
    0.10684E+07        -0.97544E+08         0.00000E+00
    0.00000E+00         0.00000E+00        -0.45894E+08
 
   -0.45712E+08         0.10819E+07         0.00000E+00
    0.10819E+07        -0.97544E+08         0.00000E+00
    0.00000E+00         0.00000E+00        -0.45765E+08
 
   -0.45582E+08         0.10953E+07         0.00000E+00
    0.10953E+07        -0.97545E+08         0.00000E+00
    0.00000E+00         0.00000E+00        -0.45634E+08
 
   -0.45449E+08         0.11087E+07         0.00000E+00
    0.11087E+07        -0.97545E+08         0.00000E+00
    0.00000E+00         0.00000E+00        -0.45502E+08
 
   -0.45315E+08         0.11222E+07         0.00000E+00
    0.11222E+07        -0.97545E+08         0.00000E+00
    0.00000E+00         0.00000E+00        -0.45368E+08
 
   -0.45180E+08         0.11356E+07         0.00000E+00
    0.11356E+07        -0.97545E+08         0.00000E+00
    0.00000E+00         0.00000E+00        -0.45233E+08
 
   -0.45043E+08         0.11490E+07         0.00000E+00
    0.11490E+07        -0.97545E+08         0.00000E+00
    0.00000E+00         0.00000E+00        -0.45096E+08
 
   -0.44904E+08         0.11624E+07         0.00000E+00
    0.11624E+07        -0.97545E+08         0.00000E+00
    0.00000E+00         0.00000E+00        -0.44957E+08
 
   -0.44763E+08         0.11758E+07         0.00000E+00
    0.11758E+07        -0.97545E+08         0.00000E+00
    0.00000E+00         0.00000E+00        -0.44816E+08
 
   -0.44621E+08         0.11892E+07         0.00000E+00
    0.11892E+07        -0.97546E+08         0.00000E+00
    0.00000E+00         0.00000E+00        -0.44674E+08
 
   -0.44476E+08         0.12025E+07         0.00000E+00
    0.12025E+07        -0.97546E+08         0.00000E+00
    0.00000E+00         0.00000E+00        -0.44529E+08
 
   -0.44331E+08         0.12158E+07         0.00000E+00
    0.12158E+07        -0.97546E+08         0.00000E+00
    0.00000E+00         0.00000E+00        -0.44383E+08
 
   -0.44183E+08         0.12290E+07         0.00000E+00
    0.12290E+07        -0.97547E+08         0.00000E+00
    0.00000E+00         0.00000E+00        -0.44236E+08
 
   -0.44034E+08         0.12420E+07         0.00000E+00
    0.12420E+07        -0.97547E+08         0.00000E+00
    0.00000E+00         0.00000E+00        -0.44086E+08
 
   -0.43883E+08         0.12550E+07         0.00000E+00
    0.12550E+07        -0.97548E+08         0.00000E+00
    0.00000E+00         0.00000E+00        -0.43935E+08
 
   -0.43730E+08         0.12678E+07         0.00000E+00
    0.12678E+07        -0.97549E+08         0.00000E+00
    0.00000E+00         0.00000E+00        -0.43781E+08
 
   -0.43576E+08         0.12805E+07         0.00000E+00
    0.12805E+07        -0.97550E+08         0.00000E+00
    0.00000E+00         0.00000E+00        -0.43626E+08
 
   -0.43419E+08         0.12930E+07         0.00000E+00
    0.12930E+07        -0.97551E+08         0.00000E+00
    0.00000E+00         0.00000E+00        -0.43469E+08
 
   -0.43262E+08         0.13052E+07         0.00000E+00
    0.13052E+07        -0.97552E+08         0.00000E+00
    0.00000E+00         0.00000E+00        -0.43311E+08
 
   -0.43102E+08         0.13171E+07         0.00000E+00
    0.13171E+07        -0.97553E+08         0.00000E+00
    0.00000E+00         0.00000E+00        -0.43150E+08
 
   -0.42941E+08         0.13288E+07         0.00000E+00
    0.13288E+07        -0.97555E+08         0.00000E+00
    0.00000E+00         0.00000E+00        -0.42988E+08
 
   -0.42778E+08         0.13401E+07         0.00000E+00
    0.13401E+07        -0.97556E+08         0.00000E+00
    0.00000E+00         0.00000E+00        -0.42824E+08
 
   -0.42614E+08         0.13510E+07         0.00000E+00
    0.13510E+07        -0.97558E+08         0.00000E+00
    0.00000E+00         0.00000E+00        -0.42658E+08
 
   -0.42448E+08         0.13615E+07         0.00000E+00
    0.13615E+07        -0.97560E+08         0.00000E+00
    0.00000E+00         0.00000E+00        -0.42490E+08
 
   -0.42280E+08         0.13715E+07         0.00000E+00
    0.13715E+07        -0.97563E+08         0.00000E+00
    0.00000E+00         0.00000E+00        -0.42321E+08
 
   -0.42111E+08         0.13809E+07         0.00000E+00
    0.13809E+07        -0.97566E+08         0.00000E+00
    0.00000E+00         0.00000E+00        -0.42149E+08
 
   -0.41940E+08         0.13897E+07         0.00000E+00
    0.13897E+07        -0.97569E+08         0.00000E+00
    0.00000E+00         0.00000E+00        -0.41976E+08
 
   -0.41768E+08         0.13979E+07         0.00000E+00
    0.13979E+07        -0.97572E+08         0.00000E+00
    0.00000E+00         0.00000E+00        -0.41802E+08
 
   -0.41594E+08         0.14052E+07         0.00000E+00
    0.14052E+07        -0.97576E+08         0.00000E+00
    0.00000E+00         0.00000E+00        -0.41625E+08
 
   -0.41419E+08         0.14116E+07         0.00000E+00
    0.14116E+07        -0.97580E+08         0.00000E+00
    0.00000E+00         0.00000E+00        -0.41447E+08
 
   -0.41243E+08         0.14171E+07         0.00000E+00
    0.14171E+07        -0.97585E+08         0.00000E+00
    0.00000E+00         0.00000E+00        -0.41267E+08
 
   -0.41066E+08         0.14215E+07         0.00000E+00
    0.14215E+07        -0.97590E+08         0.00000E+00
    0.00000E+00         0.00000E+00        -0.41086E+08
 
   -0.40887E+08         0.14247E+07         0.00000E+00
    0.14247E+07        -0.97596E+08         0.00000E+00
    0.00000E+00         0.00000E+00        -0.40903E+08
 
   -0.40707E+08         0.14266E+07         0.00000E+00
    0.14266E+07        -0.97603E+08         0.00000E+00
    0.00000E+00         0.00000E+00        -0.40718E+08
 
   -0.40527E+08         0.14270E+07         0.00000E+00
    0.14270E+07        -0.97610E+08         0.00000E+00
    0.00000E+00         0.00000E+00        -0.40532E+08
 
   -0.40345E+08         0.14258E+07         0.00000E+00
    0.14258E+07        -0.97619E+08         0.00000E+00
    0.00000E+00         0.00000E+00        -0.40345E+08
 
   -0.40162E+08         0.14228E+07         0.00000E+00
    0.14228E+07        -0.97628E+08         0.00000E+00
    0.00000E+00         0.00000E+00        -0.40156E+08
 
   -0.39979E+08         0.14178E+07         0.00000E+00
    0.14178E+07        -0.97638E+08         0.00000E+00
    0.00000E+00         0.00000E+00        -0.39965E+08
 
   -0.39795E+08         0.14105E+07         0.00000E+00
    0.14105E+07        -0.97650E+08         0.00000E+00
    0.00000E+00         0.00000E+00        -0.39773E+08
 
   -0.39611E+08         0.14009E+07         0.00000E+00
    0.14009E+07        -0.97663E+08         0.00000E+00
    0.00000E+00         0.00000E+00        -0.39580E+08
 
   -0.39426E+08         0.13886E+07         0.00000E+00
    0.13886E+07        -0.97677E+08         0.00000E+00
    0.00000E+00         0.00000E+00        -0.39385E+08
 
   -0.39240E+08         0.13734E+07         0.00000E+00
    0.13734E+07        -0.97693E+08         0.00000E+00
    0.00000E+00         0.00000E+00        -0.39190E+08
 
   -0.39055E+08         0.13550E+07         0.00000E+00
    0.13550E+07        -0.97711E+08         0.00000E+00
    0.00000E+00         0.00000E+00        -0.38993E+08
 
   -0.38869E+08         0.13332E+07         0.00000E+00
    0.13332E+07        -0.97731E+08         0.00000E+00
    0.00000E+00         0.00000E+00        -0.38795E+08
 
   -0.38683E+08         0.13077E+07         0.00000E+00
    0.13077E+07        -0.97752E+08         0.00000E+00
    0.00000E+00         0.00000E+00        -0.38595E+08
 
   -0.38497E+08         0.12781E+07         0.00000E+00
    0.12781E+07        -0.97776E+08         0.00000E+00
    0.00000E+00         0.00000E+00        -0.38395E+08
 
   -0.38311E+08         0.12442E+07         0.00000E+00
    0.12442E+07        -0.97802E+08         0.00000E+00
    0.00000E+00         0.00000E+00        -0.38194E+08
 
   -0.38126E+08         0.12058E+07         0.00000E+00
    0.12058E+07        -0.97829E+08         0.00000E+00
    0.00000E+00         0.00000E+00        -0.37992E+08
 
   -0.37940E+08         0.11626E+07         0.00000E+00
    0.11626E+07        -0.97858E+08         0.00000E+00
    0.00000E+00         0.00000E+00        -0.37789E+08
 
   -0.37755E+08         0.11144E+07         0.00000E+00
    0.11144E+07        -0.97889E+08         0.00000E+00
    0.00000E+00         0.00000E+00        -0.37585E+08
 
   -0.37571E+08         0.10610E+07         0.00000E+00
    0.10610E+07        -0.97920E+08         0.00000E+00
    0.00000E+00         0.00000E+00        -0.37381E+08
 
   -0.37386E+08         0.10022E+07         0.00000E+00
    0.10022E+07        -0.97951E+08         0.00000E+00
    0.00000E+00         0.00000E+00        -0.37176E+08
 
   -0.37203E+08         0.93797E+06         0.00000E+00
    0.93797E+06        -0.97980E+08         0.00000E+00
    0.00000E+00         0.00000E+00        -0.36970E+08
 
   -0.37021E+08         0.86824E+06         0.00000E+00
    0.86824E+06        -0.98005E+08         0.00000E+00
    0.00000E+00         0.00000E+00        -0.36764E+08
 
   -0.36840E+08         0.79290E+06         0.00000E+00
    0.79290E+06        -0.98025E+08         0.00000E+00
    0.00000E+00         0.00000E+00        -0.36557E+08
 
   -0.36663E+08         0.71175E+06         0.00000E+00
    0.71175E+06        -0.98034E+08         0.00000E+00
    0.00000E+00         0.00000E+00        -0.36350E+08
 
   -0.36490E+08         0.62439E+06         0.00000E+00
    0.62439E+06        -0.98030E+08         0.00000E+00
    0.00000E+00         0.00000E+00        -0.36143E+08
 
   -0.36326E+08         0.53004E+06         0.00000E+00
    0.53004E+06        -0.98007E+08         0.00000E+00
    0.00000E+00         0.00000E+00        -0.35935E+08
 
   -0.36173E+08         0.42736E+06         0.00000E+00
    0.42736E+06        -0.97958E+08         0.00000E+00
    0.00000E+00         0.00000E+00        -0.35728E+08
 
   -0.36042E+08         0.31482E+06         0.00000E+00
    0.31482E+06        -0.97875E+08         0.00000E+00
    0.00000E+00         0.00000E+00        -0.35520E+08
 
   -0.35942E+08         0.19269E+06         0.00000E+00
    0.19269E+06        -0.97752E+08         0.00000E+00
    0.00000E+00         0.00000E+00        -0.35312E+08
 
   -0.35887E+08         0.64739E+05         0.00000E+00
    0.64739E+05        -0.97585E+08         0.00000E+00
    0.00000E+00         0.00000E+00        -0.35104E+08
 
   -0.49536E+08         0.30248E+05         0.00000E+00
    0.30248E+05        -0.97592E+08         0.00000E+00
    0.00000E+00         0.00000E+00        -0.49952E+08
 
   -0.49512E+08         0.90388E+05         0.00000E+00
    0.90388E+05        -0.97514E+08         0.00000E+00
    0.00000E+00         0.00000E+00        -0.49856E+08
 
   -0.49468E+08         0.14886E+06         0.00000E+00
    0.14886E+06        -0.97456E+08         0.00000E+00
    0.00000E+00         0.00000E+00        -0.49759E+08
 
   -0.49410E+08         0.20418E+06         0.00000E+00
    0.20418E+06        -0.97417E+08         0.00000E+00
    0.00000E+00         0.00000E+00        -0.49663E+08
 
   -0.49341E+08         0.25597E+06         0.00000E+00
    0.25597E+06        -0.97393E+08         0.00000E+00
    0.00000E+00         0.00000E+00        -0.49567E+08
 
   -0.49265E+08         0.30465E+06         0.00000E+00
    0.30465E+06        -0.97381E+08         0.00000E+00
    0.00000E+00         0.00000E+00        -0.49470E+08
 
   -0.49185E+08         0.35065E+06         0.00000E+00
    0.35065E+06        -0.97378E+08         0.00000E+00
    0.00000E+00         0.00000E+00        -0.49374E+08
 
   -0.49103E+08         0.39426E+06         0.00000E+00
    0.39426E+06        -0.97382E+08         0.00000E+00
    0.00000E+00         0.00000E+00        -0.49277E+08
 
   -0.49018E+08         0.43560E+06         0.00000E+00
    0.43560E+06        -0.97389E+08         0.00000E+00
    0.00000E+00         0.00000E+00        -0.49179E+08
 
   -0.48931E+08         0.47472E+06         0.00000E+00
    0.47472E+06        -0.97400E+08         0.00000E+00
    0.00000E+00         0.00000E+00        -0.49082E+08
 
   -0.48843E+08         0.51166E+06         0.00000E+00
    0.51166E+06        -0.97412E+08         0.00000E+00
    0.00000E+00         0.00000E+00        -0.48984E+08
 
   -0.48754E+08         0.54646E+06         0.00000E+00
    0.54646E+06        -0.97424E+08         0.00000E+00
    0.00000E+00         0.00000E+00        -0.48886E+08
 
   -0.48663E+08         0.57917E+06         0.00000E+00
    0.57917E+06        -0.97437E+08         0.00000E+00
    0.00000E+00         0.00000E+00        -0.48787E+08
 
   -0.48572E+08         0.60986E+06         0.00000E+00
    0.60986E+06        -0.97449E+08         0.00000E+00
    0.00000E+00         0.00000E+00        -0.48688E+08
 
   -0.48479E+08         0.63863E+06         0.00000E+00
    0.63863E+06        -0.97461E+08         0.00000E+00
    0.00000E+00         0.00000E+00        -0.48588E+08
 
   -0.48385E+08         0.66559E+06         0.00000E+00
    0.66559E+06        -0.97472E+08         0.00000E+00
    0.00000E+00         0.00000E+00        -0.48487E+08
 
   -0.48290E+08         0.69085E+06         0.00000E+00
    0.69085E+06        -0.97482E+08         0.00000E+00
    0.00000E+00         0.00000E+00        -0.48386E+08
 
   -0.48193E+08         0.71456E+06         0.00000E+00
    0.71456E+06        -0.97491E+08         0.00000E+00
    0.00000E+00         0.00000E+00        -0.48284E+08
 
   -0.48096E+08         0.73683E+06         0.00000E+00
    0.73683E+06        -0.97499E+08         0.00000E+00
    0.00000E+00         0.00000E+00        -0.48181E+08
 
   -0.47996E+08         0.75782E+06         0.00000E+00
    0.75782E+06        -0.97506E+08         0.00000E+00
    0.00000E+00         0.00000E+00        -0.48078E+08
 
   -0.47896E+08         0.77765E+06         0.00000E+00
    0.77765E+06        -0.97512E+08         0.00000E+00
    0.00000E+00         0.00000E+00        -0.47973E+08
 
   -0.47794E+08         0.79644E+06         0.00000E+00
    0.79644E+06        -0.97518E+08         0.00000E+00
    0.00000E+00         0.00000E+00        -0.47868E+08
 
   -0.47690E+08         0.81433E+06         0.00000E+00
    0.81433E+06        -0.97522E+08         0.00000E+00
    0.00000E+00         0.00000E+00        -0.47762E+08
 
   -0.47585E+08         0.83141E+06         0.00000E+00
    0.83141E+06        -0.97527E+08         0.00000E+00
    0.00000E+00         0.00000E+00        -0.47654E+08
 
   -0.47479E+08         0.84779E+06         0.00000E+00
    0.84779E+06        -0.97530E+08         0.00000E+00
    0.00000E+00         0.00000E+00        -0.47546E+08
 
   -0.47371E+08         0.86357E+06         0.00000E+00
    0.86357E+06        -0.97533E+08         0.00000E+00
    0.00000E+00         0.00000E+00        -0.47436E+08
 
   -0.47262E+08         0.87883E+06         0.00000E+00
    0.87883E+06        -0.97536E+08         0.00000E+00
    0.00000E+00         0.00000E+00        -0.47325E+08
 
   -0.47152E+08         0.89366E+06         0.00000E+00
    0.89366E+06        -0.97538E+08         0.00000E+00
    0.00000E+00         0.00000E+00        -0.47214E+08
 
   -0.47039E+08         0.90812E+06         0.00000E+00
    0.90812E+06        -0.97540E+08         0.00000E+00
    0.00000E+00         0.00000E+00        -0.47100E+08
 
   -0.46926E+08         0.92227E+06         0.00000E+00
    0.92227E+06        -0.97541E+08         0.00000E+00
    0.00000E+00         0.00000E+00        -0.46986E+08
 
   -0.46811E+08         0.93617E+06         0.00000E+00
    0.93617E+06        -0.97543E+08         0.00000E+00
    0.00000E+00         0.00000E+00        -0.46870E+08
 
   -0.46694E+08         0.94986E+06         0.00000E+00
    0.94986E+06        -0.97544E+08         0.00000E+00
    0.00000E+00         0.00000E+00        -0.46753E+08
 
   -0.46576E+08         0.96340E+06         0.00000E+00
    0.96340E+06        -0.97545E+08         0.00000E+00
    0.00000E+00         0.00000E+00        -0.46635E+08
 
   -0.46457E+08         0.97680E+06         0.00000E+00
    0.97680E+06        -0.97545E+08         0.00000E+00
    0.00000E+00         0.00000E+00        -0.46515E+08
 
   -0.46336E+08         0.99011E+06         0.00000E+00
    0.99011E+06        -0.97546E+08         0.00000E+00
    0.00000E+00         0.00000E+00        -0.46394E+08
 
   -0.46213E+08         0.10033E+07         0.00000E+00
    0.10033E+07        -0.97546E+08         0.00000E+00
    0.00000E+00         0.00000E+00        -0.46271E+08
 
   -0.46089E+08         0.10165E+07         0.00000E+00
    0.10165E+07        -0.97547E+08         0.00000E+00
    0.00000E+00         0.00000E+00        -0.46147E+08
 
   -0.45963E+08         0.10297E+07         0.00000E+00
    0.10297E+07        -0.97547E+08         0.00000E+00
    0.00000E+00         0.00000E+00        -0.46021E+08
 
   -0.45835E+08         0.10428E+07         0.00000E+00
    0.10428E+07        -0.97547E+08         0.00000E+00
    0.00000E+00         0.00000E+00        -0.45894E+08
 
   -0.45706E+08         0.10559E+07         0.00000E+00
    0.10559E+07        -0.97547E+08         0.00000E+00
    0.00000E+00         0.00000E+00        -0.45765E+08
 
   -0.45576E+08         0.10690E+07         0.00000E+00
    0.10690E+07        -0.97547E+08         0.00000E+00
    0.00000E+00         0.00000E+00        -0.45634E+08
 
   -0.45443E+08         0.10821E+07         0.00000E+00
    0.10821E+07        -0.97547E+08         0.00000E+00
    0.00000E+00         0.00000E+00        -0.45502E+08
 
   -0.45310E+08         0.10952E+07         0.00000E+00
    0.10952E+07        -0.97547E+08         0.00000E+00
    0.00000E+00         0.00000E+00        -0.45368E+08
 
   -0.45174E+08         0.11083E+07         0.00000E+00
    0.11083E+07        -0.97548E+08         0.00000E+00
    0.00000E+00         0.00000E+00        -0.45233E+08
 
   -0.45037E+08         0.11214E+07         0.00000E+00
    0.11214E+07        -0.97548E+08         0.00000E+00
    0.00000E+00         0.00000E+00        -0.45096E+08
 
   -0.44898E+08         0.11345E+07         0.00000E+00
    0.11345E+07        -0.97548E+08         0.00000E+00
    0.00000E+00         0.00000E+00        -0.44957E+08
 
   -0.44757E+08         0.11475E+07         0.00000E+00
    0.11475E+07        -0.97548E+08         0.00000E+00
    0.00000E+00         0.00000E+00        -0.44816E+08
 
   -0.44615E+08         0.11606E+07         0.00000E+00
    0.11606E+07        -0.97548E+08         0.00000E+00
    0.00000E+00         0.00000E+00        -0.44674E+08
 
   -0.44470E+08         0.11735E+07         0.00000E+00
    0.11735E+07        -0.97549E+08         0.00000E+00
    0.00000E+00         0.00000E+00        -0.44529E+08
 
   -0.44325E+08         0.11864E+07         0.00000E+00
    0.11864E+07        -0.97549E+08         0.00000E+00
    0.00000E+00         0.00000E+00        -0.44383E+08
 
   -0.44177E+08         0.11993E+07         0.00000E+00
    0.11993E+07        -0.97549E+08         0.00000E+00
    0.00000E+00         0.00000E+00        -0.44236E+08
 
   -0.44028E+08         0.12120E+07         0.00000E+00
    0.12120E+07        -0.97550E+08         0.00000E+00
    0.00000E+00         0.00000E+00        -0.44086E+08
 
   -0.43877E+08         0.12246E+07         0.00000E+00
    0.12246E+07        -0.97551E+08         0.00000E+00
    0.00000E+00         0.00000E+00        -0.43935E+08
 
   -0.43724E+08         0.12371E+07         0.00000E+00
    0.12371E+07        -0.97551E+08         0.00000E+00
    0.00000E+00         0.00000E+00        -0.43781E+08
 
   -0.43570E+08         0.12494E+07         0.00000E+00
    0.12494E+07        -0.97552E+08         0.00000E+00
    0.00000E+00         0.00000E+00        -0.43626E+08
 
   -0.43414E+08         0.12616E+07         0.00000E+00
    0.12616E+07        -0.97553E+08         0.00000E+00
    0.00000E+00         0.00000E+00        -0.43469E+08
 
   -0.43256E+08         0.12735E+07         0.00000E+00
    0.12735E+07        -0.97554E+08         0.00000E+00
    0.00000E+00         0.00000E+00        -0.43311E+08
 
   -0.43097E+08         0.12851E+07         0.00000E+00
    0.12851E+07        -0.97556E+08         0.00000E+00
    0.00000E+00         0.00000E+00        -0.43150E+08
 
   -0.42936E+08         0.12964E+07         0.00000E+00
    0.12964E+07        -0.97557E+08         0.00000E+00
    0.00000E+00         0.00000E+00        -0.42988E+08
 
   -0.42773E+08         0.13074E+07         0.00000E+00
    0.13074E+07        -0.97559E+08         0.00000E+00
    0.00000E+00         0.00000E+00        -0.42824E+08
 
   -0.42609E+08         0.13180E+07         0.00000E+00
    0.13180E+07        -0.97560E+08         0.00000E+00
    0.00000E+00         0.00000E+00        -0.42658E+08
 
   -0.42443E+08         0.13282E+07         0.00000E+00
    0.13282E+07        -0.97562E+08         0.00000E+00
    0.00000E+00         0.00000E+00        -0.42490E+08
 
   -0.42275E+08         0.13379E+07         0.00000E+00
    0.13379E+07        -0.97565E+08         0.00000E+00
    0.00000E+00         0.00000E+00        -0.42321E+08
 
   -0.42106E+08         0.13470E+07         0.00000E+00
    0.13470E+07        -0.97567E+08         0.00000E+00
    0.00000E+00         0.00000E+00        -0.42149E+08
 
   -0.41936E+08         0.13555E+07         0.00000E+00
    0.13555E+07        -0.97570E+08         0.00000E+00
    0.00000E+00         0.00000E+00        -0.41976E+08
 
   -0.41764E+08         0.13633E+07         0.00000E+00
    0.13633E+07        -0.97574E+08         0.00000E+00
    0.00000E+00         0.00000E+00        -0.41802E+08
 
   -0.41591E+08         0.13704E+07         0.00000E+00
    0.13704E+07        -0.97577E+08         0.00000E+00
    0.00000E+00         0.00000E+00        -0.41625E+08
 
   -0.41416E+08         0.13766E+07         0.00000E+00
    0.13766E+07        -0.97581E+08         0.00000E+00
    0.00000E+00         0.00000E+00        -0.41447E+08
 
   -0.41240E+08         0.13818E+07         0.00000E+00
    0.13818E+07        -0.97586E+08         0.00000E+00
    0.00000E+00         0.00000E+00        -0.41267E+08
 
   -0.41063E+08         0.13860E+07         0.00000E+00
    0.13860E+07        -0.97591E+08         0.00000E+00
    0.00000E+00         0.00000E+00        -0.41086E+08
 
   -0.40885E+08         0.13890E+07         0.00000E+00
    0.13890E+07        -0.97597E+08         0.00000E+00
    0.00000E+00         0.00000E+00        -0.40903E+08
 
   -0.40706E+08         0.13906E+07         0.00000E+00
    0.13906E+07        -0.97603E+08         0.00000E+00
    0.00000E+00         0.00000E+00        -0.40718E+08
 
   -0.40526E+08         0.13908E+07         0.00000E+00
    0.13908E+07        -0.97610E+08         0.00000E+00
    0.00000E+00         0.00000E+00        -0.40532E+08
 
   -0.40345E+08         0.13895E+07         0.00000E+00
    0.13895E+07        -0.97618E+08         0.00000E+00
    0.00000E+00         0.00000E+00        -0.40345E+08
 
   -0.40163E+08         0.13863E+07         0.00000E+00
    0.13863E+07        -0.97627E+08         0.00000E+00
    0.00000E+00         0.00000E+00        -0.40156E+08
 
   -0.39981E+08         0.13811E+07         0.00000E+00
    0.13811E+07        -0.97637E+08         0.00000E+00
    0.00000E+00         0.00000E+00        -0.39965E+08
 
   -0.39797E+08         0.13738E+07         0.00000E+00
    0.13738E+07        -0.97648E+08         0.00000E+00
    0.00000E+00         0.00000E+00        -0.39773E+08
 
   -0.39614E+08         0.13641E+07         0.00000E+00
    0.13641E+07        -0.97661E+08         0.00000E+00
    0.00000E+00         0.00000E+00        -0.39580E+08
 
   -0.39430E+08         0.13517E+07         0.00000E+00
    0.13517E+07        -0.97675E+08         0.00000E+00
    0.00000E+00         0.00000E+00        -0.39385E+08
 
   -0.39246E+08         0.13364E+07         0.00000E+00
    0.13364E+07        -0.97690E+08         0.00000E+00
    0.00000E+00         0.00000E+00        -0.39190E+08
 
   -0.39061E+08         0.13180E+07         0.00000E+00
    0.13180E+07        -0.97707E+08         0.00000E+00
    0.00000E+00         0.00000E+00        -0.38993E+08
 
   -0.38877E+08         0.12962E+07         0.00000E+00
    0.12962E+07        -0.97726E+08         0.00000E+00
    0.00000E+00         0.00000E+00        -0.38795E+08
 
   -0.38693E+08         0.12706E+07         0.00000E+00
    0.12706E+07        -0.97747E+08         0.00000E+00
    0.00000E+00         0.00000E+00        -0.38595E+08
 
   -0.38509E+08         0.12411E+07         0.00000E+00
    0.12411E+07        -0.97770E+08         0.00000E+00
    0.00000E+00         0.00000E+00        -0.38395E+08
 
   -0.38325E+08         0.12073E+07         0.00000E+00
    0.12073E+07        -0.97794E+08         0.00000E+00
    0.00000E+00         0.00000E+00        -0.38194E+08
 
   -0.38141E+08         0.11689E+07         0.00000E+00
    0.11689E+07        -0.97821E+08         0.00000E+00
    0.00000E+00         0.00000E+00        -0.37992E+08
 
   -0.37958E+08         0.11258E+07         0.00000E+00
    0.11258E+07        -0.97849E+08         0.00000E+00
    0.00000E+00         0.00000E+00        -0.37789E+08
 
   -0.37775E+08         0.10776E+07         0.00000E+00
    0.10776E+07        -0.97879E+08         0.00000E+00
    0.00000E+00         0.00000E+00        -0.37585E+08
 
   -0.37593E+08         0.10243E+07         0.00000E+00
    0.10243E+07        -0.97909E+08         0.00000E+00
    0.00000E+00         0.00000E+00        -0.37381E+08
 
   -0.37411E+08         0.96567E+06         0.00000E+00
    0.96567E+06        -0.97939E+08         0.00000E+00
    0.00000E+00         0.00000E+00        -0.37176E+08
 
   -0.37231E+08         0.90165E+06         0.00000E+00
    0.90165E+06        -0.97967E+08         0.00000E+00
    0.00000E+00         0.00000E+00        -0.36970E+08
 
   -0.37051E+08         0.83223E+06         0.00000E+00
    0.83223E+06        -0.97991E+08         0.00000E+00
    0.00000E+00         0.00000E+00        -0.36764E+08
 
   -0.36874E+08         0.75737E+06         0.00000E+00
    0.75737E+06        -0.98009E+08         0.00000E+00
    0.00000E+00         0.00000E+00        -0.36557E+08
 
   -0.36701E+08         0.67702E+06         0.00000E+00
    0.67702E+06        -0.98018E+08         0.00000E+00
    0.00000E+00         0.00000E+00        -0.36350E+08
 
   -0.36532E+08         0.59095E+06         0.00000E+00
    0.59095E+06        -0.98012E+08         0.00000E+00
    0.00000E+00         0.00000E+00        -0.36143E+08
 
   -0.36373E+08         0.49864E+06         0.00000E+00
    0.49864E+06        -0.97987E+08         0.00000E+00
    0.00000E+00         0.00000E+00        -0.35935E+08
 
   -0.36226E+08         0.39921E+06         0.00000E+00
    0.39921E+06        -0.97937E+08         0.00000E+00
    0.00000E+00         0.00000E+00        -0.35728E+08
 
   -0.36101E+08         0.29184E+06         0.00000E+00
    0.29184E+06        -0.97852E+08         0.00000E+00
    0.00000E+00         0.00000E+00        -0.35520E+08
 
   -0.36008E+08         0.17746E+06         0.00000E+00
    0.17746E+06        -0.97727E+08         0.00000E+00
    0.00000E+00         0.00000E+00        -0.35312E+08
 
   -0.35957E+08         0.59407E+05         0.00000E+00
    0.59407E+05        -0.97560E+08         0.00000E+00
    0.00000E+00         0.00000E+00        -0.35104E+08
 
   -0.49502E+08         0.27947E+05         0.00000E+00
    0.27947E+05        -0.97603E+08         0.00000E+00
    0.00000E+00         0.00000E+00        -0.49952E+08
 
   -0.49480E+08         0.83753E+05         0.00000E+00
    0.83753E+05        -0.97526E+08         0.00000E+00
    0.00000E+00         0.00000E+00        -0.49856E+08
 
   -0.49439E+08         0.13869E+06         0.00000E+00
    0.13869E+06        -0.97467E+08         0.00000E+00
    0.00000E+00         0.00000E+00        -0.49759E+08
 
   -0.49383E+08         0.19151E+06         0.00000E+00
    0.19151E+06        -0.97427E+08         0.00000E+00
    0.00000E+00         0.00000E+00        -0.49663E+08
 
   -0.49317E+08         0.24164E+06         0.00000E+00
    0.24164E+06        -0.97403E+08         0.00000E+00
    0.00000E+00         0.00000E+00        -0.49567E+08
 
   -0.49243E+08         0.28922E+06         0.00000E+00
    0.28922E+06        -0.97391E+08         0.00000E+00
    0.00000E+00         0.00000E+00        -0.49470E+08
 
   -0.49165E+08         0.33449E+06         0.00000E+00
    0.33449E+06        -0.97387E+08         0.00000E+00
    0.00000E+00         0.00000E+00        -0.49373E+08
 
   -0.49084E+08         0.37759E+06         0.00000E+00
    0.37759E+06        -0.97390E+08         0.00000E+00
    0.00000E+00         0.00000E+00        -0.49277E+08
 
   -0.49000E+08         0.41855E+06         0.00000E+00
    0.41855E+06        -0.97397E+08         0.00000E+00
    0.00000E+00         0.00000E+00        -0.49179E+08
 
   -0.48915E+08         0.45737E+06         0.00000E+00
    0.45737E+06        -0.97407E+08         0.00000E+00
    0.00000E+00         0.00000E+00        -0.49082E+08
 
   -0.48828E+08         0.49405E+06         0.00000E+00
    0.49405E+06        -0.97419E+08         0.00000E+00
    0.00000E+00         0.00000E+00        -0.48984E+08
 
   -0.48740E+08         0.52861E+06         0.00000E+00
    0.52861E+06        -0.97431E+08         0.00000E+00
    0.00000E+00         0.00000E+00        -0.48886E+08
 
   -0.48651E+08         0.56108E+06         0.00000E+00
    0.56108E+06        -0.97443E+08         0.00000E+00
    0.00000E+00         0.00000E+00        -0.48787E+08
 
   -0.48560E+08         0.59152E+06         0.00000E+00
    0.59152E+06        -0.97455E+08         0.00000E+00
    0.00000E+00         0.00000E+00        -0.48688E+08
 
   -0.48468E+08         0.62004E+06         0.00000E+00
    0.62004E+06        -0.97466E+08         0.00000E+00
    0.00000E+00         0.00000E+00        -0.48588E+08
 
   -0.48375E+08         0.64674E+06         0.00000E+00
    0.64674E+06        -0.97477E+08         0.00000E+00
    0.00000E+00         0.00000E+00        -0.48487E+08
 
   -0.48280E+08         0.67174E+06         0.00000E+00
    0.67174E+06        -0.97487E+08         0.00000E+00
    0.00000E+00         0.00000E+00        -0.48386E+08
 
   -0.48184E+08         0.69517E+06         0.00000E+00
    0.69517E+06        -0.97495E+08         0.00000E+00
    0.00000E+00         0.00000E+00        -0.48284E+08
 
   -0.48087E+08         0.71717E+06         0.00000E+00
    0.71717E+06        -0.97503E+08         0.00000E+00
    0.00000E+00         0.00000E+00        -0.48181E+08
 
   -0.47988E+08         0.73788E+06         0.00000E+00
    0.73788E+06        -0.97510E+08         0.00000E+00
    0.00000E+00         0.00000E+00        -0.48078E+08
 
   -0.47888E+08         0.75742E+06         0.00000E+00
    0.75742E+06        -0.97516E+08         0.00000E+00
    0.00000E+00         0.00000E+00        -0.47973E+08
 
   -0.47786E+08         0.77593E+06         0.00000E+00
    0.77593E+06        -0.97521E+08         0.00000E+00
    0.00000E+00         0.00000E+00        -0.47868E+08
 
   -0.47683E+08         0.79353E+06         0.00000E+00
    0.79353E+06        -0.97526E+08         0.00000E+00
    0.00000E+00         0.00000E+00        -0.47762E+08
 
   -0.47579E+08         0.81032E+06         0.00000E+00
    0.81032E+06        -0.97530E+08         0.00000E+00
    0.00000E+00         0.00000E+00        -0.47654E+08
 
   -0.47473E+08         0.82641E+06         0.00000E+00
    0.82641E+06        -0.97533E+08         0.00000E+00
    0.00000E+00         0.00000E+00        -0.47546E+08
 
   -0.47365E+08         0.84190E+06         0.00000E+00
    0.84190E+06        -0.97536E+08         0.00000E+00
    0.00000E+00         0.00000E+00        -0.47436E+08
 
   -0.47256E+08         0.85687E+06         0.00000E+00
    0.85687E+06        -0.97539E+08         0.00000E+00
    0.00000E+00         0.00000E+00        -0.47325E+08
 
   -0.47145E+08         0.87140E+06         0.00000E+00
    0.87140E+06        -0.97541E+08         0.00000E+00
    0.00000E+00         0.00000E+00        -0.47214E+08
 
   -0.47033E+08         0.88556E+06         0.00000E+00
    0.88556E+06        -0.97543E+08         0.00000E+00
    0.00000E+00         0.00000E+00        -0.47100E+08
 
   -0.46920E+08         0.89942E+06         0.00000E+00
    0.89942E+06        -0.97544E+08         0.00000E+00
    0.00000E+00         0.00000E+00        -0.46986E+08
 
   -0.46805E+08         0.91302E+06         0.00000E+00
    0.91302E+06        -0.97545E+08         0.00000E+00
    0.00000E+00         0.00000E+00        -0.46870E+08
 
   -0.46688E+08         0.92641E+06         0.00000E+00
    0.92641E+06        -0.97546E+08         0.00000E+00
    0.00000E+00         0.00000E+00        -0.46753E+08
 
   -0.46570E+08         0.93964E+06         0.00000E+00
    0.93964E+06        -0.97547E+08         0.00000E+00
    0.00000E+00         0.00000E+00        -0.46635E+08
 
   -0.46451E+08         0.95273E+06         0.00000E+00
    0.95273E+06        -0.97548E+08         0.00000E+00
    0.00000E+00         0.00000E+00        -0.46515E+08
 
   -0.46330E+08         0.96573E+06         0.00000E+00
    0.96573E+06        -0.97548E+08         0.00000E+00
    0.00000E+00         0.00000E+00        -0.46394E+08
 
   -0.46207E+08         0.97865E+06         0.00000E+00
    0.97865E+06        -0.97549E+08         0.00000E+00
    0.00000E+00         0.00000E+00        -0.46271E+08
 
   -0.46083E+08         0.99152E+06         0.00000E+00
    0.99152E+06        -0.97549E+08         0.00000E+00
    0.00000E+00         0.00000E+00        -0.46147E+08
 
   -0.45957E+08         0.10043E+07         0.00000E+00
    0.10043E+07        -0.97549E+08         0.00000E+00
    0.00000E+00         0.00000E+00        -0.46021E+08
 
   -0.45830E+08         0.10172E+07         0.00000E+00
    0.10172E+07        -0.97550E+08         0.00000E+00
    0.00000E+00         0.00000E+00        -0.45894E+08
 
   -0.45701E+08         0.10299E+07         0.00000E+00
    0.10299E+07        -0.97550E+08         0.00000E+00
    0.00000E+00         0.00000E+00        -0.45765E+08
 
   -0.45570E+08         0.10427E+07         0.00000E+00
    0.10427E+07        -0.97550E+08         0.00000E+00
    0.00000E+00         0.00000E+00        -0.45634E+08
 
   -0.45438E+08         0.10555E+07         0.00000E+00
    0.10555E+07        -0.97550E+08         0.00000E+00
    0.00000E+00         0.00000E+00        -0.45502E+08
 
   -0.45304E+08         0.10683E+07         0.00000E+00
    0.10683E+07        -0.97550E+08         0.00000E+00
    0.00000E+00         0.00000E+00        -0.45368E+08
 
   -0.45168E+08         0.10810E+07         0.00000E+00
    0.10810E+07        -0.97550E+08         0.00000E+00
    0.00000E+00         0.00000E+00        -0.45233E+08
 
   -0.45031E+08         0.10938E+07         0.00000E+00
    0.10938E+07        -0.97550E+08         0.00000E+00
    0.00000E+00         0.00000E+00        -0.45096E+08
 
   -0.44892E+08         0.11065E+07         0.00000E+00
    0.11065E+07        -0.97550E+08         0.00000E+00
    0.00000E+00         0.00000E+00        -0.44957E+08
 
   -0.44751E+08         0.11192E+07         0.00000E+00
    0.11192E+07        -0.97551E+08         0.00000E+00
    0.00000E+00         0.00000E+00        -0.44816E+08
 
   -0.44609E+08         0.11319E+07         0.00000E+00
    0.11319E+07        -0.97551E+08         0.00000E+00
    0.00000E+00         0.00000E+00        -0.44674E+08
 
   -0.44465E+08         0.11445E+07         0.00000E+00
    0.11445E+07        -0.97551E+08         0.00000E+00
    0.00000E+00         0.00000E+00        -0.44529E+08
 
   -0.44319E+08         0.11571E+07         0.00000E+00
    0.11571E+07        -0.97552E+08         0.00000E+00
    0.00000E+00         0.00000E+00        -0.44383E+08
 
   -0.44171E+08         0.11696E+07         0.00000E+00
    0.11696E+07        -0.97552E+08         0.00000E+00
    0.00000E+00         0.00000E+00        -0.44236E+08
 
   -0.44022E+08         0.11820E+07         0.00000E+00
    0.11820E+07        -0.97552E+08         0.00000E+00
    0.00000E+00         0.00000E+00        -0.44086E+08
 
   -0.43871E+08         0.11943E+07         0.00000E+00
    0.11943E+07        -0.97553E+08         0.00000E+00
    0.00000E+00         0.00000E+00        -0.43935E+08
 
   -0.43719E+08         0.12064E+07         0.00000E+00
    0.12064E+07        -0.97554E+08         0.00000E+00
    0.00000E+00         0.00000E+00        -0.43781E+08
 
   -0.43564E+08         0.12184E+07         0.00000E+00
    0.12184E+07        -0.97555E+08         0.00000E+00
    0.00000E+00         0.00000E+00        -0.43626E+08
 
   -0.43408E+08         0.12302E+07         0.00000E+00
    0.12302E+07        -0.97555E+08         0.00000E+00
    0.00000E+00         0.00000E+00        -0.43469E+08
 
   -0.43251E+08         0.12417E+07         0.00000E+00
    0.12417E+07        -0.97557E+08         0.00000E+00
    0.00000E+00         0.00000E+00        -0.43311E+08
 
   -0.43091E+08         0.12530E+07         0.00000E+00
    0.12530E+07        -0.97558E+08         0.00000E+00
    0.00000E+00         0.00000E+00        -0.43150E+08
 
   -0.42930E+08         0.12640E+07         0.00000E+00
    0.12640E+07        -0.97559E+08         0.00000E+00
    0.00000E+00         0.00000E+00        -0.42988E+08
 
   -0.42768E+08         0.12747E+07         0.00000E+00
    0.12747E+07        -0.97561E+08         0.00000E+00
    0.00000E+00         0.00000E+00        -0.42824E+08
 
   -0.42604E+08         0.12850E+07         0.00000E+00
    0.12850E+07        -0.97562E+08         0.00000E+00
    0.00000E+00         0.00000E+00        -0.42658E+08
 
   -0.42438E+08         0.12949E+07         0.00000E+00
    0.12949E+07        -0.97564E+08         0.00000E+00
    0.00000E+00         0.00000E+00        -0.42490E+08
 
   -0.42271E+08         0.13042E+07         0.00000E+00
    0.13042E+07        -0.97567E+08         0.00000E+00
    0.00000E+00         0.00000E+00        -0.42321E+08
 
   -0.42102E+08         0.13131E+07         0.00000E+00
    0.13131E+07        -0.97569E+08         0.00000E+00
    0.00000E+00         0.00000E+00        -0.42149E+08
 
   -0.41932E+08         0.13213E+07         0.00000E+00
    0.13213E+07        -0.97572E+08         0.00000E+00
    0.00000E+00         0.00000E+00        -0.41976E+08
 
   -0.41760E+08         0.13288E+07         0.00000E+00
    0.13288E+07        -0.97575E+08         0.00000E+00
    0.00000E+00         0.00000E+00        -0.41802E+08
 
   -0.41587E+08         0.13356E+07         0.00000E+00
    0.13356E+07        -0.97579E+08         0.00000E+00
    0.00000E+00         0.00000E+00        -0.41625E+08
 
   -0.41413E+08         0.13415E+07         0.00000E+00
    0.13415E+07        -0.97582E+08         0.00000E+00
    0.00000E+00         0.00000E+00        -0.41447E+08
 
   -0.41238E+08         0.13465E+07         0.00000E+00
    0.13465E+07        -0.97587E+08         0.00000E+00
    0.00000E+00         0.00000E+00        -0.41267E+08
 
   -0.41061E+08         0.13505E+07         0.00000E+00
    0.13505E+07        -0.97592E+08         0.00000E+00
    0.00000E+00         0.00000E+00        -0.41086E+08
 
   -0.40883E+08         0.13533E+07         0.00000E+00
    0.13533E+07        -0.97597E+08         0.00000E+00
    0.00000E+00         0.00000E+00        -0.40903E+08
 
   -0.40705E+08         0.13547E+07         0.00000E+00
    0.13547E+07        -0.97603E+08         0.00000E+00
    0.00000E+00         0.00000E+00        -0.40718E+08
 
   -0.40525E+08         0.13548E+07         0.00000E+00
    0.13548E+07        -0.97610E+08         0.00000E+00
    0.00000E+00         0.00000E+00        -0.40532E+08
 
   -0.40345E+08         0.13532E+07         0.00000E+00
    0.13532E+07        -0.97618E+08         0.00000E+00
    0.00000E+00         0.00000E+00        -0.40345E+08
 
   -0.40164E+08         0.13499E+07         0.00000E+00
    0.13499E+07        -0.97626E+08         0.00000E+00
    0.00000E+00         0.00000E+00        -0.40156E+08
 
   -0.39982E+08         0.13446E+07         0.00000E+00
    0.13446E+07        -0.97636E+08         0.00000E+00
    0.00000E+00         0.00000E+00        -0.39965E+08
 
   -0.39800E+08         0.13372E+07         0.00000E+00
    0.13372E+07        -0.97647E+08         0.00000E+00
    0.00000E+00         0.00000E+00        -0.39773E+08
 
   -0.39617E+08         0.13274E+07         0.00000E+00
    0.13274E+07        -0.97659E+08         0.00000E+00
    0.00000E+00         0.00000E+00        -0.39580E+08
 
   -0.39434E+08         0.13150E+07         0.00000E+00
    0.13150E+07        -0.97672E+08         0.00000E+00
    0.00000E+00         0.00000E+00        -0.39386E+08
 
   -0.39251E+08         0.12997E+07         0.00000E+00
    0.12997E+07        -0.97687E+08         0.00000E+00
    0.00000E+00         0.00000E+00        -0.39190E+08
 
   -0.39068E+08         0.12813E+07         0.00000E+00
    0.12813E+07        -0.97703E+08         0.00000E+00
    0.00000E+00         0.00000E+00        -0.38993E+08
 
   -0.38885E+08         0.12595E+07         0.00000E+00
    0.12595E+07        -0.97721E+08         0.00000E+00
    0.00000E+00         0.00000E+00        -0.38795E+08
 
   -0.38703E+08         0.12340E+07         0.00000E+00
    0.12340E+07        -0.97741E+08         0.00000E+00
    0.00000E+00         0.00000E+00        -0.38595E+08
 
   -0.38520E+08         0.12045E+07         0.00000E+00
    0.12045E+07        -0.97763E+08         0.00000E+00
    0.00000E+00         0.00000E+00        -0.38395E+08
 
   -0.38338E+08         0.11707E+07         0.00000E+00
    0.11707E+07        -0.97787E+08         0.00000E+00
    0.00000E+00         0.00000E+00        -0.38194E+08
 
   -0.38156E+08         0.11324E+07         0.00000E+00
    0.11324E+07        -0.97813E+08         0.00000E+00
    0.00000E+00         0.00000E+00        -0.37992E+08
 
   -0.37975E+08         0.10894E+07         0.00000E+00
    0.10894E+07        -0.97840E+08         0.00000E+00
    0.00000E+00         0.00000E+00        -0.37789E+08
 
   -0.37795E+08         0.10414E+07         0.00000E+00
    0.10414E+07        -0.97869E+08         0.00000E+00
    0.00000E+00         0.00000E+00        -0.37585E+08
 
   -0.37615E+08         0.98816E+06         0.00000E+00
    0.98816E+06        -0.97898E+08         0.00000E+00
    0.00000E+00         0.00000E+00        -0.37381E+08
 
   -0.37436E+08         0.92971E+06         0.00000E+00
    0.92971E+06        -0.97926E+08         0.00000E+00
    0.00000E+00         0.00000E+00        -0.37176E+08
 
   -0.37258E+08         0.86593E+06         0.00000E+00
    0.86593E+06        -0.97953E+08         0.00000E+00
    0.00000E+00         0.00000E+00        -0.36970E+08
 
   -0.37082E+08         0.79687E+06         0.00000E+00
    0.79687E+06        -0.97977E+08         0.00000E+00
    0.00000E+00         0.00000E+00        -0.36764E+08
 
   -0.36909E+08         0.72257E+06         0.00000E+00
    0.72257E+06        -0.97994E+08         0.00000E+00
    0.00000E+00         0.00000E+00        -0.36557E+08
 
   -0.36739E+08         0.64308E+06         0.00000E+00
    0.64308E+06        -0.98001E+08         0.00000E+00
    0.00000E+00         0.00000E+00        -0.36350E+08
 
   -0.36575E+08         0.55839E+06         0.00000E+00
    0.55839E+06        -0.97995E+08         0.00000E+00
    0.00000E+00         0.00000E+00        -0.36143E+08
 
   -0.36419E+08         0.46827E+06         0.00000E+00
    0.46827E+06        -0.97969E+08         0.00000E+00
    0.00000E+00         0.00000E+00        -0.35935E+08
 
   -0.36279E+08         0.37225E+06         0.00000E+00
    0.37225E+06        -0.97916E+08         0.00000E+00
    0.00000E+00         0.00000E+00        -0.35728E+08
 
   -0.36159E+08         0.27016E+06         0.00000E+00
    0.27016E+06        -0.97831E+08         0.00000E+00
    0.00000E+00         0.00000E+00        -0.35520E+08
 
   -0.36072E+08         0.16330E+06         0.00000E+00
    0.16330E+06        -0.97705E+08         0.00000E+00
    0.00000E+00         0.00000E+00        -0.35312E+08
 
   -0.36025E+08         0.54488E+05         0.00000E+00
    0.54488E+05        -0.97538E+08         0.00000E+00
    0.00000E+00         0.00000E+00        -0.35104E+08
 
   -0.49470E+08         0.25799E+05         0.00000E+00
    0.25799E+05        -0.97614E+08         0.00000E+00
    0.00000E+00         0.00000E+00        -0.49952E+08
 
   -0.49449E+08         0.77524E+05         0.00000E+00
    0.77524E+05        -0.97536E+08         0.00000E+00
    0.00000E+00         0.00000E+00        -0.49856E+08
 
   -0.49410E+08         0.12903E+06         0.00000E+00
    0.12903E+06        -0.97478E+08         0.00000E+00
    0.00000E+00         0.00000E+00        -0.49759E+08
 
   -0.49357E+08         0.17933E+06         0.00000E+00
    0.17933E+06        -0.97438E+08         0.00000E+00
    0.00000E+00         0.00000E+00        -0.49663E+08
 
   -0.49293E+08         0.22775E+06         0.00000E+00
    0.22775E+06        -0.97413E+08         0.00000E+00
    0.00000E+00         0.00000E+00        -0.49567E+08
 
   -0.49221E+08         0.27418E+06         0.00000E+00
    0.27418E+06        -0.97400E+08         0.00000E+00
    0.00000E+00         0.00000E+00        -0.49470E+08
 
   -0.49145E+08         0.31867E+06         0.00000E+00
    0.31867E+06        -0.97396E+08         0.00000E+00
    0.00000E+00         0.00000E+00        -0.49373E+08
 
   -0.49065E+08         0.36122E+06         0.00000E+00
    0.36122E+06        -0.97398E+08         0.00000E+00
    0.00000E+00         0.00000E+00        -0.49277E+08
 
   -0.48983E+08         0.40177E+06         0.00000E+00
    0.40177E+06        -0.97405E+08         0.00000E+00
    0.00000E+00         0.00000E+00        -0.49179E+08
 
   -0.48899E+08         0.44027E+06         0.00000E+00
    0.44027E+06        -0.97415E+08         0.00000E+00
    0.00000E+00         0.00000E+00        -0.49082E+08
 
   -0.48814E+08         0.47667E+06         0.00000E+00
    0.47667E+06        -0.97426E+08         0.00000E+00
    0.00000E+00         0.00000E+00        -0.48984E+08
 
   -0.48727E+08         0.51096E+06         0.00000E+00
    0.51096E+06        -0.97438E+08         0.00000E+00
    0.00000E+00         0.00000E+00        -0.48886E+08
 
   -0.48638E+08         0.54317E+06         0.00000E+00
    0.54317E+06        -0.97449E+08         0.00000E+00
    0.00000E+00         0.00000E+00        -0.48787E+08
 
   -0.48548E+08         0.57335E+06         0.00000E+00
    0.57335E+06        -0.97461E+08         0.00000E+00
    0.00000E+00         0.00000E+00        -0.48688E+08
 
   -0.48457E+08         0.60160E+06         0.00000E+00
    0.60160E+06        -0.97472E+08         0.00000E+00
    0.00000E+00         0.00000E+00        -0.48588E+08
 
   -0.48365E+08         0.62802E+06         0.00000E+00
    0.62802E+06        -0.97482E+08         0.00000E+00
    0.00000E+00         0.00000E+00        -0.48487E+08
 
   -0.48271E+08         0.65274E+06         0.00000E+00
    0.65274E+06        -0.97491E+08         0.00000E+00
    0.00000E+00         0.00000E+00        -0.48386E+08
 
   -0.48176E+08         0.67589E+06         0.00000E+00
    0.67589E+06        -0.97500E+08         0.00000E+00
    0.00000E+00         0.00000E+00        -0.48284E+08
 
   -0.48079E+08         0.69760E+06         0.00000E+00
    0.69760E+06        -0.97507E+08         0.00000E+00
    0.00000E+00         0.00000E+00        -0.48181E+08
 
   -0.47980E+08         0.71802E+06         0.00000E+00
    0.71802E+06        -0.97514E+08         0.00000E+00
    0.00000E+00         0.00000E+00        -0.48078E+08
 
   -0.47880E+08         0.73727E+06         0.00000E+00
    0.73727E+06        -0.97520E+08         0.00000E+00
    0.00000E+00         0.00000E+00        -0.47973E+08
 
   -0.47779E+08         0.75548E+06         0.00000E+00
    0.75548E+06        -0.97525E+08         0.00000E+00
    0.00000E+00         0.00000E+00        -0.47868E+08
 
   -0.47676E+08         0.77278E+06         0.00000E+00
    0.77278E+06        -0.97529E+08         0.00000E+00
    0.00000E+00         0.00000E+00        -0.47762E+08
 
   -0.47572E+08         0.78927E+06         0.00000E+00
    0.78927E+06        -0.97533E+08         0.00000E+00
    0.00000E+00         0.00000E+00        -0.47654E+08
 
   -0.47466E+08         0.80507E+06         0.00000E+00
    0.80507E+06        -0.97536E+08         0.00000E+00
    0.00000E+00         0.00000E+00        -0.47546E+08
 
   -0.47359E+08         0.82026E+06         0.00000E+00
    0.82026E+06        -0.97539E+08         0.00000E+00
    0.00000E+00         0.00000E+00        -0.47436E+08
 
   -0.47250E+08         0.83493E+06         0.00000E+00
    0.83493E+06        -0.97542E+08         0.00000E+00
    0.00000E+00         0.00000E+00        -0.47325E+08
 
   -0.47139E+08         0.84916E+06         0.00000E+00
    0.84916E+06        -0.97544E+08         0.00000E+00
    0.00000E+00         0.00000E+00        -0.47214E+08
 
   -0.47028E+08         0.86302E+06         0.00000E+00
    0.86302E+06        -0.97545E+08         0.00000E+00
    0.00000E+00         0.00000E+00        -0.47100E+08
 
   -0.46914E+08         0.87658E+06         0.00000E+00
    0.87658E+06        -0.97547E+08         0.00000E+00
    0.00000E+00         0.00000E+00        -0.46986E+08
 
   -0.46799E+08         0.88987E+06         0.00000E+00
    0.88987E+06        -0.97548E+08         0.00000E+00
    0.00000E+00         0.00000E+00        -0.46870E+08
 
   -0.46683E+08         0.90296E+06         0.00000E+00
    0.90296E+06        -0.97549E+08         0.00000E+00
    0.00000E+00         0.00000E+00        -0.46753E+08
 
   -0.46565E+08         0.91588E+06         0.00000E+00
    0.91588E+06        -0.97550E+08         0.00000E+00
    0.00000E+00         0.00000E+00        -0.46635E+08
 
   -0.46445E+08         0.92867E+06         0.00000E+00
    0.92867E+06        -0.97550E+08         0.00000E+00
    0.00000E+00         0.00000E+00        -0.46515E+08
 
   -0.46324E+08         0.94135E+06         0.00000E+00
    0.94135E+06        -0.97551E+08         0.00000E+00
    0.00000E+00         0.00000E+00        -0.46394E+08
 
   -0.46201E+08         0.95396E+06         0.00000E+00
    0.95396E+06        -0.97551E+08         0.00000E+00
    0.00000E+00         0.00000E+00        -0.46271E+08
 
   -0.46077E+08         0.96651E+06         0.00000E+00
    0.96651E+06        -0.97552E+08         0.00000E+00
    0.00000E+00         0.00000E+00        -0.46147E+08
 
   -0.45951E+08         0.97902E+06         0.00000E+00
    0.97902E+06        -0.97552E+08         0.00000E+00
    0.00000E+00         0.00000E+00        -0.46021E+08
 
   -0.45824E+08         0.99150E+06         0.00000E+00
    0.99150E+06        -0.97552E+08         0.00000E+00
    0.00000E+00         0.00000E+00        -0.45894E+08
 
   -0.45695E+08         0.10040E+07         0.00000E+00
    0.10040E+07        -0.97552E+08         0.00000E+00
    0.00000E+00         0.00000E+00        -0.45765E+08
 
   -0.45564E+08         0.10164E+07         0.00000E+00
    0.10164E+07        -0.97552E+08         0.00000E+00
    0.00000E+00         0.00000E+00        -0.45634E+08
 
   -0.45432E+08         0.10289E+07         0.00000E+00
    0.10289E+07        -0.97552E+08         0.00000E+00
    0.00000E+00         0.00000E+00        -0.45502E+08
 
   -0.45298E+08         0.10413E+07         0.00000E+00
    0.10413E+07        -0.97553E+08         0.00000E+00
    0.00000E+00         0.00000E+00        -0.45368E+08
 
   -0.45162E+08         0.10537E+07         0.00000E+00
    0.10537E+07        -0.97553E+08         0.00000E+00
    0.00000E+00         0.00000E+00        -0.45233E+08
 
   -0.45025E+08         0.10662E+07         0.00000E+00
    0.10662E+07        -0.97553E+08         0.00000E+00
    0.00000E+00         0.00000E+00        -0.45096E+08
 
   -0.44886E+08         0.10786E+07         0.00000E+00
    0.10786E+07        -0.97553E+08         0.00000E+00
    0.00000E+00         0.00000E+00        -0.44957E+08
 
   -0.44745E+08         0.10909E+07         0.00000E+00
    0.10909E+07        -0.97553E+08         0.00000E+00
    0.00000E+00         0.00000E+00        -0.44816E+08
 
   -0.44603E+08         0.11033E+07         0.00000E+00
    0.11033E+07        -0.97553E+08         0.00000E+00
    0.00000E+00         0.00000E+00        -0.44674E+08
 
   -0.44459E+08         0.11156E+07         0.00000E+00
    0.11156E+07        -0.97554E+08         0.00000E+00
    0.00000E+00         0.00000E+00        -0.44529E+08
 
   -0.44313E+08         0.11278E+07         0.00000E+00
    0.11278E+07        -0.97554E+08         0.00000E+00
    0.00000E+00         0.00000E+00        -0.44383E+08
 
   -0.44166E+08         0.11399E+07         0.00000E+00
    0.11399E+07        -0.97554E+08         0.00000E+00
    0.00000E+00         0.00000E+00        -0.44236E+08
 
   -0.44016E+08         0.11520E+07         0.00000E+00
    0.11520E+07        -0.97555E+08         0.00000E+00
    0.00000E+00         0.00000E+00        -0.44086E+08
 
   -0.43866E+08         0.11639E+07         0.00000E+00
    0.11639E+07        -0.97555E+08         0.00000E+00
    0.00000E+00         0.00000E+00        -0.43935E+08
 
   -0.43713E+08         0.11757E+07         0.00000E+00
    0.11757E+07        -0.97556E+08         0.00000E+00
    0.00000E+00         0.00000E+00        -0.43781E+08
 
   -0.43559E+08         0.11874E+07         0.00000E+00
    0.11874E+07        -0.97557E+08         0.00000E+00
    0.00000E+00         0.00000E+00        -0.43626E+08
 
   -0.43403E+08         0.11988E+07         0.00000E+00
    0.11988E+07        -0.97558E+08         0.00000E+00
    0.00000E+00         0.00000E+00        -0.43469E+08
 
   -0.43245E+08         0.12101E+07         0.00000E+00
    0.12101E+07        -0.97559E+08         0.00000E+00
    0.00000E+00         0.00000E+00        -0.43311E+08
 
   -0.43086E+08         0.12210E+07         0.00000E+00
    0.12210E+07        -0.97560E+08         0.00000E+00
    0.00000E+00         0.00000E+00        -0.43150E+08
 
   -0.42925E+08         0.12317E+07         0.00000E+00
    0.12317E+07        -0.97561E+08         0.00000E+00
    0.00000E+00         0.00000E+00        -0.42988E+08
 
   -0.42763E+08         0.12421E+07         0.00000E+00
    0.12421E+07        -0.97563E+08         0.00000E+00
    0.00000E+00         0.00000E+00        -0.42824E+08
 
   -0.42599E+08         0.12520E+07         0.00000E+00
    0.12520E+07        -0.97564E+08         0.00000E+00
    0.00000E+00         0.00000E+00        -0.42658E+08
 
   -0.42433E+08         0.12616E+07         0.00000E+00
    0.12616E+07        -0.97566E+08         0.00000E+00
    0.00000E+00         0.00000E+00        -0.42490E+08
 
   -0.42266E+08         0.12707E+07         0.00000E+00
    0.12707E+07        -0.97568E+08         0.00000E+00
    0.00000E+00         0.00000E+00        -0.42321E+08
 
   -0.42098E+08         0.12792E+07         0.00000E+00
    0.12792E+07        -0.97571E+08         0.00000E+00
    0.00000E+00         0.00000E+00        -0.42149E+08
 
   -0.41928E+08         0.12871E+07         0.00000E+00
    0.12871E+07        -0.97573E+08         0.00000E+00
    0.00000E+00         0.00000E+00        -0.41976E+08
 
   -0.41757E+08         0.12944E+07         0.00000E+00
    0.12944E+07        -0.97576E+08         0.00000E+00
    0.00000E+00         0.00000E+00        -0.41802E+08
 
   -0.41584E+08         0.13009E+07         0.00000E+00
    0.13009E+07        -0.97580E+08         0.00000E+00
    0.00000E+00         0.00000E+00        -0.41625E+08
 
   -0.41410E+08         0.13066E+07         0.00000E+00
    0.13066E+07        -0.97584E+08         0.00000E+00
    0.00000E+00         0.00000E+00        -0.41447E+08
 
   -0.41235E+08         0.13114E+07         0.00000E+00
    0.13114E+07        -0.97588E+08         0.00000E+00
    0.00000E+00         0.00000E+00        -0.41267E+08
 
   -0.41059E+08         0.13151E+07         0.00000E+00
    0.13151E+07        -0.97592E+08         0.00000E+00
    0.00000E+00         0.00000E+00        -0.41086E+08
 
   -0.40882E+08         0.13177E+07         0.00000E+00
    0.13177E+07        -0.97598E+08         0.00000E+00
    0.00000E+00         0.00000E+00        -0.40903E+08
 
   -0.40703E+08         0.13190E+07         0.00000E+00
    0.13190E+07        -0.97603E+08         0.00000E+00
    0.00000E+00         0.00000E+00        -0.40718E+08
 
   -0.40524E+08         0.13188E+07         0.00000E+00
    0.13188E+07        -0.97610E+08         0.00000E+00
    0.00000E+00         0.00000E+00        -0.40532E+08
 
   -0.40345E+08         0.13171E+07         0.00000E+00
    0.13171E+07        -0.97617E+08         0.00000E+00
    0.00000E+00         0.00000E+00        -0.40345E+08
 
   -0.40164E+08         0.13137E+07         0.00000E+00
    0.13137E+07        -0.97626E+08         0.00000E+00
    0.00000E+00         0.00000E+00        -0.40156E+08
 
   -0.39983E+08         0.13083E+07         0.00000E+00
    0.13083E+07        -0.97635E+08         0.00000E+00
    0.00000E+00         0.00000E+00        -0.39965E+08
 
   -0.39802E+08         0.13008E+07         0.00000E+00
    0.13008E+07        -0.97645E+08         0.00000E+00
    0.00000E+00         0.00000E+00        -0.39773E+08
 
   -0.39620E+08         0.12910E+07         0.00000E+00
    0.12910E+07        -0.97656E+08         0.00000E+00
    0.00000E+00         0.00000E+00        -0.39580E+08
 
   -0.39438E+08         0.12785E+07         0.00000E+00
    0.12785E+07        -0.97669E+08         0.00000E+00
    0.00000E+00         0.00000E+00        -0.39386E+08
 
   -0.39257E+08         0.12632E+07         0.00000E+00
    0.12632E+07        -0.97683E+08         0.00000E+00
    0.00000E+00         0.00000E+00        -0.39190E+08
 
   -0.39075E+08         0.12448E+07         0.00000E+00
    0.12448E+07        -0.97699E+08         0.00000E+00
    0.00000E+00         0.00000E+00        -0.38993E+08
 
   -0.38893E+08         0.12230E+07         0.00000E+00
    0.12230E+07        -0.97717E+08         0.00000E+00
    0.00000E+00         0.00000E+00        -0.38795E+08
 
   -0.38712E+08         0.11976E+07         0.00000E+00
    0.11976E+07        -0.97736E+08         0.00000E+00
    0.00000E+00         0.00000E+00        -0.38595E+08
 
   -0.38531E+08         0.11682E+07         0.00000E+00
    0.11682E+07        -0.97757E+08         0.00000E+00
    0.00000E+00         0.00000E+00        -0.38395E+08
 
   -0.38351E+08         0.11345E+07         0.00000E+00
    0.11345E+07        -0.97780E+08         0.00000E+00
    0.00000E+00         0.00000E+00        -0.38194E+08
 
   -0.38171E+08         0.10964E+07         0.00000E+00
    0.10964E+07        -0.97805E+08         0.00000E+00
    0.00000E+00         0.00000E+00        -0.37992E+08
 
   -0.37992E+08         0.10535E+07         0.00000E+00
    0.10535E+07        -0.97831E+08         0.00000E+00
    0.00000E+00         0.00000E+00        -0.37789E+08
 
   -0.37814E+08         0.10056E+07         0.00000E+00
    0.10056E+07        -0.97859E+08         0.00000E+00
    0.00000E+00         0.00000E+00        -0.37585E+08
 
   -0.37637E+08         0.95255E+06         0.00000E+00
    0.95255E+06        -0.97887E+08         0.00000E+00
    0.00000E+00         0.00000E+00        -0.37381E+08
 
   -0.37461E+08         0.89431E+06         0.00000E+00
    0.89431E+06        -0.97914E+08         0.00000E+00
    0.00000E+00         0.00000E+00        -0.37176E+08
 
   -0.37286E+08         0.83082E+06         0.00000E+00
    0.83082E+06        -0.97940E+08         0.00000E+00
    0.00000E+00         0.00000E+00        -0.36970E+08
 
   -0.37113E+08         0.76217E+06         0.00000E+00
    0.76217E+06        -0.97962E+08         0.00000E+00
    0.00000E+00         0.00000E+00        -0.36764E+08
 
   -0.36943E+08         0.68847E+06         0.00000E+00
    0.68847E+06        -0.97978E+08         0.00000E+00
    0.00000E+00         0.00000E+00        -0.36557E+08
 
   -0.36777E+08         0.60994E+06         0.00000E+00
    0.60994E+06        -0.97985E+08         0.00000E+00
    0.00000E+00         0.00000E+00        -0.36350E+08
 
   -0.36617E+08         0.52672E+06         0.00000E+00
    0.52672E+06        -0.97977E+08         0.00000E+00
    0.00000E+00         0.00000E+00        -0.36143E+08
 
   -0.36466E+08         0.43889E+06         0.00000E+00
    0.43889E+06        -0.97950E+08         0.00000E+00
    0.00000E+00         0.00000E+00        -0.35935E+08
 
   -0.36331E+08         0.34641E+06         0.00000E+00
    0.34641E+06        -0.97897E+08         0.00000E+00
    0.00000E+00         0.00000E+00        -0.35728E+08
 
   -0.36217E+08         0.24961E+06         0.00000E+00
    0.24961E+06        -0.97810E+08         0.00000E+00
    0.00000E+00         0.00000E+00        -0.35520E+08
 
   -0.36134E+08         0.15002E+06         0.00000E+00
    0.15002E+06        -0.97684E+08         0.00000E+00
    0.00000E+00         0.00000E+00        -0.35312E+08
 
   -0.36090E+08         0.49907E+05         0.00000E+00
    0.49907E+05        -0.97517E+08         0.00000E+00
    0.00000E+00         0.00000E+00        -0.35104E+08
 
   -0.49439E+08         0.23780E+05         0.00000E+00
    0.23780E+05        -0.97624E+08         0.00000E+00
    0.00000E+00         0.00000E+00        -0.49952E+08
 
   -0.49419E+08         0.71639E+05         0.00000E+00
    0.71639E+05        -0.97546E+08         0.00000E+00
    0.00000E+00         0.00000E+00        -0.49856E+08
 
   -0.49382E+08         0.11983E+06         0.00000E+00
    0.11983E+06        -0.97488E+08         0.00000E+00
    0.00000E+00         0.00000E+00        -0.49759E+08
 
   -0.49331E+08         0.16762E+06         0.00000E+00
    0.16762E+06        -0.97447E+08         0.00000E+00
    0.00000E+00         0.00000E+00        -0.49663E+08
 
   -0.49269E+08         0.21428E+06         0.00000E+00
    0.21428E+06        -0.97422E+08         0.00000E+00
    0.00000E+00         0.00000E+00        -0.49567E+08
 
   -0.49199E+08         0.25952E+06         0.00000E+00
    0.25952E+06        -0.97409E+08         0.00000E+00
    0.00000E+00         0.00000E+00        -0.49470E+08
 
   -0.49125E+08         0.30319E+06         0.00000E+00
    0.30319E+06        -0.97405E+08         0.00000E+00
    0.00000E+00         0.00000E+00        -0.49373E+08
 
   -0.49047E+08         0.34516E+06         0.00000E+00
    0.34516E+06        -0.97407E+08         0.00000E+00
    0.00000E+00         0.00000E+00        -0.49277E+08
 
   -0.48966E+08         0.38528E+06         0.00000E+00
    0.38528E+06        -0.97413E+08         0.00000E+00
    0.00000E+00         0.00000E+00        -0.49179E+08
 
   -0.48883E+08         0.42342E+06         0.00000E+00
    0.42342E+06        -0.97422E+08         0.00000E+00
    0.00000E+00         0.00000E+00        -0.49082E+08
 
   -0.48799E+08         0.45952E+06         0.00000E+00
    0.45952E+06        -0.97433E+08         0.00000E+00
    0.00000E+00         0.00000E+00        -0.48984E+08
 
   -0.48713E+08         0.49352E+06         0.00000E+00
    0.49352E+06        -0.97444E+08         0.00000E+00
    0.00000E+00         0.00000E+00        -0.48886E+08
 
   -0.48626E+08         0.52545E+06         0.00000E+00
    0.52545E+06        -0.97456E+08         0.00000E+00
    0.00000E+00         0.00000E+00        -0.48787E+08
 
   -0.48537E+08         0.55535E+06         0.00000E+00
    0.55535E+06        -0.97467E+08         0.00000E+00
    0.00000E+00         0.00000E+00        -0.48688E+08
 
   -0.48447E+08         0.58331E+06         0.00000E+00
    0.58331E+06        -0.97477E+08         0.00000E+00
    0.00000E+00         0.00000E+00        -0.48588E+08
 
   -0.48355E+08         0.60945E+06         0.00000E+00
    0.60945E+06        -0.97487E+08         0.00000E+00
    0.00000E+00         0.00000E+00        -0.48487E+08
 
   -0.48262E+08         0.63387E+06         0.00000E+00
    0.63387E+06        -0.97496E+08         0.00000E+00
    0.00000E+00         0.00000E+00        -0.48386E+08
 
   -0.48167E+08         0.65672E+06         0.00000E+00
    0.65672E+06        -0.97504E+08         0.00000E+00
    0.00000E+00         0.00000E+00        -0.48284E+08
 
   -0.48070E+08         0.67813E+06         0.00000E+00
    0.67813E+06        -0.97511E+08         0.00000E+00
    0.00000E+00         0.00000E+00        -0.48181E+08
 
   -0.47972E+08         0.69824E+06         0.00000E+00
    0.69824E+06        -0.97518E+08         0.00000E+00
    0.00000E+00         0.00000E+00        -0.48078E+08
 
   -0.47873E+08         0.71719E+06         0.00000E+00
    0.71719E+06        -0.97523E+08         0.00000E+00
    0.00000E+00         0.00000E+00        -0.47973E+08
 
   -0.47772E+08         0.73509E+06         0.00000E+00
    0.73509E+06        -0.97528E+08         0.00000E+00
    0.00000E+00         0.00000E+00        -0.47868E+08
 
   -0.47669E+08         0.75209E+06         0.00000E+00
    0.75209E+06        -0.97533E+08         0.00000E+00
    0.00000E+00         0.00000E+00        -0.47762E+08
 
   -0.47565E+08         0.76827E+06         0.00000E+00
    0.76827E+06        -0.97536E+08         0.00000E+00
    0.00000E+00         0.00000E+00        -0.47654E+08
 
   -0.47460E+08         0.78376E+06         0.00000E+00
    0.78376E+06        -0.97540E+08         0.00000E+00
    0.00000E+00         0.00000E+00        -0.47546E+08
 
   -0.47352E+08         0.79865E+06         0.00000E+00
    0.79865E+06        -0.97542E+08         0.00000E+00
    0.00000E+00         0.00000E+00        -0.47436E+08
 
   -0.47244E+08         0.81302E+06         0.00000E+00
    0.81302E+06        -0.97545E+08         0.00000E+00
    0.00000E+00         0.00000E+00        -0.47325E+08
 
   -0.47133E+08         0.82695E+06         0.00000E+00
    0.82695E+06        -0.97546E+08         0.00000E+00
    0.00000E+00         0.00000E+00        -0.47214E+08
 
   -0.47022E+08         0.84050E+06         0.00000E+00
    0.84050E+06        -0.97548E+08         0.00000E+00
    0.00000E+00         0.00000E+00        -0.47100E+08
 
   -0.46908E+08         0.85375E+06         0.00000E+00
    0.85375E+06        -0.97549E+08         0.00000E+00
    0.00000E+00         0.00000E+00        -0.46986E+08
 
   -0.46793E+08         0.86674E+06         0.00000E+00
    0.86674E+06        -0.97551E+08         0.00000E+00
    0.00000E+00         0.00000E+00        -0.46870E+08
 
   -0.46677E+08         0.87952E+06         0.00000E+00
    0.87952E+06        -0.97552E+08         0.00000E+00
    0.00000E+00         0.00000E+00        -0.46753E+08
 
   -0.46559E+08         0.89213E+06         0.00000E+00
    0.89213E+06        -0.97552E+08         0.00000E+00
    0.00000E+00         0.00000E+00        -0.46635E+08
 
   -0.46440E+08         0.90461E+06         0.00000E+00
    0.90461E+06        -0.97553E+08         0.00000E+00
    0.00000E+00         0.00000E+00        -0.46515E+08
 
   -0.46318E+08         0.91698E+06         0.00000E+00
    0.91698E+06        -0.97553E+08         0.00000E+00
    0.00000E+00         0.00000E+00        -0.46394E+08
 
   -0.46196E+08         0.92927E+06         0.00000E+00
    0.92927E+06        -0.97554E+08         0.00000E+00
    0.00000E+00         0.00000E+00        -0.46271E+08
 
   -0.46072E+08         0.94150E+06         0.00000E+00
    0.94150E+06        -0.97554E+08         0.00000E+00
    0.00000E+00         0.00000E+00        -0.46147E+08
 
   -0.45946E+08         0.95369E+06         0.00000E+00
    0.95369E+06        -0.97554E+08         0.00000E+00
    0.00000E+00         0.00000E+00        -0.46021E+08
 
   -0.45818E+08         0.96585E+06         0.00000E+00
    0.96585E+06        -0.97555E+08         0.00000E+00
    0.00000E+00         0.00000E+00        -0.45894E+08
 
   -0.45689E+08         0.97799E+06         0.00000E+00
    0.97799E+06        -0.97555E+08         0.00000E+00
    0.00000E+00         0.00000E+00        -0.45765E+08
 
   -0.45558E+08         0.99012E+06         0.00000E+00
    0.99012E+06        -0.97555E+08         0.00000E+00
    0.00000E+00         0.00000E+00        -0.45634E+08
 
   -0.45426E+08         0.10022E+07         0.00000E+00
    0.10022E+07        -0.97555E+08         0.00000E+00
    0.00000E+00         0.00000E+00        -0.45502E+08
 
   -0.45292E+08         0.10143E+07         0.00000E+00
    0.10143E+07        -0.97555E+08         0.00000E+00
    0.00000E+00         0.00000E+00        -0.45368E+08
 
   -0.45157E+08         0.10264E+07         0.00000E+00
    0.10264E+07        -0.97555E+08         0.00000E+00
    0.00000E+00         0.00000E+00        -0.45233E+08
 
   -0.45019E+08         0.10385E+07         0.00000E+00
    0.10385E+07        -0.97555E+08         0.00000E+00
    0.00000E+00         0.00000E+00        -0.45096E+08
 
   -0.44880E+08         0.10506E+07         0.00000E+00
    0.10506E+07        -0.97555E+08         0.00000E+00
    0.00000E+00         0.00000E+00        -0.44957E+08
 
   -0.44740E+08         0.10626E+07         0.00000E+00
    0.10626E+07        -0.97556E+08         0.00000E+00
    0.00000E+00         0.00000E+00        -0.44816E+08
 
   -0.44597E+08         0.10746E+07         0.00000E+00
    0.10746E+07        -0.97556E+08         0.00000E+00
    0.00000E+00         0.00000E+00        -0.44674E+08
 
   -0.44453E+08         0.10866E+07         0.00000E+00
    0.10866E+07        -0.97556E+08         0.00000E+00
    0.00000E+00         0.00000E+00        -0.44529E+08
 
   -0.44307E+08         0.10985E+07         0.00000E+00
    0.10985E+07        -0.97556E+08         0.00000E+00
    0.00000E+00         0.00000E+00        -0.44383E+08
 
   -0.44160E+08         0.11103E+07         0.00000E+00
    0.11103E+07        -0.97557E+08         0.00000E+00
    0.00000E+00         0.00000E+00        -0.44236E+08
 
   -0.44011E+08         0.11220E+07         0.00000E+00
    0.11220E+07        -0.97557E+08         0.00000E+00
    0.00000E+00         0.00000E+00        -0.44086E+08
 
   -0.43860E+08         0.11336E+07         0.00000E+00
    0.11336E+07        -0.97558E+08         0.00000E+00
    0.00000E+00         0.00000E+00        -0.43935E+08
 
   -0.43708E+08         0.11451E+07         0.00000E+00
    0.11451E+07        -0.97558E+08         0.00000E+00
    0.00000E+00         0.00000E+00        -0.43781E+08
 
   -0.43553E+08         0.11564E+07         0.00000E+00
    0.11564E+07        -0.97559E+08         0.00000E+00
    0.00000E+00         0.00000E+00        -0.43626E+08
 
   -0.43398E+08         0.11675E+07         0.00000E+00
    0.11675E+07        -0.97560E+08         0.00000E+00
    0.00000E+00         0.00000E+00        -0.43469E+08
 
   -0.43240E+08         0.11784E+07         0.00000E+00
    0.11784E+07        -0.97561E+08         0.00000E+00
    0.00000E+00         0.00000E+00        -0.43311E+08
 
   -0.43081E+08         0.11890E+07         0.00000E+00
    0.11890E+07        -0.97562E+08         0.00000E+00
    0.00000E+00         0.00000E+00        -0.43150E+08
 
   -0.42920E+08         0.11994E+07         0.00000E+00
    0.11994E+07        -0.97563E+08         0.00000E+00
    0.00000E+00         0.00000E+00        -0.42988E+08
 
   -0.42758E+08         0.12094E+07         0.00000E+00
    0.12094E+07        -0.97565E+08         0.00000E+00
    0.00000E+00         0.00000E+00        -0.42824E+08
 
   -0.42594E+08         0.12191E+07         0.00000E+00
    0.12191E+07        -0.97566E+08         0.00000E+00
    0.00000E+00         0.00000E+00        -0.42658E+08
 
   -0.42429E+08         0.12283E+07         0.00000E+00
    0.12283E+07        -0.97568E+08         0.00000E+00
    0.00000E+00         0.00000E+00        -0.42490E+08
 
   -0.42262E+08         0.12371E+07         0.00000E+00
    0.12371E+07        -0.97570E+08         0.00000E+00
    0.00000E+00         0.00000E+00        -0.42321E+08
 
   -0.42094E+08         0.12454E+07         0.00000E+00
    0.12454E+07        -0.97572E+08         0.00000E+00
    0.00000E+00         0.00000E+00        -0.42150E+08
 
   -0.41924E+08         0.12530E+07         0.00000E+00
    0.12530E+07        -0.97575E+08         0.00000E+00
    0.00000E+00         0.00000E+00        -0.41977E+08
 
   -0.41753E+08         0.12600E+07         0.00000E+00
    0.12600E+07        -0.97578E+08         0.00000E+00
    0.00000E+00         0.00000E+00        -0.41802E+08
 
   -0.41580E+08         0.12663E+07         0.00000E+00
    0.12663E+07        -0.97581E+08         0.00000E+00
    0.00000E+00         0.00000E+00        -0.41625E+08
 
   -0.41407E+08         0.12718E+07         0.00000E+00
    0.12718E+07        -0.97585E+08         0.00000E+00
    0.00000E+00         0.00000E+00        -0.41447E+08
 
   -0.41232E+08         0.12763E+07         0.00000E+00
    0.12763E+07        -0.97589E+08         0.00000E+00
    0.00000E+00         0.00000E+00        -0.41267E+08
 
   -0.41056E+08         0.12798E+07         0.00000E+00
    0.12798E+07        -0.97593E+08         0.00000E+00
    0.00000E+00         0.00000E+00        -0.41086E+08
 
   -0.40880E+08         0.12822E+07         0.00000E+00
    0.12822E+07        -0.97598E+08         0.00000E+00
    0.00000E+00         0.00000E+00        -0.40903E+08
 
   -0.40702E+08         0.12833E+07         0.00000E+00
    0.12833E+07        -0.97604E+08         0.00000E+00
    0.00000E+00         0.00000E+00        -0.40718E+08
 
   -0.40524E+08         0.12830E+07         0.00000E+00
    0.12830E+07        -0.97610E+08         0.00000E+00
    0.00000E+00         0.00000E+00        -0.40532E+08
 
   -0.40344E+08         0.12812E+07         0.00000E+00
    0.12812E+07        -0.97617E+08         0.00000E+00
    0.00000E+00         0.00000E+00        -0.40345E+08
 
   -0.40165E+08         0.12776E+07         0.00000E+00
    0.12776E+07        -0.97625E+08         0.00000E+00
    0.00000E+00         0.00000E+00        -0.40156E+08
 
   -0.39985E+08         0.12722E+07         0.00000E+00
    0.12722E+07        -0.97633E+08         0.00000E+00
    0.00000E+00         0.00000E+00        -0.39965E+08
 
   -0.39804E+08         0.12646E+07         0.00000E+00
    0.12646E+07        -0.97643E+08         0.00000E+00
    0.00000E+00         0.00000E+00        -0.39773E+08
 
   -0.39623E+08         0.12547E+07         0.00000E+00
    0.12547E+07        -0.97654E+08         0.00000E+00
    0.00000E+00         0.00000E+00        -0.39580E+08
 
   -0.39443E+08         0.12422E+07         0.00000E+00
    0.12422E+07        -0.97666E+08         0.00000E+00
    0.00000E+00         0.00000E+00        -0.39386E+08
 
   -0.39262E+08         0.12270E+07         0.00000E+00
    0.12270E+07        -0.97680E+08         0.00000E+00
    0.00000E+00         0.00000E+00        -0.39190E+08
 
   -0.39081E+08         0.12086E+07         0.00000E+00
    0.12086E+07        -0.97695E+08         0.00000E+00
    0.00000E+00         0.00000E+00        -0.38993E+08
 
   -0.38901E+08         0.11869E+07         0.00000E+00
    0.11869E+07        -0.97712E+08         0.00000E+00
    0.00000E+00         0.00000E+00        -0.38795E+08
 
   -0.38721E+08         0.11615E+07         0.00000E+00
    0.11615E+07        -0.97731E+08         0.00000E+00
    0.00000E+00         0.00000E+00        -0.38595E+08
 
   -0.38542E+08         0.11322E+07         0.00000E+00
    0.11322E+07        -0.97751E+08         0.00000E+00
    0.00000E+00         0.00000E+00        -0.38395E+08
 
   -0.38364E+08         0.10987E+07         0.00000E+00
    0.10987E+07        -0.97773E+08         0.00000E+00
    0.00000E+00         0.00000E+00        -0.38194E+08
 
   -0.38186E+08         0.10607E+07         0.00000E+00
    0.10607E+07        -0.97797E+08         0.00000E+00
    0.00000E+00         0.00000E+00        -0.37992E+08
 
   -0.38009E+08         0.10180E+07         0.00000E+00
    0.10180E+07        -0.97822E+08         0.00000E+00
    0.00000E+00         0.00000E+00        -0.37789E+08
 
   -0.37834E+08         0.97027E+06         0.00000E+00
    0.97027E+06        -0.97848E+08         0.00000E+00
    0.00000E+00         0.00000E+00        -0.37585E+08
 
   -0.37659E+08         0.91747E+06         0.00000E+00
    0.91747E+06        -0.97875E+08         0.00000E+00
    0.00000E+00         0.00000E+00        -0.37381E+08
 
   -0.37486E+08         0.85948E+06         0.00000E+00
    0.85948E+06        -0.97902E+08         0.00000E+00
    0.00000E+00         0.00000E+00        -0.37176E+08
 
   -0.37314E+08         0.79633E+06         0.00000E+00
    0.79633E+06        -0.97927E+08         0.00000E+00
    0.00000E+00         0.00000E+00        -0.36970E+08
 
   -0.37144E+08         0.72813E+06         0.00000E+00
    0.72813E+06        -0.97948E+08         0.00000E+00
    0.00000E+00         0.00000E+00        -0.36764E+08
 
   -0.36978E+08         0.65511E+06         0.00000E+00
    0.65511E+06        -0.97963E+08         0.00000E+00
    0.00000E+00         0.00000E+00        -0.36557E+08
 
   -0.36815E+08         0.57758E+06         0.00000E+00
    0.57758E+06        -0.97969E+08         0.00000E+00
    0.00000E+00         0.00000E+00        -0.36350E+08
 
   -0.36659E+08         0.49591E+06         0.00000E+00
    0.49591E+06        -0.97960E+08         0.00000E+00
    0.00000E+00         0.00000E+00        -0.36143E+08
 
   -0.36513E+08         0.41046E+06         0.00000E+00
    0.41046E+06        -0.97933E+08         0.00000E+00
    0.00000E+00         0.00000E+00        -0.35935E+08
 
   -0.36382E+08         0.32160E+06         0.00000E+00
    0.32160E+06        -0.97878E+08         0.00000E+00
    0.00000E+00         0.00000E+00        -0.35728E+08
 
   -0.36273E+08         0.23008E+06         0.00000E+00
    0.23008E+06        -0.97791E+08         0.00000E+00
    0.00000E+00         0.00000E+00        -0.35520E+08
 
   -0.36195E+08         0.13750E+06         0.00000E+00
    0.13750E+06        -0.97665E+08         0.00000E+00
    0.00000E+00         0.00000E+00        -0.35312E+08
 
   -0.36153E+08         0.45606E+05         0.00000E+00
    0.45606E+05        -0.97498E+08         0.00000E+00
    0.00000E+00         0.00000E+00        -0.35104E+08
 
   -0.49408E+08         0.21866E+05         0.00000E+00
    0.21866E+05        -0.97633E+08         0.00000E+00
    0.00000E+00         0.00000E+00        -0.49952E+08
 
   -0.49390E+08         0.66048E+05         0.00000E+00
    0.66048E+05        -0.97556E+08         0.00000E+00
    0.00000E+00         0.00000E+00        -0.49856E+08
 
   -0.49354E+08         0.11104E+06         0.00000E+00
    0.11104E+06        -0.97497E+08         0.00000E+00
    0.00000E+00         0.00000E+00        -0.49759E+08
 
   -0.49305E+08         0.15633E+06         0.00000E+00
    0.15633E+06        -0.97456E+08         0.00000E+00
    0.00000E+00         0.00000E+00        -0.49663E+08
 
   -0.49245E+08         0.20122E+06         0.00000E+00
    0.20122E+06        -0.97431E+08         0.00000E+00
    0.00000E+00         0.00000E+00        -0.49567E+08
 
   -0.49177E+08         0.24523E+06         0.00000E+00
    0.24523E+06        -0.97418E+08         0.00000E+00
    0.00000E+00         0.00000E+00        -0.49470E+08
 
   -0.49105E+08         0.28805E+06         0.00000E+00
    0.28805E+06        -0.97413E+08         0.00000E+00
    0.00000E+00         0.00000E+00        -0.49373E+08
 
   -0.49028E+08         0.32941E+06         0.00000E+00
    0.32941E+06        -0.97415E+08         0.00000E+00
    0.00000E+00         0.00000E+00        -0.49277E+08
 
   -0.48949E+08         0.36906E+06         0.00000E+00
    0.36906E+06        -0.97421E+08         0.00000E+00
    0.00000E+00         0.00000E+00        -0.49179E+08
 
   -0.48868E+08         0.40683E+06         0.00000E+00
    0.40683E+06        -0.97430E+08         0.00000E+00
    0.00000E+00         0.00000E+00        -0.49082E+08
 
   -0.48785E+08         0.44260E+06         0.00000E+00
    0.44260E+06        -0.97440E+08         0.00000E+00
    0.00000E+00         0.00000E+00        -0.48984E+08
 
   -0.48700E+08         0.47629E+06         0.00000E+00
    0.47629E+06        -0.97451E+08         0.00000E+00
    0.00000E+00         0.00000E+00        -0.48886E+08
 
   -0.48613E+08         0.50792E+06         0.00000E+00
    0.50792E+06        -0.97462E+08         0.00000E+00
    0.00000E+00         0.00000E+00        -0.48787E+08
 
   -0.48526E+08         0.53752E+06         0.00000E+00
    0.53752E+06        -0.97473E+08         0.00000E+00
    0.00000E+00         0.00000E+00        -0.48688E+08
 
   -0.48436E+08         0.56518E+06         0.00000E+00
    0.56518E+06        -0.97483E+08         0.00000E+00
    0.00000E+00         0.00000E+00        -0.48588E+08
 
   -0.48345E+08         0.59101E+06         0.00000E+00
    0.59101E+06        -0.97492E+08         0.00000E+00
    0.00000E+00         0.00000E+00        -0.48487E+08
 
   -0.48252E+08         0.61512E+06         0.00000E+00
    0.61512E+06        -0.97501E+08         0.00000E+00
    0.00000E+00         0.00000E+00        -0.48386E+08
 
   -0.48158E+08         0.63766E+06         0.00000E+00
    0.63766E+06        -0.97509E+08         0.00000E+00
    0.00000E+00         0.00000E+00        -0.48284E+08
 
   -0.48062E+08         0.65875E+06         0.00000E+00
    0.65875E+06        -0.97516E+08         0.00000E+00
    0.00000E+00         0.00000E+00        -0.48181E+08
 
   -0.47965E+08         0.67855E+06         0.00000E+00
    0.67855E+06        -0.97522E+08         0.00000E+00
    0.00000E+00         0.00000E+00        -0.48078E+08
 
   -0.47866E+08         0.69718E+06         0.00000E+00
    0.69718E+06        -0.97527E+08         0.00000E+00
    0.00000E+00         0.00000E+00        -0.47973E+08
 
   -0.47765E+08         0.71477E+06         0.00000E+00
    0.71477E+06        -0.97532E+08         0.00000E+00
    0.00000E+00         0.00000E+00        -0.47868E+08
 
   -0.47663E+08         0.73145E+06         0.00000E+00
    0.73145E+06        -0.97536E+08         0.00000E+00
    0.00000E+00         0.00000E+00        -0.47762E+08
 
   -0.47559E+08         0.74732E+06         0.00000E+00
    0.74732E+06        -0.97539E+08         0.00000E+00
    0.00000E+00         0.00000E+00        -0.47654E+08
 
   -0.47453E+08         0.76250E+06         0.00000E+00
    0.76250E+06        -0.97543E+08         0.00000E+00
    0.00000E+00         0.00000E+00        -0.47546E+08
 
   -0.47346E+08         0.77707E+06         0.00000E+00
    0.77707E+06        -0.97545E+08         0.00000E+00
    0.00000E+00         0.00000E+00        -0.47436E+08
 
   -0.47238E+08         0.79113E+06         0.00000E+00
    0.79113E+06        -0.97547E+08         0.00000E+00
    0.00000E+00         0.00000E+00        -0.47325E+08
 
   -0.47128E+08         0.80475E+06         0.00000E+00
    0.80475E+06        -0.97549E+08         0.00000E+00
    0.00000E+00         0.00000E+00        -0.47214E+08
 
   -0.47016E+08         0.81800E+06         0.00000E+00
    0.81800E+06        -0.97551E+08         0.00000E+00
    0.00000E+00         0.00000E+00        -0.47100E+08
 
   -0.46903E+08         0.83094E+06         0.00000E+00
    0.83094E+06        -0.97552E+08         0.00000E+00
    0.00000E+00         0.00000E+00        -0.46986E+08
 
   -0.46788E+08         0.84362E+06         0.00000E+00
    0.84362E+06        -0.97553E+08         0.00000E+00
    0.00000E+00         0.00000E+00        -0.46870E+08
 
   -0.46671E+08         0.85608E+06         0.00000E+00
    0.85608E+06        -0.97554E+08         0.00000E+00
    0.00000E+00         0.00000E+00        -0.46753E+08
 
   -0.46553E+08         0.86838E+06         0.00000E+00
    0.86838E+06        -0.97555E+08         0.00000E+00
    0.00000E+00         0.00000E+00        -0.46635E+08
 
   -0.46434E+08         0.88055E+06         0.00000E+00
    0.88055E+06        -0.97555E+08         0.00000E+00
    0.00000E+00         0.00000E+00        -0.46515E+08
 
   -0.46313E+08         0.89260E+06         0.00000E+00
    0.89260E+06        -0.97556E+08         0.00000E+00
    0.00000E+00         0.00000E+00        -0.46394E+08
 
   -0.46190E+08         0.90458E+06         0.00000E+00
    0.90458E+06        -0.97556E+08         0.00000E+00
    0.00000E+00         0.00000E+00        -0.46271E+08
 
   -0.46066E+08         0.91649E+06         0.00000E+00
    0.91649E+06        -0.97557E+08         0.00000E+00
    0.00000E+00         0.00000E+00        -0.46147E+08
 
   -0.45940E+08         0.92836E+06         0.00000E+00
    0.92836E+06        -0.97557E+08         0.00000E+00
    0.00000E+00         0.00000E+00        -0.46021E+08
 
   -0.45813E+08         0.94020E+06         0.00000E+00
    0.94020E+06        -0.97557E+08         0.00000E+00
    0.00000E+00         0.00000E+00        -0.45894E+08
 
   -0.45684E+08         0.95202E+06         0.00000E+00
    0.95202E+06        -0.97557E+08         0.00000E+00
    0.00000E+00         0.00000E+00        -0.45765E+08
 
   -0.45553E+08         0.96382E+06         0.00000E+00
    0.96382E+06        -0.97557E+08         0.00000E+00
    0.00000E+00         0.00000E+00        -0.45634E+08
 
   -0.45421E+08         0.97560E+06         0.00000E+00
    0.97560E+06        -0.97557E+08         0.00000E+00
    0.00000E+00         0.00000E+00        -0.45502E+08
 
   -0.45287E+08         0.98738E+06         0.00000E+00
    0.98738E+06        -0.97557E+08         0.00000E+00
    0.00000E+00         0.00000E+00        -0.45368E+08
 
   -0.45151E+08         0.99914E+06         0.00000E+00
    0.99914E+06        -0.97558E+08         0.00000E+00
    0.00000E+00         0.00000E+00        -0.45233E+08
 
   -0.45014E+08         0.10109E+07         0.00000E+00
    0.10109E+07        -0.97558E+08         0.00000E+00
    0.00000E+00         0.00000E+00        -0.45096E+08
 
   -0.44875E+08         0.10226E+07         0.00000E+00
    0.10226E+07        -0.97558E+08         0.00000E+00
    0.00000E+00         0.00000E+00        -0.44957E+08
 
   -0.44734E+08         0.10343E+07         0.00000E+00
    0.10343E+07        -0.97558E+08         0.00000E+00
    0.00000E+00         0.00000E+00        -0.44816E+08
 
   -0.44592E+08         0.10460E+07         0.00000E+00
    0.10460E+07        -0.97558E+08         0.00000E+00
    0.00000E+00         0.00000E+00        -0.44674E+08
 
   -0.44447E+08         0.10576E+07         0.00000E+00
    0.10576E+07        -0.97558E+08         0.00000E+00
    0.00000E+00         0.00000E+00        -0.44529E+08
 
   -0.44302E+08         0.10692E+07         0.00000E+00
    0.10692E+07        -0.97559E+08         0.00000E+00
    0.00000E+00         0.00000E+00        -0.44383E+08
 
   -0.44154E+08         0.10806E+07         0.00000E+00
    0.10806E+07        -0.97559E+08         0.00000E+00
    0.00000E+00         0.00000E+00        -0.44236E+08
 
   -0.44005E+08         0.10920E+07         0.00000E+00
    0.10920E+07        -0.97560E+08         0.00000E+00
    0.00000E+00         0.00000E+00        -0.44086E+08
 
   -0.43854E+08         0.11033E+07         0.00000E+00
    0.11033E+07        -0.97560E+08         0.00000E+00
    0.00000E+00         0.00000E+00        -0.43935E+08
 
   -0.43702E+08         0.11144E+07         0.00000E+00
    0.11144E+07        -0.97561E+08         0.00000E+00
    0.00000E+00         0.00000E+00        -0.43781E+08
 
   -0.43548E+08         0.11254E+07         0.00000E+00
    0.11254E+07        -0.97561E+08         0.00000E+00
    0.00000E+00         0.00000E+00        -0.43626E+08
 
   -0.43392E+08         0.11362E+07         0.00000E+00
    0.11362E+07        -0.97562E+08         0.00000E+00
    0.00000E+00         0.00000E+00        -0.43469E+08
 
   -0.43235E+08         0.11467E+07         0.00000E+00
    0.11467E+07        -0.97563E+08         0.00000E+00
    0.00000E+00         0.00000E+00        -0.43311E+08
 
   -0.43076E+08         0.11571E+07         0.00000E+00
    0.11571E+07        -0.97564E+08         0.00000E+00
    0.00000E+00         0.00000E+00        -0.43150E+08
 
   -0.42915E+08         0.11671E+07         0.00000E+00
    0.11671E+07        -0.97565E+08         0.00000E+00
    0.00000E+00         0.00000E+00        -0.42988E+08
 
   -0.42753E+08         0.11768E+07         0.00000E+00
    0.11768E+07        -0.97567E+08         0.00000E+00
    0.00000E+00         0.00000E+00        -0.42824E+08
 
   -0.42589E+08         0.11862E+07         0.00000E+00
    0.11862E+07        -0.97568E+08         0.00000E+00
    0.00000E+00         0.00000E+00        -0.42658E+08
 
   -0.42424E+08         0.11951E+07         0.00000E+00
    0.11951E+07        -0.97570E+08         0.00000E+00
    0.00000E+00         0.00000E+00        -0.42490E+08
 
   -0.42257E+08         0.12036E+07         0.00000E+00
    0.12036E+07        -0.97572E+08         0.00000E+00
    0.00000E+00         0.00000E+00        -0.42321E+08
 
   -0.42089E+08         0.12116E+07         0.00000E+00
    0.12116E+07        -0.97574E+08         0.00000E+00
    0.00000E+00         0.00000E+00        -0.42150E+08
 
   -0.41920E+08         0.12190E+07         0.00000E+00
    0.12190E+07        -0.97576E+08         0.00000E+00
    0.00000E+00         0.00000E+00        -0.41977E+08
 
   -0.41749E+08         0.12257E+07         0.00000E+00
    0.12257E+07        -0.97579E+08         0.00000E+00
    0.00000E+00         0.00000E+00        -0.41802E+08
 
   -0.41577E+08         0.12317E+07         0.00000E+00
    0.12317E+07        -0.97582E+08         0.00000E+00
    0.00000E+00         0.00000E+00        -0.41625E+08
 
   -0.41404E+08         0.12370E+07         0.00000E+00
    0.12370E+07        -0.97586E+08         0.00000E+00
    0.00000E+00         0.00000E+00        -0.41447E+08
 
   -0.41230E+08         0.12413E+07         0.00000E+00
    0.12413E+07        -0.97589E+08         0.00000E+00
    0.00000E+00         0.00000E+00        -0.41267E+08
 
   -0.41054E+08         0.12446E+07         0.00000E+00
    0.12446E+07        -0.97594E+08         0.00000E+00
    0.00000E+00         0.00000E+00        -0.41086E+08
 
   -0.40878E+08         0.12468E+07         0.00000E+00
    0.12468E+07        -0.97598E+08         0.00000E+00
    0.00000E+00         0.00000E+00        -0.40903E+08
 
   -0.40701E+08         0.12477E+07         0.00000E+00
    0.12477E+07        -0.97604E+08         0.00000E+00
    0.00000E+00         0.00000E+00        -0.40719E+08
 
   -0.40523E+08         0.12473E+07         0.00000E+00
    0.12473E+07        -0.97610E+08         0.00000E+00
    0.00000E+00         0.00000E+00        -0.40532E+08
 
   -0.40344E+08         0.12454E+07         0.00000E+00
    0.12454E+07        -0.97616E+08         0.00000E+00
    0.00000E+00         0.00000E+00        -0.40345E+08
 
   -0.40165E+08         0.12417E+07         0.00000E+00
    0.12417E+07        -0.97624E+08         0.00000E+00
    0.00000E+00         0.00000E+00        -0.40156E+08
 
   -0.39986E+08         0.12362E+07         0.00000E+00
    0.12362E+07        -0.97632E+08         0.00000E+00
    0.00000E+00         0.00000E+00        -0.39965E+08
 
   -0.39806E+08         0.12286E+07         0.00000E+00
    0.12286E+07        -0.97641E+08         0.00000E+00
    0.00000E+00         0.00000E+00        -0.39773E+08
 
   -0.39626E+08         0.12186E+07         0.00000E+00
    0.12186E+07        -0.97652E+08         0.00000E+00
    0.00000E+00         0.00000E+00        -0.39580E+08
 
   -0.39447E+08         0.12062E+07         0.00000E+00
    0.12062E+07        -0.97664E+08         0.00000E+00
    0.00000E+00         0.00000E+00        -0.39386E+08
 
   -0.39267E+08         0.11910E+07         0.00000E+00
    0.11910E+07        -0.97677E+08         0.00000E+00
    0.00000E+00         0.00000E+00        -0.39190E+08
 
   -0.39088E+08         0.11727E+07         0.00000E+00
    0.11727E+07        -0.97691E+08         0.00000E+00
    0.00000E+00         0.00000E+00        -0.38993E+08
 
   -0.38909E+08         0.11510E+07         0.00000E+00
    0.11510E+07        -0.97707E+08         0.00000E+00
    0.00000E+00         0.00000E+00        -0.38795E+08
 
   -0.38731E+08         0.11258E+07         0.00000E+00
    0.11258E+07        -0.97725E+08         0.00000E+00
    0.00000E+00         0.00000E+00        -0.38595E+08
 
   -0.38553E+08         0.10967E+07         0.00000E+00
    0.10967E+07        -0.97745E+08         0.00000E+00
    0.00000E+00         0.00000E+00        -0.38395E+08
 
   -0.38377E+08         0.10633E+07         0.00000E+00
    0.10633E+07        -0.97766E+08         0.00000E+00
    0.00000E+00         0.00000E+00        -0.38194E+08
 
   -0.38201E+08         0.10255E+07         0.00000E+00
    0.10255E+07        -0.97789E+08         0.00000E+00
    0.00000E+00         0.00000E+00        -0.37992E+08
 
   -0.38026E+08         0.98294E+06         0.00000E+00
    0.98294E+06        -0.97813E+08         0.00000E+00
    0.00000E+00         0.00000E+00        -0.37789E+08
 
   -0.37853E+08         0.93546E+06         0.00000E+00
    0.93546E+06        -0.97838E+08         0.00000E+00
    0.00000E+00         0.00000E+00        -0.37585E+08
 
   -0.37681E+08         0.88292E+06         0.00000E+00
    0.88292E+06        -0.97864E+08         0.00000E+00
    0.00000E+00         0.00000E+00        -0.37381E+08
 
   -0.37510E+08         0.82524E+06         0.00000E+00
    0.82524E+06        -0.97890E+08         0.00000E+00
    0.00000E+00         0.00000E+00        -0.37176E+08
 
   -0.37342E+08         0.76247E+06         0.00000E+00
    0.76247E+06        -0.97914E+08         0.00000E+00
    0.00000E+00         0.00000E+00        -0.36970E+08
 
   -0.37175E+08         0.69477E+06         0.00000E+00
    0.69477E+06        -0.97934E+08         0.00000E+00
    0.00000E+00         0.00000E+00        -0.36764E+08
 
   -0.37012E+08         0.62247E+06         0.00000E+00
    0.62247E+06        -0.97948E+08         0.00000E+00
    0.00000E+00         0.00000E+00        -0.36557E+08
 
   -0.36853E+08         0.54601E+06         0.00000E+00
    0.54601E+06        -0.97953E+08         0.00000E+00
    0.00000E+00         0.00000E+00        -0.36350E+08
 
   -0.36702E+08         0.46595E+06         0.00000E+00
    0.46595E+06        -0.97944E+08         0.00000E+00
    0.00000E+00         0.00000E+00        -0.36143E+08
 
   -0.36560E+08         0.38295E+06         0.00000E+00
    0.38295E+06        -0.97915E+08         0.00000E+00
    0.00000E+00         0.00000E+00        -0.35935E+08
 
   -0.36433E+08         0.29775E+06         0.00000E+00
    0.29775E+06        -0.97861E+08         0.00000E+00
    0.00000E+00         0.00000E+00        -0.35727E+08
 
   -0.36329E+08         0.21144E+06         0.00000E+00
    0.21144E+06        -0.97773E+08         0.00000E+00
    0.00000E+00         0.00000E+00        -0.35520E+08
 
   -0.36254E+08         0.12563E+06         0.00000E+00
    0.12563E+06        -0.97647E+08         0.00000E+00
    0.00000E+00         0.00000E+00        -0.35312E+08
 
   -0.36215E+08         0.41541E+05         0.00000E+00
    0.41541E+05        -0.97480E+08         0.00000E+00
    0.00000E+00         0.00000E+00        -0.35104E+08
 
   -0.49378E+08         0.20043E+05         0.00000E+00
    0.20043E+05        -0.97641E+08         0.00000E+00
    0.00000E+00         0.00000E+00        -0.49952E+08
 
   -0.49361E+08         0.60709E+05         0.00000E+00
    0.60709E+05        -0.97564E+08         0.00000E+00
    0.00000E+00         0.00000E+00        -0.49856E+08
 
   -0.49327E+08         0.10261E+06         0.00000E+00
    0.10261E+06        -0.97506E+08         0.00000E+00
    0.00000E+00         0.00000E+00        -0.49759E+08
 
   -0.49279E+08         0.14544E+06         0.00000E+00
    0.14544E+06        -0.97465E+08         0.00000E+00
    0.00000E+00         0.00000E+00        -0.49663E+08
 
   -0.49221E+08         0.18855E+06         0.00000E+00
    0.18855E+06        -0.97440E+08         0.00000E+00
    0.00000E+00         0.00000E+00        -0.49567E+08
 
   -0.49155E+08         0.23131E+06         0.00000E+00
    0.23131E+06        -0.97426E+08         0.00000E+00
    0.00000E+00         0.00000E+00        -0.49470E+08
 
   -0.49084E+08         0.27325E+06         0.00000E+00
    0.27325E+06        -0.97421E+08         0.00000E+00
    0.00000E+00         0.00000E+00        -0.49373E+08
 
   -0.49010E+08         0.31397E+06         0.00000E+00
    0.31397E+06        -0.97423E+08         0.00000E+00
    0.00000E+00         0.00000E+00        -0.49277E+08
 
   -0.48932E+08         0.35314E+06         0.00000E+00
    0.35314E+06        -0.97429E+08         0.00000E+00
    0.00000E+00         0.00000E+00        -0.49179E+08
 
   -0.48852E+08         0.39051E+06         0.00000E+00
    0.39051E+06        -0.97437E+08         0.00000E+00
    0.00000E+00         0.00000E+00        -0.49082E+08
 
   -0.48770E+08         0.42592E+06         0.00000E+00
    0.42592E+06        -0.97447E+08         0.00000E+00
    0.00000E+00         0.00000E+00        -0.48984E+08
 
   -0.48687E+08         0.45928E+06         0.00000E+00
    0.45928E+06        -0.97457E+08         0.00000E+00
    0.00000E+00         0.00000E+00        -0.48886E+08
 
   -0.48601E+08         0.49059E+06         0.00000E+00
    0.49059E+06        -0.97468E+08         0.00000E+00
    0.00000E+00         0.00000E+00        -0.48787E+08
 
   -0.48514E+08         0.51987E+06         0.00000E+00
    0.51987E+06        -0.97478E+08         0.00000E+00
    0.00000E+00         0.00000E+00        -0.48688E+08
 
   -0.48426E+08         0.54721E+06         0.00000E+00
    0.54721E+06        -0.97488E+08         0.00000E+00
    0.00000E+00         0.00000E+00        -0.48588E+08
 
   -0.48335E+08         0.57271E+06         0.00000E+00
    0.57271E+06        -0.97497E+08         0.00000E+00
    0.00000E+00         0.00000E+00        -0.48487E+08
 
   -0.48243E+08         0.59649E+06         0.00000E+00
    0.59649E+06        -0.97505E+08         0.00000E+00
    0.00000E+00         0.00000E+00        -0.48386E+08
 
   -0.48150E+08         0.61870E+06         0.00000E+00
    0.61870E+06        -0.97513E+08         0.00000E+00
    0.00000E+00         0.00000E+00        -0.48284E+08
 
   -0.48054E+08         0.63947E+06         0.00000E+00
    0.63947E+06        -0.97520E+08         0.00000E+00
    0.00000E+00         0.00000E+00        -0.48181E+08
 
   -0.47957E+08         0.65893E+06         0.00000E+00
    0.65893E+06        -0.97525E+08         0.00000E+00
    0.00000E+00         0.00000E+00        -0.48078E+08
 
   -0.47858E+08         0.67724E+06         0.00000E+00
    0.67724E+06        -0.97531E+08         0.00000E+00
    0.00000E+00         0.00000E+00        -0.47973E+08
 
   -0.47758E+08         0.69450E+06         0.00000E+00
    0.69450E+06        -0.97535E+08         0.00000E+00
    0.00000E+00         0.00000E+00        -0.47868E+08
 
   -0.47656E+08         0.71086E+06         0.00000E+00
    0.71086E+06        -0.97539E+08         0.00000E+00
    0.00000E+00         0.00000E+00        -0.47762E+08
 
   -0.47552E+08         0.72641E+06         0.00000E+00
    0.72641E+06        -0.97543E+08         0.00000E+00
    0.00000E+00         0.00000E+00        -0.47654E+08
 
   -0.47447E+08         0.74127E+06         0.00000E+00
    0.74127E+06        -0.97545E+08         0.00000E+00
    0.00000E+00         0.00000E+00        -0.47546E+08
 
   -0.47340E+08         0.75553E+06         0.00000E+00
    0.75553E+06        -0.97548E+08         0.00000E+00
    0.00000E+00         0.00000E+00        -0.47436E+08
 
   -0.47232E+08         0.76927E+06         0.00000E+00
    0.76927E+06        -0.97550E+08         0.00000E+00
    0.00000E+00         0.00000E+00        -0.47325E+08
 
   -0.47122E+08         0.78258E+06         0.00000E+00
    0.78258E+06        -0.97552E+08         0.00000E+00
    0.00000E+00         0.00000E+00        -0.47214E+08
 
   -0.47010E+08         0.79551E+06         0.00000E+00
    0.79551E+06        -0.97553E+08         0.00000E+00
    0.00000E+00         0.00000E+00        -0.47100E+08
 
   -0.46897E+08         0.80813E+06         0.00000E+00
    0.80813E+06        -0.97555E+08         0.00000E+00
    0.00000E+00         0.00000E+00        -0.46986E+08
 
   -0.46782E+08         0.82050E+06         0.00000E+00
    0.82050E+06        -0.97556E+08         0.00000E+00
    0.00000E+00         0.00000E+00        -0.46870E+08
 
   -0.46666E+08         0.83266E+06         0.00000E+00
    0.83266E+06        -0.97557E+08         0.00000E+00
    0.00000E+00         0.00000E+00        -0.46753E+08
 
   -0.46548E+08         0.84464E+06         0.00000E+00
    0.84464E+06        -0.97557E+08         0.00000E+00
    0.00000E+00         0.00000E+00        -0.46635E+08
 
   -0.46428E+08         0.85649E+06         0.00000E+00
    0.85649E+06        -0.97558E+08         0.00000E+00
    0.00000E+00         0.00000E+00        -0.46515E+08
 
   -0.46307E+08         0.86823E+06         0.00000E+00
    0.86823E+06        -0.97558E+08         0.00000E+00
    0.00000E+00         0.00000E+00        -0.46394E+08
 
   -0.46185E+08         0.87989E+06         0.00000E+00
    0.87989E+06        -0.97559E+08         0.00000E+00
    0.00000E+00         0.00000E+00        -0.46271E+08
 
   -0.46060E+08         0.89148E+06         0.00000E+00
    0.89148E+06        -0.97559E+08         0.00000E+00
    0.00000E+00         0.00000E+00        -0.46147E+08
 
   -0.45935E+08         0.90303E+06         0.00000E+00
    0.90303E+06        -0.97559E+08         0.00000E+00
    0.00000E+00         0.00000E+00        -0.46021E+08
 
   -0.45807E+08         0.91455E+06         0.00000E+00
    0.91455E+06        -0.97559E+08         0.00000E+00
    0.00000E+00         0.00000E+00        -0.45894E+08
 
   -0.45678E+08         0.92604E+06         0.00000E+00
    0.92604E+06        -0.97559E+08         0.00000E+00
    0.00000E+00         0.00000E+00        -0.45765E+08
 
   -0.45547E+08         0.93751E+06         0.00000E+00
    0.93751E+06        -0.97560E+08         0.00000E+00
    0.00000E+00         0.00000E+00        -0.45634E+08
 
   -0.45415E+08         0.94897E+06         0.00000E+00
    0.94897E+06        -0.97560E+08         0.00000E+00
    0.00000E+00         0.00000E+00        -0.45502E+08
 
   -0.45281E+08         0.96041E+06         0.00000E+00
    0.96041E+06        -0.97560E+08         0.00000E+00
    0.00000E+00         0.00000E+00        -0.45368E+08
 
   -0.45145E+08         0.97185E+06         0.00000E+00
    0.97185E+06        -0.97560E+08         0.00000E+00
    0.00000E+00         0.00000E+00        -0.45233E+08
 
   -0.45008E+08         0.98326E+06         0.00000E+00
    0.98326E+06        -0.97560E+08         0.00000E+00
    0.00000E+00         0.00000E+00        -0.45096E+08
 
   -0.44869E+08         0.99466E+06         0.00000E+00
    0.99466E+06        -0.97560E+08         0.00000E+00
    0.00000E+00         0.00000E+00        -0.44957E+08
 
   -0.44728E+08         0.10060E+07         0.00000E+00
    0.10060E+07        -0.97560E+08         0.00000E+00
    0.00000E+00         0.00000E+00        -0.44816E+08
 
   -0.44586E+08         0.10174E+07         0.00000E+00
    0.10174E+07        -0.97560E+08         0.00000E+00
    0.00000E+00         0.00000E+00        -0.44674E+08
 
   -0.44442E+08         0.10286E+07         0.00000E+00
    0.10286E+07        -0.97561E+08         0.00000E+00
    0.00000E+00         0.00000E+00        -0.44529E+08
 
   -0.44296E+08         0.10398E+07         0.00000E+00
    0.10398E+07        -0.97561E+08         0.00000E+00
    0.00000E+00         0.00000E+00        -0.44383E+08
 
   -0.44149E+08         0.10510E+07         0.00000E+00
    0.10510E+07        -0.97561E+08         0.00000E+00
    0.00000E+00         0.00000E+00        -0.44236E+08
 
   -0.44000E+08         0.10620E+07         0.00000E+00
    0.10620E+07        -0.97562E+08         0.00000E+00
    0.00000E+00         0.00000E+00        -0.44086E+08
 
   -0.43849E+08         0.10730E+07         0.00000E+00
    0.10730E+07        -0.97562E+08         0.00000E+00
    0.00000E+00         0.00000E+00        -0.43935E+08
 
   -0.43697E+08         0.10838E+07         0.00000E+00
    0.10838E+07        -0.97563E+08         0.00000E+00
    0.00000E+00         0.00000E+00        -0.43781E+08
 
   -0.43543E+08         0.10944E+07         0.00000E+00
    0.10944E+07        -0.97564E+08         0.00000E+00
    0.00000E+00         0.00000E+00        -0.43626E+08
 
   -0.43387E+08         0.11049E+07         0.00000E+00
    0.11049E+07        -0.97564E+08         0.00000E+00
    0.00000E+00         0.00000E+00        -0.43469E+08
 
   -0.43230E+08         0.11151E+07         0.00000E+00
    0.11151E+07        -0.97565E+08         0.00000E+00
    0.00000E+00         0.00000E+00        -0.43311E+08
 
   -0.43071E+08         0.11251E+07         0.00000E+00
    0.11251E+07        -0.97566E+08         0.00000E+00
    0.00000E+00         0.00000E+00        -0.43150E+08
 
   -0.42910E+08         0.11348E+07         0.00000E+00
    0.11348E+07        -0.97567E+08         0.00000E+00
    0.00000E+00         0.00000E+00        -0.42988E+08
 
   -0.42748E+08         0.11443E+07         0.00000E+00
    0.11443E+07        -0.97569E+08         0.00000E+00
    0.00000E+00         0.00000E+00        -0.42824E+08
 
   -0.42585E+08         0.11533E+07         0.00000E+00
    0.11533E+07        -0.97570E+08         0.00000E+00
    0.00000E+00         0.00000E+00        -0.42658E+08
 
   -0.42419E+08         0.11620E+07         0.00000E+00
    0.11620E+07        -0.97572E+08         0.00000E+00
    0.00000E+00         0.00000E+00        -0.42490E+08
 
   -0.42253E+08         0.11702E+07         0.00000E+00
    0.11702E+07        -0.97573E+08         0.00000E+00
    0.00000E+00         0.00000E+00        -0.42321E+08
 
   -0.42085E+08         0.11779E+07         0.00000E+00
    0.11779E+07        -0.97576E+08         0.00000E+00
    0.00000E+00         0.00000E+00        -0.42150E+08
 
   -0.41916E+08         0.11850E+07         0.00000E+00
    0.11850E+07        -0.97578E+08         0.00000E+00
    0.00000E+00         0.00000E+00        -0.41977E+08
 
   -0.41745E+08         0.11915E+07         0.00000E+00
    0.11915E+07        -0.97580E+08         0.00000E+00
    0.00000E+00         0.00000E+00        -0.41802E+08
 
   -0.41574E+08         0.11973E+07         0.00000E+00
    0.11973E+07        -0.97583E+08         0.00000E+00
    0.00000E+00         0.00000E+00        -0.41625E+08
 
   -0.41401E+08         0.12022E+07         0.00000E+00
    0.12022E+07        -0.97586E+08         0.00000E+00
    0.00000E+00         0.00000E+00        -0.41447E+08
 
   -0.41227E+08         0.12063E+07         0.00000E+00
    0.12063E+07        -0.97590E+08         0.00000E+00
    0.00000E+00         0.00000E+00        -0.41268E+08
 
   -0.41052E+08         0.12095E+07         0.00000E+00
    0.12095E+07        -0.97594E+08         0.00000E+00
    0.00000E+00         0.00000E+00        -0.41086E+08
 
   -0.40876E+08         0.12115E+07         0.00000E+00
    0.12115E+07        -0.97599E+08         0.00000E+00
    0.00000E+00         0.00000E+00        -0.40903E+08
 
   -0.40699E+08         0.12123E+07         0.00000E+00
    0.12123E+07        -0.97604E+08         0.00000E+00
    0.00000E+00         0.00000E+00        -0.40719E+08
 
   -0.40522E+08         0.12117E+07         0.00000E+00
    0.12117E+07        -0.97609E+08         0.00000E+00
    0.00000E+00         0.00000E+00        -0.40532E+08
 
   -0.40344E+08         0.12097E+07         0.00000E+00
    0.12097E+07        -0.97616E+08         0.00000E+00
    0.00000E+00         0.00000E+00        -0.40345E+08
 
   -0.40166E+08         0.12059E+07         0.00000E+00
    0.12059E+07        -0.97623E+08         0.00000E+00
    0.00000E+00         0.00000E+00        -0.40156E+08
 
   -0.39987E+08         0.12003E+07         0.00000E+00
    0.12003E+07        -0.97631E+08         0.00000E+00
    0.00000E+00         0.00000E+00        -0.39965E+08
 
   -0.39808E+08         0.11927E+07         0.00000E+00
    0.11927E+07        -0.97640E+08         0.00000E+00
    0.00000E+00         0.00000E+00        -0.39773E+08
 
   -0.39629E+08         0.11828E+07         0.00000E+00
    0.11828E+07        -0.97650E+08         0.00000E+00
    0.00000E+00         0.00000E+00        -0.39580E+08
 
   -0.39450E+08         0.11704E+07         0.00000E+00
    0.11704E+07        -0.97661E+08         0.00000E+00
    0.00000E+00         0.00000E+00        -0.39386E+08
 
   -0.39272E+08         0.11552E+07         0.00000E+00
    0.11552E+07        -0.97673E+08         0.00000E+00
    0.00000E+00         0.00000E+00        -0.39190E+08
 
   -0.39094E+08         0.11370E+07         0.00000E+00
    0.11370E+07        -0.97687E+08         0.00000E+00
    0.00000E+00         0.00000E+00        -0.38993E+08
 
   -0.38916E+08         0.11155E+07         0.00000E+00
    0.11155E+07        -0.97703E+08         0.00000E+00
    0.00000E+00         0.00000E+00        -0.38795E+08
 
   -0.38740E+08         0.10904E+07         0.00000E+00
    0.10904E+07        -0.97720E+08         0.00000E+00
    0.00000E+00         0.00000E+00        -0.38595E+08
 
   -0.38564E+08         0.10614E+07         0.00000E+00
    0.10614E+07        -0.97738E+08         0.00000E+00
    0.00000E+00         0.00000E+00        -0.38395E+08
 
   -0.38389E+08         0.10283E+07         0.00000E+00
    0.10283E+07        -0.97759E+08         0.00000E+00
    0.00000E+00         0.00000E+00        -0.38194E+08
 
   -0.38215E+08         0.99066E+06         0.00000E+00
    0.99066E+06        -0.97781E+08         0.00000E+00
    0.00000E+00         0.00000E+00        -0.37992E+08
 
   -0.38043E+08         0.94836E+06         0.00000E+00
    0.94836E+06        -0.97804E+08         0.00000E+00
    0.00000E+00         0.00000E+00        -0.37789E+08
 
   -0.37872E+08         0.90115E+06         0.00000E+00
    0.90115E+06        -0.97828E+08         0.00000E+00
    0.00000E+00         0.00000E+00        -0.37585E+08
 
   -0.37703E+08         0.84891E+06         0.00000E+00
    0.84891E+06        -0.97853E+08         0.00000E+00
    0.00000E+00         0.00000E+00        -0.37381E+08
 
   -0.37535E+08         0.79158E+06         0.00000E+00
    0.79158E+06        -0.97878E+08         0.00000E+00
    0.00000E+00         0.00000E+00        -0.37176E+08
 
   -0.37369E+08         0.72923E+06         0.00000E+00
    0.72923E+06        -0.97901E+08         0.00000E+00
    0.00000E+00         0.00000E+00        -0.36970E+08
 
   -0.37206E+08         0.66210E+06         0.00000E+00
    0.66210E+06        -0.97920E+08         0.00000E+00
    0.00000E+00         0.00000E+00        -0.36764E+08
 
   -0.37046E+08         0.59056E+06         0.00000E+00
    0.59056E+06        -0.97933E+08         0.00000E+00
    0.00000E+00         0.00000E+00        -0.36557E+08
 
   -0.36892E+08         0.51522E+06         0.00000E+00
    0.51522E+06        -0.97937E+08         0.00000E+00
    0.00000E+00         0.00000E+00        -0.36350E+08
 
   -0.36744E+08         0.43683E+06         0.00000E+00
    0.43683E+06        -0.97928E+08         0.00000E+00
    0.00000E+00         0.00000E+00        -0.36143E+08
 
   -0.36606E+08         0.35632E+06         0.00000E+00
    0.35632E+06        -0.97899E+08         0.00000E+00
    0.00000E+00         0.00000E+00        -0.35935E+08
 
   -0.36484E+08         0.27479E+06         0.00000E+00
    0.27479E+06        -0.97844E+08         0.00000E+00
    0.00000E+00         0.00000E+00        -0.35727E+08
 
   -0.36384E+08         0.19360E+06         0.00000E+00
    0.19360E+06        -0.97757E+08         0.00000E+00
    0.00000E+00         0.00000E+00        -0.35520E+08
 
   -0.36312E+08         0.11432E+06         0.00000E+00
    0.11432E+06        -0.97631E+08         0.00000E+00
    0.00000E+00         0.00000E+00        -0.35312E+08
 
   -0.36275E+08         0.37674E+05         0.00000E+00
    0.37674E+05        -0.97464E+08         0.00000E+00
    0.00000E+00         0.00000E+00        -0.35104E+08
 
   -0.49349E+08         0.18296E+05         0.00000E+00
    0.18296E+05        -0.97649E+08         0.00000E+00
    0.00000E+00         0.00000E+00        -0.49952E+08
 
   -0.49332E+08         0.55589E+05         0.00000E+00
    0.55589E+05        -0.97572E+08         0.00000E+00
    0.00000E+00         0.00000E+00        -0.49856E+08
 
   -0.49299E+08         0.94492E+05         0.00000E+00
    0.94492E+05        -0.97514E+08         0.00000E+00
    0.00000E+00         0.00000E+00        -0.49759E+08
 
   -0.49254E+08         0.13493E+06         0.00000E+00
    0.13493E+06        -0.97474E+08         0.00000E+00
    0.00000E+00         0.00000E+00        -0.49663E+08
 
   -0.49197E+08         0.17625E+06         0.00000E+00
    0.17625E+06        -0.97448E+08         0.00000E+00
    0.00000E+00         0.00000E+00        -0.49567E+08
 
   -0.49133E+08         0.21774E+06         0.00000E+00
    0.21774E+06        -0.97435E+08         0.00000E+00
    0.00000E+00         0.00000E+00        -0.49470E+08
 
   -0.49064E+08         0.25878E+06         0.00000E+00
    0.25878E+06        -0.97430E+08         0.00000E+00
    0.00000E+00         0.00000E+00        -0.49373E+08
 
   -0.48991E+08         0.29884E+06         0.00000E+00
    0.29884E+06        -0.97431E+08         0.00000E+00
    0.00000E+00         0.00000E+00        -0.49277E+08
 
   -0.48915E+08         0.33750E+06         0.00000E+00
    0.33750E+06        -0.97436E+08         0.00000E+00
    0.00000E+00         0.00000E+00        -0.49179E+08
 
   -0.48836E+08         0.37445E+06         0.00000E+00
    0.37445E+06        -0.97444E+08         0.00000E+00
    0.00000E+00         0.00000E+00        -0.49082E+08
 
   -0.48756E+08         0.40948E+06         0.00000E+00
    0.40948E+06        -0.97454E+08         0.00000E+00
    0.00000E+00         0.00000E+00        -0.48984E+08
 
   -0.48673E+08         0.44249E+06         0.00000E+00
    0.44249E+06        -0.97464E+08         0.00000E+00
    0.00000E+00         0.00000E+00        -0.48886E+08
 
   -0.48589E+08         0.47345E+06         0.00000E+00
    0.47345E+06        -0.97474E+08         0.00000E+00
    0.00000E+00         0.00000E+00        -0.48787E+08
 
   -0.48503E+08         0.50239E+06         0.00000E+00
    0.50239E+06        -0.97484E+08         0.00000E+00
    0.00000E+00         0.00000E+00        -0.48688E+08
 
   -0.48415E+08         0.52939E+06         0.00000E+00
    0.52939E+06        -0.97493E+08         0.00000E+00
    0.00000E+00         0.00000E+00        -0.48588E+08
 
   -0.48326E+08         0.55454E+06         0.00000E+00
    0.55454E+06        -0.97502E+08         0.00000E+00
    0.00000E+00         0.00000E+00        -0.48487E+08
 
   -0.48234E+08         0.57799E+06         0.00000E+00
    0.57799E+06        -0.97510E+08         0.00000E+00
    0.00000E+00         0.00000E+00        -0.48386E+08
 
   -0.48141E+08         0.59985E+06         0.00000E+00
    0.59985E+06        -0.97517E+08         0.00000E+00
    0.00000E+00         0.00000E+00        -0.48284E+08
 
   -0.48046E+08         0.62027E+06         0.00000E+00
    0.62027E+06        -0.97524E+08         0.00000E+00
    0.00000E+00         0.00000E+00        -0.48181E+08
 
   -0.47950E+08         0.63940E+06         0.00000E+00
    0.63940E+06        -0.97529E+08         0.00000E+00
    0.00000E+00         0.00000E+00        -0.48078E+08
 
   -0.47851E+08         0.65736E+06         0.00000E+00
    0.65736E+06        -0.97534E+08         0.00000E+00
    0.00000E+00         0.00000E+00        -0.47973E+08
 
   -0.47751E+08         0.67430E+06         0.00000E+00
    0.67430E+06        -0.97539E+08         0.00000E+00
    0.00000E+00         0.00000E+00        -0.47868E+08
 
   -0.47650E+08         0.69032E+06         0.00000E+00
    0.69032E+06        -0.97542E+08         0.00000E+00
    0.00000E+00         0.00000E+00        -0.47762E+08
 
   -0.47546E+08         0.70554E+06         0.00000E+00
    0.70554E+06        -0.97546E+08         0.00000E+00
    0.00000E+00         0.00000E+00        -0.47654E+08
 
   -0.47441E+08         0.72008E+06         0.00000E+00
    0.72008E+06        -0.97548E+08         0.00000E+00
    0.00000E+00         0.00000E+00        -0.47546E+08
 
   -0.47334E+08         0.73401E+06         0.00000E+00
    0.73401E+06        -0.97551E+08         0.00000E+00
    0.00000E+00         0.00000E+00        -0.47436E+08
 
   -0.47226E+08         0.74743E+06         0.00000E+00
    0.74743E+06        -0.97553E+08         0.00000E+00
    0.00000E+00         0.00000E+00        -0.47325E+08
 
   -0.47116E+08         0.76042E+06         0.00000E+00
    0.76042E+06        -0.97554E+08         0.00000E+00
    0.00000E+00         0.00000E+00        -0.47214E+08
 
   -0.47005E+08         0.77304E+06         0.00000E+00
    0.77304E+06        -0.97556E+08         0.00000E+00
    0.00000E+00         0.00000E+00        -0.47100E+08
 
   -0.46891E+08         0.78534E+06         0.00000E+00
    0.78534E+06        -0.97557E+08         0.00000E+00
    0.00000E+00         0.00000E+00        -0.46986E+08
 
   -0.46777E+08         0.79739E+06         0.00000E+00
    0.79739E+06        -0.97558E+08         0.00000E+00
    0.00000E+00         0.00000E+00        -0.46870E+08
 
   -0.46660E+08         0.80923E+06         0.00000E+00
    0.80923E+06        -0.97559E+08         0.00000E+00
    0.00000E+00         0.00000E+00        -0.46753E+08
 
   -0.46543E+08         0.82090E+06         0.00000E+00
    0.82090E+06        -0.97560E+08         0.00000E+00
    0.00000E+00         0.00000E+00        -0.46635E+08
 
   -0.46423E+08         0.83243E+06         0.00000E+00
    0.83243E+06        -0.97560E+08         0.00000E+00
    0.00000E+00         0.00000E+00        -0.46515E+08
 
   -0.46302E+08         0.84386E+06         0.00000E+00
    0.84386E+06        -0.97561E+08         0.00000E+00
    0.00000E+00         0.00000E+00        -0.46394E+08
 
   -0.46179E+08         0.85520E+06         0.00000E+00
    0.85520E+06        -0.97561E+08         0.00000E+00
    0.00000E+00         0.00000E+00        -0.46271E+08
 
   -0.46055E+08         0.86647E+06         0.00000E+00
    0.86647E+06        -0.97561E+08         0.00000E+00
    0.00000E+00         0.00000E+00        -0.46147E+08
 
   -0.45929E+08         0.87770E+06         0.00000E+00
    0.87770E+06        -0.97561E+08         0.00000E+00
    0.00000E+00         0.00000E+00        -0.46021E+08
 
   -0.45802E+08         0.88889E+06         0.00000E+00
    0.88889E+06        -0.97562E+08         0.00000E+00
    0.00000E+00         0.00000E+00        -0.45894E+08
 
   -0.45673E+08         0.90005E+06         0.00000E+00
    0.90005E+06        -0.97562E+08         0.00000E+00
    0.00000E+00         0.00000E+00        -0.45765E+08
 
   -0.45542E+08         0.91120E+06         0.00000E+00
    0.91120E+06        -0.97562E+08         0.00000E+00
    0.00000E+00         0.00000E+00        -0.45634E+08
 
   -0.45409E+08         0.92233E+06         0.00000E+00
    0.92233E+06        -0.97562E+08         0.00000E+00
    0.00000E+00         0.00000E+00        -0.45502E+08
 
   -0.45275E+08         0.93344E+06         0.00000E+00
    0.93344E+06        -0.97562E+08         0.00000E+00
    0.00000E+00         0.00000E+00        -0.45368E+08
 
   -0.45140E+08         0.94455E+06         0.00000E+00
    0.94455E+06        -0.97562E+08         0.00000E+00
    0.00000E+00         0.00000E+00        -0.45233E+08
 
   -0.45002E+08         0.95563E+06         0.00000E+00
    0.95563E+06        -0.97562E+08         0.00000E+00
    0.00000E+00         0.00000E+00        -0.45096E+08
 
   -0.44863E+08         0.96669E+06         0.00000E+00
    0.96669E+06        -0.97562E+08         0.00000E+00
    0.00000E+00         0.00000E+00        -0.44957E+08
 
   -0.44723E+08         0.97772E+06         0.00000E+00
    0.97772E+06        -0.97563E+08         0.00000E+00
    0.00000E+00         0.00000E+00        -0.44816E+08
 
   -0.44580E+08         0.98871E+06         0.00000E+00
    0.98871E+06        -0.97563E+08         0.00000E+00
    0.00000E+00         0.00000E+00        -0.44674E+08
 
   -0.44436E+08         0.99966E+06         0.00000E+00
    0.99966E+06        -0.97563E+08         0.00000E+00
    0.00000E+00         0.00000E+00        -0.44529E+08
 
   -0.44291E+08         0.10105E+07         0.00000E+00
    0.10105E+07        -0.97563E+08         0.00000E+00
    0.00000E+00         0.00000E+00        -0.44383E+08
 
   -0.44143E+08         0.10213E+07         0.00000E+00
    0.10213E+07        -0.97564E+08         0.00000E+00
    0.00000E+00         0.00000E+00        -0.44236E+08
 
   -0.43994E+08         0.10321E+07         0.00000E+00
    0.10321E+07        -0.97564E+08         0.00000E+00
    0.00000E+00         0.00000E+00        -0.44086E+08
 
   -0.43844E+08         0.10427E+07         0.00000E+00
    0.10427E+07        -0.97564E+08         0.00000E+00
    0.00000E+00         0.00000E+00        -0.43935E+08
 
   -0.43691E+08         0.10531E+07         0.00000E+00
    0.10531E+07        -0.97565E+08         0.00000E+00
    0.00000E+00         0.00000E+00        -0.43781E+08
 
   -0.43537E+08         0.10634E+07         0.00000E+00
    0.10634E+07        -0.97566E+08         0.00000E+00
    0.00000E+00         0.00000E+00        -0.43626E+08
 
   -0.43382E+08         0.10736E+07         0.00000E+00
    0.10736E+07        -0.97566E+08         0.00000E+00
    0.00000E+00         0.00000E+00        -0.43469E+08
 
   -0.43224E+08         0.10835E+07         0.00000E+00
    0.10835E+07        -0.97567E+08         0.00000E+00
    0.00000E+00         0.00000E+00        -0.43311E+08
 
   -0.43066E+08         0.10932E+07         0.00000E+00
    0.10932E+07        -0.97568E+08         0.00000E+00
    0.00000E+00         0.00000E+00        -0.43150E+08
 
   -0.42905E+08         0.11026E+07         0.00000E+00
    0.11026E+07        -0.97569E+08         0.00000E+00
    0.00000E+00         0.00000E+00        -0.42988E+08
 
   -0.42743E+08         0.11117E+07         0.00000E+00
    0.11117E+07        -0.97570E+08         0.00000E+00
    0.00000E+00         0.00000E+00        -0.42824E+08
 
   -0.42580E+08         0.11205E+07         0.00000E+00
    0.11205E+07        -0.97572E+08         0.00000E+00
    0.00000E+00         0.00000E+00        -0.42658E+08
 
   -0.42415E+08         0.11288E+07         0.00000E+00
    0.11288E+07        -0.97573E+08         0.00000E+00
    0.00000E+00         0.00000E+00        -0.42490E+08
 
   -0.42249E+08         0.11367E+07         0.00000E+00
    0.11367E+07        -0.97575E+08         0.00000E+00
    0.00000E+00         0.00000E+00        -0.42321E+08
 
   -0.42081E+08         0.11442E+07         0.00000E+00
    0.11442E+07        -0.97577E+08         0.00000E+00
    0.00000E+00         0.00000E+00        -0.42150E+08
 
   -0.41912E+08         0.11510E+07         0.00000E+00
    0.11510E+07        -0.97579E+08         0.00000E+00
    0.00000E+00         0.00000E+00        -0.41977E+08
 
   -0.41742E+08         0.11573E+07         0.00000E+00
    0.11573E+07        -0.97582E+08         0.00000E+00
    0.00000E+00         0.00000E+00        -0.41802E+08
 
   -0.41570E+08         0.11628E+07         0.00000E+00
    0.11628E+07        -0.97584E+08         0.00000E+00
    0.00000E+00         0.00000E+00        -0.41625E+08
 
   -0.41398E+08         0.11676E+07         0.00000E+00
    0.11676E+07        -0.97587E+08         0.00000E+00
    0.00000E+00         0.00000E+00        -0.41447E+08
 
   -0.41224E+08         0.11715E+07         0.00000E+00
    0.11715E+07        -0.97591E+08         0.00000E+00
    0.00000E+00         0.00000E+00        -0.41268E+08
 
   -0.41049E+08         0.11744E+07         0.00000E+00
    0.11744E+07        -0.97595E+08         0.00000E+00
    0.00000E+00         0.00000E+00        -0.41086E+08
 
   -0.40874E+08         0.11763E+07         0.00000E+00
    0.11763E+07        -0.97599E+08         0.00000E+00
    0.00000E+00         0.00000E+00        -0.40903E+08
 
   -0.40698E+08         0.11769E+07         0.00000E+00
    0.11769E+07        -0.97604E+08         0.00000E+00
    0.00000E+00         0.00000E+00        -0.40719E+08
 
   -0.40521E+08         0.11763E+07         0.00000E+00
    0.11763E+07        -0.97609E+08         0.00000E+00
    0.00000E+00         0.00000E+00        -0.40532E+08
 
   -0.40344E+08         0.11741E+07         0.00000E+00
    0.11741E+07        -0.97615E+08         0.00000E+00
    0.00000E+00         0.00000E+00        -0.40345E+08
 
   -0.40166E+08         0.11703E+07         0.00000E+00
    0.11703E+07        -0.97622E+08         0.00000E+00
    0.00000E+00         0.00000E+00        -0.40156E+08
 
   -0.39988E+08         0.11647E+07         0.00000E+00
    0.11647E+07        -0.97629E+08         0.00000E+00
    0.00000E+00         0.00000E+00        -0.39965E+08
 
   -0.39810E+08         0.11570E+07         0.00000E+00
    0.11570E+07        -0.97638E+08         0.00000E+00
    0.00000E+00         0.00000E+00        -0.39773E+08
 
   -0.39632E+08         0.11471E+07         0.00000E+00
    0.11471E+07        -0.97647E+08         0.00000E+00
    0.00000E+00         0.00000E+00        -0.39580E+08
 
   -0.39454E+08         0.11347E+07         0.00000E+00
    0.11347E+07        -0.97658E+08         0.00000E+00
    0.00000E+00         0.00000E+00        -0.39386E+08
 
   -0.39277E+08         0.11196E+07         0.00000E+00
    0.11196E+07        -0.97670E+08         0.00000E+00
    0.00000E+00         0.00000E+00        -0.39190E+08
 
   -0.39100E+08         0.11016E+07         0.00000E+00
    0.11016E+07        -0.97683E+08         0.00000E+00
    0.00000E+00         0.00000E+00        -0.38993E+08
 
   -0.38924E+08         0.10802E+07         0.00000E+00
    0.10802E+07        -0.97698E+08         0.00000E+00
    0.00000E+00         0.00000E+00        -0.38795E+08
 
   -0.38749E+08         0.10553E+07         0.00000E+00
    0.10553E+07        -0.97714E+08         0.00000E+00
    0.00000E+00         0.00000E+00        -0.38595E+08
 
   -0.38574E+08         0.10265E+07         0.00000E+00
    0.10265E+07        -0.97732E+08         0.00000E+00
    0.00000E+00         0.00000E+00        -0.38395E+08
 
   -0.38401E+08         0.99360E+06         0.00000E+00
    0.99360E+06        -0.97752E+08         0.00000E+00
    0.00000E+00         0.00000E+00        -0.38194E+08
 
   -0.38230E+08         0.95625E+06         0.00000E+00
    0.95625E+06        -0.97773E+08         0.00000E+00
    0.00000E+00         0.00000E+00        -0.37992E+08
 
   -0.38060E+08         0.91424E+06         0.00000E+00
    0.91424E+06        -0.97795E+08         0.00000E+00
    0.00000E+00         0.00000E+00        -0.37789E+08
 
   -0.37891E+08         0.86735E+06         0.00000E+00
    0.86735E+06        -0.97819E+08         0.00000E+00
    0.00000E+00         0.00000E+00        -0.37585E+08
 
   -0.37724E+08         0.81545E+06         0.00000E+00
    0.81545E+06        -0.97842E+08         0.00000E+00
    0.00000E+00         0.00000E+00        -0.37381E+08
 
   -0.37559E+08         0.75851E+06         0.00000E+00
    0.75851E+06        -0.97866E+08         0.00000E+00
    0.00000E+00         0.00000E+00        -0.37176E+08
 
   -0.37397E+08         0.69664E+06         0.00000E+00
    0.69664E+06        -0.97888E+08         0.00000E+00
    0.00000E+00         0.00000E+00        -0.36970E+08
 
   -0.37237E+08         0.63011E+06         0.00000E+00
    0.63011E+06        -0.97906E+08         0.00000E+00
    0.00000E+00         0.00000E+00        -0.36764E+08
 
   -0.37081E+08         0.55939E+06         0.00000E+00
    0.55939E+06        -0.97919E+08         0.00000E+00
    0.00000E+00         0.00000E+00        -0.36557E+08
 
   -0.36930E+08         0.48521E+06         0.00000E+00
    0.48521E+06        -0.97922E+08         0.00000E+00
    0.00000E+00         0.00000E+00        -0.36350E+08
 
   -0.36786E+08         0.40853E+06         0.00000E+00
    0.40853E+06        -0.97912E+08         0.00000E+00
    0.00000E+00         0.00000E+00        -0.36143E+08
 
   -0.36653E+08         0.33054E+06         0.00000E+00
    0.33054E+06        -0.97883E+08         0.00000E+00
    0.00000E+00         0.00000E+00        -0.35935E+08
 
   -0.36535E+08         0.25265E+06         0.00000E+00
    0.25265E+06        -0.97828E+08         0.00000E+00
    0.00000E+00         0.00000E+00        -0.35727E+08
 
   -0.36438E+08         0.17648E+06         0.00000E+00
    0.17648E+06        -0.97741E+08         0.00000E+00
    0.00000E+00         0.00000E+00        -0.35520E+08
 
   -0.36369E+08         0.10350E+06         0.00000E+00
    0.10350E+06        -0.97616E+08         0.00000E+00
    0.00000E+00         0.00000E+00        -0.35312E+08
 
   -0.36334E+08         0.33978E+05         0.00000E+00
    0.33978E+05        -0.97450E+08         0.00000E+00
    0.00000E+00         0.00000E+00        -0.35104E+08
 
   -0.49320E+08         0.16615E+05         0.00000E+00
    0.16615E+05        -0.97656E+08         0.00000E+00
    0.00000E+00         0.00000E+00        -0.49952E+08
 
   -0.49304E+08         0.50659E+05         0.00000E+00
    0.50659E+05        -0.97579E+08         0.00000E+00
    0.00000E+00         0.00000E+00        -0.49856E+08
 
   -0.49273E+08         0.86666E+05         0.00000E+00
    0.86666E+05        -0.97522E+08         0.00000E+00
    0.00000E+00         0.00000E+00        -0.49759E+08
 
   -0.49228E+08         0.12475E+06         0.00000E+00
    0.12475E+06        -0.97482E+08         0.00000E+00
    0.00000E+00         0.00000E+00        -0.49663E+08
 
   -0.49174E+08         0.16430E+06         0.00000E+00
    0.16430E+06        -0.97456E+08         0.00000E+00
    0.00000E+00         0.00000E+00        -0.49567E+08
 
   -0.49112E+08         0.20453E+06         0.00000E+00
    0.20453E+06        -0.97443E+08         0.00000E+00
    0.00000E+00         0.00000E+00        -0.49470E+08
 
   -0.49044E+08         0.24465E+06         0.00000E+00
    0.24465E+06        -0.97438E+08         0.00000E+00
    0.00000E+00         0.00000E+00        -0.49373E+08
 
   -0.48973E+08         0.28403E+06         0.00000E+00
    0.28403E+06        -0.97439E+08         0.00000E+00
    0.00000E+00         0.00000E+00        -0.49277E+08
 
   -0.48898E+08         0.32216E+06         0.00000E+00
    0.32216E+06        -0.97444E+08         0.00000E+00
    0.00000E+00         0.00000E+00        -0.49179E+08
 
   -0.48821E+08         0.35865E+06         0.00000E+00
    0.35865E+06        -0.97451E+08         0.00000E+00
    0.00000E+00         0.00000E+00        -0.49082E+08
 
   -0.48742E+08         0.39328E+06         0.00000E+00
    0.39328E+06        -0.97460E+08         0.00000E+00
    0.00000E+00         0.00000E+00        -0.48984E+08
 
   -0.48660E+08         0.42592E+06         0.00000E+00
    0.42592E+06        -0.97470E+08         0.00000E+00
    0.00000E+00         0.00000E+00        -0.48886E+08
 
   -0.48577E+08         0.45651E+06         0.00000E+00
    0.45651E+06        -0.97480E+08         0.00000E+00
    0.00000E+00         0.00000E+00        -0.48787E+08
 
   -0.48492E+08         0.48509E+06         0.00000E+00
    0.48509E+06        -0.97489E+08         0.00000E+00
    0.00000E+00         0.00000E+00        -0.48688E+08
 
   -0.48405E+08         0.51172E+06         0.00000E+00
    0.51172E+06        -0.97498E+08         0.00000E+00
    0.00000E+00         0.00000E+00        -0.48588E+08
 
   -0.48316E+08         0.53652E+06         0.00000E+00
    0.53652E+06        -0.97507E+08         0.00000E+00
    0.00000E+00         0.00000E+00        -0.48487E+08
 
   -0.48225E+08         0.55960E+06         0.00000E+00
    0.55960E+06        -0.97514E+08         0.00000E+00
    0.00000E+00         0.00000E+00        -0.48386E+08
 
   -0.48133E+08         0.58111E+06         0.00000E+00
    0.58111E+06        -0.97521E+08         0.00000E+00
    0.00000E+00         0.00000E+00        -0.48284E+08
 
   -0.48039E+08         0.60117E+06         0.00000E+00
    0.60117E+06        -0.97527E+08         0.00000E+00
    0.00000E+00         0.00000E+00        -0.48181E+08
 
   -0.47942E+08         0.61995E+06         0.00000E+00
    0.61995E+06        -0.97533E+08         0.00000E+00
    0.00000E+00         0.00000E+00        -0.48078E+08
 
   -0.47844E+08         0.63756E+06         0.00000E+00
    0.63756E+06        -0.97538E+08         0.00000E+00
    0.00000E+00         0.00000E+00        -0.47973E+08
 
   -0.47745E+08         0.65415E+06         0.00000E+00
    0.65415E+06        -0.97542E+08         0.00000E+00
    0.00000E+00         0.00000E+00        -0.47868E+08
 
   -0.47643E+08         0.66983E+06         0.00000E+00
    0.66983E+06        -0.97545E+08         0.00000E+00
    0.00000E+00         0.00000E+00        -0.47762E+08
 
   -0.47540E+08         0.68472E+06         0.00000E+00
    0.68472E+06        -0.97548E+08         0.00000E+00
    0.00000E+00         0.00000E+00        -0.47654E+08
 
   -0.47435E+08         0.69892E+06         0.00000E+00
    0.69892E+06        -0.97551E+08         0.00000E+00
    0.00000E+00         0.00000E+00        -0.47546E+08
 
   -0.47329E+08         0.71252E+06         0.00000E+00
    0.71252E+06        -0.97553E+08         0.00000E+00
    0.00000E+00         0.00000E+00        -0.47436E+08
 
   -0.47220E+08         0.72562E+06         0.00000E+00
    0.72562E+06        -0.97555E+08         0.00000E+00
    0.00000E+00         0.00000E+00        -0.47326E+08
 
   -0.47111E+08         0.73828E+06         0.00000E+00
    0.73828E+06        -0.97557E+08         0.00000E+00
    0.00000E+00         0.00000E+00        -0.47214E+08
 
   -0.46999E+08         0.75057E+06         0.00000E+00
    0.75057E+06        -0.97558E+08         0.00000E+00
    0.00000E+00         0.00000E+00        -0.47100E+08
 
   -0.46886E+08         0.76256E+06         0.00000E+00
    0.76256E+06        -0.97559E+08         0.00000E+00
    0.00000E+00         0.00000E+00        -0.46986E+08
 
   -0.46771E+08         0.77429E+06         0.00000E+00
    0.77429E+06        -0.97560E+08         0.00000E+00
    0.00000E+00         0.00000E+00        -0.46870E+08
 
   -0.46655E+08         0.78582E+06         0.00000E+00
    0.78582E+06        -0.97561E+08         0.00000E+00
    0.00000E+00         0.00000E+00        -0.46753E+08
 
   -0.46537E+08         0.79717E+06         0.00000E+00
    0.79717E+06        -0.97562E+08         0.00000E+00
    0.00000E+00         0.00000E+00        -0.46635E+08
 
   -0.46418E+08         0.80838E+06         0.00000E+00
    0.80838E+06        -0.97562E+08         0.00000E+00
    0.00000E+00         0.00000E+00        -0.46515E+08
 
   -0.46297E+08         0.81948E+06         0.00000E+00
    0.81948E+06        -0.97563E+08         0.00000E+00
    0.00000E+00         0.00000E+00        -0.46394E+08
 
   -0.46174E+08         0.83050E+06         0.00000E+00
    0.83050E+06        -0.97563E+08         0.00000E+00
    0.00000E+00         0.00000E+00        -0.46271E+08
 
   -0.46050E+08         0.84145E+06         0.00000E+00
    0.84145E+06        -0.97563E+08         0.00000E+00
    0.00000E+00         0.00000E+00        -0.46147E+08
 
   -0.45924E+08         0.85236E+06         0.00000E+00
    0.85236E+06        -0.97564E+08         0.00000E+00
    0.00000E+00         0.00000E+00        -0.46021E+08
 
   -0.45796E+08         0.86323E+06         0.00000E+00
    0.86323E+06        -0.97564E+08         0.00000E+00
    0.00000E+00         0.00000E+00        -0.45894E+08
 
   -0.45667E+08         0.87406E+06         0.00000E+00
    0.87406E+06        -0.97564E+08         0.00000E+00
    0.00000E+00         0.00000E+00        -0.45765E+08
 
   -0.45536E+08         0.88488E+06         0.00000E+00
    0.88488E+06        -0.97564E+08         0.00000E+00
    0.00000E+00         0.00000E+00        -0.45634E+08
 
   -0.45404E+08         0.89569E+06         0.00000E+00
    0.89569E+06        -0.97564E+08         0.00000E+00
    0.00000E+00         0.00000E+00        -0.45502E+08
 
   -0.45270E+08         0.90647E+06         0.00000E+00
    0.90647E+06        -0.97564E+08         0.00000E+00
    0.00000E+00         0.00000E+00        -0.45368E+08
 
   -0.45134E+08         0.91724E+06         0.00000E+00
    0.91724E+06        -0.97564E+08         0.00000E+00
    0.00000E+00         0.00000E+00        -0.45233E+08
 
   -0.44997E+08         0.92799E+06         0.00000E+00
    0.92799E+06        -0.97564E+08         0.00000E+00
    0.00000E+00         0.00000E+00        -0.45096E+08
 
   -0.44858E+08         0.93872E+06         0.00000E+00
    0.93872E+06        -0.97565E+08         0.00000E+00
    0.00000E+00         0.00000E+00        -0.44957E+08
 
   -0.44717E+08         0.94942E+06         0.00000E+00
    0.94942E+06        -0.97565E+08         0.00000E+00
    0.00000E+00         0.00000E+00        -0.44816E+08
 
   -0.44575E+08         0.96008E+06         0.00000E+00
    0.96008E+06        -0.97565E+08         0.00000E+00
    0.00000E+00         0.00000E+00        -0.44674E+08
 
   -0.44431E+08         0.97069E+06         0.00000E+00
    0.97069E+06        -0.97565E+08         0.00000E+00
    0.00000E+00         0.00000E+00        -0.44529E+08
 
   -0.44285E+08         0.98123E+06         0.00000E+00
    0.98123E+06        -0.97565E+08         0.00000E+00
    0.00000E+00         0.00000E+00        -0.44383E+08
 
   -0.44138E+08         0.99171E+06         0.00000E+00
    0.99171E+06        -0.97566E+08         0.00000E+00
    0.00000E+00         0.00000E+00        -0.44236E+08
 
   -0.43989E+08         0.10021E+07         0.00000E+00
    0.10021E+07        -0.97566E+08         0.00000E+00
    0.00000E+00         0.00000E+00        -0.44086E+08
 
   -0.43838E+08         0.10124E+07         0.00000E+00
    0.10124E+07        -0.97567E+08         0.00000E+00
    0.00000E+00         0.00000E+00        -0.43935E+08
 
   -0.43686E+08         0.10225E+07         0.00000E+00
    0.10225E+07        -0.97567E+08         0.00000E+00
    0.00000E+00         0.00000E+00        -0.43781E+08
 
   -0.43532E+08         0.10325E+07         0.00000E+00
    0.10325E+07        -0.97568E+08         0.00000E+00
    0.00000E+00         0.00000E+00        -0.43626E+08
 
   -0.43376E+08         0.10423E+07         0.00000E+00
    0.10423E+07        -0.97568E+08         0.00000E+00
    0.00000E+00         0.00000E+00        -0.43470E+08
 
   -0.43219E+08         0.10519E+07         0.00000E+00
    0.10519E+07        -0.97569E+08         0.00000E+00
    0.00000E+00         0.00000E+00        -0.43311E+08
 
   -0.43061E+08         0.10613E+07         0.00000E+00
    0.10613E+07        -0.97570E+08         0.00000E+00
    0.00000E+00         0.00000E+00        -0.43150E+08
 
   -0.42900E+08         0.10704E+07         0.00000E+00
    0.10704E+07        -0.97571E+08         0.00000E+00
    0.00000E+00         0.00000E+00        -0.42988E+08
 
   -0.42738E+08         0.10792E+07         0.00000E+00
    0.10792E+07        -0.97572E+08         0.00000E+00
    0.00000E+00         0.00000E+00        -0.42824E+08
 
   -0.42575E+08         0.10876E+07         0.00000E+00
    0.10876E+07        -0.97573E+08         0.00000E+00
    0.00000E+00         0.00000E+00        -0.42658E+08
 
   -0.42410E+08         0.10957E+07         0.00000E+00
    0.10957E+07        -0.97575E+08         0.00000E+00
    0.00000E+00         0.00000E+00        -0.42490E+08
 
   -0.42244E+08         0.11034E+07         0.00000E+00
    0.11034E+07        -0.97577E+08         0.00000E+00
    0.00000E+00         0.00000E+00        -0.42321E+08
 
   -0.42077E+08         0.11105E+07         0.00000E+00
    0.11105E+07        -0.97578E+08         0.00000E+00
    0.00000E+00         0.00000E+00        -0.42150E+08
 
   -0.41908E+08         0.11171E+07         0.00000E+00
    0.11171E+07        -0.97580E+08         0.00000E+00
    0.00000E+00         0.00000E+00        -0.41977E+08
 
   -0.41738E+08         0.11231E+07         0.00000E+00
    0.11231E+07        -0.97583E+08         0.00000E+00
    0.00000E+00         0.00000E+00        -0.41802E+08
 
   -0.41567E+08         0.11284E+07         0.00000E+00
    0.11284E+07        -0.97585E+08         0.00000E+00
    0.00000E+00         0.00000E+00        -0.41625E+08
 
   -0.41395E+08         0.11330E+07         0.00000E+00
    0.11330E+07        -0.97588E+08         0.00000E+00
    0.00000E+00         0.00000E+00        -0.41447E+08
 
   -0.41221E+08         0.11367E+07         0.00000E+00
    0.11367E+07        -0.97591E+08         0.00000E+00
    0.00000E+00         0.00000E+00        -0.41268E+08
 
   -0.41047E+08         0.11395E+07         0.00000E+00
    0.11395E+07        -0.97595E+08         0.00000E+00
    0.00000E+00         0.00000E+00        -0.41086E+08
 
   -0.40872E+08         0.11412E+07         0.00000E+00
    0.11412E+07        -0.97599E+08         0.00000E+00
    0.00000E+00         0.00000E+00        -0.40903E+08
 
   -0.40696E+08         0.11417E+07         0.00000E+00
    0.11417E+07        -0.97604E+08         0.00000E+00
    0.00000E+00         0.00000E+00        -0.40719E+08
 
   -0.40520E+08         0.11409E+07         0.00000E+00
    0.11409E+07        -0.97609E+08         0.00000E+00
    0.00000E+00         0.00000E+00        -0.40532E+08
 
   -0.40343E+08         0.11386E+07         0.00000E+00
    0.11386E+07        -0.97615E+08         0.00000E+00
    0.00000E+00         0.00000E+00        -0.40345E+08
 
   -0.40166E+08         0.11348E+07         0.00000E+00
    0.11348E+07        -0.97621E+08         0.00000E+00
    0.00000E+00         0.00000E+00        -0.40156E+08
 
   -0.39989E+08         0.11291E+07         0.00000E+00
    0.11291E+07        -0.97628E+08         0.00000E+00
    0.00000E+00         0.00000E+00        -0.39965E+08
 
   -0.39812E+08         0.11215E+07         0.00000E+00
    0.11215E+07        -0.97636E+08         0.00000E+00
    0.00000E+00         0.00000E+00        -0.39773E+08
 
   -0.39635E+08         0.11116E+07         0.00000E+00
    0.11116E+07        -0.97645E+08         0.00000E+00
    0.00000E+00         0.00000E+00        -0.39580E+08
 
   -0.39458E+08         0.10993E+07         0.00000E+00
    0.10993E+07        -0.97655E+08         0.00000E+00
    0.00000E+00         0.00000E+00        -0.39386E+08
 
   -0.39281E+08         0.10843E+07         0.00000E+00
    0.10843E+07        -0.97667E+08         0.00000E+00
    0.00000E+00         0.00000E+00        -0.39190E+08
 
   -0.39106E+08         0.10664E+07         0.00000E+00
    0.10664E+07        -0.97679E+08         0.00000E+00
    0.00000E+00         0.00000E+00        -0.38993E+08
 
   -0.38931E+08         0.10452E+07         0.00000E+00
    0.10452E+07        -0.97693E+08         0.00000E+00
    0.00000E+00         0.00000E+00        -0.38795E+08
 
   -0.38757E+08         0.10205E+07         0.00000E+00
    0.10205E+07        -0.97709E+08         0.00000E+00
    0.00000E+00         0.00000E+00        -0.38595E+08
 
   -0.38585E+08         0.99196E+06         0.00000E+00
    0.99196E+06        -0.97726E+08         0.00000E+00
    0.00000E+00         0.00000E+00        -0.38395E+08
 
   -0.38414E+08         0.95931E+06         0.00000E+00
    0.95931E+06        -0.97745E+08         0.00000E+00
    0.00000E+00         0.00000E+00        -0.38194E+08
 
   -0.38244E+08         0.92227E+06         0.00000E+00
    0.92227E+06        -0.97765E+08         0.00000E+00
    0.00000E+00         0.00000E+00        -0.37992E+08
 
   -0.38076E+08         0.88058E+06         0.00000E+00
    0.88058E+06        -0.97786E+08         0.00000E+00
    0.00000E+00         0.00000E+00        -0.37789E+08
 
   -0.37910E+08         0.83404E+06         0.00000E+00
    0.83404E+06        -0.97809E+08         0.00000E+00
    0.00000E+00         0.00000E+00        -0.37585E+08
 
   -0.37745E+08         0.78254E+06         0.00000E+00
    0.78254E+06        -0.97832E+08         0.00000E+00
    0.00000E+00         0.00000E+00        -0.37381E+08
 
   -0.37583E+08         0.72605E+06         0.00000E+00
    0.72605E+06        -0.97854E+08         0.00000E+00
    0.00000E+00         0.00000E+00        -0.37176E+08
 
   -0.37424E+08         0.66470E+06         0.00000E+00
    0.66470E+06        -0.97875E+08         0.00000E+00
    0.00000E+00         0.00000E+00        -0.36970E+08
 
   -0.37268E+08         0.59882E+06         0.00000E+00
    0.59882E+06        -0.97893E+08         0.00000E+00
    0.00000E+00         0.00000E+00        -0.36764E+08
 
   -0.37115E+08         0.52897E+06         0.00000E+00
    0.52897E+06        -0.97904E+08         0.00000E+00
    0.00000E+00         0.00000E+00        -0.36557E+08
 
   -0.36968E+08         0.45599E+06         0.00000E+00
    0.45599E+06        -0.97907E+08         0.00000E+00
    0.00000E+00         0.00000E+00        -0.36350E+08
 
   -0.36828E+08         0.38103E+06         0.00000E+00
    0.38103E+06        -0.97897E+08         0.00000E+00
    0.00000E+00         0.00000E+00        -0.36143E+08
 
   -0.36699E+08         0.30557E+06         0.00000E+00
    0.30557E+06        -0.97868E+08         0.00000E+00
    0.00000E+00         0.00000E+00        -0.35935E+08
 
   -0.36585E+08         0.23129E+06         0.00000E+00
    0.23129E+06        -0.97813E+08         0.00000E+00
    0.00000E+00         0.00000E+00        -0.35727E+08
 
   -0.36492E+08         0.16001E+06         0.00000E+00
    0.16001E+06        -0.97727E+08         0.00000E+00
    0.00000E+00         0.00000E+00        -0.35520E+08
 
   -0.36425E+08         0.93103E+05         0.00000E+00
    0.93103E+05        -0.97602E+08         0.00000E+00
    0.00000E+00         0.00000E+00        -0.35312E+08
 
   -0.36391E+08         0.30429E+05         0.00000E+00
    0.30429E+05        -0.97437E+08         0.00000E+00
    0.00000E+00         0.00000E+00        -0.35104E+08
 
   -0.49292E+08         0.14990E+05         0.00000E+00
    0.14990E+05        -0.97662E+08         0.00000E+00
    0.00000E+00         0.00000E+00        -0.49952E+08
 
   -0.49277E+08         0.45896E+05         0.00000E+00
    0.45896E+05        -0.97586E+08         0.00000E+00
    0.00000E+00         0.00000E+00        -0.49855E+08
 
   -0.49246E+08         0.79099E+05         0.00000E+00
    0.79099E+05        -0.97529E+08         0.00000E+00
    0.00000E+00         0.00000E+00        -0.49759E+08
 
   -0.49203E+08         0.11489E+06         0.00000E+00
    0.11489E+06        -0.97489E+08         0.00000E+00
    0.00000E+00         0.00000E+00        -0.49663E+08
 
   -0.49150E+08         0.15270E+06         0.00000E+00
    0.15270E+06        -0.97464E+08         0.00000E+00
    0.00000E+00         0.00000E+00        -0.49567E+08
 
   -0.49090E+08         0.19166E+06         0.00000E+00
    0.19166E+06        -0.97451E+08         0.00000E+00
    0.00000E+00         0.00000E+00        -0.49470E+08
 
   -0.49024E+08         0.23086E+06         0.00000E+00
    0.23086E+06        -0.97446E+08         0.00000E+00
    0.00000E+00         0.00000E+00        -0.49373E+08
 
   -0.48954E+08         0.26955E+06         0.00000E+00
    0.26955E+06        -0.97446E+08         0.00000E+00
    0.00000E+00         0.00000E+00        -0.49277E+08
 
   -0.48881E+08         0.30711E+06         0.00000E+00
    0.30711E+06        -0.97451E+08         0.00000E+00
    0.00000E+00         0.00000E+00        -0.49179E+08
 
   -0.48806E+08         0.34314E+06         0.00000E+00
    0.34314E+06        -0.97458E+08         0.00000E+00
    0.00000E+00         0.00000E+00        -0.49082E+08
 
   -0.48728E+08         0.37734E+06         0.00000E+00
    0.37734E+06        -0.97467E+08         0.00000E+00
    0.00000E+00         0.00000E+00        -0.48984E+08
 
   -0.48647E+08         0.40957E+06         0.00000E+00
    0.40957E+06        -0.97476E+08         0.00000E+00
    0.00000E+00         0.00000E+00        -0.48886E+08
 
   -0.48565E+08         0.43977E+06         0.00000E+00
    0.43977E+06        -0.97486E+08         0.00000E+00
    0.00000E+00         0.00000E+00        -0.48787E+08
 
   -0.48481E+08         0.46796E+06         0.00000E+00
    0.46796E+06        -0.97495E+08         0.00000E+00
    0.00000E+00         0.00000E+00        -0.48688E+08
 
   -0.48395E+08         0.49422E+06         0.00000E+00
    0.49422E+06        -0.97504E+08         0.00000E+00
    0.00000E+00         0.00000E+00        -0.48588E+08
 
   -0.48307E+08         0.51863E+06         0.00000E+00
    0.51863E+06        -0.97512E+08         0.00000E+00
    0.00000E+00         0.00000E+00        -0.48487E+08
 
   -0.48217E+08         0.54134E+06         0.00000E+00
    0.54134E+06        -0.97519E+08         0.00000E+00
    0.00000E+00         0.00000E+00        -0.48386E+08
 
   -0.48125E+08         0.56247E+06         0.00000E+00
    0.56247E+06        -0.97525E+08         0.00000E+00
    0.00000E+00         0.00000E+00        -0.48284E+08
 
   -0.48031E+08         0.58217E+06         0.00000E+00
    0.58217E+06        -0.97531E+08         0.00000E+00
    0.00000E+00         0.00000E+00        -0.48181E+08
 
   -0.47935E+08         0.60057E+06         0.00000E+00
    0.60057E+06        -0.97536E+08         0.00000E+00
    0.00000E+00         0.00000E+00        -0.48078E+08
 
   -0.47838E+08         0.61783E+06         0.00000E+00
    0.61783E+06        -0.97541E+08         0.00000E+00
    0.00000E+00         0.00000E+00        -0.47973E+08
 
   -0.47738E+08         0.63406E+06         0.00000E+00
    0.63406E+06        -0.97545E+08         0.00000E+00
    0.00000E+00         0.00000E+00        -0.47868E+08
 
   -0.47637E+08         0.64939E+06         0.00000E+00
    0.64939E+06        -0.97548E+08         0.00000E+00
    0.00000E+00         0.00000E+00        -0.47762E+08
 
   -0.47534E+08         0.66393E+06         0.00000E+00
    0.66393E+06        -0.97551E+08         0.00000E+00
    0.00000E+00         0.00000E+00        -0.47654E+08
 
   -0.47429E+08         0.67779E+06         0.00000E+00
    0.67779E+06        -0.97554E+08         0.00000E+00
    0.00000E+00         0.00000E+00        -0.47546E+08
 
   -0.47323E+08         0.69106E+06         0.00000E+00
    0.69106E+06        -0.97556E+08         0.00000E+00
    0.00000E+00         0.00000E+00        -0.47436E+08
 
   -0.47215E+08         0.70383E+06         0.00000E+00
    0.70383E+06        -0.97558E+08         0.00000E+00
    0.00000E+00         0.00000E+00        -0.47326E+08
 
   -0.47105E+08         0.71616E+06         0.00000E+00
    0.71616E+06        -0.97559E+08         0.00000E+00
    0.00000E+00         0.00000E+00        -0.47214E+08
 
   -0.46994E+08         0.72813E+06         0.00000E+00
    0.72813E+06        -0.97561E+08         0.00000E+00
    0.00000E+00         0.00000E+00        -0.47100E+08
 
   -0.46881E+08         0.73979E+06         0.00000E+00
    0.73979E+06        -0.97562E+08         0.00000E+00
    0.00000E+00         0.00000E+00        -0.46986E+08
 
   -0.46766E+08         0.75120E+06         0.00000E+00
    0.75120E+06        -0.97563E+08         0.00000E+00
    0.00000E+00         0.00000E+00        -0.46870E+08
 
   -0.46650E+08         0.76240E+06         0.00000E+00
    0.76240E+06        -0.97563E+08         0.00000E+00
    0.00000E+00         0.00000E+00        -0.46753E+08
 
   -0.46532E+08         0.77343E+06         0.00000E+00
    0.77343E+06        -0.97564E+08         0.00000E+00
    0.00000E+00         0.00000E+00        -0.46635E+08
 
   -0.46412E+08         0.78433E+06         0.00000E+00
    0.78433E+06        -0.97565E+08         0.00000E+00
    0.00000E+00         0.00000E+00        -0.46515E+08
 
   -0.46291E+08         0.79511E+06         0.00000E+00
    0.79511E+06        -0.97565E+08         0.00000E+00
    0.00000E+00         0.00000E+00        -0.46394E+08
 
   -0.46169E+08         0.80581E+06         0.00000E+00
    0.80581E+06        -0.97565E+08         0.00000E+00
    0.00000E+00         0.00000E+00        -0.46271E+08
 
   -0.46044E+08         0.81644E+06         0.00000E+00
    0.81644E+06        -0.97566E+08         0.00000E+00
    0.00000E+00         0.00000E+00        -0.46147E+08
 
   -0.45919E+08         0.82702E+06         0.00000E+00
    0.82702E+06        -0.97566E+08         0.00000E+00
    0.00000E+00         0.00000E+00        -0.46021E+08
 
   -0.45791E+08         0.83756E+06         0.00000E+00
    0.83756E+06        -0.97566E+08         0.00000E+00
    0.00000E+00         0.00000E+00        -0.45894E+08
 
   -0.45662E+08         0.84807E+06         0.00000E+00
    0.84807E+06        -0.97566E+08         0.00000E+00
    0.00000E+00         0.00000E+00        -0.45765E+08
 
   -0.45531E+08         0.85857E+06         0.00000E+00
    0.85857E+06        -0.97566E+08         0.00000E+00
    0.00000E+00         0.00000E+00        -0.45634E+08
 
   -0.45399E+08         0.86904E+06         0.00000E+00
    0.86904E+06        -0.97566E+08         0.00000E+00
    0.00000E+00         0.00000E+00        -0.45502E+08
 
   -0.45265E+08         0.87950E+06         0.00000E+00
    0.87950E+06        -0.97566E+08         0.00000E+00
    0.00000E+00         0.00000E+00        -0.45368E+08
 
   -0.45129E+08         0.88994E+06         0.00000E+00
    0.88994E+06        -0.97566E+08         0.00000E+00
    0.00000E+00         0.00000E+00        -0.45233E+08
 
   -0.44992E+08         0.90036E+06         0.00000E+00
    0.90036E+06        -0.97567E+08         0.00000E+00
    0.00000E+00         0.00000E+00        -0.45096E+08
 
   -0.44853E+08         0.91075E+06         0.00000E+00
    0.91075E+06        -0.97567E+08         0.00000E+00
    0.00000E+00         0.00000E+00        -0.44957E+08
 
   -0.44712E+08         0.92112E+06         0.00000E+00
    0.92112E+06        -0.97567E+08         0.00000E+00
    0.00000E+00         0.00000E+00        -0.44816E+08
 
   -0.44569E+08         0.93144E+06         0.00000E+00
    0.93144E+06        -0.97567E+08         0.00000E+00
    0.00000E+00         0.00000E+00        -0.44674E+08
 
   -0.44425E+08         0.94172E+06         0.00000E+00
    0.94172E+06        -0.97567E+08         0.00000E+00
    0.00000E+00         0.00000E+00        -0.44529E+08
 
   -0.44280E+08         0.95193E+06         0.00000E+00
    0.95193E+06        -0.97567E+08         0.00000E+00
    0.00000E+00         0.00000E+00        -0.44383E+08
 
   -0.44132E+08         0.96207E+06         0.00000E+00
    0.96207E+06        -0.97568E+08         0.00000E+00
    0.00000E+00         0.00000E+00        -0.44236E+08
 
   -0.43983E+08         0.97212E+06         0.00000E+00
    0.97212E+06        -0.97568E+08         0.00000E+00
    0.00000E+00         0.00000E+00        -0.44086E+08
 
   -0.43833E+08         0.98206E+06         0.00000E+00
    0.98206E+06        -0.97569E+08         0.00000E+00
    0.00000E+00         0.00000E+00        -0.43935E+08
 
   -0.43681E+08         0.99188E+06         0.00000E+00
    0.99188E+06        -0.97569E+08         0.00000E+00
    0.00000E+00         0.00000E+00        -0.43781E+08
 
   -0.43527E+08         0.10015E+07         0.00000E+00
    0.10015E+07        -0.97570E+08         0.00000E+00
    0.00000E+00         0.00000E+00        -0.43626E+08
 
   -0.43371E+08         0.10110E+07         0.00000E+00
    0.10110E+07        -0.97570E+08         0.00000E+00
    0.00000E+00         0.00000E+00        -0.43470E+08
 
   -0.43214E+08         0.10203E+07         0.00000E+00
    0.10203E+07        -0.97571E+08         0.00000E+00
    0.00000E+00         0.00000E+00        -0.43311E+08
 
   -0.43056E+08         0.10294E+07         0.00000E+00
    0.10294E+07        -0.97572E+08         0.00000E+00
    0.00000E+00         0.00000E+00        -0.43150E+08
 
   -0.42895E+08         0.10382E+07         0.00000E+00
    0.10382E+07        -0.97573E+08         0.00000E+00
    0.00000E+00         0.00000E+00        -0.42988E+08
 
   -0.42734E+08         0.10467E+07         0.00000E+00
    0.10467E+07        -0.97574E+08         0.00000E+00
    0.00000E+00         0.00000E+00        -0.42824E+08
 
   -0.42571E+08         0.10549E+07         0.00000E+00
    0.10549E+07        -0.97575E+08         0.00000E+00
    0.00000E+00         0.00000E+00        -0.42658E+08
 
   -0.42406E+08         0.10626E+07         0.00000E+00
    0.10626E+07        -0.97576E+08         0.00000E+00
    0.00000E+00         0.00000E+00        -0.42490E+08
 
   -0.42240E+08         0.10700E+07         0.00000E+00
    0.10700E+07        -0.97578E+08         0.00000E+00
    0.00000E+00         0.00000E+00        -0.42321E+08
 
   -0.42073E+08         0.10769E+07         0.00000E+00
    0.10769E+07        -0.97580E+08         0.00000E+00
    0.00000E+00         0.00000E+00        -0.42150E+08
 
   -0.41904E+08         0.10833E+07         0.00000E+00
    0.10833E+07        -0.97582E+08         0.00000E+00
    0.00000E+00         0.00000E+00        -0.41977E+08
 
   -0.41734E+08         0.10890E+07         0.00000E+00
    0.10890E+07        -0.97584E+08         0.00000E+00
    0.00000E+00         0.00000E+00        -0.41802E+08
 
   -0.41563E+08         0.10941E+07         0.00000E+00
    0.10941E+07        -0.97586E+08         0.00000E+00
    0.00000E+00         0.00000E+00        -0.41625E+08
 
   -0.41392E+08         0.10985E+07         0.00000E+00
    0.10985E+07        -0.97589E+08         0.00000E+00
    0.00000E+00         0.00000E+00        -0.41447E+08
 
   -0.41219E+08         0.11020E+07         0.00000E+00
    0.11020E+07        -0.97592E+08         0.00000E+00
    0.00000E+00         0.00000E+00        -0.41268E+08
 
   -0.41045E+08         0.11046E+07         0.00000E+00
    0.11046E+07        -0.97596E+08         0.00000E+00
    0.00000E+00         0.00000E+00        -0.41086E+08
 
   -0.40870E+08         0.11061E+07         0.00000E+00
    0.11061E+07        -0.97599E+08         0.00000E+00
    0.00000E+00         0.00000E+00        -0.40903E+08
 
   -0.40695E+08         0.11065E+07         0.00000E+00
    0.11065E+07        -0.97604E+08         0.00000E+00
    0.00000E+00         0.00000E+00        -0.40719E+08
 
   -0.40519E+08         0.11056E+07         0.00000E+00
    0.11056E+07        -0.97609E+08         0.00000E+00
    0.00000E+00         0.00000E+00        -0.40532E+08
 
   -0.40343E+08         0.11033E+07         0.00000E+00
    0.11033E+07        -0.97614E+08         0.00000E+00
    0.00000E+00         0.00000E+00        -0.40345E+08
 
   -0.40166E+08         0.10994E+07         0.00000E+00
    0.10994E+07        -0.97620E+08         0.00000E+00
    0.00000E+00         0.00000E+00        -0.40156E+08
 
   -0.39990E+08         0.10937E+07         0.00000E+00
    0.10937E+07        -0.97627E+08         0.00000E+00
    0.00000E+00         0.00000E+00        -0.39965E+08
 
   -0.39813E+08         0.10861E+07         0.00000E+00
    0.10861E+07        -0.97634E+08         0.00000E+00
    0.00000E+00         0.00000E+00        -0.39773E+08
 
   -0.39637E+08         0.10763E+07         0.00000E+00
    0.10763E+07        -0.97643E+08         0.00000E+00
    0.00000E+00         0.00000E+00        -0.39580E+08
 
   -0.39461E+08         0.10641E+07         0.00000E+00
    0.10641E+07        -0.97653E+08         0.00000E+00
    0.00000E+00         0.00000E+00        -0.39386E+08
 
   -0.39286E+08         0.10492E+07         0.00000E+00
    0.10492E+07        -0.97663E+08         0.00000E+00
    0.00000E+00         0.00000E+00        -0.39190E+08
 
   -0.39112E+08         0.10315E+07         0.00000E+00
    0.10315E+07        -0.97676E+08         0.00000E+00
    0.00000E+00         0.00000E+00        -0.38993E+08
 
   -0.38938E+08         0.10105E+07         0.00000E+00
    0.10105E+07        -0.97689E+08         0.00000E+00
    0.00000E+00         0.00000E+00        -0.38795E+08
 
   -0.38766E+08         0.98601E+06         0.00000E+00
    0.98601E+06        -0.97704E+08         0.00000E+00
    0.00000E+00         0.00000E+00        -0.38595E+08
 
   -0.38595E+08         0.95775E+06         0.00000E+00
    0.95775E+06        -0.97720E+08         0.00000E+00
    0.00000E+00         0.00000E+00        -0.38395E+08
 
   -0.38425E+08         0.92541E+06         0.00000E+00
    0.92541E+06        -0.97738E+08         0.00000E+00
    0.00000E+00         0.00000E+00        -0.38194E+08
 
   -0.38258E+08         0.88870E+06         0.00000E+00
    0.88870E+06        -0.97757E+08         0.00000E+00
    0.00000E+00         0.00000E+00        -0.37992E+08
 
   -0.38092E+08         0.84738E+06         0.00000E+00
    0.84738E+06        -0.97778E+08         0.00000E+00
    0.00000E+00         0.00000E+00        -0.37789E+08
 
   -0.37928E+08         0.80124E+06         0.00000E+00
    0.80124E+06        -0.97799E+08         0.00000E+00
    0.00000E+00         0.00000E+00        -0.37585E+08
 
   -0.37767E+08         0.75018E+06         0.00000E+00
    0.75018E+06        -0.97821E+08         0.00000E+00
    0.00000E+00         0.00000E+00        -0.37381E+08
 
   -0.37608E+08         0.69419E+06         0.00000E+00
    0.69419E+06        -0.97842E+08         0.00000E+00
    0.00000E+00         0.00000E+00        -0.37176E+08
 
   -0.37451E+08         0.63341E+06         0.00000E+00
    0.63341E+06        -0.97862E+08         0.00000E+00
    0.00000E+00         0.00000E+00        -0.36970E+08
 
   -0.37298E+08         0.56823E+06         0.00000E+00
    0.56823E+06        -0.97879E+08         0.00000E+00
    0.00000E+00         0.00000E+00        -0.36764E+08
 
   -0.37150E+08         0.49928E+06         0.00000E+00
    0.49928E+06        -0.97890E+08         0.00000E+00
    0.00000E+00         0.00000E+00        -0.36557E+08
 
   -0.37006E+08         0.42754E+06         0.00000E+00
    0.42754E+06        -0.97892E+08         0.00000E+00
    0.00000E+00         0.00000E+00        -0.36350E+08
 
   -0.36870E+08         0.35433E+06         0.00000E+00
    0.35433E+06        -0.97882E+08         0.00000E+00
    0.00000E+00         0.00000E+00        -0.36143E+08
 
   -0.36745E+08         0.28137E+06         0.00000E+00
    0.28137E+06        -0.97853E+08         0.00000E+00
    0.00000E+00         0.00000E+00        -0.35935E+08
 
   -0.36634E+08         0.21064E+06         0.00000E+00
    0.21064E+06        -0.97799E+08         0.00000E+00
    0.00000E+00         0.00000E+00        -0.35727E+08
 
   -0.36544E+08         0.14412E+06         0.00000E+00
    0.14412E+06        -0.97713E+08         0.00000E+00
    0.00000E+00         0.00000E+00        -0.35520E+08
 
   -0.36480E+08         0.83080E+05         0.00000E+00
    0.83080E+05        -0.97590E+08         0.00000E+00
    0.00000E+00         0.00000E+00        -0.35312E+08
 
   -0.36447E+08         0.27007E+05         0.00000E+00
    0.27007E+05        -0.97425E+08         0.00000E+00
    0.00000E+00         0.00000E+00        -0.35104E+08
 
   -0.49265E+08         0.13415E+05         0.00000E+00
    0.13415E+05        -0.97668E+08         0.00000E+00
    0.00000E+00         0.00000E+00        -0.49952E+08
 
   -0.49250E+08         0.41280E+05         0.00000E+00
    0.41280E+05        -0.97592E+08         0.00000E+00
    0.00000E+00         0.00000E+00        -0.49855E+08
 
   -0.49220E+08         0.71767E+05         0.00000E+00
    0.71767E+05        -0.97536E+08         0.00000E+00
    0.00000E+00         0.00000E+00        -0.49759E+08
 
   -0.49178E+08         0.10533E+06         0.00000E+00
    0.10533E+06        -0.97497E+08         0.00000E+00
    0.00000E+00         0.00000E+00        -0.49663E+08
 
   -0.49127E+08         0.14144E+06         0.00000E+00
    0.14144E+06        -0.97472E+08         0.00000E+00
    0.00000E+00         0.00000E+00        -0.49567E+08
 
   -0.49068E+08         0.17913E+06         0.00000E+00
    0.17913E+06        -0.97458E+08         0.00000E+00
    0.00000E+00         0.00000E+00        -0.49470E+08
 
   -0.49004E+08         0.21741E+06         0.00000E+00
    0.21741E+06        -0.97453E+08         0.00000E+00
    0.00000E+00         0.00000E+00        -0.49373E+08
 
   -0.48936E+08         0.25538E+06         0.00000E+00
    0.25538E+06        -0.97454E+08         0.00000E+00
    0.00000E+00         0.00000E+00        -0.49277E+08
 
   -0.48865E+08         0.29237E+06         0.00000E+00
    0.29237E+06        -0.97458E+08         0.00000E+00
    0.00000E+00         0.00000E+00        -0.49179E+08
 
   -0.48790E+08         0.32789E+06         0.00000E+00
    0.32789E+06        -0.97465E+08         0.00000E+00
    0.00000E+00         0.00000E+00        -0.49082E+08
 
   -0.48714E+08         0.36164E+06         0.00000E+00
    0.36164E+06        -0.97474E+08         0.00000E+00
    0.00000E+00         0.00000E+00        -0.48984E+08
 
   -0.48635E+08         0.39344E+06         0.00000E+00
    0.39344E+06        -0.97483E+08         0.00000E+00
    0.00000E+00         0.00000E+00        -0.48886E+08
 
   -0.48554E+08         0.42323E+06         0.00000E+00
    0.42323E+06        -0.97492E+08         0.00000E+00
    0.00000E+00         0.00000E+00        -0.48787E+08
 
   -0.48470E+08         0.45102E+06         0.00000E+00
    0.45102E+06        -0.97500E+08         0.00000E+00
    0.00000E+00         0.00000E+00        -0.48688E+08
 
   -0.48385E+08         0.47687E+06         0.00000E+00
    0.47687E+06        -0.97509E+08         0.00000E+00
    0.00000E+00         0.00000E+00        -0.48588E+08
 
   -0.48298E+08         0.50089E+06         0.00000E+00
    0.50089E+06        -0.97516E+08         0.00000E+00
    0.00000E+00         0.00000E+00        -0.48487E+08
 
   -0.48208E+08         0.52319E+06         0.00000E+00
    0.52319E+06        -0.97523E+08         0.00000E+00
    0.00000E+00         0.00000E+00        -0.48386E+08
 
   -0.48117E+08         0.54393E+06         0.00000E+00
    0.54393E+06        -0.97529E+08         0.00000E+00
    0.00000E+00         0.00000E+00        -0.48284E+08
 
   -0.48023E+08         0.56325E+06         0.00000E+00
    0.56325E+06        -0.97535E+08         0.00000E+00
    0.00000E+00         0.00000E+00        -0.48181E+08
 
   -0.47928E+08         0.58128E+06         0.00000E+00
    0.58128E+06        -0.97540E+08         0.00000E+00
    0.00000E+00         0.00000E+00        -0.48078E+08
 
   -0.47831E+08         0.59816E+06         0.00000E+00
    0.59816E+06        -0.97544E+08         0.00000E+00
    0.00000E+00         0.00000E+00        -0.47973E+08
 
   -0.47732E+08         0.61402E+06         0.00000E+00
    0.61402E+06        -0.97548E+08         0.00000E+00
    0.00000E+00         0.00000E+00        -0.47868E+08
 
   -0.47631E+08         0.62899E+06         0.00000E+00
    0.62899E+06        -0.97551E+08         0.00000E+00
    0.00000E+00         0.00000E+00        -0.47762E+08
 
   -0.47528E+08         0.64319E+06         0.00000E+00
    0.64319E+06        -0.97554E+08         0.00000E+00
    0.00000E+00         0.00000E+00        -0.47654E+08
 
   -0.47424E+08         0.65670E+06         0.00000E+00
    0.65670E+06        -0.97557E+08         0.00000E+00
    0.00000E+00         0.00000E+00        -0.47546E+08
 
   -0.47317E+08         0.66963E+06         0.00000E+00
    0.66963E+06        -0.97559E+08         0.00000E+00
    0.00000E+00         0.00000E+00        -0.47436E+08
 
   -0.47209E+08         0.68205E+06         0.00000E+00
    0.68205E+06        -0.97560E+08         0.00000E+00
    0.00000E+00         0.00000E+00        -0.47326E+08
 
   -0.47100E+08         0.69406E+06         0.00000E+00
    0.69406E+06        -0.97562E+08         0.00000E+00
    0.00000E+00         0.00000E+00        -0.47214E+08
 
   -0.46988E+08         0.70569E+06         0.00000E+00
    0.70569E+06        -0.97563E+08         0.00000E+00
    0.00000E+00         0.00000E+00        -0.47100E+08
 
   -0.46875E+08         0.71703E+06         0.00000E+00
    0.71703E+06        -0.97564E+08         0.00000E+00
    0.00000E+00         0.00000E+00        -0.46986E+08
 
   -0.46761E+08         0.72812E+06         0.00000E+00
    0.72812E+06        -0.97565E+08         0.00000E+00
    0.00000E+00         0.00000E+00        -0.46870E+08
 
   -0.46645E+08         0.73899E+06         0.00000E+00
    0.73899E+06        -0.97566E+08         0.00000E+00
    0.00000E+00         0.00000E+00        -0.46753E+08
 
   -0.46527E+08         0.74970E+06         0.00000E+00
    0.74970E+06        -0.97566E+08         0.00000E+00
    0.00000E+00         0.00000E+00        -0.46635E+08
 
   -0.46407E+08         0.76027E+06         0.00000E+00
    0.76027E+06        -0.97567E+08         0.00000E+00
    0.00000E+00         0.00000E+00        -0.46515E+08
 
   -0.46286E+08         0.77073E+06         0.00000E+00
    0.77073E+06        -0.97567E+08         0.00000E+00
    0.00000E+00         0.00000E+00        -0.46394E+08
 
   -0.46164E+08         0.78111E+06         0.00000E+00
    0.78111E+06        -0.97567E+08         0.00000E+00
    0.00000E+00         0.00000E+00        -0.46271E+08
 
   -0.46039E+08         0.79142E+06         0.00000E+00
    0.79142E+06        -0.97568E+08         0.00000E+00
    0.00000E+00         0.00000E+00        -0.46147E+08
 
   -0.45913E+08         0.80167E+06         0.00000E+00
    0.80167E+06        -0.97568E+08         0.00000E+00
    0.00000E+00         0.00000E+00        -0.46021E+08
 
   -0.45786E+08         0.81189E+06         0.00000E+00
    0.81189E+06        -0.97568E+08         0.00000E+00
    0.00000E+00         0.00000E+00        -0.45894E+08
 
   -0.45657E+08         0.82208E+06         0.00000E+00
    0.82208E+06        -0.97568E+08         0.00000E+00
    0.00000E+00         0.00000E+00        -0.45765E+08
 
   -0.45526E+08         0.83225E+06         0.00000E+00
    0.83225E+06        -0.97568E+08         0.00000E+00
    0.00000E+00         0.00000E+00        -0.45634E+08
 
   -0.45393E+08         0.84239E+06         0.00000E+00
    0.84239E+06        -0.97568E+08         0.00000E+00
    0.00000E+00         0.00000E+00        -0.45502E+08
 
   -0.45259E+08         0.85252E+06         0.00000E+00
    0.85252E+06        -0.97568E+08         0.00000E+00
    0.00000E+00         0.00000E+00        -0.45368E+08
 
   -0.45124E+08         0.86263E+06         0.00000E+00
    0.86263E+06        -0.97568E+08         0.00000E+00
    0.00000E+00         0.00000E+00        -0.45233E+08
 
   -0.44986E+08         0.87272E+06         0.00000E+00
    0.87272E+06        -0.97569E+08         0.00000E+00
    0.00000E+00         0.00000E+00        -0.45096E+08
 
   -0.44847E+08         0.88278E+06         0.00000E+00
    0.88278E+06        -0.97569E+08         0.00000E+00
    0.00000E+00         0.00000E+00        -0.44957E+08
 
   -0.44706E+08         0.89281E+06         0.00000E+00
    0.89281E+06        -0.97569E+08         0.00000E+00
    0.00000E+00         0.00000E+00        -0.44816E+08
 
   -0.44564E+08         0.90281E+06         0.00000E+00
    0.90281E+06        -0.97569E+08         0.00000E+00
    0.00000E+00         0.00000E+00        -0.44674E+08
 
   -0.44420E+08         0.91275E+06         0.00000E+00
    0.91275E+06        -0.97569E+08         0.00000E+00
    0.00000E+00         0.00000E+00        -0.44529E+08
 
   -0.44274E+08         0.92264E+06         0.00000E+00
    0.92264E+06        -0.97569E+08         0.00000E+00
    0.00000E+00         0.00000E+00        -0.44383E+08
 
   -0.44127E+08         0.93244E+06         0.00000E+00
    0.93244E+06        -0.97570E+08         0.00000E+00
    0.00000E+00         0.00000E+00        -0.44236E+08
 
   -0.43978E+08         0.94216E+06         0.00000E+00
    0.94216E+06        -0.97570E+08         0.00000E+00
    0.00000E+00         0.00000E+00        -0.44086E+08
 
   -0.43828E+08         0.95178E+06         0.00000E+00
    0.95178E+06        -0.97570E+08         0.00000E+00
    0.00000E+00         0.00000E+00        -0.43935E+08
 
   -0.43675E+08         0.96127E+06         0.00000E+00
    0.96127E+06        -0.97571E+08         0.00000E+00
    0.00000E+00         0.00000E+00        -0.43781E+08
 
   -0.43522E+08         0.97061E+06         0.00000E+00
    0.97061E+06        -0.97571E+08         0.00000E+00
    0.00000E+00         0.00000E+00        -0.43626E+08
 
   -0.43366E+08         0.97978E+06         0.00000E+00
    0.97978E+06        -0.97572E+08         0.00000E+00
    0.00000E+00         0.00000E+00        -0.43470E+08
 
   -0.43209E+08         0.98876E+06         0.00000E+00
    0.98876E+06        -0.97573E+08         0.00000E+00
    0.00000E+00         0.00000E+00        -0.43311E+08
 
   -0.43051E+08         0.99751E+06         0.00000E+00
    0.99751E+06        -0.97574E+08         0.00000E+00
    0.00000E+00         0.00000E+00        -0.43150E+08
 
   -0.42891E+08         0.10060E+07         0.00000E+00
    0.10060E+07        -0.97574E+08         0.00000E+00
    0.00000E+00         0.00000E+00        -0.42988E+08
 
   -0.42729E+08         0.10142E+07         0.00000E+00
    0.10142E+07        -0.97576E+08         0.00000E+00
    0.00000E+00         0.00000E+00        -0.42824E+08
 
   -0.42566E+08         0.10221E+07         0.00000E+00
    0.10221E+07        -0.97577E+08         0.00000E+00
    0.00000E+00         0.00000E+00        -0.42658E+08
 
   -0.42402E+08         0.10296E+07         0.00000E+00
    0.10296E+07        -0.97578E+08         0.00000E+00
    0.00000E+00         0.00000E+00        -0.42490E+08
 
   -0.42236E+08         0.10367E+07         0.00000E+00
    0.10367E+07        -0.97579E+08         0.00000E+00
    0.00000E+00         0.00000E+00        -0.42321E+08
 
   -0.42069E+08         0.10433E+07         0.00000E+00
    0.10433E+07        -0.97581E+08         0.00000E+00
    0.00000E+00         0.00000E+00        -0.42150E+08
 
   -0.41900E+08         0.10495E+07         0.00000E+00
    0.10495E+07        -0.97583E+08         0.00000E+00
    0.00000E+00         0.00000E+00        -0.41977E+08
 
   -0.41731E+08         0.10550E+07         0.00000E+00
    0.10550E+07        -0.97585E+08         0.00000E+00
    0.00000E+00         0.00000E+00        -0.41802E+08
 
   -0.41560E+08         0.10599E+07         0.00000E+00
    0.10599E+07        -0.97587E+08         0.00000E+00
    0.00000E+00         0.00000E+00        -0.41625E+08
 
   -0.41388E+08         0.10640E+07         0.00000E+00
    0.10640E+07        -0.97590E+08         0.00000E+00
    0.00000E+00         0.00000E+00        -0.41447E+08
 
   -0.41216E+08         0.10673E+07         0.00000E+00
    0.10673E+07        -0.97593E+08         0.00000E+00
    0.00000E+00         0.00000E+00        -0.41268E+08
 
   -0.41042E+08         0.10698E+07         0.00000E+00
    0.10698E+07        -0.97596E+08         0.00000E+00
    0.00000E+00         0.00000E+00        -0.41086E+08
 
   -0.40868E+08         0.10712E+07         0.00000E+00
    0.10712E+07        -0.97600E+08         0.00000E+00
    0.00000E+00         0.00000E+00        -0.40903E+08
 
   -0.40693E+08         0.10715E+07         0.00000E+00
    0.10715E+07        -0.97604E+08         0.00000E+00
    0.00000E+00         0.00000E+00        -0.40719E+08
 
   -0.40518E+08         0.10705E+07         0.00000E+00
    0.10705E+07        -0.97608E+08         0.00000E+00
    0.00000E+00         0.00000E+00        -0.40532E+08
 
   -0.40342E+08         0.10681E+07         0.00000E+00
    0.10681E+07        -0.97613E+08         0.00000E+00
    0.00000E+00         0.00000E+00        -0.40345E+08
 
   -0.40167E+08         0.10642E+07         0.00000E+00
    0.10642E+07        -0.97619E+08         0.00000E+00
    0.00000E+00         0.00000E+00        -0.40156E+08
 
   -0.39991E+08         0.10585E+07         0.00000E+00
    0.10585E+07        -0.97626E+08         0.00000E+00
    0.00000E+00         0.00000E+00        -0.39965E+08
 
   -0.39815E+08         0.10509E+07         0.00000E+00
    0.10509E+07        -0.97633E+08         0.00000E+00
    0.00000E+00         0.00000E+00        -0.39773E+08
 
   -0.39639E+08         0.10412E+07         0.00000E+00
    0.10412E+07        -0.97641E+08         0.00000E+00
    0.00000E+00         0.00000E+00        -0.39580E+08
 
   -0.39465E+08         0.10291E+07         0.00000E+00
    0.10291E+07        -0.97650E+08         0.00000E+00
    0.00000E+00         0.00000E+00        -0.39386E+08
 
   -0.39290E+08         0.10144E+07         0.00000E+00
    0.10144E+07        -0.97660E+08         0.00000E+00
    0.00000E+00         0.00000E+00        -0.39190E+08
 
   -0.39117E+08         0.99679E+06         0.00000E+00
    0.99679E+06        -0.97672E+08         0.00000E+00
    0.00000E+00         0.00000E+00        -0.38993E+08
 
   -0.38945E+08         0.97604E+06         0.00000E+00
    0.97604E+06        -0.97684E+08         0.00000E+00
    0.00000E+00         0.00000E+00        -0.38795E+08
 
   -0.38774E+08         0.95183E+06         0.00000E+00
    0.95183E+06        -0.97698E+08         0.00000E+00
    0.00000E+00         0.00000E+00        -0.38596E+08
 
   -0.38605E+08         0.92388E+06         0.00000E+00
    0.92388E+06        -0.97714E+08         0.00000E+00
    0.00000E+00         0.00000E+00        -0.38395E+08
 
   -0.38437E+08         0.89188E+06         0.00000E+00
    0.89188E+06        -0.97731E+08         0.00000E+00
    0.00000E+00         0.00000E+00        -0.38194E+08
 
   -0.38271E+08         0.85555E+06         0.00000E+00
    0.85555E+06        -0.97749E+08         0.00000E+00
    0.00000E+00         0.00000E+00        -0.37992E+08
 
   -0.38108E+08         0.81464E+06         0.00000E+00
    0.81464E+06        -0.97769E+08         0.00000E+00
    0.00000E+00         0.00000E+00        -0.37789E+08
 
   -0.37946E+08         0.76896E+06         0.00000E+00
    0.76896E+06        -0.97789E+08         0.00000E+00
    0.00000E+00         0.00000E+00        -0.37585E+08
 
   -0.37788E+08         0.71839E+06         0.00000E+00
    0.71839E+06        -0.97810E+08         0.00000E+00
    0.00000E+00         0.00000E+00        -0.37381E+08
 
   -0.37632E+08         0.66294E+06         0.00000E+00
    0.66294E+06        -0.97831E+08         0.00000E+00
    0.00000E+00         0.00000E+00        -0.37176E+08
 
   -0.37478E+08         0.60279E+06         0.00000E+00
    0.60279E+06        -0.97850E+08         0.00000E+00
    0.00000E+00         0.00000E+00        -0.36970E+08
 
   -0.37329E+08         0.53836E+06         0.00000E+00
    0.53836E+06        -0.97866E+08         0.00000E+00
    0.00000E+00         0.00000E+00        -0.36764E+08
 
   -0.37184E+08         0.47035E+06         0.00000E+00
    0.47035E+06        -0.97876E+08         0.00000E+00
    0.00000E+00         0.00000E+00        -0.36557E+08
 
   -0.37044E+08         0.39987E+06         0.00000E+00
    0.39987E+06        -0.97878E+08         0.00000E+00
    0.00000E+00         0.00000E+00        -0.36350E+08
 
   -0.36912E+08         0.32841E+06         0.00000E+00
    0.32841E+06        -0.97867E+08         0.00000E+00
    0.00000E+00         0.00000E+00        -0.36143E+08
 
   -0.36791E+08         0.25793E+06         0.00000E+00
    0.25793E+06        -0.97839E+08         0.00000E+00
    0.00000E+00         0.00000E+00        -0.35935E+08
 
   -0.36684E+08         0.19067E+06         0.00000E+00
    0.19067E+06        -0.97785E+08         0.00000E+00
    0.00000E+00         0.00000E+00        -0.35727E+08
 
   -0.36597E+08         0.12875E+06         0.00000E+00
    0.12875E+06        -0.97701E+08         0.00000E+00
    0.00000E+00         0.00000E+00        -0.35520E+08
 
   -0.36535E+08         0.73387E+05         0.00000E+00
    0.73387E+05        -0.97579E+08         0.00000E+00
    0.00000E+00         0.00000E+00        -0.35312E+08
 
   -0.36503E+08         0.23696E+05         0.00000E+00
    0.23696E+05        -0.97415E+08         0.00000E+00
    0.00000E+00         0.00000E+00        -0.35104E+08
 
   -0.49238E+08         0.11882E+05         0.00000E+00
    0.11882E+05        -0.97673E+08         0.00000E+00
    0.00000E+00         0.00000E+00        -0.49952E+08
 
   -0.49223E+08         0.36793E+05         0.00000E+00
    0.36793E+05        -0.97598E+08         0.00000E+00
    0.00000E+00         0.00000E+00        -0.49855E+08
 
   -0.49194E+08         0.64649E+05         0.00000E+00
    0.64649E+05        -0.97542E+08         0.00000E+00
    0.00000E+00         0.00000E+00        -0.49759E+08
 
   -0.49154E+08         0.96045E+05         0.00000E+00
    0.96045E+05        -0.97503E+08         0.00000E+00
    0.00000E+00         0.00000E+00        -0.49663E+08
 
   -0.49104E+08         0.13049E+06         0.00000E+00
    0.13049E+06        -0.97479E+08         0.00000E+00
    0.00000E+00         0.00000E+00        -0.49566E+08
 
   -0.49047E+08         0.16695E+06         0.00000E+00
    0.16695E+06        -0.97466E+08         0.00000E+00
    0.00000E+00         0.00000E+00        -0.49470E+08
 
   -0.48984E+08         0.20429E+06         0.00000E+00
    0.20429E+06        -0.97461E+08         0.00000E+00
    0.00000E+00         0.00000E+00        -0.49373E+08
 
   -0.48918E+08         0.24154E+06         0.00000E+00
    0.24154E+06        -0.97461E+08         0.00000E+00
    0.00000E+00         0.00000E+00        -0.49276E+08
 
   -0.48848E+08         0.27793E+06         0.00000E+00
    0.27793E+06        -0.97466E+08         0.00000E+00
    0.00000E+00         0.00000E+00        -0.49179E+08
 
   -0.48775E+08         0.31293E+06         0.00000E+00
    0.31293E+06        -0.97472E+08         0.00000E+00
    0.00000E+00         0.00000E+00        -0.49082E+08
 
   -0.48700E+08         0.34620E+06         0.00000E+00
    0.34620E+06        -0.97480E+08         0.00000E+00
    0.00000E+00         0.00000E+00        -0.48984E+08
 
   -0.48622E+08         0.37755E+06         0.00000E+00
    0.37755E+06        -0.97489E+08         0.00000E+00
    0.00000E+00         0.00000E+00        -0.48886E+08
 
   -0.48542E+08         0.40690E+06         0.00000E+00
    0.40690E+06        -0.97497E+08         0.00000E+00
    0.00000E+00         0.00000E+00        -0.48787E+08
 
   -0.48460E+08         0.43425E+06         0.00000E+00
    0.43425E+06        -0.97506E+08         0.00000E+00
    0.00000E+00         0.00000E+00        -0.48688E+08
 
   -0.48375E+08         0.45968E+06         0.00000E+00
    0.45968E+06        -0.97514E+08         0.00000E+00
    0.00000E+00         0.00000E+00        -0.48588E+08
 
   -0.48289E+08         0.48327E+06         0.00000E+00
    0.48327E+06        -0.97521E+08         0.00000E+00
    0.00000E+00         0.00000E+00        -0.48487E+08
 
   -0.48200E+08         0.50517E+06         0.00000E+00
    0.50517E+06        -0.97527E+08         0.00000E+00
    0.00000E+00         0.00000E+00        -0.48386E+08
 
   -0.48109E+08         0.52550E+06         0.00000E+00
    0.52550E+06        -0.97533E+08         0.00000E+00
    0.00000E+00         0.00000E+00        -0.48284E+08
 
   -0.48016E+08         0.54442E+06         0.00000E+00
    0.54442E+06        -0.97539E+08         0.00000E+00
    0.00000E+00         0.00000E+00        -0.48181E+08
 
   -0.47921E+08         0.56205E+06         0.00000E+00
    0.56205E+06        -0.97543E+08         0.00000E+00
    0.00000E+00         0.00000E+00        -0.48078E+08
 
   -0.47824E+08         0.57855E+06         0.00000E+00
    0.57855E+06        -0.97548E+08         0.00000E+00
    0.00000E+00         0.00000E+00        -0.47973E+08
 
   -0.47725E+08         0.59404E+06         0.00000E+00
    0.59404E+06        -0.97551E+08         0.00000E+00
    0.00000E+00         0.00000E+00        -0.47868E+08
 
   -0.47625E+08         0.60865E+06         0.00000E+00
    0.60865E+06        -0.97554E+08         0.00000E+00
    0.00000E+00         0.00000E+00        -0.47762E+08
 
   -0.47522E+08         0.62248E+06         0.00000E+00
    0.62248E+06        -0.97557E+08         0.00000E+00
    0.00000E+00         0.00000E+00        -0.47654E+08
 
   -0.47418E+08         0.63564E+06         0.00000E+00
    0.63564E+06        -0.97559E+08         0.00000E+00
    0.00000E+00         0.00000E+00        -0.47546E+08
 
   -0.47312E+08         0.64822E+06         0.00000E+00
    0.64822E+06        -0.97561E+08         0.00000E+00
    0.00000E+00         0.00000E+00        -0.47436E+08
 
   -0.47204E+08         0.66030E+06         0.00000E+00
    0.66030E+06        -0.97563E+08         0.00000E+00
    0.00000E+00         0.00000E+00        -0.47326E+08
 
   -0.47094E+08         0.67197E+06         0.00000E+00
    0.67197E+06        -0.97564E+08         0.00000E+00
    0.00000E+00         0.00000E+00        -0.47214E+08
 
   -0.46983E+08         0.68327E+06         0.00000E+00
    0.68327E+06        -0.97565E+08         0.00000E+00
    0.00000E+00         0.00000E+00        -0.47101E+08
 
   -0.46870E+08         0.69428E+06         0.00000E+00
    0.69428E+06        -0.97566E+08         0.00000E+00
    0.00000E+00         0.00000E+00        -0.46986E+08
 
   -0.46756E+08         0.70504E+06         0.00000E+00
    0.70504E+06        -0.97567E+08         0.00000E+00
    0.00000E+00         0.00000E+00        -0.46870E+08
 
   -0.46639E+08         0.71559E+06         0.00000E+00
    0.71559E+06        -0.97568E+08         0.00000E+00
    0.00000E+00         0.00000E+00        -0.46753E+08
 
   -0.46522E+08         0.72597E+06         0.00000E+00
    0.72597E+06        -0.97568E+08         0.00000E+00
    0.00000E+00         0.00000E+00        -0.46635E+08
 
   -0.46402E+08         0.73622E+06         0.00000E+00
    0.73622E+06        -0.97569E+08         0.00000E+00
    0.00000E+00         0.00000E+00        -0.46515E+08
 
   -0.46281E+08         0.74636E+06         0.00000E+00
    0.74636E+06        -0.97569E+08         0.00000E+00
    0.00000E+00         0.00000E+00        -0.46394E+08
 
   -0.46158E+08         0.75641E+06         0.00000E+00
    0.75641E+06        -0.97569E+08         0.00000E+00
    0.00000E+00         0.00000E+00        -0.46271E+08
 
   -0.46034E+08         0.76639E+06         0.00000E+00
    0.76639E+06        -0.97570E+08         0.00000E+00
    0.00000E+00         0.00000E+00        -0.46147E+08
 
   -0.45908E+08         0.77633E+06         0.00000E+00
    0.77633E+06        -0.97570E+08         0.00000E+00
    0.00000E+00         0.00000E+00        -0.46021E+08
 
   -0.45781E+08         0.78622E+06         0.00000E+00
    0.78622E+06        -0.97570E+08         0.00000E+00
    0.00000E+00         0.00000E+00        -0.45894E+08
 
   -0.45651E+08         0.79608E+06         0.00000E+00
    0.79608E+06        -0.97570E+08         0.00000E+00
    0.00000E+00         0.00000E+00        -0.45765E+08
 
   -0.45521E+08         0.80592E+06         0.00000E+00
    0.80592E+06        -0.97570E+08         0.00000E+00
    0.00000E+00         0.00000E+00        -0.45634E+08
 
   -0.45388E+08         0.81574E+06         0.00000E+00
    0.81574E+06        -0.97570E+08         0.00000E+00
    0.00000E+00         0.00000E+00        -0.45502E+08
 
   -0.45254E+08         0.82554E+06         0.00000E+00
    0.82554E+06        -0.97570E+08         0.00000E+00
    0.00000E+00         0.00000E+00        -0.45368E+08
 
   -0.45118E+08         0.83532E+06         0.00000E+00
    0.83532E+06        -0.97570E+08         0.00000E+00
    0.00000E+00         0.00000E+00        -0.45233E+08
 
   -0.44981E+08         0.84508E+06         0.00000E+00
    0.84508E+06        -0.97571E+08         0.00000E+00
    0.00000E+00         0.00000E+00        -0.45096E+08
 
   -0.44842E+08         0.85481E+06         0.00000E+00
    0.85481E+06        -0.97571E+08         0.00000E+00
    0.00000E+00         0.00000E+00        -0.44957E+08
 
   -0.44701E+08         0.86451E+06         0.00000E+00
    0.86451E+06        -0.97571E+08         0.00000E+00
    0.00000E+00         0.00000E+00        -0.44816E+08
 
   -0.44559E+08         0.87417E+06         0.00000E+00
    0.87417E+06        -0.97571E+08         0.00000E+00
    0.00000E+00         0.00000E+00        -0.44674E+08
 
   -0.44415E+08         0.88379E+06         0.00000E+00
    0.88379E+06        -0.97571E+08         0.00000E+00
    0.00000E+00         0.00000E+00        -0.44529E+08
 
   -0.44269E+08         0.89334E+06         0.00000E+00
    0.89334E+06        -0.97571E+08         0.00000E+00
    0.00000E+00         0.00000E+00        -0.44383E+08
 
   -0.44122E+08         0.90282E+06         0.00000E+00
    0.90282E+06        -0.97572E+08         0.00000E+00
    0.00000E+00         0.00000E+00        -0.44236E+08
 
   -0.43973E+08         0.91221E+06         0.00000E+00
    0.91221E+06        -0.97572E+08         0.00000E+00
    0.00000E+00         0.00000E+00        -0.44086E+08
 
   -0.43822E+08         0.92150E+06         0.00000E+00
    0.92150E+06        -0.97572E+08         0.00000E+00
    0.00000E+00         0.00000E+00        -0.43935E+08
 
   -0.43670E+08         0.93067E+06         0.00000E+00
    0.93067E+06        -0.97573E+08         0.00000E+00
    0.00000E+00         0.00000E+00        -0.43781E+08
 
   -0.43516E+08         0.93969E+06         0.00000E+00
    0.93969E+06        -0.97573E+08         0.00000E+00
    0.00000E+00         0.00000E+00        -0.43626E+08
 
   -0.43361E+08         0.94855E+06         0.00000E+00
    0.94855E+06        -0.97574E+08         0.00000E+00
    0.00000E+00         0.00000E+00        -0.43470E+08
 
   -0.43204E+08         0.95721E+06         0.00000E+00
    0.95721E+06        -0.97575E+08         0.00000E+00
    0.00000E+00         0.00000E+00        -0.43311E+08
 
   -0.43046E+08         0.96566E+06         0.00000E+00
    0.96566E+06        -0.97575E+08         0.00000E+00
    0.00000E+00         0.00000E+00        -0.43150E+08
 
   -0.42886E+08         0.97385E+06         0.00000E+00
    0.97385E+06        -0.97576E+08         0.00000E+00
    0.00000E+00         0.00000E+00        -0.42988E+08
 
   -0.42724E+08         0.98177E+06         0.00000E+00
    0.98177E+06        -0.97577E+08         0.00000E+00
    0.00000E+00         0.00000E+00        -0.42824E+08
 
   -0.42561E+08         0.98937E+06         0.00000E+00
    0.98937E+06        -0.97578E+08         0.00000E+00
    0.00000E+00         0.00000E+00        -0.42658E+08
 
   -0.42397E+08         0.99660E+06         0.00000E+00
    0.99660E+06        -0.97579E+08         0.00000E+00
    0.00000E+00         0.00000E+00        -0.42490E+08
 
   -0.42232E+08         0.10034E+07         0.00000E+00
    0.10034E+07        -0.97581E+08         0.00000E+00
    0.00000E+00         0.00000E+00        -0.42321E+08
 
   -0.42065E+08         0.10098E+07         0.00000E+00
    0.10098E+07        -0.97582E+08         0.00000E+00
    0.00000E+00         0.00000E+00        -0.42150E+08
 
   -0.41896E+08         0.10157E+07         0.00000E+00
    0.10157E+07        -0.97584E+08         0.00000E+00
    0.00000E+00         0.00000E+00        -0.41977E+08
 
   -0.41727E+08         0.10210E+07         0.00000E+00
    0.10210E+07        -0.97586E+08         0.00000E+00
    0.00000E+00         0.00000E+00        -0.41802E+08
 
   -0.41557E+08         0.10256E+07         0.00000E+00
    0.10256E+07        -0.97588E+08         0.00000E+00
    0.00000E+00         0.00000E+00        -0.41625E+08
 
   -0.41385E+08         0.10296E+07         0.00000E+00
    0.10296E+07        -0.97591E+08         0.00000E+00
    0.00000E+00         0.00000E+00        -0.41447E+08
 
   -0.41213E+08         0.10328E+07         0.00000E+00
    0.10328E+07        -0.97593E+08         0.00000E+00
    0.00000E+00         0.00000E+00        -0.41268E+08
 
   -0.41040E+08         0.10350E+07         0.00000E+00
    0.10350E+07        -0.97596E+08         0.00000E+00
    0.00000E+00         0.00000E+00        -0.41086E+08
 
   -0.40866E+08         0.10363E+07         0.00000E+00
    0.10363E+07        -0.97600E+08         0.00000E+00
    0.00000E+00         0.00000E+00        -0.40903E+08
 
   -0.40692E+08         0.10365E+07         0.00000E+00
    0.10365E+07        -0.97604E+08         0.00000E+00
    0.00000E+00         0.00000E+00        -0.40719E+08
 
   -0.40517E+08         0.10354E+07         0.00000E+00
    0.10354E+07        -0.97608E+08         0.00000E+00
    0.00000E+00         0.00000E+00        -0.40532E+08
 
   -0.40342E+08         0.10330E+07         0.00000E+00
    0.10330E+07        -0.97613E+08         0.00000E+00
    0.00000E+00         0.00000E+00        -0.40345E+08
 
   -0.40167E+08         0.10291E+07         0.00000E+00
    0.10291E+07        -0.97618E+08         0.00000E+00
    0.00000E+00         0.00000E+00        -0.40156E+08
 
   -0.39991E+08         0.10234E+07         0.00000E+00
    0.10234E+07        -0.97624E+08         0.00000E+00
    0.00000E+00         0.00000E+00        -0.39965E+08
 
   -0.39816E+08         0.10159E+07         0.00000E+00
    0.10159E+07        -0.97631E+08         0.00000E+00
    0.00000E+00         0.00000E+00        -0.39773E+08
 
   -0.39642E+08         0.10062E+07         0.00000E+00
    0.10062E+07        -0.97639E+08         0.00000E+00
    0.00000E+00         0.00000E+00        -0.39580E+08
 
   -0.39468E+08         0.99427E+06         0.00000E+00
    0.99427E+06        -0.97647E+08         0.00000E+00
    0.00000E+00         0.00000E+00        -0.39386E+08
 
   -0.39295E+08         0.97973E+06         0.00000E+00
    0.97973E+06        -0.97657E+08         0.00000E+00
    0.00000E+00         0.00000E+00        -0.39190E+08
 
   -0.39122E+08         0.96236E+06         0.00000E+00
    0.96236E+06        -0.97668E+08         0.00000E+00
    0.00000E+00         0.00000E+00        -0.38993E+08
 
   -0.38952E+08         0.94186E+06         0.00000E+00
    0.94186E+06        -0.97680E+08         0.00000E+00
    0.00000E+00         0.00000E+00        -0.38795E+08
 
   -0.38782E+08         0.91796E+06         0.00000E+00
    0.91796E+06        -0.97693E+08         0.00000E+00
    0.00000E+00         0.00000E+00        -0.38596E+08
 
   -0.38614E+08         0.89035E+06         0.00000E+00
    0.89035E+06        -0.97708E+08         0.00000E+00
    0.00000E+00         0.00000E+00        -0.38395E+08
 
   -0.38449E+08         0.85873E+06         0.00000E+00
    0.85873E+06        -0.97724E+08         0.00000E+00
    0.00000E+00         0.00000E+00        -0.38194E+08
 
   -0.38285E+08         0.82282E+06         0.00000E+00
    0.82282E+06        -0.97742E+08         0.00000E+00
    0.00000E+00         0.00000E+00        -0.37992E+08
 
   -0.38123E+08         0.78237E+06         0.00000E+00
    0.78237E+06        -0.97760E+08         0.00000E+00
    0.00000E+00         0.00000E+00        -0.37789E+08
 
   -0.37965E+08         0.73718E+06         0.00000E+00
    0.73718E+06        -0.97780E+08         0.00000E+00
    0.00000E+00         0.00000E+00        -0.37585E+08
 
   -0.37808E+08         0.68715E+06         0.00000E+00
    0.68715E+06        -0.97800E+08         0.00000E+00
    0.00000E+00         0.00000E+00        -0.37381E+08
 
   -0.37655E+08         0.63230E+06         0.00000E+00
    0.63230E+06        -0.97819E+08         0.00000E+00
    0.00000E+00         0.00000E+00        -0.37176E+08
 
   -0.37505E+08         0.57283E+06         0.00000E+00
    0.57283E+06        -0.97837E+08         0.00000E+00
    0.00000E+00         0.00000E+00        -0.36970E+08
 
   -0.37359E+08         0.50920E+06         0.00000E+00
    0.50920E+06        -0.97852E+08         0.00000E+00
    0.00000E+00         0.00000E+00        -0.36764E+08
 
   -0.37218E+08         0.44218E+06         0.00000E+00
    0.44218E+06        -0.97862E+08         0.00000E+00
    0.00000E+00         0.00000E+00        -0.36557E+08
 
   -0.37082E+08         0.37297E+06         0.00000E+00
    0.37297E+06        -0.97864E+08         0.00000E+00
    0.00000E+00         0.00000E+00        -0.36350E+08
 
   -0.36954E+08         0.30327E+06         0.00000E+00
    0.30327E+06        -0.97853E+08         0.00000E+00
    0.00000E+00         0.00000E+00        -0.36143E+08
 
   -0.36836E+08         0.23522E+06         0.00000E+00
    0.23522E+06        -0.97825E+08         0.00000E+00
    0.00000E+00         0.00000E+00        -0.35935E+08
 
   -0.36733E+08         0.17133E+06         0.00000E+00
    0.17133E+06        -0.97773E+08         0.00000E+00
    0.00000E+00         0.00000E+00        -0.35727E+08
 
   -0.36648E+08         0.11387E+06         0.00000E+00
    0.11387E+06        -0.97690E+08         0.00000E+00
    0.00000E+00         0.00000E+00        -0.35520E+08
 
   -0.36588E+08         0.63989E+05         0.00000E+00
    0.63989E+05        -0.97569E+08         0.00000E+00
    0.00000E+00         0.00000E+00        -0.35312E+08
 
   -0.36557E+08         0.20481E+05         0.00000E+00
    0.20481E+05        -0.97406E+08         0.00000E+00
    0.00000E+00         0.00000E+00        -0.35104E+08
 
   -0.49211E+08         0.10386E+05         0.00000E+00
    0.10386E+05        -0.97678E+08         0.00000E+00
    0.00000E+00         0.00000E+00        -0.49952E+08
 
   -0.49197E+08         0.32422E+05         0.00000E+00
    0.32422E+05        -0.97603E+08         0.00000E+00
    0.00000E+00         0.00000E+00        -0.49855E+08
 
   -0.49169E+08         0.57728E+05         0.00000E+00
    0.57728E+05        -0.97548E+08         0.00000E+00
    0.00000E+00         0.00000E+00        -0.49759E+08
 
   -0.49129E+08         0.87029E+05         0.00000E+00
    0.87029E+05        -0.97510E+08         0.00000E+00
    0.00000E+00         0.00000E+00        -0.49663E+08
 
   -0.49081E+08         0.11986E+06         0.00000E+00
    0.11986E+06        -0.97486E+08         0.00000E+00
    0.00000E+00         0.00000E+00        -0.49566E+08
 
   -0.49025E+08         0.15509E+06         0.00000E+00
    0.15509E+06        -0.97473E+08         0.00000E+00
    0.00000E+00         0.00000E+00        -0.49470E+08
 
   -0.48965E+08         0.19151E+06         0.00000E+00
    0.19151E+06        -0.97468E+08         0.00000E+00
    0.00000E+00         0.00000E+00        -0.49373E+08
 
   -0.48900E+08         0.22802E+06         0.00000E+00
    0.22802E+06        -0.97469E+08         0.00000E+00
    0.00000E+00         0.00000E+00        -0.49276E+08
 
   -0.48831E+08         0.26379E+06         0.00000E+00
    0.26379E+06        -0.97473E+08         0.00000E+00
    0.00000E+00         0.00000E+00        -0.49179E+08
 
   -0.48760E+08         0.29825E+06         0.00000E+00
    0.29825E+06        -0.97479E+08         0.00000E+00
    0.00000E+00         0.00000E+00        -0.49082E+08
 
   -0.48686E+08         0.33101E+06         0.00000E+00
    0.33101E+06        -0.97487E+08         0.00000E+00
    0.00000E+00         0.00000E+00        -0.48984E+08
 
   -0.48610E+08         0.36188E+06         0.00000E+00
    0.36188E+06        -0.97495E+08         0.00000E+00
    0.00000E+00         0.00000E+00        -0.48886E+08
 
   -0.48531E+08         0.39076E+06         0.00000E+00
    0.39076E+06        -0.97503E+08         0.00000E+00
    0.00000E+00         0.00000E+00        -0.48787E+08
 
   -0.48449E+08         0.41766E+06         0.00000E+00
    0.41766E+06        -0.97511E+08         0.00000E+00
    0.00000E+00         0.00000E+00        -0.48688E+08
 
   -0.48366E+08         0.44264E+06         0.00000E+00
    0.44264E+06        -0.97518E+08         0.00000E+00
    0.00000E+00         0.00000E+00        -0.48588E+08
 
   -0.48280E+08         0.46580E+06         0.00000E+00
    0.46580E+06        -0.97525E+08         0.00000E+00
    0.00000E+00         0.00000E+00        -0.48487E+08
 
   -0.48192E+08         0.48726E+06         0.00000E+00
    0.48726E+06        -0.97532E+08         0.00000E+00
    0.00000E+00         0.00000E+00        -0.48386E+08
 
   -0.48101E+08         0.50717E+06         0.00000E+00
    0.50717E+06        -0.97537E+08         0.00000E+00
    0.00000E+00         0.00000E+00        -0.48284E+08
 
   -0.48009E+08         0.52567E+06         0.00000E+00
    0.52567E+06        -0.97542E+08         0.00000E+00
    0.00000E+00         0.00000E+00        -0.48181E+08
 
   -0.47914E+08         0.54291E+06         0.00000E+00
    0.54291E+06        -0.97547E+08         0.00000E+00
    0.00000E+00         0.00000E+00        -0.48078E+08
 
   -0.47818E+08         0.55901E+06         0.00000E+00
    0.55901E+06        -0.97551E+08         0.00000E+00
    0.00000E+00         0.00000E+00        -0.47973E+08
 
   -0.47719E+08         0.57411E+06         0.00000E+00
    0.57411E+06        -0.97554E+08         0.00000E+00
    0.00000E+00         0.00000E+00        -0.47868E+08
 
   -0.47619E+08         0.58834E+06         0.00000E+00
    0.58834E+06        -0.97557E+08         0.00000E+00
    0.00000E+00         0.00000E+00        -0.47762E+08
 
   -0.47517E+08         0.60181E+06         0.00000E+00
    0.60181E+06        -0.97560E+08         0.00000E+00
    0.00000E+00         0.00000E+00        -0.47654E+08
 
   -0.47412E+08         0.61461E+06         0.00000E+00
    0.61461E+06        -0.97562E+08         0.00000E+00
    0.00000E+00         0.00000E+00        -0.47546E+08
 
   -0.47306E+08         0.62683E+06         0.00000E+00
    0.62683E+06        -0.97564E+08         0.00000E+00
    0.00000E+00         0.00000E+00        -0.47436E+08
 
   -0.47199E+08         0.63857E+06         0.00000E+00
    0.63857E+06        -0.97565E+08         0.00000E+00
    0.00000E+00         0.00000E+00        -0.47326E+08
 
   -0.47089E+08         0.64989E+06         0.00000E+00
    0.64989E+06        -0.97566E+08         0.00000E+00
    0.00000E+00         0.00000E+00        -0.47214E+08
 
   -0.46978E+08         0.66086E+06         0.00000E+00
    0.66086E+06        -0.97568E+08         0.00000E+00
    0.00000E+00         0.00000E+00        -0.47101E+08
 
   -0.46865E+08         0.67154E+06         0.00000E+00
    0.67154E+06        -0.97568E+08         0.00000E+00
    0.00000E+00         0.00000E+00        -0.46986E+08
 
   -0.46751E+08         0.68196E+06         0.00000E+00
    0.68196E+06        -0.97569E+08         0.00000E+00
    0.00000E+00         0.00000E+00        -0.46870E+08
 
   -0.46634E+08         0.69219E+06         0.00000E+00
    0.69219E+06        -0.97570E+08         0.00000E+00
    0.00000E+00         0.00000E+00        -0.46753E+08
 
   -0.46517E+08         0.70225E+06         0.00000E+00
    0.70225E+06        -0.97570E+08         0.00000E+00
    0.00000E+00         0.00000E+00        -0.46635E+08
 
   -0.46397E+08         0.71217E+06         0.00000E+00
    0.71217E+06        -0.97571E+08         0.00000E+00
    0.00000E+00         0.00000E+00        -0.46515E+08
 
   -0.46276E+08         0.72198E+06         0.00000E+00
    0.72198E+06        -0.97571E+08         0.00000E+00
    0.00000E+00         0.00000E+00        -0.46394E+08
 
   -0.46153E+08         0.73171E+06         0.00000E+00
    0.73171E+06        -0.97571E+08         0.00000E+00
    0.00000E+00         0.00000E+00        -0.46271E+08
 
   -0.46029E+08         0.74137E+06         0.00000E+00
    0.74137E+06        -0.97572E+08         0.00000E+00
    0.00000E+00         0.00000E+00        -0.46147E+08
 
   -0.45903E+08         0.75098E+06         0.00000E+00
    0.75098E+06        -0.97572E+08         0.00000E+00
    0.00000E+00         0.00000E+00        -0.46021E+08
 
   -0.45775E+08         0.76054E+06         0.00000E+00
    0.76054E+06        -0.97572E+08         0.00000E+00
    0.00000E+00         0.00000E+00        -0.45894E+08
 
   -0.45646E+08         0.77008E+06         0.00000E+00
    0.77008E+06        -0.97572E+08         0.00000E+00
    0.00000E+00         0.00000E+00        -0.45765E+08
 
   -0.45515E+08         0.77959E+06         0.00000E+00
    0.77959E+06        -0.97572E+08         0.00000E+00
    0.00000E+00         0.00000E+00        -0.45634E+08
 
   -0.45383E+08         0.78908E+06         0.00000E+00
    0.78908E+06        -0.97572E+08         0.00000E+00
    0.00000E+00         0.00000E+00        -0.45502E+08
 
   -0.45249E+08         0.79855E+06         0.00000E+00
    0.79855E+06        -0.97572E+08         0.00000E+00
    0.00000E+00         0.00000E+00        -0.45368E+08
 
   -0.45113E+08         0.80800E+06         0.00000E+00
    0.80800E+06        -0.97572E+08         0.00000E+00
    0.00000E+00         0.00000E+00        -0.45233E+08
 
   -0.44976E+08         0.81743E+06         0.00000E+00
    0.81743E+06        -0.97572E+08         0.00000E+00
    0.00000E+00         0.00000E+00        -0.45096E+08
 
   -0.44837E+08         0.82684E+06         0.00000E+00
    0.82684E+06        -0.97573E+08         0.00000E+00
    0.00000E+00         0.00000E+00        -0.44957E+08
 
   -0.44696E+08         0.83621E+06         0.00000E+00
    0.83621E+06        -0.97573E+08         0.00000E+00
    0.00000E+00         0.00000E+00        -0.44816E+08
 
   -0.44554E+08         0.84554E+06         0.00000E+00
    0.84554E+06        -0.97573E+08         0.00000E+00
    0.00000E+00         0.00000E+00        -0.44674E+08
 
   -0.44410E+08         0.85482E+06         0.00000E+00
    0.85482E+06        -0.97573E+08         0.00000E+00
    0.00000E+00         0.00000E+00        -0.44529E+08
 
   -0.44264E+08         0.86405E+06         0.00000E+00
    0.86405E+06        -0.97573E+08         0.00000E+00
    0.00000E+00         0.00000E+00        -0.44383E+08
 
   -0.44117E+08         0.87320E+06         0.00000E+00
    0.87320E+06        -0.97574E+08         0.00000E+00
    0.00000E+00         0.00000E+00        -0.44236E+08
 
   -0.43968E+08         0.88227E+06         0.00000E+00
    0.88227E+06        -0.97574E+08         0.00000E+00
    0.00000E+00         0.00000E+00        -0.44086E+08
 
   -0.43817E+08         0.89123E+06         0.00000E+00
    0.89123E+06        -0.97574E+08         0.00000E+00
    0.00000E+00         0.00000E+00        -0.43935E+08
 
   -0.43665E+08         0.90008E+06         0.00000E+00
    0.90008E+06        -0.97575E+08         0.00000E+00
    0.00000E+00         0.00000E+00        -0.43781E+08
 
   -0.43511E+08         0.90878E+06         0.00000E+00
    0.90878E+06        -0.97575E+08         0.00000E+00
    0.00000E+00         0.00000E+00        -0.43626E+08
 
   -0.43356E+08         0.91732E+06         0.00000E+00
    0.91732E+06        -0.97576E+08         0.00000E+00
    0.00000E+00         0.00000E+00        -0.43470E+08
 
   -0.43199E+08         0.92568E+06         0.00000E+00
    0.92568E+06        -0.97576E+08         0.00000E+00
    0.00000E+00         0.00000E+00        -0.43311E+08
 
   -0.43041E+08         0.93382E+06         0.00000E+00
    0.93382E+06        -0.97577E+08         0.00000E+00
    0.00000E+00         0.00000E+00        -0.43150E+08
 
   -0.42881E+08         0.94172E+06         0.00000E+00
    0.94172E+06        -0.97578E+08         0.00000E+00
    0.00000E+00         0.00000E+00        -0.42988E+08
 
   -0.42720E+08         0.94935E+06         0.00000E+00
    0.94935E+06        -0.97579E+08         0.00000E+00
    0.00000E+00         0.00000E+00        -0.42824E+08
 
   -0.42557E+08         0.95666E+06         0.00000E+00
    0.95666E+06        -0.97580E+08         0.00000E+00
    0.00000E+00         0.00000E+00        -0.42658E+08
 
   -0.42393E+08         0.96363E+06         0.00000E+00
    0.96363E+06        -0.97581E+08         0.00000E+00
    0.00000E+00         0.00000E+00        -0.42490E+08
 
   -0.42227E+08         0.97019E+06         0.00000E+00
    0.97019E+06        -0.97582E+08         0.00000E+00
    0.00000E+00         0.00000E+00        -0.42321E+08
 
   -0.42061E+08         0.97632E+06         0.00000E+00
    0.97632E+06        -0.97584E+08         0.00000E+00
    0.00000E+00         0.00000E+00        -0.42150E+08
 
   -0.41893E+08         0.98195E+06         0.00000E+00
    0.98195E+06        -0.97585E+08         0.00000E+00
    0.00000E+00         0.00000E+00        -0.41977E+08
 
   -0.41724E+08         0.98703E+06         0.00000E+00
    0.98703E+06        -0.97587E+08         0.00000E+00
    0.00000E+00         0.00000E+00        -0.41802E+08
 
   -0.41553E+08         0.99149E+06         0.00000E+00
    0.99149E+06        -0.97589E+08         0.00000E+00
    0.00000E+00         0.00000E+00        -0.41625E+08
 
   -0.41382E+08         0.99525E+06         0.00000E+00
    0.99525E+06        -0.97591E+08         0.00000E+00
    0.00000E+00         0.00000E+00        -0.41447E+08
 
   -0.41210E+08         0.99824E+06         0.00000E+00
    0.99824E+06        -0.97594E+08         0.00000E+00
    0.00000E+00         0.00000E+00        -0.41268E+08
 
   -0.41037E+08         0.10004E+07         0.00000E+00
    0.10004E+07        -0.97597E+08         0.00000E+00
    0.00000E+00         0.00000E+00        -0.41086E+08
 
   -0.40864E+08         0.10015E+07         0.00000E+00
    0.10015E+07        -0.97600E+08         0.00000E+00
    0.00000E+00         0.00000E+00        -0.40903E+08
 
   -0.40690E+08         0.10016E+07         0.00000E+00
    0.10016E+07        -0.97603E+08         0.00000E+00
    0.00000E+00         0.00000E+00        -0.40719E+08
 
   -0.40516E+08         0.10005E+07         0.00000E+00
    0.10005E+07        -0.97607E+08         0.00000E+00
    0.00000E+00         0.00000E+00        -0.40532E+08
 
   -0.40341E+08         0.99802E+06         0.00000E+00
    0.99802E+06        -0.97612E+08         0.00000E+00
    0.00000E+00         0.00000E+00        -0.40345E+08
 
   -0.40166E+08         0.99407E+06         0.00000E+00
    0.99407E+06        -0.97617E+08         0.00000E+00
    0.00000E+00         0.00000E+00        -0.40156E+08
 
   -0.39992E+08         0.98845E+06         0.00000E+00
    0.98845E+06        -0.97623E+08         0.00000E+00
    0.00000E+00         0.00000E+00        -0.39965E+08
 
   -0.39818E+08         0.98098E+06         0.00000E+00
    0.98098E+06        -0.97629E+08         0.00000E+00
    0.00000E+00         0.00000E+00        -0.39773E+08
 
   -0.39644E+08         0.97145E+06         0.00000E+00
    0.97145E+06        -0.97637E+08         0.00000E+00
    0.00000E+00         0.00000E+00        -0.39580E+08
 
   -0.39471E+08         0.95964E+06         0.00000E+00
    0.95964E+06        -0.97645E+08         0.00000E+00
    0.00000E+00         0.00000E+00        -0.39386E+08
 
   -0.39299E+08         0.94530E+06         0.00000E+00
    0.94530E+06        -0.97654E+08         0.00000E+00
    0.00000E+00         0.00000E+00        -0.39190E+08
 
   -0.39128E+08         0.92817E+06         0.00000E+00
    0.92817E+06        -0.97664E+08         0.00000E+00
    0.00000E+00         0.00000E+00        -0.38993E+08
 
   -0.38958E+08         0.90796E+06         0.00000E+00
    0.90796E+06        -0.97676E+08         0.00000E+00
    0.00000E+00         0.00000E+00        -0.38795E+08
 
   -0.38790E+08         0.88439E+06         0.00000E+00
    0.88439E+06        -0.97688E+08         0.00000E+00
    0.00000E+00         0.00000E+00        -0.38596E+08
 
   -0.38624E+08         0.85715E+06         0.00000E+00
    0.85715E+06        -0.97702E+08         0.00000E+00
    0.00000E+00         0.00000E+00        -0.38395E+08
 
   -0.38460E+08         0.82595E+06         0.00000E+00
    0.82595E+06        -0.97717E+08         0.00000E+00
    0.00000E+00         0.00000E+00        -0.38194E+08
 
   -0.38298E+08         0.79050E+06         0.00000E+00
    0.79050E+06        -0.97734E+08         0.00000E+00
    0.00000E+00         0.00000E+00        -0.37992E+08
 
   -0.38139E+08         0.75056E+06         0.00000E+00
    0.75056E+06        -0.97752E+08         0.00000E+00
    0.00000E+00         0.00000E+00        -0.37789E+08
 
   -0.37982E+08         0.70592E+06         0.00000E+00
    0.70592E+06        -0.97770E+08         0.00000E+00
    0.00000E+00         0.00000E+00        -0.37585E+08
 
   -0.37829E+08         0.65649E+06         0.00000E+00
    0.65649E+06        -0.97789E+08         0.00000E+00
    0.00000E+00         0.00000E+00        -0.37381E+08
 
   -0.37679E+08         0.60229E+06         0.00000E+00
    0.60229E+06        -0.97808E+08         0.00000E+00
    0.00000E+00         0.00000E+00        -0.37176E+08
 
   -0.37532E+08         0.54355E+06         0.00000E+00
    0.54355E+06        -0.97825E+08         0.00000E+00
    0.00000E+00         0.00000E+00        -0.36970E+08
 
   -0.37390E+08         0.48076E+06         0.00000E+00
    0.48076E+06        -0.97839E+08         0.00000E+00
    0.00000E+00         0.00000E+00        -0.36764E+08
 
   -0.37252E+08         0.41476E+06         0.00000E+00
    0.41476E+06        -0.97849E+08         0.00000E+00
    0.00000E+00         0.00000E+00        -0.36557E+08
 
   -0.37120E+08         0.34686E+06         0.00000E+00
    0.34686E+06        -0.97850E+08         0.00000E+00
    0.00000E+00         0.00000E+00        -0.36350E+08
 
   -0.36996E+08         0.27889E+06         0.00000E+00
    0.27889E+06        -0.97840E+08         0.00000E+00
    0.00000E+00         0.00000E+00        -0.36143E+08
 
   -0.36882E+08         0.21323E+06         0.00000E+00
    0.21323E+06        -0.97812E+08         0.00000E+00
    0.00000E+00         0.00000E+00        -0.35935E+08
 
   -0.36781E+08         0.15259E+06         0.00000E+00
    0.15259E+06        -0.97761E+08         0.00000E+00
    0.00000E+00         0.00000E+00        -0.35727E+08
 
   -0.36699E+08         0.99443E+05         0.00000E+00
    0.99443E+05        -0.97680E+08         0.00000E+00
    0.00000E+00         0.00000E+00        -0.35520E+08
 
   -0.36641E+08         0.54855E+05         0.00000E+00
    0.54855E+05        -0.97561E+08         0.00000E+00
    0.00000E+00         0.00000E+00        -0.35312E+08
 
   -0.36611E+08         0.17352E+05         0.00000E+00
    0.17352E+05        -0.97399E+08         0.00000E+00
    0.00000E+00         0.00000E+00        -0.35104E+08
 
   -0.49185E+08         0.89237E+04         0.00000E+00
    0.89237E+04        -0.97682E+08         0.00000E+00
    0.00000E+00         0.00000E+00        -0.49952E+08
 
   -0.49170E+08         0.28156E+05         0.00000E+00
    0.28156E+05        -0.97607E+08         0.00000E+00
    0.00000E+00         0.00000E+00        -0.49855E+08
 
   -0.49143E+08         0.50988E+05         0.00000E+00
    0.50988E+05        -0.97553E+08         0.00000E+00
    0.00000E+00         0.00000E+00        -0.49759E+08
 
   -0.49105E+08         0.78268E+05         0.00000E+00
    0.78268E+05        -0.97516E+08         0.00000E+00
    0.00000E+00         0.00000E+00        -0.49663E+08
 
   -0.49058E+08         0.10953E+06         0.00000E+00
    0.10953E+06        -0.97493E+08         0.00000E+00
    0.00000E+00         0.00000E+00        -0.49566E+08
 
   -0.49004E+08         0.14357E+06         0.00000E+00
    0.14357E+06        -0.97480E+08         0.00000E+00
    0.00000E+00         0.00000E+00        -0.49470E+08
 
   -0.48945E+08         0.17907E+06         0.00000E+00
    0.17907E+06        -0.97476E+08         0.00000E+00
    0.00000E+00         0.00000E+00        -0.49373E+08
 
   -0.48882E+08         0.21483E+06         0.00000E+00
    0.21483E+06        -0.97476E+08         0.00000E+00
    0.00000E+00         0.00000E+00        -0.49276E+08
 
   -0.48815E+08         0.24997E+06         0.00000E+00
    0.24997E+06        -0.97480E+08         0.00000E+00
    0.00000E+00         0.00000E+00        -0.49179E+08
 
   -0.48745E+08         0.28385E+06         0.00000E+00
    0.28385E+06        -0.97486E+08         0.00000E+00
    0.00000E+00         0.00000E+00        -0.49082E+08
 
   -0.48673E+08         0.31609E+06         0.00000E+00
    0.31609E+06        -0.97493E+08         0.00000E+00
    0.00000E+00         0.00000E+00        -0.48984E+08
 
   -0.48597E+08         0.34645E+06         0.00000E+00
    0.34645E+06        -0.97501E+08         0.00000E+00
    0.00000E+00         0.00000E+00        -0.48886E+08
 
   -0.48520E+08         0.37484E+06         0.00000E+00
    0.37484E+06        -0.97508E+08         0.00000E+00
    0.00000E+00         0.00000E+00        -0.48787E+08
 
   -0.48439E+08         0.40126E+06         0.00000E+00
    0.40126E+06        -0.97516E+08         0.00000E+00
    0.00000E+00         0.00000E+00        -0.48688E+08
 
   -0.48356E+08         0.42576E+06         0.00000E+00
    0.42576E+06        -0.97523E+08         0.00000E+00
    0.00000E+00         0.00000E+00        -0.48588E+08
 
   -0.48271E+08         0.44846E+06         0.00000E+00
    0.44846E+06        -0.97530E+08         0.00000E+00
    0.00000E+00         0.00000E+00        -0.48487E+08
 
   -0.48184E+08         0.46948E+06         0.00000E+00
    0.46948E+06        -0.97536E+08         0.00000E+00
    0.00000E+00         0.00000E+00        -0.48386E+08
 
   -0.48094E+08         0.48895E+06         0.00000E+00
    0.48895E+06        -0.97541E+08         0.00000E+00
    0.00000E+00         0.00000E+00        -0.48284E+08
 
   -0.48002E+08         0.50702E+06         0.00000E+00
    0.50702E+06        -0.97546E+08         0.00000E+00
    0.00000E+00         0.00000E+00        -0.48181E+08
 
   -0.47908E+08         0.52383E+06         0.00000E+00
    0.52383E+06        -0.97550E+08         0.00000E+00
    0.00000E+00         0.00000E+00        -0.48078E+08
 
   -0.47812E+08         0.53953E+06         0.00000E+00
    0.53953E+06        -0.97554E+08         0.00000E+00
    0.00000E+00         0.00000E+00        -0.47973E+08
 
   -0.47713E+08         0.55424E+06         0.00000E+00
    0.55424E+06        -0.97557E+08         0.00000E+00
    0.00000E+00         0.00000E+00        -0.47868E+08
 
   -0.47613E+08         0.56808E+06         0.00000E+00
    0.56808E+06        -0.97560E+08         0.00000E+00
    0.00000E+00         0.00000E+00        -0.47762E+08
 
   -0.47511E+08         0.58117E+06         0.00000E+00
    0.58117E+06        -0.97562E+08         0.00000E+00
    0.00000E+00         0.00000E+00        -0.47654E+08
 
   -0.47407E+08         0.59360E+06         0.00000E+00
    0.59360E+06        -0.97564E+08         0.00000E+00
    0.00000E+00         0.00000E+00        -0.47546E+08
 
   -0.47301E+08         0.60547E+06         0.00000E+00
    0.60547E+06        -0.97566E+08         0.00000E+00
    0.00000E+00         0.00000E+00        -0.47436E+08
 
   -0.47193E+08         0.61686E+06         0.00000E+00
    0.61686E+06        -0.97567E+08         0.00000E+00
    0.00000E+00         0.00000E+00        -0.47326E+08
 
   -0.47084E+08         0.62783E+06         0.00000E+00
    0.62783E+06        -0.97569E+08         0.00000E+00
    0.00000E+00         0.00000E+00        -0.47214E+08
 
   -0.46973E+08         0.63846E+06         0.00000E+00
    0.63846E+06        -0.97570E+08         0.00000E+00
    0.00000E+00         0.00000E+00        -0.47101E+08
 
   -0.46860E+08         0.64880E+06         0.00000E+00
    0.64880E+06        -0.97571E+08         0.00000E+00
    0.00000E+00         0.00000E+00        -0.46986E+08
 
   -0.46746E+08         0.65890E+06         0.00000E+00
    0.65890E+06        -0.97571E+08         0.00000E+00
    0.00000E+00         0.00000E+00        -0.46870E+08
 
   -0.46629E+08         0.66879E+06         0.00000E+00
    0.66879E+06        -0.97572E+08         0.00000E+00
    0.00000E+00         0.00000E+00        -0.46753E+08
 
   -0.46512E+08         0.67852E+06         0.00000E+00
    0.67852E+06        -0.97572E+08         0.00000E+00
    0.00000E+00         0.00000E+00        -0.46635E+08
 
   -0.46392E+08         0.68811E+06         0.00000E+00
    0.68811E+06        -0.97573E+08         0.00000E+00
    0.00000E+00         0.00000E+00        -0.46515E+08
 
   -0.46271E+08         0.69760E+06         0.00000E+00
    0.69760E+06        -0.97573E+08         0.00000E+00
    0.00000E+00         0.00000E+00        -0.46394E+08
 
   -0.46148E+08         0.70700E+06         0.00000E+00
    0.70700E+06        -0.97573E+08         0.00000E+00
    0.00000E+00         0.00000E+00        -0.46271E+08
 
   -0.46024E+08         0.71634E+06         0.00000E+00
    0.71634E+06        -0.97573E+08         0.00000E+00
    0.00000E+00         0.00000E+00        -0.46147E+08
 
   -0.45898E+08         0.72562E+06         0.00000E+00
    0.72562E+06        -0.97574E+08         0.00000E+00
    0.00000E+00         0.00000E+00        -0.46021E+08
 
   -0.45770E+08         0.73486E+06         0.00000E+00
    0.73486E+06        -0.97574E+08         0.00000E+00
    0.00000E+00         0.00000E+00        -0.45894E+08
 
   -0.45641E+08         0.74407E+06         0.00000E+00
    0.74407E+06        -0.97574E+08         0.00000E+00
    0.00000E+00         0.00000E+00        -0.45765E+08
 
   -0.45510E+08         0.75326E+06         0.00000E+00
    0.75326E+06        -0.97574E+08         0.00000E+00
    0.00000E+00         0.00000E+00        -0.45635E+08
 
   -0.45378E+08         0.76242E+06         0.00000E+00
    0.76242E+06        -0.97574E+08         0.00000E+00
    0.00000E+00         0.00000E+00        -0.45502E+08
 
   -0.45244E+08         0.77156E+06         0.00000E+00
    0.77156E+06        -0.97574E+08         0.00000E+00
    0.00000E+00         0.00000E+00        -0.45369E+08
 
   -0.45108E+08         0.78069E+06         0.00000E+00
    0.78069E+06        -0.97574E+08         0.00000E+00
    0.00000E+00         0.00000E+00        -0.45233E+08
 
   -0.44971E+08         0.78979E+06         0.00000E+00
    0.78979E+06        -0.97574E+08         0.00000E+00
    0.00000E+00         0.00000E+00        -0.45096E+08
 
   -0.44831E+08         0.79886E+06         0.00000E+00
    0.79886E+06        -0.97574E+08         0.00000E+00
    0.00000E+00         0.00000E+00        -0.44957E+08
 
   -0.44691E+08         0.80790E+06         0.00000E+00
    0.80790E+06        -0.97575E+08         0.00000E+00
    0.00000E+00         0.00000E+00        -0.44816E+08
 
   -0.44548E+08         0.81691E+06         0.00000E+00
    0.81691E+06        -0.97575E+08         0.00000E+00
    0.00000E+00         0.00000E+00        -0.44674E+08
 
   -0.44404E+08         0.82586E+06         0.00000E+00
    0.82586E+06        -0.97575E+08         0.00000E+00
    0.00000E+00         0.00000E+00        -0.44529E+08
 
   -0.44259E+08         0.83476E+06         0.00000E+00
    0.83476E+06        -0.97575E+08         0.00000E+00
    0.00000E+00         0.00000E+00        -0.44383E+08
 
   -0.44112E+08         0.84359E+06         0.00000E+00
    0.84359E+06        -0.97575E+08         0.00000E+00
    0.00000E+00         0.00000E+00        -0.44236E+08
 
   -0.43963E+08         0.85233E+06         0.00000E+00
    0.85233E+06        -0.97576E+08         0.00000E+00
    0.00000E+00         0.00000E+00        -0.44086E+08
 
   -0.43812E+08         0.86097E+06         0.00000E+00
    0.86097E+06        -0.97576E+08         0.00000E+00
    0.00000E+00         0.00000E+00        -0.43935E+08
 
   -0.43660E+08         0.86950E+06         0.00000E+00
    0.86950E+06        -0.97576E+08         0.00000E+00
    0.00000E+00         0.00000E+00        -0.43781E+08
 
   -0.43506E+08         0.87788E+06         0.00000E+00
    0.87788E+06        -0.97577E+08         0.00000E+00
    0.00000E+00         0.00000E+00        -0.43626E+08
 
   -0.43351E+08         0.88611E+06         0.00000E+00
    0.88611E+06        -0.97577E+08         0.00000E+00
    0.00000E+00         0.00000E+00        -0.43470E+08
 
   -0.43194E+08         0.89416E+06         0.00000E+00
    0.89416E+06        -0.97578E+08         0.00000E+00
    0.00000E+00         0.00000E+00        -0.43311E+08
 
   -0.43036E+08         0.90200E+06         0.00000E+00
    0.90200E+06        -0.97578E+08         0.00000E+00
    0.00000E+00         0.00000E+00        -0.43150E+08
 
   -0.42876E+08         0.90961E+06         0.00000E+00
    0.90961E+06        -0.97579E+08         0.00000E+00
    0.00000E+00         0.00000E+00        -0.42988E+08
 
   -0.42715E+08         0.91695E+06         0.00000E+00
    0.91695E+06        -0.97580E+08         0.00000E+00
    0.00000E+00         0.00000E+00        -0.42824E+08
 
   -0.42552E+08         0.92398E+06         0.00000E+00
    0.92398E+06        -0.97581E+08         0.00000E+00
    0.00000E+00         0.00000E+00        -0.42658E+08
 
   -0.42388E+08         0.93068E+06         0.00000E+00
    0.93068E+06        -0.97582E+08         0.00000E+00
    0.00000E+00         0.00000E+00        -0.42490E+08
 
   -0.42223E+08         0.93699E+06         0.00000E+00
    0.93699E+06        -0.97583E+08         0.00000E+00
    0.00000E+00         0.00000E+00        -0.42321E+08
 
   -0.42057E+08         0.94287E+06         0.00000E+00
    0.94287E+06        -0.97585E+08         0.00000E+00
    0.00000E+00         0.00000E+00        -0.42150E+08
 
   -0.41889E+08         0.94827E+06         0.00000E+00
    0.94827E+06        -0.97586E+08         0.00000E+00
    0.00000E+00         0.00000E+00        -0.41977E+08
 
   -0.41720E+08         0.95313E+06         0.00000E+00
    0.95313E+06        -0.97588E+08         0.00000E+00
    0.00000E+00         0.00000E+00        -0.41802E+08
 
   -0.41550E+08         0.95738E+06         0.00000E+00
    0.95738E+06        -0.97590E+08         0.00000E+00
    0.00000E+00         0.00000E+00        -0.41625E+08
 
   -0.41379E+08         0.96096E+06         0.00000E+00
    0.96096E+06        -0.97592E+08         0.00000E+00
    0.00000E+00         0.00000E+00        -0.41447E+08
 
   -0.41207E+08         0.96379E+06         0.00000E+00
    0.96379E+06        -0.97594E+08         0.00000E+00
    0.00000E+00         0.00000E+00        -0.41268E+08
 
   -0.41035E+08         0.96577E+06         0.00000E+00
    0.96577E+06        -0.97597E+08         0.00000E+00
    0.00000E+00         0.00000E+00        -0.41086E+08
 
   -0.40862E+08         0.96682E+06         0.00000E+00
    0.96682E+06        -0.97600E+08         0.00000E+00
    0.00000E+00         0.00000E+00        -0.40903E+08
 
   -0.40688E+08         0.96681E+06         0.00000E+00
    0.96681E+06        -0.97603E+08         0.00000E+00
    0.00000E+00         0.00000E+00        -0.40719E+08
 
   -0.40515E+08         0.96563E+06         0.00000E+00
    0.96563E+06        -0.97607E+08         0.00000E+00
    0.00000E+00         0.00000E+00        -0.40532E+08
 
   -0.40340E+08         0.96315E+06         0.00000E+00
    0.96315E+06        -0.97611E+08         0.00000E+00
    0.00000E+00         0.00000E+00        -0.40345E+08
 
   -0.40166E+08         0.95920E+06         0.00000E+00
    0.95920E+06        -0.97616E+08         0.00000E+00
    0.00000E+00         0.00000E+00        -0.40156E+08
 
   -0.39992E+08         0.95363E+06         0.00000E+00
    0.95363E+06        -0.97622E+08         0.00000E+00
    0.00000E+00         0.00000E+00        -0.39965E+08
 
   -0.39819E+08         0.94624E+06         0.00000E+00
    0.94624E+06        -0.97628E+08         0.00000E+00
    0.00000E+00         0.00000E+00        -0.39773E+08
 
   -0.39646E+08         0.93684E+06         0.00000E+00
    0.93684E+06        -0.97634E+08         0.00000E+00
    0.00000E+00         0.00000E+00        -0.39580E+08
 
   -0.39474E+08         0.92520E+06         0.00000E+00
    0.92520E+06        -0.97642E+08         0.00000E+00
    0.00000E+00         0.00000E+00        -0.39386E+08
 
   -0.39302E+08         0.91108E+06         0.00000E+00
    0.91108E+06        -0.97651E+08         0.00000E+00
    0.00000E+00         0.00000E+00        -0.39190E+08
 
   -0.39133E+08         0.89421E+06         0.00000E+00
    0.89421E+06        -0.97660E+08         0.00000E+00
    0.00000E+00         0.00000E+00        -0.38993E+08
 
   -0.38964E+08         0.87432E+06         0.00000E+00
    0.87432E+06        -0.97671E+08         0.00000E+00
    0.00000E+00         0.00000E+00        -0.38795E+08
 
   -0.38798E+08         0.85111E+06         0.00000E+00
    0.85111E+06        -0.97683E+08         0.00000E+00
    0.00000E+00         0.00000E+00        -0.38596E+08
 
   -0.38633E+08         0.82428E+06         0.00000E+00
    0.82428E+06        -0.97696E+08         0.00000E+00
    0.00000E+00         0.00000E+00        -0.38395E+08
 
   -0.38471E+08         0.79354E+06         0.00000E+00
    0.79354E+06        -0.97711E+08         0.00000E+00
    0.00000E+00         0.00000E+00        -0.38194E+08
 
   -0.38311E+08         0.75860E+06         0.00000E+00
    0.75860E+06        -0.97727E+08         0.00000E+00
    0.00000E+00         0.00000E+00        -0.37992E+08
 
   -0.38154E+08         0.71921E+06         0.00000E+00
    0.71921E+06        -0.97743E+08         0.00000E+00
    0.00000E+00         0.00000E+00        -0.37789E+08
 
   -0.38000E+08         0.67517E+06         0.00000E+00
    0.67517E+06        -0.97761E+08         0.00000E+00
    0.00000E+00         0.00000E+00        -0.37585E+08
 
   -0.37849E+08         0.62639E+06         0.00000E+00
    0.62639E+06        -0.97779E+08         0.00000E+00
    0.00000E+00         0.00000E+00        -0.37381E+08
 
   -0.37702E+08         0.57290E+06         0.00000E+00
    0.57290E+06        -0.97797E+08         0.00000E+00
    0.00000E+00         0.00000E+00        -0.37176E+08
 
   -0.37559E+08         0.51495E+06         0.00000E+00
    0.51495E+06        -0.97813E+08         0.00000E+00
    0.00000E+00         0.00000E+00        -0.36970E+08
 
   -0.37420E+08         0.45305E+06         0.00000E+00
    0.45305E+06        -0.97827E+08         0.00000E+00
    0.00000E+00         0.00000E+00        -0.36764E+08
 
   -0.37286E+08         0.38811E+06         0.00000E+00
    0.38811E+06        -0.97835E+08         0.00000E+00
    0.00000E+00         0.00000E+00        -0.36557E+08
 
   -0.37158E+08         0.32152E+06         0.00000E+00
    0.32152E+06        -0.97837E+08         0.00000E+00
    0.00000E+00         0.00000E+00        -0.36350E+08
 
   -0.37037E+08         0.25527E+06         0.00000E+00
    0.25527E+06        -0.97826E+08         0.00000E+00
    0.00000E+00         0.00000E+00        -0.36143E+08
 
   -0.36927E+08         0.19193E+06         0.00000E+00
    0.19193E+06        -0.97800E+08         0.00000E+00
    0.00000E+00         0.00000E+00        -0.35935E+08
 
   -0.36830E+08         0.13444E+06         0.00000E+00
    0.13444E+06        -0.97750E+08         0.00000E+00
    0.00000E+00         0.00000E+00        -0.35727E+08
 
   -0.36750E+08         0.85425E+05         0.00000E+00
    0.85425E+05        -0.97670E+08         0.00000E+00
    0.00000E+00         0.00000E+00        -0.35519E+08
 
   -0.36694E+08         0.45959E+05         0.00000E+00
    0.45959E+05        -0.97553E+08         0.00000E+00
    0.00000E+00         0.00000E+00        -0.35312E+08
 
   -0.36664E+08         0.14299E+05         0.00000E+00
    0.14299E+05        -0.97392E+08         0.00000E+00
    0.00000E+00         0.00000E+00        -0.35104E+08
 
   -0.49158E+08         0.74898E+04         0.00000E+00
    0.74898E+04        -0.97685E+08         0.00000E+00
    0.00000E+00         0.00000E+00        -0.49952E+08
 
   -0.49145E+08         0.23982E+05         0.00000E+00
    0.23982E+05        -0.97611E+08         0.00000E+00
    0.00000E+00         0.00000E+00        -0.49855E+08
 
   -0.49118E+08         0.44419E+05         0.00000E+00
    0.44419E+05        -0.97558E+08         0.00000E+00
    0.00000E+00         0.00000E+00        -0.49759E+08
 
   -0.49081E+08         0.69750E+05         0.00000E+00
    0.69750E+05        -0.97522E+08         0.00000E+00
    0.00000E+00         0.00000E+00        -0.49663E+08
 
   -0.49035E+08         0.99500E+05         0.00000E+00
    0.99500E+05        -0.97499E+08         0.00000E+00
    0.00000E+00         0.00000E+00        -0.49566E+08
 
   -0.48983E+08         0.13239E+06         0.00000E+00
    0.13239E+06        -0.97487E+08         0.00000E+00
    0.00000E+00         0.00000E+00        -0.49470E+08
 
   -0.48925E+08         0.16697E+06         0.00000E+00
    0.16697E+06        -0.97483E+08         0.00000E+00
    0.00000E+00         0.00000E+00        -0.49373E+08
 
   -0.48864E+08         0.20198E+06         0.00000E+00
    0.20198E+06        -0.97483E+08         0.00000E+00
    0.00000E+00         0.00000E+00        -0.49276E+08
 
   -0.48799E+08         0.23646E+06         0.00000E+00
    0.23646E+06        -0.97487E+08         0.00000E+00
    0.00000E+00         0.00000E+00        -0.49179E+08
 
   -0.48731E+08         0.26975E+06         0.00000E+00
    0.26975E+06        -0.97492E+08         0.00000E+00
    0.00000E+00         0.00000E+00        -0.49082E+08
 
   -0.48659E+08         0.30142E+06         0.00000E+00
    0.30142E+06        -0.97499E+08         0.00000E+00
    0.00000E+00         0.00000E+00        -0.48984E+08
 
   -0.48585E+08         0.33124E+06         0.00000E+00
    0.33124E+06        -0.97506E+08         0.00000E+00
    0.00000E+00         0.00000E+00        -0.48886E+08
 
   -0.48509E+08         0.35911E+06         0.00000E+00
    0.35911E+06        -0.97514E+08         0.00000E+00
    0.00000E+00         0.00000E+00        -0.48787E+08
 
   -0.48429E+08         0.38503E+06         0.00000E+00
    0.38503E+06        -0.97521E+08         0.00000E+00
    0.00000E+00         0.00000E+00        -0.48688E+08
 
   -0.48347E+08         0.40904E+06         0.00000E+00
    0.40904E+06        -0.97528E+08         0.00000E+00
    0.00000E+00         0.00000E+00        -0.48588E+08
 
   -0.48263E+08         0.43126E+06         0.00000E+00
    0.43126E+06        -0.97534E+08         0.00000E+00
    0.00000E+00         0.00000E+00        -0.48487E+08
 
   -0.48176E+08         0.45180E+06         0.00000E+00
    0.45180E+06        -0.97540E+08         0.00000E+00
    0.00000E+00         0.00000E+00        -0.48386E+08
 
   -0.48087E+08         0.47082E+06         0.00000E+00
    0.47082E+06        -0.97545E+08         0.00000E+00
    0.00000E+00         0.00000E+00        -0.48284E+08
 
   -0.47995E+08         0.48845E+06         0.00000E+00
    0.48845E+06        -0.97549E+08         0.00000E+00
    0.00000E+00         0.00000E+00        -0.48181E+08
 
   -0.47901E+08         0.50483E+06         0.00000E+00
    0.50483E+06        -0.97553E+08         0.00000E+00
    0.00000E+00         0.00000E+00        -0.48078E+08
 
   -0.47805E+08         0.52011E+06         0.00000E+00
    0.52011E+06        -0.97557E+08         0.00000E+00
    0.00000E+00         0.00000E+00        -0.47973E+08
 
   -0.47707E+08         0.53441E+06         0.00000E+00
    0.53441E+06        -0.97560E+08         0.00000E+00
    0.00000E+00         0.00000E+00        -0.47868E+08
 
   -0.47607E+08         0.54786E+06         0.00000E+00
    0.54786E+06        -0.97562E+08         0.00000E+00
    0.00000E+00         0.00000E+00        -0.47762E+08
 
   -0.47505E+08         0.56057E+06         0.00000E+00
    0.56057E+06        -0.97565E+08         0.00000E+00
    0.00000E+00         0.00000E+00        -0.47654E+08
 
   -0.47402E+08         0.57263E+06         0.00000E+00
    0.57263E+06        -0.97567E+08         0.00000E+00
    0.00000E+00         0.00000E+00        -0.47546E+08
 
   -0.47296E+08         0.58413E+06         0.00000E+00
    0.58413E+06        -0.97568E+08         0.00000E+00
    0.00000E+00         0.00000E+00        -0.47436E+08
 
   -0.47188E+08         0.59516E+06         0.00000E+00
    0.59516E+06        -0.97570E+08         0.00000E+00
    0.00000E+00         0.00000E+00        -0.47326E+08
 
   -0.47079E+08         0.60579E+06         0.00000E+00
    0.60579E+06        -0.97571E+08         0.00000E+00
    0.00000E+00         0.00000E+00        -0.47214E+08
 
   -0.46968E+08         0.61607E+06         0.00000E+00
    0.61607E+06        -0.97572E+08         0.00000E+00
    0.00000E+00         0.00000E+00        -0.47101E+08
 
   -0.46855E+08         0.62607E+06         0.00000E+00
    0.62607E+06        -0.97573E+08         0.00000E+00
    0.00000E+00         0.00000E+00        -0.46986E+08
 
   -0.46741E+08         0.63583E+06         0.00000E+00
    0.63583E+06        -0.97573E+08         0.00000E+00
    0.00000E+00         0.00000E+00        -0.46870E+08
 
   -0.46624E+08         0.64539E+06         0.00000E+00
    0.64539E+06        -0.97574E+08         0.00000E+00
    0.00000E+00         0.00000E+00        -0.46753E+08
 
   -0.46507E+08         0.65479E+06         0.00000E+00
    0.65479E+06        -0.97574E+08         0.00000E+00
    0.00000E+00         0.00000E+00        -0.46635E+08
 
   -0.46387E+08         0.66406E+06         0.00000E+00
    0.66406E+06        -0.97575E+08         0.00000E+00
    0.00000E+00         0.00000E+00        -0.46515E+08
 
   -0.46266E+08         0.67322E+06         0.00000E+00
    0.67322E+06        -0.97575E+08         0.00000E+00
    0.00000E+00         0.00000E+00        -0.46394E+08
 
   -0.46143E+08         0.68230E+06         0.00000E+00
    0.68230E+06        -0.97575E+08         0.00000E+00
    0.00000E+00         0.00000E+00        -0.46271E+08
 
   -0.46019E+08         0.69131E+06         0.00000E+00
    0.69131E+06        -0.97575E+08         0.00000E+00
    0.00000E+00         0.00000E+00        -0.46147E+08
 
   -0.45893E+08         0.70026E+06         0.00000E+00
    0.70026E+06        -0.97575E+08         0.00000E+00
    0.00000E+00         0.00000E+00        -0.46021E+08
 
   -0.45765E+08         0.70918E+06         0.00000E+00
    0.70918E+06        -0.97576E+08         0.00000E+00
    0.00000E+00         0.00000E+00        -0.45894E+08
 
   -0.45636E+08         0.71806E+06         0.00000E+00
    0.71806E+06        -0.97576E+08         0.00000E+00
    0.00000E+00         0.00000E+00        -0.45765E+08
 
   -0.45505E+08         0.72692E+06         0.00000E+00
    0.72692E+06        -0.97576E+08         0.00000E+00
    0.00000E+00         0.00000E+00        -0.45635E+08
 
   -0.45373E+08         0.73576E+06         0.00000E+00
    0.73576E+06        -0.97576E+08         0.00000E+00
    0.00000E+00         0.00000E+00        -0.45502E+08
 
   -0.45239E+08         0.74457E+06         0.00000E+00
    0.74457E+06        -0.97576E+08         0.00000E+00
    0.00000E+00         0.00000E+00        -0.45369E+08
 
   -0.45103E+08         0.75337E+06         0.00000E+00
    0.75337E+06        -0.97576E+08         0.00000E+00
    0.00000E+00         0.00000E+00        -0.45233E+08
 
   -0.44965E+08         0.76214E+06         0.00000E+00
    0.76214E+06        -0.97576E+08         0.00000E+00
    0.00000E+00         0.00000E+00        -0.45096E+08
 
   -0.44826E+08         0.77088E+06         0.00000E+00
    0.77088E+06        -0.97576E+08         0.00000E+00
    0.00000E+00         0.00000E+00        -0.44957E+08
 
   -0.44686E+08         0.77960E+06         0.00000E+00
    0.77960E+06        -0.97576E+08         0.00000E+00
    0.00000E+00         0.00000E+00        -0.44816E+08
 
   -0.44543E+08         0.78827E+06         0.00000E+00
    0.78827E+06        -0.97576E+08         0.00000E+00
    0.00000E+00         0.00000E+00        -0.44674E+08
 
   -0.44399E+08         0.79690E+06         0.00000E+00
    0.79690E+06        -0.97577E+08         0.00000E+00
    0.00000E+00         0.00000E+00        -0.44529E+08
 
   -0.44254E+08         0.80547E+06         0.00000E+00
    0.80547E+06        -0.97577E+08         0.00000E+00
    0.00000E+00         0.00000E+00        -0.44383E+08
 
   -0.44106E+08         0.81397E+06         0.00000E+00
    0.81397E+06        -0.97577E+08         0.00000E+00
    0.00000E+00         0.00000E+00        -0.44236E+08
 
   -0.43958E+08         0.82239E+06         0.00000E+00
    0.82239E+06        -0.97577E+08         0.00000E+00
    0.00000E+00         0.00000E+00        -0.44086E+08
 
   -0.43807E+08         0.83072E+06         0.00000E+00
    0.83072E+06        -0.97578E+08         0.00000E+00
    0.00000E+00         0.00000E+00        -0.43935E+08
 
   -0.43655E+08         0.83892E+06         0.00000E+00
    0.83892E+06        -0.97578E+08         0.00000E+00
    0.00000E+00         0.00000E+00        -0.43781E+08
 
   -0.43501E+08         0.84700E+06         0.00000E+00
    0.84700E+06        -0.97578E+08         0.00000E+00
    0.00000E+00         0.00000E+00        -0.43626E+08
 
   -0.43346E+08         0.85492E+06         0.00000E+00
    0.85492E+06        -0.97579E+08         0.00000E+00
    0.00000E+00         0.00000E+00        -0.43470E+08
 
   -0.43190E+08         0.86266E+06         0.00000E+00
    0.86266E+06        -0.97579E+08         0.00000E+00
    0.00000E+00         0.00000E+00        -0.43311E+08
 
   -0.43031E+08         0.87020E+06         0.00000E+00
    0.87020E+06        -0.97580E+08         0.00000E+00
    0.00000E+00         0.00000E+00        -0.43150E+08
 
   -0.42872E+08         0.87752E+06         0.00000E+00
    0.87752E+06        -0.97581E+08         0.00000E+00
    0.00000E+00         0.00000E+00        -0.42988E+08
 
   -0.42711E+08         0.88457E+06         0.00000E+00
    0.88457E+06        -0.97581E+08         0.00000E+00
    0.00000E+00         0.00000E+00        -0.42824E+08
 
   -0.42548E+08         0.89133E+06         0.00000E+00
    0.89133E+06        -0.97582E+08         0.00000E+00
    0.00000E+00         0.00000E+00        -0.42658E+08
 
   -0.42384E+08         0.89776E+06         0.00000E+00
    0.89776E+06        -0.97583E+08         0.00000E+00
    0.00000E+00         0.00000E+00        -0.42490E+08
 
   -0.42219E+08         0.90381E+06         0.00000E+00
    0.90381E+06        -0.97585E+08         0.00000E+00
    0.00000E+00         0.00000E+00        -0.42321E+08
 
   -0.42053E+08         0.90945E+06         0.00000E+00
    0.90945E+06        -0.97586E+08         0.00000E+00
    0.00000E+00         0.00000E+00        -0.42150E+08
 
   -0.41885E+08         0.91462E+06         0.00000E+00
    0.91462E+06        -0.97587E+08         0.00000E+00
    0.00000E+00         0.00000E+00        -0.41977E+08
 
   -0.41716E+08         0.91927E+06         0.00000E+00
    0.91927E+06        -0.97589E+08         0.00000E+00
    0.00000E+00         0.00000E+00        -0.41802E+08
 
   -0.41547E+08         0.92333E+06         0.00000E+00
    0.92333E+06        -0.97591E+08         0.00000E+00
    0.00000E+00         0.00000E+00        -0.41626E+08
 
   -0.41376E+08         0.92673E+06         0.00000E+00
    0.92673E+06        -0.97593E+08         0.00000E+00
    0.00000E+00         0.00000E+00        -0.41447E+08
 
   -0.41205E+08         0.92940E+06         0.00000E+00
    0.92940E+06        -0.97595E+08         0.00000E+00
    0.00000E+00         0.00000E+00        -0.41268E+08
 
   -0.41033E+08         0.93125E+06         0.00000E+00
    0.93125E+06        -0.97597E+08         0.00000E+00
    0.00000E+00         0.00000E+00        -0.41086E+08
 
   -0.40860E+08         0.93219E+06         0.00000E+00
    0.93219E+06        -0.97600E+08         0.00000E+00
    0.00000E+00         0.00000E+00        -0.40903E+08
 
   -0.40687E+08         0.93210E+06         0.00000E+00
    0.93210E+06        -0.97603E+08         0.00000E+00
    0.00000E+00         0.00000E+00        -0.40719E+08
 
   -0.40513E+08         0.93088E+06         0.00000E+00
    0.93088E+06        -0.97607E+08         0.00000E+00
    0.00000E+00         0.00000E+00        -0.40533E+08
 
   -0.40340E+08         0.92838E+06         0.00000E+00
    0.92838E+06        -0.97611E+08         0.00000E+00
    0.00000E+00         0.00000E+00        -0.40345E+08
 
   -0.40166E+08         0.92445E+06         0.00000E+00
    0.92445E+06        -0.97615E+08         0.00000E+00
    0.00000E+00         0.00000E+00        -0.40156E+08
 
   -0.39993E+08         0.91894E+06         0.00000E+00
    0.91894E+06        -0.97620E+08         0.00000E+00
    0.00000E+00         0.00000E+00        -0.39965E+08
 
   -0.39820E+08         0.91166E+06         0.00000E+00
    0.91166E+06        -0.97626E+08         0.00000E+00
    0.00000E+00         0.00000E+00        -0.39773E+08
 
   -0.39648E+08         0.90240E+06         0.00000E+00
    0.90240E+06        -0.97632E+08         0.00000E+00
    0.00000E+00         0.00000E+00        -0.39580E+08
 
   -0.39476E+08         0.89095E+06         0.00000E+00
    0.89095E+06        -0.97640E+08         0.00000E+00
    0.00000E+00         0.00000E+00        -0.39386E+08
 
   -0.39306E+08         0.87707E+06         0.00000E+00
    0.87707E+06        -0.97648E+08         0.00000E+00
    0.00000E+00         0.00000E+00        -0.39190E+08
 
   -0.39137E+08         0.86049E+06         0.00000E+00
    0.86049E+06        -0.97657E+08         0.00000E+00
    0.00000E+00         0.00000E+00        -0.38993E+08
 
   -0.38970E+08         0.84094E+06         0.00000E+00
    0.84094E+06        -0.97667E+08         0.00000E+00
    0.00000E+00         0.00000E+00        -0.38795E+08
 
   -0.38805E+08         0.81812E+06         0.00000E+00
    0.81812E+06        -0.97678E+08         0.00000E+00
    0.00000E+00         0.00000E+00        -0.38596E+08
 
   -0.38642E+08         0.79174E+06         0.00000E+00
    0.79174E+06        -0.97691E+08         0.00000E+00
    0.00000E+00         0.00000E+00        -0.38395E+08
 
   -0.38481E+08         0.76150E+06         0.00000E+00
    0.76150E+06        -0.97704E+08         0.00000E+00
    0.00000E+00         0.00000E+00        -0.38194E+08
 
   -0.38323E+08         0.72711E+06         0.00000E+00
    0.72711E+06        -0.97719E+08         0.00000E+00
    0.00000E+00         0.00000E+00        -0.37992E+08
 
   -0.38169E+08         0.68833E+06         0.00000E+00
    0.68833E+06        -0.97735E+08         0.00000E+00
    0.00000E+00         0.00000E+00        -0.37789E+08
 
   -0.38017E+08         0.64494E+06         0.00000E+00
    0.64494E+06        -0.97752E+08         0.00000E+00
    0.00000E+00         0.00000E+00        -0.37585E+08
 
   -0.37869E+08         0.59687E+06         0.00000E+00
    0.59687E+06        -0.97769E+08         0.00000E+00
    0.00000E+00         0.00000E+00        -0.37381E+08
 
   -0.37725E+08         0.54415E+06         0.00000E+00
    0.54415E+06        -0.97786E+08         0.00000E+00
    0.00000E+00         0.00000E+00        -0.37176E+08
 
   -0.37585E+08         0.48704E+06         0.00000E+00
    0.48704E+06        -0.97801E+08         0.00000E+00
    0.00000E+00         0.00000E+00        -0.36970E+08
 
   -0.37449E+08         0.42608E+06         0.00000E+00
    0.42608E+06        -0.97814E+08         0.00000E+00
    0.00000E+00         0.00000E+00        -0.36764E+08
 
   -0.37319E+08         0.36224E+06         0.00000E+00
    0.36224E+06        -0.97822E+08         0.00000E+00
    0.00000E+00         0.00000E+00        -0.36557E+08
 
   -0.37195E+08         0.29698E+06         0.00000E+00
    0.29698E+06        -0.97823E+08         0.00000E+00
    0.00000E+00         0.00000E+00        -0.36350E+08
 
   -0.37079E+08         0.23241E+06         0.00000E+00
    0.23241E+06        -0.97813E+08         0.00000E+00
    0.00000E+00         0.00000E+00        -0.36143E+08
 
   -0.36972E+08         0.17131E+06         0.00000E+00
    0.17131E+06        -0.97788E+08         0.00000E+00
    0.00000E+00         0.00000E+00        -0.35935E+08
 
   -0.36878E+08         0.11684E+06         0.00000E+00
    0.11684E+06        -0.97740E+08         0.00000E+00
    0.00000E+00         0.00000E+00        -0.35727E+08
 
   -0.36801E+08         0.71797E+05         0.00000E+00
    0.71797E+05        -0.97662E+08         0.00000E+00
    0.00000E+00         0.00000E+00        -0.35519E+08
 
   -0.36746E+08         0.37279E+05         0.00000E+00
    0.37279E+05        -0.97547E+08         0.00000E+00
    0.00000E+00         0.00000E+00        -0.35312E+08
 
   -0.36717E+08         0.11312E+05         0.00000E+00
    0.11312E+05        -0.97387E+08         0.00000E+00
    0.00000E+00         0.00000E+00        -0.35104E+08
 
   -0.49133E+08         0.60813E+04         0.00000E+00
    0.60813E+04        -0.97688E+08         0.00000E+00
    0.00000E+00         0.00000E+00        -0.49952E+08
 
   -0.49119E+08         0.19894E+05         0.00000E+00
    0.19894E+05        -0.97614E+08         0.00000E+00
    0.00000E+00         0.00000E+00        -0.49855E+08
 
   -0.49093E+08         0.38009E+05         0.00000E+00
    0.38009E+05        -0.97562E+08         0.00000E+00
    0.00000E+00         0.00000E+00        -0.49759E+08
 
   -0.49057E+08         0.61471E+05         0.00000E+00
    0.61471E+05        -0.97527E+08         0.00000E+00
    0.00000E+00         0.00000E+00        -0.49663E+08
 
   -0.49012E+08         0.89771E+05         0.00000E+00
    0.89771E+05        -0.97505E+08         0.00000E+00
    0.00000E+00         0.00000E+00        -0.49566E+08
 
   -0.48962E+08         0.12154E+06         0.00000E+00
    0.12154E+06        -0.97494E+08         0.00000E+00
    0.00000E+00         0.00000E+00        -0.49470E+08
 
   -0.48906E+08         0.15521E+06         0.00000E+00
    0.15521E+06        -0.97490E+08         0.00000E+00
    0.00000E+00         0.00000E+00        -0.49373E+08
 
   -0.48846E+08         0.18946E+06         0.00000E+00
    0.18946E+06        -0.97490E+08         0.00000E+00
    0.00000E+00         0.00000E+00        -0.49276E+08
 
   -0.48783E+08         0.22327E+06         0.00000E+00
    0.22327E+06        -0.97493E+08         0.00000E+00
    0.00000E+00         0.00000E+00        -0.49179E+08
 
   -0.48716E+08         0.25593E+06         0.00000E+00
    0.25593E+06        -0.97499E+08         0.00000E+00
    0.00000E+00         0.00000E+00        -0.49082E+08
 
   -0.48646E+08         0.28702E+06         0.00000E+00
    0.28702E+06        -0.97505E+08         0.00000E+00
    0.00000E+00         0.00000E+00        -0.48984E+08
 
   -0.48573E+08         0.31627E+06         0.00000E+00
    0.31627E+06        -0.97512E+08         0.00000E+00
    0.00000E+00         0.00000E+00        -0.48886E+08
 
   -0.48498E+08         0.34360E+06         0.00000E+00
    0.34360E+06        -0.97519E+08         0.00000E+00
    0.00000E+00         0.00000E+00        -0.48787E+08
 
   -0.48419E+08         0.36898E+06         0.00000E+00
    0.36898E+06        -0.97526E+08         0.00000E+00
    0.00000E+00         0.00000E+00        -0.48688E+08
 
   -0.48338E+08         0.39247E+06         0.00000E+00
    0.39247E+06        -0.97532E+08         0.00000E+00
    0.00000E+00         0.00000E+00        -0.48588E+08
 
   -0.48254E+08         0.41419E+06         0.00000E+00
    0.41419E+06        -0.97538E+08         0.00000E+00
    0.00000E+00         0.00000E+00        -0.48487E+08
 
   -0.48168E+08         0.43424E+06         0.00000E+00
    0.43424E+06        -0.97544E+08         0.00000E+00
    0.00000E+00         0.00000E+00        -0.48386E+08
 
   -0.48079E+08         0.45279E+06         0.00000E+00
    0.45279E+06        -0.97548E+08         0.00000E+00
    0.00000E+00         0.00000E+00        -0.48284E+08
 
   -0.47988E+08         0.46996E+06         0.00000E+00
    0.46996E+06        -0.97553E+08         0.00000E+00
    0.00000E+00         0.00000E+00        -0.48181E+08
 
   -0.47895E+08         0.48590E+06         0.00000E+00
    0.48590E+06        -0.97556E+08         0.00000E+00
    0.00000E+00         0.00000E+00        -0.48078E+08
 
   -0.47799E+08         0.50075E+06         0.00000E+00
    0.50075E+06        -0.97560E+08         0.00000E+00
    0.00000E+00         0.00000E+00        -0.47973E+08
 
   -0.47702E+08         0.51464E+06         0.00000E+00
    0.51464E+06        -0.97563E+08         0.00000E+00
    0.00000E+00         0.00000E+00        -0.47868E+08
 
   -0.47602E+08         0.52768E+06         0.00000E+00
    0.52768E+06        -0.97565E+08         0.00000E+00
    0.00000E+00         0.00000E+00        -0.47762E+08
 
   -0.47500E+08         0.54000E+06         0.00000E+00
    0.54000E+06        -0.97567E+08         0.00000E+00
    0.00000E+00         0.00000E+00        -0.47654E+08
 
   -0.47396E+08         0.55168E+06         0.00000E+00
    0.55168E+06        -0.97569E+08         0.00000E+00
    0.00000E+00         0.00000E+00        -0.47546E+08
 
   -0.47291E+08         0.56281E+06         0.00000E+00
    0.56281E+06        -0.97570E+08         0.00000E+00
    0.00000E+00         0.00000E+00        -0.47436E+08
 
   -0.47183E+08         0.57348E+06         0.00000E+00
    0.57348E+06        -0.97572E+08         0.00000E+00
    0.00000E+00         0.00000E+00        -0.47326E+08
 
   -0.47074E+08         0.58375E+06         0.00000E+00
    0.58375E+06        -0.97573E+08         0.00000E+00
    0.00000E+00         0.00000E+00        -0.47214E+08
 
   -0.46963E+08         0.59369E+06         0.00000E+00
    0.59369E+06        -0.97574E+08         0.00000E+00
    0.00000E+00         0.00000E+00        -0.47101E+08
 
   -0.46850E+08         0.60335E+06         0.00000E+00
    0.60335E+06        -0.97574E+08         0.00000E+00
    0.00000E+00         0.00000E+00        -0.46986E+08
 
   -0.46736E+08         0.61277E+06         0.00000E+00
    0.61277E+06        -0.97575E+08         0.00000E+00
    0.00000E+00         0.00000E+00        -0.46870E+08
 
   -0.46620E+08         0.62200E+06         0.00000E+00
    0.62200E+06        -0.97576E+08         0.00000E+00
    0.00000E+00         0.00000E+00        -0.46753E+08
 
   -0.46502E+08         0.63106E+06         0.00000E+00
    0.63106E+06        -0.97576E+08         0.00000E+00
    0.00000E+00         0.00000E+00        -0.46635E+08
 
   -0.46382E+08         0.64000E+06         0.00000E+00
    0.64000E+06        -0.97576E+08         0.00000E+00
    0.00000E+00         0.00000E+00        -0.46515E+08
 
   -0.46261E+08         0.64884E+06         0.00000E+00
    0.64884E+06        -0.97577E+08         0.00000E+00
    0.00000E+00         0.00000E+00        -0.46394E+08
 
   -0.46139E+08         0.65759E+06         0.00000E+00
    0.65759E+06        -0.97577E+08         0.00000E+00
    0.00000E+00         0.00000E+00        -0.46271E+08
 
   -0.46014E+08         0.66627E+06         0.00000E+00
    0.66627E+06        -0.97577E+08         0.00000E+00
    0.00000E+00         0.00000E+00        -0.46147E+08
 
   -0.45888E+08         0.67490E+06         0.00000E+00
    0.67490E+06        -0.97577E+08         0.00000E+00
    0.00000E+00         0.00000E+00        -0.46021E+08
 
   -0.45761E+08         0.68349E+06         0.00000E+00
    0.68349E+06        -0.97577E+08         0.00000E+00
    0.00000E+00         0.00000E+00        -0.45894E+08
 
   -0.45631E+08         0.69205E+06         0.00000E+00
    0.69205E+06        -0.97577E+08         0.00000E+00
    0.00000E+00         0.00000E+00        -0.45765E+08
 
   -0.45500E+08         0.70058E+06         0.00000E+00
    0.70058E+06        -0.97578E+08         0.00000E+00
    0.00000E+00         0.00000E+00        -0.45635E+08
 
   -0.45368E+08         0.70909E+06         0.00000E+00
    0.70909E+06        -0.97578E+08         0.00000E+00
    0.00000E+00         0.00000E+00        -0.45502E+08
 
   -0.45234E+08         0.71758E+06         0.00000E+00
    0.71758E+06        -0.97578E+08         0.00000E+00
    0.00000E+00         0.00000E+00        -0.45369E+08
 
   -0.45098E+08         0.72604E+06         0.00000E+00
    0.72604E+06        -0.97578E+08         0.00000E+00
    0.00000E+00         0.00000E+00        -0.45233E+08
 
   -0.44960E+08         0.73449E+06         0.00000E+00
    0.73449E+06        -0.97578E+08         0.00000E+00
    0.00000E+00         0.00000E+00        -0.45096E+08
 
   -0.44821E+08         0.74291E+06         0.00000E+00
    0.74291E+06        -0.97578E+08         0.00000E+00
    0.00000E+00         0.00000E+00        -0.44957E+08
 
   -0.44681E+08         0.75129E+06         0.00000E+00
    0.75129E+06        -0.97578E+08         0.00000E+00
    0.00000E+00         0.00000E+00        -0.44816E+08
 
   -0.44538E+08         0.75964E+06         0.00000E+00
    0.75964E+06        -0.97578E+08         0.00000E+00
    0.00000E+00         0.00000E+00        -0.44674E+08
 
   -0.44394E+08         0.76794E+06         0.00000E+00
    0.76794E+06        -0.97578E+08         0.00000E+00
    0.00000E+00         0.00000E+00        -0.44530E+08
 
   -0.44249E+08         0.77619E+06         0.00000E+00
    0.77619E+06        -0.97578E+08         0.00000E+00
    0.00000E+00         0.00000E+00        -0.44384E+08
 
   -0.44101E+08         0.78437E+06         0.00000E+00
    0.78437E+06        -0.97579E+08         0.00000E+00
    0.00000E+00         0.00000E+00        -0.44236E+08
 
   -0.43953E+08         0.79246E+06         0.00000E+00
    0.79246E+06        -0.97579E+08         0.00000E+00
    0.00000E+00         0.00000E+00        -0.44086E+08
 
   -0.43802E+08         0.80047E+06         0.00000E+00
    0.80047E+06        -0.97579E+08         0.00000E+00
    0.00000E+00         0.00000E+00        -0.43935E+08
 
   -0.43650E+08         0.80836E+06         0.00000E+00
    0.80836E+06        -0.97580E+08         0.00000E+00
    0.00000E+00         0.00000E+00        -0.43782E+08
 
   -0.43497E+08         0.81612E+06         0.00000E+00
    0.81612E+06        -0.97580E+08         0.00000E+00
    0.00000E+00         0.00000E+00        -0.43626E+08
 
   -0.43341E+08         0.82373E+06         0.00000E+00
    0.82373E+06        -0.97580E+08         0.00000E+00
    0.00000E+00         0.00000E+00        -0.43470E+08
 
   -0.43185E+08         0.83117E+06         0.00000E+00
    0.83117E+06        -0.97581E+08         0.00000E+00
    0.00000E+00         0.00000E+00        -0.43311E+08
 
   -0.43027E+08         0.83842E+06         0.00000E+00
    0.83842E+06        -0.97581E+08         0.00000E+00
    0.00000E+00         0.00000E+00        -0.43150E+08
 
   -0.42867E+08         0.84544E+06         0.00000E+00
    0.84544E+06        -0.97582E+08         0.00000E+00
    0.00000E+00         0.00000E+00        -0.42988E+08
 
   -0.42706E+08         0.85222E+06         0.00000E+00
    0.85222E+06        -0.97583E+08         0.00000E+00
    0.00000E+00         0.00000E+00        -0.42824E+08
 
   -0.42544E+08         0.85870E+06         0.00000E+00
    0.85870E+06        -0.97584E+08         0.00000E+00
    0.00000E+00         0.00000E+00        -0.42658E+08
 
   -0.42380E+08         0.86487E+06         0.00000E+00
    0.86487E+06        -0.97585E+08         0.00000E+00
    0.00000E+00         0.00000E+00        -0.42490E+08
 
   -0.42215E+08         0.87067E+06         0.00000E+00
    0.87067E+06        -0.97586E+08         0.00000E+00
    0.00000E+00         0.00000E+00        -0.42321E+08
 
   -0.42049E+08         0.87607E+06         0.00000E+00
    0.87607E+06        -0.97587E+08         0.00000E+00
    0.00000E+00         0.00000E+00        -0.42150E+08
 
   -0.41881E+08         0.88102E+06         0.00000E+00
    0.88102E+06        -0.97588E+08         0.00000E+00
    0.00000E+00         0.00000E+00        -0.41977E+08
 
   -0.41713E+08         0.88545E+06         0.00000E+00
    0.88545E+06        -0.97590E+08         0.00000E+00
    0.00000E+00         0.00000E+00        -0.41802E+08
 
   -0.41543E+08         0.88932E+06         0.00000E+00
    0.88932E+06        -0.97591E+08         0.00000E+00
    0.00000E+00         0.00000E+00        -0.41626E+08
 
   -0.41373E+08         0.89255E+06         0.00000E+00
    0.89255E+06        -0.97593E+08         0.00000E+00
    0.00000E+00         0.00000E+00        -0.41447E+08
 
   -0.41202E+08         0.89507E+06         0.00000E+00
    0.89507E+06        -0.97595E+08         0.00000E+00
    0.00000E+00         0.00000E+00        -0.41268E+08
 
   -0.41030E+08         0.89680E+06         0.00000E+00
    0.89680E+06        -0.97598E+08         0.00000E+00
    0.00000E+00         0.00000E+00        -0.41086E+08
 
   -0.40858E+08         0.89764E+06         0.00000E+00
    0.89764E+06        -0.97600E+08         0.00000E+00
    0.00000E+00         0.00000E+00        -0.40903E+08
 
   -0.40685E+08         0.89748E+06         0.00000E+00
    0.89748E+06        -0.97603E+08         0.00000E+00
    0.00000E+00         0.00000E+00        -0.40719E+08
 
   -0.40512E+08         0.89622E+06         0.00000E+00
    0.89622E+06        -0.97606E+08         0.00000E+00
    0.00000E+00         0.00000E+00        -0.40533E+08
 
   -0.40339E+08         0.89371E+06         0.00000E+00
    0.89371E+06        -0.97610E+08         0.00000E+00
    0.00000E+00         0.00000E+00        -0.40345E+08
 
   -0.40166E+08         0.88982E+06         0.00000E+00
    0.88982E+06        -0.97614E+08         0.00000E+00
    0.00000E+00         0.00000E+00        -0.40156E+08
 
   -0.39993E+08         0.88438E+06         0.00000E+00
    0.88438E+06        -0.97619E+08         0.00000E+00
    0.00000E+00         0.00000E+00        -0.39965E+08
 
   -0.39821E+08         0.87721E+06         0.00000E+00
    0.87721E+06        -0.97624E+08         0.00000E+00
    0.00000E+00         0.00000E+00        -0.39773E+08
 
   -0.39649E+08         0.86812E+06         0.00000E+00
    0.86812E+06        -0.97630E+08         0.00000E+00
    0.00000E+00         0.00000E+00        -0.39580E+08
 
   -0.39479E+08         0.85688E+06         0.00000E+00
    0.85688E+06        -0.97637E+08         0.00000E+00
    0.00000E+00         0.00000E+00        -0.39386E+08
 
   -0.39310E+08         0.84326E+06         0.00000E+00
    0.84326E+06        -0.97645E+08         0.00000E+00
    0.00000E+00         0.00000E+00        -0.39190E+08
 
   -0.39142E+08         0.82699E+06         0.00000E+00
    0.82699E+06        -0.97653E+08         0.00000E+00
    0.00000E+00         0.00000E+00        -0.38993E+08
 
   -0.38976E+08         0.80781E+06         0.00000E+00
    0.80781E+06        -0.97663E+08         0.00000E+00
    0.00000E+00         0.00000E+00        -0.38795E+08
 
   -0.38812E+08         0.78543E+06         0.00000E+00
    0.78543E+06        -0.97673E+08         0.00000E+00
    0.00000E+00         0.00000E+00        -0.38596E+08
 
   -0.38650E+08         0.75953E+06         0.00000E+00
    0.75953E+06        -0.97685E+08         0.00000E+00
    0.00000E+00         0.00000E+00        -0.38395E+08
 
   -0.38492E+08         0.72983E+06         0.00000E+00
    0.72983E+06        -0.97698E+08         0.00000E+00
    0.00000E+00         0.00000E+00        -0.38194E+08
 
   -0.38336E+08         0.69604E+06         0.00000E+00
    0.69604E+06        -0.97712E+08         0.00000E+00
    0.00000E+00         0.00000E+00        -0.37992E+08
 
   -0.38183E+08         0.65790E+06         0.00000E+00
    0.65790E+06        -0.97727E+08         0.00000E+00
    0.00000E+00         0.00000E+00        -0.37789E+08
 
   -0.38034E+08         0.61523E+06         0.00000E+00
    0.61523E+06        -0.97743E+08         0.00000E+00
    0.00000E+00         0.00000E+00        -0.37585E+08
 
   -0.37889E+08         0.56792E+06         0.00000E+00
    0.56792E+06        -0.97759E+08         0.00000E+00
    0.00000E+00         0.00000E+00        -0.37381E+08
 
   -0.37747E+08         0.51603E+06         0.00000E+00
    0.51603E+06        -0.97775E+08         0.00000E+00
    0.00000E+00         0.00000E+00        -0.37176E+08
 
   -0.37611E+08         0.45981E+06         0.00000E+00
    0.45981E+06        -0.97789E+08         0.00000E+00
    0.00000E+00         0.00000E+00        -0.36970E+08
 
   -0.37479E+08         0.39986E+06         0.00000E+00
    0.39986E+06        -0.97802E+08         0.00000E+00
    0.00000E+00         0.00000E+00        -0.36764E+08
 
   -0.37353E+08         0.33714E+06         0.00000E+00
    0.33714E+06        -0.97809E+08         0.00000E+00
    0.00000E+00         0.00000E+00        -0.36557E+08
 
   -0.37233E+08         0.27322E+06         0.00000E+00
    0.27322E+06        -0.97810E+08         0.00000E+00
    0.00000E+00         0.00000E+00        -0.36350E+08
 
   -0.37120E+08         0.21032E+06         0.00000E+00
    0.21032E+06        -0.97801E+08         0.00000E+00
    0.00000E+00         0.00000E+00        -0.36143E+08
 
   -0.37017E+08         0.15138E+06         0.00000E+00
    0.15138E+06        -0.97776E+08         0.00000E+00
    0.00000E+00         0.00000E+00        -0.35935E+08
 
   -0.36926E+08         0.99785E+05         0.00000E+00
    0.99785E+05        -0.97730E+08         0.00000E+00
    0.00000E+00         0.00000E+00        -0.35727E+08
 
   -0.36851E+08         0.58538E+05         0.00000E+00
    0.58538E+05        -0.97654E+08         0.00000E+00
    0.00000E+00         0.00000E+00        -0.35519E+08
 
   -0.36797E+08         0.28796E+05         0.00000E+00
    0.28796E+05        -0.97541E+08         0.00000E+00
    0.00000E+00         0.00000E+00        -0.35312E+08
 
   -0.36769E+08         0.83847E+04         0.00000E+00
    0.83847E+04        -0.97383E+08         0.00000E+00
    0.00000E+00         0.00000E+00        -0.35104E+08
 
   -0.49107E+08         0.46951E+04         0.00000E+00
    0.46951E+04        -0.97690E+08         0.00000E+00
    0.00000E+00         0.00000E+00        -0.49952E+08
 
   -0.49093E+08         0.15885E+05         0.00000E+00
    0.15885E+05        -0.97617E+08         0.00000E+00
    0.00000E+00         0.00000E+00        -0.49855E+08
 
   -0.49068E+08         0.31754E+05         0.00000E+00
    0.31754E+05        -0.97566E+08         0.00000E+00
    0.00000E+00         0.00000E+00        -0.49759E+08
 
   -0.49033E+08         0.53427E+05         0.00000E+00
    0.53427E+05        -0.97532E+08         0.00000E+00
    0.00000E+00         0.00000E+00        -0.49663E+08
 
   -0.48990E+08         0.80343E+05         0.00000E+00
    0.80343E+05        -0.97511E+08         0.00000E+00
    0.00000E+00         0.00000E+00        -0.49566E+08
 
   -0.48941E+08         0.11102E+06         0.00000E+00
    0.11102E+06        -0.97501E+08         0.00000E+00
    0.00000E+00         0.00000E+00        -0.49470E+08
 
   -0.48887E+08         0.14381E+06         0.00000E+00
    0.14381E+06        -0.97496E+08         0.00000E+00
    0.00000E+00         0.00000E+00        -0.49373E+08
 
   -0.48829E+08         0.17729E+06         0.00000E+00
    0.17729E+06        -0.97497E+08         0.00000E+00
    0.00000E+00         0.00000E+00        -0.49276E+08
 
   -0.48767E+08         0.21040E+06         0.00000E+00
    0.21040E+06        -0.97500E+08         0.00000E+00
    0.00000E+00         0.00000E+00        -0.49179E+08
 
   -0.48702E+08         0.24241E+06         0.00000E+00
    0.24241E+06        -0.97505E+08         0.00000E+00
    0.00000E+00         0.00000E+00        -0.49082E+08
 
   -0.48633E+08         0.27288E+06         0.00000E+00
    0.27288E+06        -0.97511E+08         0.00000E+00
    0.00000E+00         0.00000E+00        -0.48984E+08
 
   -0.48562E+08         0.30154E+06         0.00000E+00
    0.30154E+06        -0.97518E+08         0.00000E+00
    0.00000E+00         0.00000E+00        -0.48886E+08
 
   -0.48487E+08         0.32829E+06         0.00000E+00
    0.32829E+06        -0.97524E+08         0.00000E+00
    0.00000E+00         0.00000E+00        -0.48787E+08
 
   -0.48410E+08         0.35311E+06         0.00000E+00
    0.35311E+06        -0.97531E+08         0.00000E+00
    0.00000E+00         0.00000E+00        -0.48688E+08
 
   -0.48329E+08         0.37606E+06         0.00000E+00
    0.37606E+06        -0.97537E+08         0.00000E+00
    0.00000E+00         0.00000E+00        -0.48588E+08
 
   -0.48246E+08         0.39725E+06         0.00000E+00
    0.39725E+06        -0.97542E+08         0.00000E+00
    0.00000E+00         0.00000E+00        -0.48487E+08
 
   -0.48161E+08         0.41680E+06         0.00000E+00
    0.41680E+06        -0.97547E+08         0.00000E+00
    0.00000E+00         0.00000E+00        -0.48386E+08
 
   -0.48073E+08         0.43485E+06         0.00000E+00
    0.43485E+06        -0.97552E+08         0.00000E+00
    0.00000E+00         0.00000E+00        -0.48284E+08
 
   -0.47982E+08         0.45155E+06         0.00000E+00
    0.45155E+06        -0.97556E+08         0.00000E+00
    0.00000E+00         0.00000E+00        -0.48181E+08
 
   -0.47889E+08         0.46703E+06         0.00000E+00
    0.46703E+06        -0.97559E+08         0.00000E+00
    0.00000E+00         0.00000E+00        -0.48078E+08
 
   -0.47794E+08         0.48144E+06         0.00000E+00
    0.48144E+06        -0.97563E+08         0.00000E+00
    0.00000E+00         0.00000E+00        -0.47973E+08
 
   -0.47696E+08         0.49491E+06         0.00000E+00
    0.49491E+06        -0.97565E+08         0.00000E+00
    0.00000E+00         0.00000E+00        -0.47868E+08
 
   -0.47597E+08         0.50754E+06         0.00000E+00
    0.50754E+06        -0.97567E+08         0.00000E+00
    0.00000E+00         0.00000E+00        -0.47762E+08
 
   -0.47495E+08         0.51946E+06         0.00000E+00
    0.51946E+06        -0.97569E+08         0.00000E+00
    0.00000E+00         0.00000E+00        -0.47654E+08
 
   -0.47391E+08         0.53075E+06         0.00000E+00
    0.53075E+06        -0.97571E+08         0.00000E+00
    0.00000E+00         0.00000E+00        -0.47546E+08
 
   -0.47286E+08         0.54151E+06         0.00000E+00
    0.54151E+06        -0.97573E+08         0.00000E+00
    0.00000E+00         0.00000E+00        -0.47436E+08
 
   -0.47178E+08         0.55182E+06         0.00000E+00
    0.55182E+06        -0.97574E+08         0.00000E+00
    0.00000E+00         0.00000E+00        -0.47326E+08
 
   -0.47069E+08         0.56173E+06         0.00000E+00
    0.56173E+06        -0.97575E+08         0.00000E+00
    0.00000E+00         0.00000E+00        -0.47214E+08
 
   -0.46958E+08         0.57132E+06         0.00000E+00
    0.57132E+06        -0.97576E+08         0.00000E+00
    0.00000E+00         0.00000E+00        -0.47101E+08
 
   -0.46846E+08         0.58063E+06         0.00000E+00
    0.58063E+06        -0.97576E+08         0.00000E+00
    0.00000E+00         0.00000E+00        -0.46986E+08
 
   -0.46731E+08         0.58971E+06         0.00000E+00
    0.58971E+06        -0.97577E+08         0.00000E+00
    0.00000E+00         0.00000E+00        -0.46870E+08
 
   -0.46615E+08         0.59860E+06         0.00000E+00
    0.59860E+06        -0.97577E+08         0.00000E+00
    0.00000E+00         0.00000E+00        -0.46753E+08
 
   -0.46497E+08         0.60734E+06         0.00000E+00
    0.60734E+06        -0.97578E+08         0.00000E+00
    0.00000E+00         0.00000E+00        -0.46635E+08
 
   -0.46378E+08         0.61594E+06         0.00000E+00
    0.61594E+06        -0.97578E+08         0.00000E+00
    0.00000E+00         0.00000E+00        -0.46515E+08
 
   -0.46257E+08         0.62445E+06         0.00000E+00
    0.62445E+06        -0.97578E+08         0.00000E+00
    0.00000E+00         0.00000E+00        -0.46394E+08
 
   -0.46134E+08         0.63287E+06         0.00000E+00
    0.63287E+06        -0.97579E+08         0.00000E+00
    0.00000E+00         0.00000E+00        -0.46271E+08
 
   -0.46009E+08         0.64123E+06         0.00000E+00
    0.64123E+06        -0.97579E+08         0.00000E+00
    0.00000E+00         0.00000E+00        -0.46147E+08
 
   -0.45883E+08         0.64953E+06         0.00000E+00
    0.64953E+06        -0.97579E+08         0.00000E+00
    0.00000E+00         0.00000E+00        -0.46021E+08
 
   -0.45756E+08         0.65780E+06         0.00000E+00
    0.65780E+06        -0.97579E+08         0.00000E+00
    0.00000E+00         0.00000E+00        -0.45894E+08
 
   -0.45626E+08         0.66603E+06         0.00000E+00
    0.66603E+06        -0.97579E+08         0.00000E+00
    0.00000E+00         0.00000E+00        -0.45765E+08
 
   -0.45495E+08         0.67423E+06         0.00000E+00
    0.67423E+06        -0.97579E+08         0.00000E+00
    0.00000E+00         0.00000E+00        -0.45635E+08
 
   -0.45363E+08         0.68242E+06         0.00000E+00
    0.68242E+06        -0.97579E+08         0.00000E+00
    0.00000E+00         0.00000E+00        -0.45502E+08
 
   -0.45229E+08         0.69058E+06         0.00000E+00
    0.69058E+06        -0.97579E+08         0.00000E+00
    0.00000E+00         0.00000E+00        -0.45369E+08
 
   -0.45093E+08         0.69872E+06         0.00000E+00
    0.69872E+06        -0.97579E+08         0.00000E+00
    0.00000E+00         0.00000E+00        -0.45233E+08
 
   -0.44955E+08         0.70683E+06         0.00000E+00
    0.70683E+06        -0.97579E+08         0.00000E+00
    0.00000E+00         0.00000E+00        -0.45096E+08
 
   -0.44816E+08         0.71492E+06         0.00000E+00
    0.71492E+06        -0.97580E+08         0.00000E+00
    0.00000E+00         0.00000E+00        -0.44957E+08
 
   -0.44676E+08         0.72298E+06         0.00000E+00
    0.72298E+06        -0.97580E+08         0.00000E+00
    0.00000E+00         0.00000E+00        -0.44816E+08
 
   -0.44533E+08         0.73101E+06         0.00000E+00
    0.73101E+06        -0.97580E+08         0.00000E+00
    0.00000E+00         0.00000E+00        -0.44674E+08
 
   -0.44389E+08         0.73898E+06         0.00000E+00
    0.73898E+06        -0.97580E+08         0.00000E+00
    0.00000E+00         0.00000E+00        -0.44530E+08
 
   -0.44244E+08         0.74691E+06         0.00000E+00
    0.74691E+06        -0.97580E+08         0.00000E+00
    0.00000E+00         0.00000E+00        -0.44384E+08
 
   -0.44096E+08         0.75476E+06         0.00000E+00
    0.75476E+06        -0.97580E+08         0.00000E+00
    0.00000E+00         0.00000E+00        -0.44236E+08
 
   -0.43948E+08         0.76254E+06         0.00000E+00
    0.76254E+06        -0.97581E+08         0.00000E+00
    0.00000E+00         0.00000E+00        -0.44086E+08
 
   -0.43797E+08         0.77022E+06         0.00000E+00
    0.77022E+06        -0.97581E+08         0.00000E+00
    0.00000E+00         0.00000E+00        -0.43935E+08
 
   -0.43645E+08         0.77780E+06         0.00000E+00
    0.77780E+06        -0.97581E+08         0.00000E+00
    0.00000E+00         0.00000E+00        -0.43782E+08
 
   -0.43492E+08         0.78525E+06         0.00000E+00
    0.78525E+06        -0.97581E+08         0.00000E+00
    0.00000E+00         0.00000E+00        -0.43626E+08
 
   -0.43337E+08         0.79256E+06         0.00000E+00
    0.79256E+06        -0.97582E+08         0.00000E+00
    0.00000E+00         0.00000E+00        -0.43470E+08
 
   -0.43180E+08         0.79970E+06         0.00000E+00
    0.79970E+06        -0.97582E+08         0.00000E+00
    0.00000E+00         0.00000E+00        -0.43311E+08
 
   -0.43022E+08         0.80665E+06         0.00000E+00
    0.80665E+06        -0.97583E+08         0.00000E+00
    0.00000E+00         0.00000E+00        -0.43150E+08
 
   -0.42862E+08         0.81339E+06         0.00000E+00
    0.81339E+06        -0.97583E+08         0.00000E+00
    0.00000E+00         0.00000E+00        -0.42988E+08
 
   -0.42701E+08         0.81988E+06         0.00000E+00
    0.81988E+06        -0.97584E+08         0.00000E+00
    0.00000E+00         0.00000E+00        -0.42824E+08
 
   -0.42539E+08         0.82610E+06         0.00000E+00
    0.82610E+06        -0.97585E+08         0.00000E+00
    0.00000E+00         0.00000E+00        -0.42658E+08
 
   -0.42376E+08         0.83200E+06         0.00000E+00
    0.83200E+06        -0.97586E+08         0.00000E+00
    0.00000E+00         0.00000E+00        -0.42490E+08
 
   -0.42211E+08         0.83756E+06         0.00000E+00
    0.83756E+06        -0.97587E+08         0.00000E+00
    0.00000E+00         0.00000E+00        -0.42321E+08
 
   -0.42045E+08         0.84272E+06         0.00000E+00
    0.84272E+06        -0.97588E+08         0.00000E+00
    0.00000E+00         0.00000E+00        -0.42150E+08
 
   -0.41877E+08         0.84745E+06         0.00000E+00
    0.84745E+06        -0.97589E+08         0.00000E+00
    0.00000E+00         0.00000E+00        -0.41977E+08
 
   -0.41709E+08         0.85168E+06         0.00000E+00
    0.85168E+06        -0.97590E+08         0.00000E+00
    0.00000E+00         0.00000E+00        -0.41802E+08
 
   -0.41540E+08         0.85536E+06         0.00000E+00
    0.85536E+06        -0.97592E+08         0.00000E+00
    0.00000E+00         0.00000E+00        -0.41626E+08
 
   -0.41370E+08         0.85843E+06         0.00000E+00
    0.85843E+06        -0.97594E+08         0.00000E+00
    0.00000E+00         0.00000E+00        -0.41447E+08
 
   -0.41199E+08         0.86081E+06         0.00000E+00
    0.86081E+06        -0.97596E+08         0.00000E+00
    0.00000E+00         0.00000E+00        -0.41268E+08
 
   -0.41027E+08         0.86241E+06         0.00000E+00
    0.86241E+06        -0.97598E+08         0.00000E+00
    0.00000E+00         0.00000E+00        -0.41086E+08
 
   -0.40855E+08         0.86316E+06         0.00000E+00
    0.86316E+06        -0.97600E+08         0.00000E+00
    0.00000E+00         0.00000E+00        -0.40903E+08
 
   -0.40683E+08         0.86294E+06         0.00000E+00
    0.86294E+06        -0.97603E+08         0.00000E+00
    0.00000E+00         0.00000E+00        -0.40719E+08
 
   -0.40510E+08         0.86164E+06         0.00000E+00
    0.86164E+06        -0.97606E+08         0.00000E+00
    0.00000E+00         0.00000E+00        -0.40533E+08
 
   -0.40338E+08         0.85914E+06         0.00000E+00
    0.85914E+06        -0.97609E+08         0.00000E+00
    0.00000E+00         0.00000E+00        -0.40345E+08
 
   -0.40165E+08         0.85529E+06         0.00000E+00
    0.85529E+06        -0.97613E+08         0.00000E+00
    0.00000E+00         0.00000E+00        -0.40156E+08
 
   -0.39993E+08         0.84994E+06         0.00000E+00
    0.84994E+06        -0.97618E+08         0.00000E+00
    0.00000E+00         0.00000E+00        -0.39965E+08
 
   -0.39822E+08         0.84290E+06         0.00000E+00
    0.84290E+06        -0.97623E+08         0.00000E+00
    0.00000E+00         0.00000E+00        -0.39773E+08
 
   -0.39651E+08         0.83399E+06         0.00000E+00
    0.83399E+06        -0.97628E+08         0.00000E+00
    0.00000E+00         0.00000E+00        -0.39580E+08
 
   -0.39481E+08         0.82298E+06         0.00000E+00
    0.82298E+06        -0.97635E+08         0.00000E+00
    0.00000E+00         0.00000E+00        -0.39386E+08
 
   -0.39313E+08         0.80964E+06         0.00000E+00
    0.80964E+06        -0.97642E+08         0.00000E+00
    0.00000E+00         0.00000E+00        -0.39190E+08
 
   -0.39146E+08         0.79372E+06         0.00000E+00
    0.79372E+06        -0.97650E+08         0.00000E+00
    0.00000E+00         0.00000E+00        -0.38993E+08
 
   -0.38981E+08         0.77494E+06         0.00000E+00
    0.77494E+06        -0.97659E+08         0.00000E+00
    0.00000E+00         0.00000E+00        -0.38795E+08
 
   -0.38819E+08         0.75301E+06         0.00000E+00
    0.75301E+06        -0.97669E+08         0.00000E+00
    0.00000E+00         0.00000E+00        -0.38596E+08
 
   -0.38659E+08         0.72764E+06         0.00000E+00
    0.72764E+06        -0.97680E+08         0.00000E+00
    0.00000E+00         0.00000E+00        -0.38395E+08
 
   -0.38502E+08         0.69852E+06         0.00000E+00
    0.69852E+06        -0.97692E+08         0.00000E+00
    0.00000E+00         0.00000E+00        -0.38194E+08
 
   -0.38348E+08         0.66537E+06         0.00000E+00
    0.66537E+06        -0.97705E+08         0.00000E+00
    0.00000E+00         0.00000E+00        -0.37992E+08
 
   -0.38197E+08         0.62794E+06         0.00000E+00
    0.62794E+06        -0.97719E+08         0.00000E+00
    0.00000E+00         0.00000E+00        -0.37789E+08
 
   -0.38050E+08         0.58603E+06         0.00000E+00
    0.58603E+06        -0.97734E+08         0.00000E+00
    0.00000E+00         0.00000E+00        -0.37585E+08
 
   -0.37908E+08         0.53955E+06         0.00000E+00
    0.53955E+06        -0.97749E+08         0.00000E+00
    0.00000E+00         0.00000E+00        -0.37381E+08
 
   -0.37770E+08         0.48854E+06         0.00000E+00
    0.48854E+06        -0.97764E+08         0.00000E+00
    0.00000E+00         0.00000E+00        -0.37176E+08
 
   -0.37636E+08         0.43329E+06         0.00000E+00
    0.43329E+06        -0.97778E+08         0.00000E+00
    0.00000E+00         0.00000E+00        -0.36970E+08
 
   -0.37508E+08         0.37438E+06         0.00000E+00
    0.37438E+06        -0.97789E+08         0.00000E+00
    0.00000E+00         0.00000E+00        -0.36764E+08
 
   -0.37386E+08         0.31284E+06         0.00000E+00
    0.31284E+06        -0.97797E+08         0.00000E+00
    0.00000E+00         0.00000E+00        -0.36557E+08
 
   -0.37270E+08         0.25027E+06         0.00000E+00
    0.25027E+06        -0.97798E+08         0.00000E+00
    0.00000E+00         0.00000E+00        -0.36350E+08
 
   -0.37161E+08         0.18900E+06         0.00000E+00
    0.18900E+06        -0.97789E+08         0.00000E+00
    0.00000E+00         0.00000E+00        -0.36143E+08
 
   -0.37062E+08         0.13213E+06         0.00000E+00
    0.13213E+06        -0.97765E+08         0.00000E+00
    0.00000E+00         0.00000E+00        -0.35935E+08
 
   -0.36974E+08         0.83265E+05         0.00000E+00
    0.83265E+05        -0.97721E+08         0.00000E+00
    0.00000E+00         0.00000E+00        -0.35727E+08
 
   -0.36901E+08         0.45632E+05         0.00000E+00
    0.45632E+05        -0.97648E+08         0.00000E+00
    0.00000E+00         0.00000E+00        -0.35519E+08
 
   -0.36849E+08         0.20497E+05         0.00000E+00
    0.20497E+05        -0.97537E+08         0.00000E+00
    0.00000E+00         0.00000E+00        -0.35312E+08
 
   -0.36821E+08         0.55105E+04         0.00000E+00
    0.55105E+04        -0.97380E+08         0.00000E+00
    0.00000E+00         0.00000E+00        -0.35104E+08
 
   -0.49081E+08         0.33289E+04         0.00000E+00
    0.33289E+04        -0.97692E+08         0.00000E+00
    0.00000E+00         0.00000E+00        -0.49952E+08
 
   -0.49068E+08         0.11947E+05         0.00000E+00
    0.11947E+05        -0.97620E+08         0.00000E+00
    0.00000E+00         0.00000E+00        -0.49855E+08
 
   -0.49043E+08         0.25647E+05         0.00000E+00
    0.25647E+05        -0.97569E+08         0.00000E+00
    0.00000E+00         0.00000E+00        -0.49759E+08
 
   -0.49009E+08         0.45615E+05         0.00000E+00
    0.45615E+05        -0.97537E+08         0.00000E+00
    0.00000E+00         0.00000E+00        -0.49663E+08
 
   -0.48967E+08         0.71215E+05         0.00000E+00
    0.71215E+05        -0.97517E+08         0.00000E+00
    0.00000E+00         0.00000E+00        -0.49566E+08
 
   -0.48920E+08         0.10085E+06         0.00000E+00
    0.10085E+06        -0.97507E+08         0.00000E+00
    0.00000E+00         0.00000E+00        -0.49470E+08
 
   -0.48868E+08         0.13276E+06         0.00000E+00
    0.13276E+06        -0.97503E+08         0.00000E+00
    0.00000E+00         0.00000E+00        -0.49373E+08
 
   -0.48811E+08         0.16546E+06         0.00000E+00
    0.16546E+06        -0.97503E+08         0.00000E+00
    0.00000E+00         0.00000E+00        -0.49276E+08
 
   -0.48751E+08         0.19785E+06         0.00000E+00
    0.19785E+06        -0.97506E+08         0.00000E+00
    0.00000E+00         0.00000E+00        -0.49179E+08
 
   -0.48688E+08         0.22919E+06         0.00000E+00
    0.22919E+06        -0.97511E+08         0.00000E+00
    0.00000E+00         0.00000E+00        -0.49082E+08
 
   -0.48621E+08         0.25901E+06         0.00000E+00
    0.25901E+06        -0.97517E+08         0.00000E+00
    0.00000E+00         0.00000E+00        -0.48984E+08
 
   -0.48550E+08         0.28704E+06         0.00000E+00
    0.28704E+06        -0.97523E+08         0.00000E+00
    0.00000E+00         0.00000E+00        -0.48886E+08
 
   -0.48477E+08         0.31318E+06         0.00000E+00
    0.31318E+06        -0.97529E+08         0.00000E+00
    0.00000E+00         0.00000E+00        -0.48787E+08
 
   -0.48400E+08         0.33742E+06         0.00000E+00
    0.33742E+06        -0.97536E+08         0.00000E+00
    0.00000E+00         0.00000E+00        -0.48688E+08
 
   -0.48321E+08         0.35980E+06         0.00000E+00
    0.35980E+06        -0.97541E+08         0.00000E+00
    0.00000E+00         0.00000E+00        -0.48588E+08
 
   -0.48239E+08         0.38044E+06         0.00000E+00
    0.38044E+06        -0.97546E+08         0.00000E+00
    0.00000E+00         0.00000E+00        -0.48487E+08
 
   -0.48153E+08         0.39947E+06         0.00000E+00
    0.39947E+06        -0.97551E+08         0.00000E+00
    0.00000E+00         0.00000E+00        -0.48386E+08
 
   -0.48066E+08         0.41701E+06         0.00000E+00
    0.41701E+06        -0.97555E+08         0.00000E+00
    0.00000E+00         0.00000E+00        -0.48284E+08
 
   -0.47976E+08         0.43322E+06         0.00000E+00
    0.43322E+06        -0.97559E+08         0.00000E+00
    0.00000E+00         0.00000E+00        -0.48181E+08
 
   -0.47883E+08         0.44823E+06         0.00000E+00
    0.44823E+06        -0.97562E+08         0.00000E+00
    0.00000E+00         0.00000E+00        -0.48078E+08
 
   -0.47788E+08         0.46219E+06         0.00000E+00
    0.46219E+06        -0.97565E+08         0.00000E+00
    0.00000E+00         0.00000E+00        -0.47973E+08
 
   -0.47691E+08         0.47522E+06         0.00000E+00
    0.47522E+06        -0.97568E+08         0.00000E+00
    0.00000E+00         0.00000E+00        -0.47868E+08
 
   -0.47591E+08         0.48744E+06         0.00000E+00
    0.48744E+06        -0.97570E+08         0.00000E+00
    0.00000E+00         0.00000E+00        -0.47762E+08
 
   -0.47490E+08         0.49895E+06         0.00000E+00
    0.49895E+06        -0.97572E+08         0.00000E+00
    0.00000E+00         0.00000E+00        -0.47654E+08
 
   -0.47386E+08         0.50985E+06         0.00000E+00
    0.50985E+06        -0.97573E+08         0.00000E+00
    0.00000E+00         0.00000E+00        -0.47546E+08
 
   -0.47281E+08         0.52023E+06         0.00000E+00
    0.52023E+06        -0.97575E+08         0.00000E+00
    0.00000E+00         0.00000E+00        -0.47436E+08
 
   -0.47174E+08         0.53017E+06         0.00000E+00
    0.53017E+06        -0.97576E+08         0.00000E+00
    0.00000E+00         0.00000E+00        -0.47326E+08
 
   -0.47064E+08         0.53972E+06         0.00000E+00
    0.53972E+06        -0.97577E+08         0.00000E+00
    0.00000E+00         0.00000E+00        -0.47214E+08
 
   -0.46954E+08         0.54895E+06         0.00000E+00
    0.54895E+06        -0.97577E+08         0.00000E+00
    0.00000E+00         0.00000E+00        -0.47101E+08
 
   -0.46841E+08         0.55792E+06         0.00000E+00
    0.55792E+06        -0.97578E+08         0.00000E+00
    0.00000E+00         0.00000E+00        -0.46986E+08
 
   -0.46726E+08         0.56665E+06         0.00000E+00
    0.56665E+06        -0.97579E+08         0.00000E+00
    0.00000E+00         0.00000E+00        -0.46870E+08
 
   -0.46610E+08         0.57521E+06         0.00000E+00
    0.57521E+06        -0.97579E+08         0.00000E+00
    0.00000E+00         0.00000E+00        -0.46753E+08
 
   -0.46492E+08         0.58361E+06         0.00000E+00
    0.58361E+06        -0.97580E+08         0.00000E+00
    0.00000E+00         0.00000E+00        -0.46635E+08
 
   -0.46373E+08         0.59188E+06         0.00000E+00
    0.59188E+06        -0.97580E+08         0.00000E+00
    0.00000E+00         0.00000E+00        -0.46515E+08
 
   -0.46252E+08         0.60006E+06         0.00000E+00
    0.60006E+06        -0.97580E+08         0.00000E+00
    0.00000E+00         0.00000E+00        -0.46394E+08
 
   -0.46129E+08         0.60815E+06         0.00000E+00
    0.60815E+06        -0.97580E+08         0.00000E+00
    0.00000E+00         0.00000E+00        -0.46271E+08
 
   -0.46005E+08         0.61618E+06         0.00000E+00
    0.61618E+06        -0.97580E+08         0.00000E+00
    0.00000E+00         0.00000E+00        -0.46147E+08
 
   -0.45879E+08         0.62416E+06         0.00000E+00
    0.62416E+06        -0.97581E+08         0.00000E+00
    0.00000E+00         0.00000E+00        -0.46021E+08
 
   -0.45751E+08         0.63210E+06         0.00000E+00
    0.63210E+06        -0.97581E+08         0.00000E+00
    0.00000E+00         0.00000E+00        -0.45894E+08
 
   -0.45622E+08         0.64000E+06         0.00000E+00
    0.64000E+06        -0.97581E+08         0.00000E+00
    0.00000E+00         0.00000E+00        -0.45765E+08
 
   -0.45491E+08         0.64788E+06         0.00000E+00
    0.64788E+06        -0.97581E+08         0.00000E+00
    0.00000E+00         0.00000E+00        -0.45635E+08
 
   -0.45358E+08         0.65574E+06         0.00000E+00
    0.65574E+06        -0.97581E+08         0.00000E+00
    0.00000E+00         0.00000E+00        -0.45502E+08
 
   -0.45224E+08         0.66357E+06         0.00000E+00
    0.66357E+06        -0.97581E+08         0.00000E+00
    0.00000E+00         0.00000E+00        -0.45369E+08
 
   -0.45088E+08         0.67139E+06         0.00000E+00
    0.67139E+06        -0.97581E+08         0.00000E+00
    0.00000E+00         0.00000E+00        -0.45233E+08
 
   -0.44950E+08         0.67918E+06         0.00000E+00
    0.67918E+06        -0.97581E+08         0.00000E+00
    0.00000E+00         0.00000E+00        -0.45096E+08
 
   -0.44811E+08         0.68694E+06         0.00000E+00
    0.68694E+06        -0.97581E+08         0.00000E+00
    0.00000E+00         0.00000E+00        -0.44957E+08
 
   -0.44671E+08         0.69468E+06         0.00000E+00
    0.69468E+06        -0.97581E+08         0.00000E+00
    0.00000E+00         0.00000E+00        -0.44816E+08
 
   -0.44528E+08         0.70237E+06         0.00000E+00
    0.70237E+06        -0.97581E+08         0.00000E+00
    0.00000E+00         0.00000E+00        -0.44674E+08
 
   -0.44384E+08         0.71003E+06         0.00000E+00
    0.71003E+06        -0.97581E+08         0.00000E+00
    0.00000E+00         0.00000E+00        -0.44530E+08
 
   -0.44239E+08         0.71762E+06         0.00000E+00
    0.71762E+06        -0.97582E+08         0.00000E+00
    0.00000E+00         0.00000E+00        -0.44384E+08
 
   -0.44091E+08         0.72516E+06         0.00000E+00
    0.72516E+06        -0.97582E+08         0.00000E+00
    0.00000E+00         0.00000E+00        -0.44236E+08
 
   -0.43943E+08         0.73262E+06         0.00000E+00
    0.73262E+06        -0.97582E+08         0.00000E+00
    0.00000E+00         0.00000E+00        -0.44086E+08
 
   -0.43792E+08         0.73999E+06         0.00000E+00
    0.73999E+06        -0.97582E+08         0.00000E+00
    0.00000E+00         0.00000E+00        -0.43935E+08
 
   -0.43640E+08         0.74725E+06         0.00000E+00
    0.74725E+06        -0.97583E+08         0.00000E+00
    0.00000E+00         0.00000E+00        -0.43782E+08
 
   -0.43487E+08         0.75439E+06         0.00000E+00
    0.75439E+06        -0.97583E+08         0.00000E+00
    0.00000E+00         0.00000E+00        -0.43627E+08
 
   -0.43332E+08         0.76140E+06         0.00000E+00
    0.76140E+06        -0.97583E+08         0.00000E+00
    0.00000E+00         0.00000E+00        -0.43470E+08
 
   -0.43175E+08         0.76824E+06         0.00000E+00
    0.76824E+06        -0.97584E+08         0.00000E+00
    0.00000E+00         0.00000E+00        -0.43311E+08
 
   -0.43017E+08         0.77490E+06         0.00000E+00
    0.77490E+06        -0.97584E+08         0.00000E+00
    0.00000E+00         0.00000E+00        -0.43150E+08
 
   -0.42858E+08         0.78135E+06         0.00000E+00
    0.78135E+06        -0.97585E+08         0.00000E+00
    0.00000E+00         0.00000E+00        -0.42988E+08
 
   -0.42697E+08         0.78757E+06         0.00000E+00
    0.78757E+06        -0.97585E+08         0.00000E+00
    0.00000E+00         0.00000E+00        -0.42824E+08
 
   -0.42535E+08         0.79352E+06         0.00000E+00
    0.79352E+06        -0.97586E+08         0.00000E+00
    0.00000E+00         0.00000E+00        -0.42658E+08
 
   -0.42371E+08         0.79916E+06         0.00000E+00
    0.79916E+06        -0.97587E+08         0.00000E+00
    0.00000E+00         0.00000E+00        -0.42490E+08
 
   -0.42207E+08         0.80448E+06         0.00000E+00
    0.80448E+06        -0.97588E+08         0.00000E+00
    0.00000E+00         0.00000E+00        -0.42321E+08
 
   -0.42041E+08         0.80941E+06         0.00000E+00
    0.80941E+06        -0.97589E+08         0.00000E+00
    0.00000E+00         0.00000E+00        -0.42150E+08
 
   -0.41874E+08         0.81392E+06         0.00000E+00
    0.81392E+06        -0.97590E+08         0.00000E+00
    0.00000E+00         0.00000E+00        -0.41977E+08
 
   -0.41706E+08         0.81795E+06         0.00000E+00
    0.81795E+06        -0.97591E+08         0.00000E+00
    0.00000E+00         0.00000E+00        -0.41802E+08
 
   -0.41537E+08         0.82145E+06         0.00000E+00
    0.82145E+06        -0.97593E+08         0.00000E+00
    0.00000E+00         0.00000E+00        -0.41626E+08
 
   -0.41367E+08         0.82435E+06         0.00000E+00
    0.82435E+06        -0.97594E+08         0.00000E+00
    0.00000E+00         0.00000E+00        -0.41447E+08
 
   -0.41196E+08         0.82659E+06         0.00000E+00
    0.82659E+06        -0.97596E+08         0.00000E+00
    0.00000E+00         0.00000E+00        -0.41268E+08
 
   -0.41025E+08         0.82809E+06         0.00000E+00
    0.82809E+06        -0.97598E+08         0.00000E+00
    0.00000E+00         0.00000E+00        -0.41086E+08
 
   -0.40853E+08         0.82875E+06         0.00000E+00
    0.82875E+06        -0.97600E+08         0.00000E+00
    0.00000E+00         0.00000E+00        -0.40903E+08
 
   -0.40681E+08         0.82847E+06         0.00000E+00
    0.82847E+06        -0.97603E+08         0.00000E+00
    0.00000E+00         0.00000E+00        -0.40719E+08
 
   -0.40509E+08         0.82716E+06         0.00000E+00
    0.82716E+06        -0.97606E+08         0.00000E+00
    0.00000E+00         0.00000E+00        -0.40533E+08
 
   -0.40337E+08         0.82467E+06         0.00000E+00
    0.82467E+06        -0.97609E+08         0.00000E+00
    0.00000E+00         0.00000E+00        -0.40345E+08
 
   -0.40165E+08         0.82088E+06         0.00000E+00
    0.82088E+06        -0.97612E+08         0.00000E+00
    0.00000E+00         0.00000E+00        -0.40156E+08
 
   -0.39993E+08         0.81562E+06         0.00000E+00
    0.81562E+06        -0.97617E+08         0.00000E+00
    0.00000E+00         0.00000E+00        -0.39965E+08
 
   -0.39822E+08         0.80873E+06         0.00000E+00
    0.80873E+06        -0.97621E+08         0.00000E+00
    0.00000E+00         0.00000E+00        -0.39773E+08
 
   -0.39652E+08         0.80001E+06         0.00000E+00
    0.80001E+06        -0.97626E+08         0.00000E+00
    0.00000E+00         0.00000E+00        -0.39580E+08
 
   -0.39483E+08         0.78925E+06         0.00000E+00
    0.78925E+06        -0.97632E+08         0.00000E+00
    0.00000E+00         0.00000E+00        -0.39386E+08
 
   -0.39316E+08         0.77622E+06         0.00000E+00
    0.77622E+06        -0.97639E+08         0.00000E+00
    0.00000E+00         0.00000E+00        -0.39190E+08
 
   -0.39150E+08         0.76067E+06         0.00000E+00
    0.76067E+06        -0.97646E+08         0.00000E+00
    0.00000E+00         0.00000E+00        -0.38993E+08
 
   -0.38987E+08         0.74232E+06         0.00000E+00
    0.74232E+06        -0.97655E+08         0.00000E+00
    0.00000E+00         0.00000E+00        -0.38795E+08
 
   -0.38825E+08         0.72088E+06         0.00000E+00
    0.72088E+06        -0.97664E+08         0.00000E+00
    0.00000E+00         0.00000E+00        -0.38596E+08
 
   -0.38667E+08         0.69607E+06         0.00000E+00
    0.69607E+06        -0.97674E+08         0.00000E+00
    0.00000E+00         0.00000E+00        -0.38395E+08
 
   -0.38511E+08         0.66757E+06         0.00000E+00
    0.66757E+06        -0.97686E+08         0.00000E+00
    0.00000E+00         0.00000E+00        -0.38194E+08
 
   -0.38359E+08         0.63511E+06         0.00000E+00
    0.63511E+06        -0.97698E+08         0.00000E+00
    0.00000E+00         0.00000E+00        -0.37992E+08
 
   -0.38211E+08         0.59844E+06         0.00000E+00
    0.59844E+06        -0.97711E+08         0.00000E+00
    0.00000E+00         0.00000E+00        -0.37789E+08
 
   -0.38067E+08         0.55735E+06         0.00000E+00
    0.55735E+06        -0.97725E+08         0.00000E+00
    0.00000E+00         0.00000E+00        -0.37585E+08
 
   -0.37927E+08         0.51175E+06         0.00000E+00
    0.51175E+06        -0.97739E+08         0.00000E+00
    0.00000E+00         0.00000E+00        -0.37381E+08
 
   -0.37792E+08         0.46170E+06         0.00000E+00
    0.46170E+06        -0.97753E+08         0.00000E+00
    0.00000E+00         0.00000E+00        -0.37176E+08
 
   -0.37662E+08         0.40747E+06         0.00000E+00
    0.40747E+06        -0.97766E+08         0.00000E+00
    0.00000E+00         0.00000E+00        -0.36970E+08
 
   -0.37537E+08         0.34967E+06         0.00000E+00
    0.34967E+06        -0.97777E+08         0.00000E+00
    0.00000E+00         0.00000E+00        -0.36764E+08
 
   -0.37419E+08         0.28934E+06         0.00000E+00
    0.28934E+06        -0.97785E+08         0.00000E+00
    0.00000E+00         0.00000E+00        -0.36557E+08
 
   -0.37307E+08         0.22813E+06         0.00000E+00
    0.22813E+06        -0.97785E+08         0.00000E+00
    0.00000E+00         0.00000E+00        -0.36350E+08
 
   -0.37202E+08         0.16846E+06         0.00000E+00
    0.16846E+06        -0.97777E+08         0.00000E+00
    0.00000E+00         0.00000E+00        -0.36142E+08
 
   -0.37106E+08         0.11357E+06         0.00000E+00
    0.11357E+06        -0.97755E+08         0.00000E+00
    0.00000E+00         0.00000E+00        -0.35935E+08
 
   -0.37021E+08         0.67277E+05         0.00000E+00
    0.67277E+05        -0.97712E+08         0.00000E+00
    0.00000E+00         0.00000E+00        -0.35727E+08
 
   -0.36951E+08         0.33069E+05         0.00000E+00
    0.33069E+05        -0.97642E+08         0.00000E+00
    0.00000E+00         0.00000E+00        -0.35519E+08
 
   -0.36900E+08         0.12367E+05         0.00000E+00
    0.12367E+05        -0.97533E+08         0.00000E+00
    0.00000E+00         0.00000E+00        -0.35312E+08
 
   -0.36873E+08         0.26840E+04         0.00000E+00
    0.26840E+04        -0.97378E+08         0.00000E+00
    0.00000E+00         0.00000E+00        -0.35104E+08
 
   -0.49056E+08         0.19804E+04         0.00000E+00
    0.19804E+04        -0.97693E+08         0.00000E+00
    0.00000E+00         0.00000E+00        -0.49952E+08
 
   -0.49043E+08         0.80787E+04         0.00000E+00
    0.80787E+04        -0.97621E+08         0.00000E+00
    0.00000E+00         0.00000E+00        -0.49855E+08
 
   -0.49018E+08         0.19688E+05         0.00000E+00
    0.19688E+05        -0.97573E+08         0.00000E+00
    0.00000E+00         0.00000E+00        -0.49759E+08
 
   -0.48985E+08         0.38038E+05         0.00000E+00
    0.38038E+05        -0.97541E+08         0.00000E+00
    0.00000E+00         0.00000E+00        -0.49663E+08
 
   -0.48945E+08         0.62394E+05         0.00000E+00
    0.62394E+05        -0.97523E+08         0.00000E+00
    0.00000E+00         0.00000E+00        -0.49566E+08
 
   -0.48899E+08         0.91022E+05         0.00000E+00
    0.91022E+05        -0.97513E+08         0.00000E+00
    0.00000E+00         0.00000E+00        -0.49470E+08
 
   -0.48849E+08         0.12206E+06         0.00000E+00
    0.12206E+06        -0.97509E+08         0.00000E+00
    0.00000E+00         0.00000E+00        -0.49373E+08
 
   -0.48794E+08         0.15398E+06         0.00000E+00
    0.15398E+06        -0.97510E+08         0.00000E+00
    0.00000E+00         0.00000E+00        -0.49276E+08
 
   -0.48736E+08         0.18563E+06         0.00000E+00
    0.18563E+06        -0.97513E+08         0.00000E+00
    0.00000E+00         0.00000E+00        -0.49179E+08
 
   -0.48674E+08         0.21626E+06         0.00000E+00
    0.21626E+06        -0.97517E+08         0.00000E+00
    0.00000E+00         0.00000E+00        -0.49082E+08
 
   -0.48608E+08         0.24540E+06         0.00000E+00
    0.24540E+06        -0.97523E+08         0.00000E+00
    0.00000E+00         0.00000E+00        -0.48984E+08
 
   -0.48539E+08         0.27278E+06         0.00000E+00
    0.27278E+06        -0.97529E+08         0.00000E+00
    0.00000E+00         0.00000E+00        -0.48886E+08
 
   -0.48467E+08         0.29828E+06         0.00000E+00
    0.29828E+06        -0.97534E+08         0.00000E+00
    0.00000E+00         0.00000E+00        -0.48787E+08
 
   -0.48391E+08         0.32190E+06         0.00000E+00
    0.32190E+06        -0.97540E+08         0.00000E+00
    0.00000E+00         0.00000E+00        -0.48688E+08
 
   -0.48312E+08         0.34369E+06         0.00000E+00
    0.34369E+06        -0.97545E+08         0.00000E+00
    0.00000E+00         0.00000E+00        -0.48588E+08
 
   -0.48231E+08         0.36377E+06         0.00000E+00
    0.36377E+06        -0.97550E+08         0.00000E+00
    0.00000E+00         0.00000E+00        -0.48487E+08
 
   -0.48146E+08         0.38224E+06         0.00000E+00
    0.38224E+06        -0.97555E+08         0.00000E+00
    0.00000E+00         0.00000E+00        -0.48386E+08
 
   -0.48059E+08         0.39926E+06         0.00000E+00
    0.39926E+06        -0.97559E+08         0.00000E+00
    0.00000E+00         0.00000E+00        -0.48284E+08
 
   -0.47969E+08         0.41496E+06         0.00000E+00
    0.41496E+06        -0.97562E+08         0.00000E+00
    0.00000E+00         0.00000E+00        -0.48181E+08
 
   -0.47877E+08         0.42950E+06         0.00000E+00
    0.42950E+06        -0.97565E+08         0.00000E+00
    0.00000E+00         0.00000E+00        -0.48078E+08
 
   -0.47782E+08         0.44299E+06         0.00000E+00
    0.44299E+06        -0.97568E+08         0.00000E+00
    0.00000E+00         0.00000E+00        -0.47973E+08
 
   -0.47685E+08         0.45558E+06         0.00000E+00
    0.45558E+06        -0.97570E+08         0.00000E+00
    0.00000E+00         0.00000E+00        -0.47868E+08
 
   -0.47586E+08         0.46737E+06         0.00000E+00
    0.46737E+06        -0.97572E+08         0.00000E+00
    0.00000E+00         0.00000E+00        -0.47762E+08
 
   -0.47485E+08         0.47847E+06         0.00000E+00
    0.47847E+06        -0.97574E+08         0.00000E+00
    0.00000E+00         0.00000E+00        -0.47654E+08
 
   -0.47381E+08         0.48897E+06         0.00000E+00
    0.48897E+06        -0.97575E+08         0.00000E+00
    0.00000E+00         0.00000E+00        -0.47546E+08
 
   -0.47276E+08         0.49897E+06         0.00000E+00
    0.49897E+06        -0.97577E+08         0.00000E+00
    0.00000E+00         0.00000E+00        -0.47436E+08
 
   -0.47169E+08         0.50853E+06         0.00000E+00
    0.50853E+06        -0.97578E+08         0.00000E+00
    0.00000E+00         0.00000E+00        -0.47326E+08
 
   -0.47060E+08         0.51772E+06         0.00000E+00
    0.51772E+06        -0.97579E+08         0.00000E+00
    0.00000E+00         0.00000E+00        -0.47214E+08
 
   -0.46949E+08         0.52659E+06         0.00000E+00
    0.52659E+06        -0.97579E+08         0.00000E+00
    0.00000E+00         0.00000E+00        -0.47101E+08
 
   -0.46836E+08         0.53520E+06         0.00000E+00
    0.53520E+06        -0.97580E+08         0.00000E+00
    0.00000E+00         0.00000E+00        -0.46986E+08
 
   -0.46722E+08         0.54360E+06         0.00000E+00
    0.54360E+06        -0.97580E+08         0.00000E+00
    0.00000E+00         0.00000E+00        -0.46870E+08
 
   -0.46606E+08         0.55181E+06         0.00000E+00
    0.55181E+06        -0.97581E+08         0.00000E+00
    0.00000E+00         0.00000E+00        -0.46753E+08
 
   -0.46488E+08         0.55988E+06         0.00000E+00
    0.55988E+06        -0.97581E+08         0.00000E+00
    0.00000E+00         0.00000E+00        -0.46635E+08
 
   -0.46368E+08         0.56782E+06         0.00000E+00
    0.56782E+06        -0.97581E+08         0.00000E+00
    0.00000E+00         0.00000E+00        -0.46515E+08
 
   -0.46247E+08         0.57566E+06         0.00000E+00
    0.57566E+06        -0.97582E+08         0.00000E+00
    0.00000E+00         0.00000E+00        -0.46394E+08
 
   -0.46124E+08         0.58343E+06         0.00000E+00
    0.58343E+06        -0.97582E+08         0.00000E+00
    0.00000E+00         0.00000E+00        -0.46271E+08
 
   -0.46000E+08         0.59113E+06         0.00000E+00
    0.59113E+06        -0.97582E+08         0.00000E+00
    0.00000E+00         0.00000E+00        -0.46147E+08
 
   -0.45874E+08         0.59878E+06         0.00000E+00
    0.59878E+06        -0.97582E+08         0.00000E+00
    0.00000E+00         0.00000E+00        -0.46021E+08
 
   -0.45746E+08         0.60639E+06         0.00000E+00
    0.60639E+06        -0.97582E+08         0.00000E+00
    0.00000E+00         0.00000E+00        -0.45894E+08
 
   -0.45617E+08         0.61397E+06         0.00000E+00
    0.61397E+06        -0.97582E+08         0.00000E+00
    0.00000E+00         0.00000E+00        -0.45765E+08
 
   -0.45486E+08         0.62153E+06         0.00000E+00
    0.62153E+06        -0.97582E+08         0.00000E+00
    0.00000E+00         0.00000E+00        -0.45635E+08
 
   -0.45353E+08         0.62906E+06         0.00000E+00
    0.62906E+06        -0.97582E+08         0.00000E+00
    0.00000E+00         0.00000E+00        -0.45502E+08
 
   -0.45219E+08         0.63656E+06         0.00000E+00
    0.63656E+06        -0.97582E+08         0.00000E+00
    0.00000E+00         0.00000E+00        -0.45369E+08
 
   -0.45083E+08         0.64405E+06         0.00000E+00
    0.64405E+06        -0.97583E+08         0.00000E+00
    0.00000E+00         0.00000E+00        -0.45233E+08
 
   -0.44946E+08         0.65152E+06         0.00000E+00
    0.65152E+06        -0.97583E+08         0.00000E+00
    0.00000E+00         0.00000E+00        -0.45096E+08
 
   -0.44807E+08         0.65896E+06         0.00000E+00
    0.65896E+06        -0.97583E+08         0.00000E+00
    0.00000E+00         0.00000E+00        -0.44957E+08
 
   -0.44666E+08         0.66636E+06         0.00000E+00
    0.66636E+06        -0.97583E+08         0.00000E+00
    0.00000E+00         0.00000E+00        -0.44816E+08
 
   -0.44523E+08         0.67374E+06         0.00000E+00
    0.67374E+06        -0.97583E+08         0.00000E+00
    0.00000E+00         0.00000E+00        -0.44674E+08
 
   -0.44379E+08         0.68107E+06         0.00000E+00
    0.68107E+06        -0.97583E+08         0.00000E+00
    0.00000E+00         0.00000E+00        -0.44530E+08
 
   -0.44234E+08         0.68834E+06         0.00000E+00
    0.68834E+06        -0.97583E+08         0.00000E+00
    0.00000E+00         0.00000E+00        -0.44384E+08
 
   -0.44087E+08         0.69556E+06         0.00000E+00
    0.69556E+06        -0.97583E+08         0.00000E+00
    0.00000E+00         0.00000E+00        -0.44236E+08
 
   -0.43938E+08         0.70270E+06         0.00000E+00
    0.70270E+06        -0.97583E+08         0.00000E+00
    0.00000E+00         0.00000E+00        -0.44086E+08
 
   -0.43787E+08         0.70976E+06         0.00000E+00
    0.70976E+06        -0.97584E+08         0.00000E+00
    0.00000E+00         0.00000E+00        -0.43935E+08
 
   -0.43636E+08         0.71671E+06         0.00000E+00
    0.71671E+06        -0.97584E+08         0.00000E+00
    0.00000E+00         0.00000E+00        -0.43782E+08
 
   -0.43482E+08         0.72355E+06         0.00000E+00
    0.72355E+06        -0.97584E+08         0.00000E+00
    0.00000E+00         0.00000E+00        -0.43627E+08
 
   -0.43327E+08         0.73025E+06         0.00000E+00
    0.73025E+06        -0.97585E+08         0.00000E+00
    0.00000E+00         0.00000E+00        -0.43470E+08
 
   -0.43171E+08         0.73679E+06         0.00000E+00
    0.73679E+06        -0.97585E+08         0.00000E+00
    0.00000E+00         0.00000E+00        -0.43311E+08
 
   -0.43013E+08         0.74316E+06         0.00000E+00
    0.74316E+06        -0.97585E+08         0.00000E+00
    0.00000E+00         0.00000E+00        -0.43150E+08
 
   -0.42853E+08         0.74933E+06         0.00000E+00
    0.74933E+06        -0.97586E+08         0.00000E+00
    0.00000E+00         0.00000E+00        -0.42988E+08
 
   -0.42693E+08         0.75527E+06         0.00000E+00
    0.75527E+06        -0.97587E+08         0.00000E+00
    0.00000E+00         0.00000E+00        -0.42824E+08
 
   -0.42531E+08         0.76096E+06         0.00000E+00
    0.76096E+06        -0.97587E+08         0.00000E+00
    0.00000E+00         0.00000E+00        -0.42658E+08
 
   -0.42367E+08         0.76635E+06         0.00000E+00
    0.76635E+06        -0.97588E+08         0.00000E+00
    0.00000E+00         0.00000E+00        -0.42490E+08
 
   -0.42203E+08         0.77142E+06         0.00000E+00
    0.77142E+06        -0.97589E+08         0.00000E+00
    0.00000E+00         0.00000E+00        -0.42321E+08
 
   -0.42037E+08         0.77613E+06         0.00000E+00
    0.77613E+06        -0.97590E+08         0.00000E+00
    0.00000E+00         0.00000E+00        -0.42150E+08
 
   -0.41870E+08         0.78042E+06         0.00000E+00
    0.78042E+06        -0.97591E+08         0.00000E+00
    0.00000E+00         0.00000E+00        -0.41977E+08
 
   -0.41702E+08         0.78426E+06         0.00000E+00
    0.78426E+06        -0.97592E+08         0.00000E+00
    0.00000E+00         0.00000E+00        -0.41802E+08
 
   -0.41533E+08         0.78758E+06         0.00000E+00
    0.78758E+06        -0.97593E+08         0.00000E+00
    0.00000E+00         0.00000E+00        -0.41626E+08
 
   -0.41364E+08         0.79033E+06         0.00000E+00
    0.79033E+06        -0.97595E+08         0.00000E+00
    0.00000E+00         0.00000E+00        -0.41447E+08
 
   -0.41193E+08         0.79243E+06         0.00000E+00
    0.79243E+06        -0.97596E+08         0.00000E+00
    0.00000E+00         0.00000E+00        -0.41268E+08
 
   -0.41022E+08         0.79382E+06         0.00000E+00
    0.79382E+06        -0.97598E+08         0.00000E+00
    0.00000E+00         0.00000E+00        -0.41086E+08
 
   -0.40851E+08         0.79440E+06         0.00000E+00
    0.79440E+06        -0.97600E+08         0.00000E+00
    0.00000E+00         0.00000E+00        -0.40903E+08
 
   -0.40679E+08         0.79408E+06         0.00000E+00
    0.79408E+06        -0.97603E+08         0.00000E+00
    0.00000E+00         0.00000E+00        -0.40719E+08
 
   -0.40507E+08         0.79275E+06         0.00000E+00
    0.79275E+06        -0.97605E+08         0.00000E+00
    0.00000E+00         0.00000E+00        -0.40533E+08
 
   -0.40336E+08         0.79029E+06         0.00000E+00
    0.79029E+06        -0.97608E+08         0.00000E+00
    0.00000E+00         0.00000E+00        -0.40345E+08
 
   -0.40164E+08         0.78657E+06         0.00000E+00
    0.78657E+06        -0.97612E+08         0.00000E+00
    0.00000E+00         0.00000E+00        -0.40156E+08
 
   -0.39993E+08         0.78142E+06         0.00000E+00
    0.78142E+06        -0.97615E+08         0.00000E+00
    0.00000E+00         0.00000E+00        -0.39965E+08
 
   -0.39823E+08         0.77469E+06         0.00000E+00
    0.77469E+06        -0.97620E+08         0.00000E+00
    0.00000E+00         0.00000E+00        -0.39773E+08
 
   -0.39653E+08         0.76618E+06         0.00000E+00
    0.76618E+06        -0.97624E+08         0.00000E+00
    0.00000E+00         0.00000E+00        -0.39580E+08
 
   -0.39485E+08         0.75569E+06         0.00000E+00
    0.75569E+06        -0.97630E+08         0.00000E+00
    0.00000E+00         0.00000E+00        -0.39386E+08
 
   -0.39319E+08         0.74299E+06         0.00000E+00
    0.74299E+06        -0.97636E+08         0.00000E+00
    0.00000E+00         0.00000E+00        -0.39190E+08
 
   -0.39154E+08         0.72783E+06         0.00000E+00
    0.72783E+06        -0.97643E+08         0.00000E+00
    0.00000E+00         0.00000E+00        -0.38993E+08
 
   -0.38992E+08         0.70993E+06         0.00000E+00
    0.70993E+06        -0.97651E+08         0.00000E+00
    0.00000E+00         0.00000E+00        -0.38795E+08
 
   -0.38832E+08         0.68902E+06         0.00000E+00
    0.68902E+06        -0.97659E+08         0.00000E+00
    0.00000E+00         0.00000E+00        -0.38596E+08
 
   -0.38674E+08         0.66480E+06         0.00000E+00
    0.66480E+06        -0.97669E+08         0.00000E+00
    0.00000E+00         0.00000E+00        -0.38395E+08
 
   -0.38521E+08         0.63698E+06         0.00000E+00
    0.63698E+06        -0.97679E+08         0.00000E+00
    0.00000E+00         0.00000E+00        -0.38194E+08
 
   -0.38370E+08         0.60526E+06         0.00000E+00
    0.60526E+06        -0.97691E+08         0.00000E+00
    0.00000E+00         0.00000E+00        -0.37992E+08
 
   -0.38224E+08         0.56939E+06         0.00000E+00
    0.56939E+06        -0.97703E+08         0.00000E+00
    0.00000E+00         0.00000E+00        -0.37789E+08
 
   -0.38082E+08         0.52918E+06         0.00000E+00
    0.52918E+06        -0.97716E+08         0.00000E+00
    0.00000E+00         0.00000E+00        -0.37585E+08
 
   -0.37945E+08         0.48453E+06         0.00000E+00
    0.48453E+06        -0.97730E+08         0.00000E+00
    0.00000E+00         0.00000E+00        -0.37381E+08
 
   -0.37813E+08         0.43550E+06         0.00000E+00
    0.43550E+06        -0.97743E+08         0.00000E+00
    0.00000E+00         0.00000E+00        -0.37176E+08
 
   -0.37687E+08         0.38236E+06         0.00000E+00
    0.38236E+06        -0.97755E+08         0.00000E+00
    0.00000E+00         0.00000E+00        -0.36970E+08
 
   -0.37566E+08         0.32572E+06         0.00000E+00
    0.32572E+06        -0.97766E+08         0.00000E+00
    0.00000E+00         0.00000E+00        -0.36764E+08
 
   -0.37451E+08         0.26665E+06         0.00000E+00
    0.26665E+06        -0.97772E+08         0.00000E+00
    0.00000E+00         0.00000E+00        -0.36557E+08
 
   -0.37343E+08         0.20682E+06         0.00000E+00
    0.20682E+06        -0.97773E+08         0.00000E+00
    0.00000E+00         0.00000E+00        -0.36350E+08
 
   -0.37243E+08         0.14872E+06         0.00000E+00
    0.14872E+06        -0.97766E+08         0.00000E+00
    0.00000E+00         0.00000E+00        -0.36142E+08
 
   -0.37151E+08         0.95708E+05         0.00000E+00
    0.95708E+05        -0.97745E+08         0.00000E+00
    0.00000E+00         0.00000E+00        -0.35935E+08
 
   -0.37069E+08         0.51826E+05         0.00000E+00
    0.51826E+05        -0.97704E+08         0.00000E+00
    0.00000E+00         0.00000E+00        -0.35727E+08
 
   -0.37001E+08         0.20846E+05         0.00000E+00
    0.20846E+05        -0.97637E+08         0.00000E+00
    0.00000E+00         0.00000E+00        -0.35519E+08
 
   -0.36951E+08         0.43996E+04         0.00000E+00
    0.43996E+04        -0.97531E+08         0.00000E+00
    0.00000E+00         0.00000E+00        -0.35312E+08
 
   -0.36925E+08        -0.99489E+02         0.00000E+00
   -0.99489E+02        -0.97378E+08         0.00000E+00
    0.00000E+00         0.00000E+00        -0.35104E+08
 
   -0.49030E+08         0.64775E+03         0.00000E+00
    0.64775E+03        -0.97693E+08         0.00000E+00
    0.00000E+00         0.00000E+00        -0.49952E+08
 
   -0.49017E+08         0.42754E+04         0.00000E+00
    0.42754E+04        -0.97623E+08         0.00000E+00
    0.00000E+00         0.00000E+00        -0.49855E+08
 
   -0.48994E+08         0.13875E+05         0.00000E+00
    0.13875E+05        -0.97575E+08         0.00000E+00
    0.00000E+00         0.00000E+00        -0.49759E+08
 
   -0.48961E+08         0.30701E+05         0.00000E+00
    0.30701E+05        -0.97545E+08         0.00000E+00
    0.00000E+00         0.00000E+00        -0.49663E+08
 
   -0.48922E+08         0.53888E+05         0.00000E+00
    0.53888E+05        -0.97528E+08         0.00000E+00
    0.00000E+00         0.00000E+00        -0.49566E+08
 
   -0.48878E+08         0.81552E+05         0.00000E+00
    0.81552E+05        -0.97519E+08         0.00000E+00
    0.00000E+00         0.00000E+00        -0.49470E+08
 
   -0.48830E+08         0.11174E+06         0.00000E+00
    0.11174E+06        -0.97516E+08         0.00000E+00
    0.00000E+00         0.00000E+00        -0.49373E+08
 
   -0.48777E+08         0.14285E+06         0.00000E+00
    0.14285E+06        -0.97516E+08         0.00000E+00
    0.00000E+00         0.00000E+00        -0.49276E+08
 
   -0.48721E+08         0.17374E+06         0.00000E+00
    0.17374E+06        -0.97519E+08         0.00000E+00
    0.00000E+00         0.00000E+00        -0.49179E+08
 
   -0.48660E+08         0.20364E+06         0.00000E+00
    0.20364E+06        -0.97523E+08         0.00000E+00
    0.00000E+00         0.00000E+00        -0.49082E+08
 
   -0.48596E+08         0.23206E+06         0.00000E+00
    0.23206E+06        -0.97528E+08         0.00000E+00
    0.00000E+00         0.00000E+00        -0.48984E+08
 
   -0.48528E+08         0.25875E+06         0.00000E+00
    0.25875E+06        -0.97534E+08         0.00000E+00
    0.00000E+00         0.00000E+00        -0.48886E+08
 
   -0.48457E+08         0.28358E+06         0.00000E+00
    0.28358E+06        -0.97539E+08         0.00000E+00
    0.00000E+00         0.00000E+00        -0.48787E+08
 
   -0.48382E+08         0.30656E+06         0.00000E+00
    0.30656E+06        -0.97545E+08         0.00000E+00
    0.00000E+00         0.00000E+00        -0.48688E+08
 
   -0.48304E+08         0.32774E+06         0.00000E+00
    0.32774E+06        -0.97550E+08         0.00000E+00
    0.00000E+00         0.00000E+00        -0.48588E+08
 
   -0.48223E+08         0.34722E+06         0.00000E+00
    0.34722E+06        -0.97554E+08         0.00000E+00
    0.00000E+00         0.00000E+00        -0.48487E+08
 
   -0.48140E+08         0.36512E+06         0.00000E+00
    0.36512E+06        -0.97558E+08         0.00000E+00
    0.00000E+00         0.00000E+00        -0.48386E+08
 
   -0.48053E+08         0.38160E+06         0.00000E+00
    0.38160E+06        -0.97562E+08         0.00000E+00
    0.00000E+00         0.00000E+00        -0.48284E+08
 
   -0.47963E+08         0.39678E+06         0.00000E+00
    0.39678E+06        -0.97565E+08         0.00000E+00
    0.00000E+00         0.00000E+00        -0.48181E+08
 
   -0.47871E+08         0.41082E+06         0.00000E+00
    0.41082E+06        -0.97568E+08         0.00000E+00
    0.00000E+00         0.00000E+00        -0.48078E+08
 
   -0.47777E+08         0.42384E+06         0.00000E+00
    0.42384E+06        -0.97570E+08         0.00000E+00
    0.00000E+00         0.00000E+00        -0.47973E+08
 
   -0.47680E+08         0.43598E+06         0.00000E+00
    0.43598E+06        -0.97573E+08         0.00000E+00
    0.00000E+00         0.00000E+00        -0.47868E+08
 
   -0.47581E+08         0.44733E+06         0.00000E+00
    0.44733E+06        -0.97574E+08         0.00000E+00
    0.00000E+00         0.00000E+00        -0.47762E+08
 
   -0.47480E+08         0.45801E+06         0.00000E+00
    0.45801E+06        -0.97576E+08         0.00000E+00
    0.00000E+00         0.00000E+00        -0.47654E+08
 
   -0.47377E+08         0.46812E+06         0.00000E+00
    0.46812E+06        -0.97577E+08         0.00000E+00
    0.00000E+00         0.00000E+00        -0.47546E+08
 
   -0.47272E+08         0.47772E+06         0.00000E+00
    0.47772E+06        -0.97579E+08         0.00000E+00
    0.00000E+00         0.00000E+00        -0.47436E+08
 
   -0.47164E+08         0.48690E+06         0.00000E+00
    0.48690E+06        -0.97579E+08         0.00000E+00
    0.00000E+00         0.00000E+00        -0.47326E+08
 
   -0.47055E+08         0.49572E+06         0.00000E+00
    0.49572E+06        -0.97580E+08         0.00000E+00
    0.00000E+00         0.00000E+00        -0.47214E+08
 
   -0.46944E+08         0.50424E+06         0.00000E+00
    0.50424E+06        -0.97581E+08         0.00000E+00
    0.00000E+00         0.00000E+00        -0.47101E+08
 
   -0.46832E+08         0.51250E+06         0.00000E+00
    0.51250E+06        -0.97582E+08         0.00000E+00
    0.00000E+00         0.00000E+00        -0.46986E+08
 
   -0.46717E+08         0.52054E+06         0.00000E+00
    0.52054E+06        -0.97582E+08         0.00000E+00
    0.00000E+00         0.00000E+00        -0.46871E+08
 
   -0.46601E+08         0.52842E+06         0.00000E+00
    0.52842E+06        -0.97582E+08         0.00000E+00
    0.00000E+00         0.00000E+00        -0.46753E+08
 
   -0.46483E+08         0.53614E+06         0.00000E+00
    0.53614E+06        -0.97583E+08         0.00000E+00
    0.00000E+00         0.00000E+00        -0.46635E+08
 
   -0.46364E+08         0.54375E+06         0.00000E+00
    0.54375E+06        -0.97583E+08         0.00000E+00
    0.00000E+00         0.00000E+00        -0.46515E+08
 
   -0.46243E+08         0.55127E+06         0.00000E+00
    0.55127E+06        -0.97583E+08         0.00000E+00
    0.00000E+00         0.00000E+00        -0.46394E+08
 
   -0.46120E+08         0.55870E+06         0.00000E+00
    0.55870E+06        -0.97583E+08         0.00000E+00
    0.00000E+00         0.00000E+00        -0.46271E+08
 
   -0.45995E+08         0.56607E+06         0.00000E+00
    0.56607E+06        -0.97583E+08         0.00000E+00
    0.00000E+00         0.00000E+00        -0.46147E+08
 
   -0.45869E+08         0.57340E+06         0.00000E+00
    0.57340E+06        -0.97584E+08         0.00000E+00
    0.00000E+00         0.00000E+00        -0.46021E+08
 
   -0.45742E+08         0.58068E+06         0.00000E+00
    0.58068E+06        -0.97584E+08         0.00000E+00
    0.00000E+00         0.00000E+00        -0.45894E+08
 
   -0.45612E+08         0.58794E+06         0.00000E+00
    0.58794E+06        -0.97584E+08         0.00000E+00
    0.00000E+00         0.00000E+00        -0.45765E+08
 
   -0.45481E+08         0.59516E+06         0.00000E+00
    0.59516E+06        -0.97584E+08         0.00000E+00
    0.00000E+00         0.00000E+00        -0.45635E+08
 
   -0.45349E+08         0.60237E+06         0.00000E+00
    0.60237E+06        -0.97584E+08         0.00000E+00
    0.00000E+00         0.00000E+00        -0.45502E+08
 
   -0.45214E+08         0.60955E+06         0.00000E+00
    0.60955E+06        -0.97584E+08         0.00000E+00
    0.00000E+00         0.00000E+00        -0.45369E+08
 
   -0.45078E+08         0.61671E+06         0.00000E+00
    0.61671E+06        -0.97584E+08         0.00000E+00
    0.00000E+00         0.00000E+00        -0.45233E+08
 
   -0.44941E+08         0.62385E+06         0.00000E+00
    0.62385E+06        -0.97584E+08         0.00000E+00
    0.00000E+00         0.00000E+00        -0.45096E+08
 
   -0.44802E+08         0.63097E+06         0.00000E+00
    0.63097E+06        -0.97584E+08         0.00000E+00
    0.00000E+00         0.00000E+00        -0.44957E+08
 
   -0.44661E+08         0.63805E+06         0.00000E+00
    0.63805E+06        -0.97584E+08         0.00000E+00
    0.00000E+00         0.00000E+00        -0.44816E+08
 
   -0.44519E+08         0.64510E+06         0.00000E+00
    0.64510E+06        -0.97584E+08         0.00000E+00
    0.00000E+00         0.00000E+00        -0.44674E+08
 
   -0.44375E+08         0.65211E+06         0.00000E+00
    0.65211E+06        -0.97584E+08         0.00000E+00
    0.00000E+00         0.00000E+00        -0.44530E+08
 
   -0.44229E+08         0.65907E+06         0.00000E+00
    0.65907E+06        -0.97585E+08         0.00000E+00
    0.00000E+00         0.00000E+00        -0.44384E+08
 
   -0.44082E+08         0.66596E+06         0.00000E+00
    0.66596E+06        -0.97585E+08         0.00000E+00
    0.00000E+00         0.00000E+00        -0.44236E+08
 
   -0.43933E+08         0.67279E+06         0.00000E+00
    0.67279E+06        -0.97585E+08         0.00000E+00
    0.00000E+00         0.00000E+00        -0.44086E+08
 
   -0.43783E+08         0.67953E+06         0.00000E+00
    0.67953E+06        -0.97585E+08         0.00000E+00
    0.00000E+00         0.00000E+00        -0.43935E+08
 
   -0.43631E+08         0.68617E+06         0.00000E+00
    0.68617E+06        -0.97585E+08         0.00000E+00
    0.00000E+00         0.00000E+00        -0.43782E+08
 
   -0.43477E+08         0.69270E+06         0.00000E+00
    0.69270E+06        -0.97586E+08         0.00000E+00
    0.00000E+00         0.00000E+00        -0.43627E+08
 
   -0.43322E+08         0.69911E+06         0.00000E+00
    0.69911E+06        -0.97586E+08         0.00000E+00
    0.00000E+00         0.00000E+00        -0.43470E+08
 
   -0.43166E+08         0.70536E+06         0.00000E+00
    0.70536E+06        -0.97586E+08         0.00000E+00
    0.00000E+00         0.00000E+00        -0.43311E+08
 
   -0.43008E+08         0.71144E+06         0.00000E+00
    0.71144E+06        -0.97587E+08         0.00000E+00
    0.00000E+00         0.00000E+00        -0.43151E+08
 
   -0.42849E+08         0.71733E+06         0.00000E+00
    0.71733E+06        -0.97587E+08         0.00000E+00
    0.00000E+00         0.00000E+00        -0.42988E+08
 
   -0.42688E+08         0.72300E+06         0.00000E+00
    0.72300E+06        -0.97588E+08         0.00000E+00
    0.00000E+00         0.00000E+00        -0.42824E+08
 
   -0.42526E+08         0.72842E+06         0.00000E+00
    0.72842E+06        -0.97588E+08         0.00000E+00
    0.00000E+00         0.00000E+00        -0.42658E+08
 
   -0.42363E+08         0.73356E+06         0.00000E+00
    0.73356E+06        -0.97589E+08         0.00000E+00
    0.00000E+00         0.00000E+00        -0.42490E+08
 
   -0.42198E+08         0.73839E+06         0.00000E+00
    0.73839E+06        -0.97590E+08         0.00000E+00
    0.00000E+00         0.00000E+00        -0.42321E+08
 
   -0.42033E+08         0.74287E+06         0.00000E+00
    0.74287E+06        -0.97591E+08         0.00000E+00
    0.00000E+00         0.00000E+00        -0.42150E+08
 
   -0.41866E+08         0.74696E+06         0.00000E+00
    0.74696E+06        -0.97592E+08         0.00000E+00
    0.00000E+00         0.00000E+00        -0.41977E+08
 
   -0.41698E+08         0.75060E+06         0.00000E+00
    0.75060E+06        -0.97593E+08         0.00000E+00
    0.00000E+00         0.00000E+00        -0.41802E+08
 
   -0.41530E+08         0.75375E+06         0.00000E+00
    0.75375E+06        -0.97594E+08         0.00000E+00
    0.00000E+00         0.00000E+00        -0.41626E+08
 
   -0.41360E+08         0.75635E+06         0.00000E+00
    0.75635E+06        -0.97595E+08         0.00000E+00
    0.00000E+00         0.00000E+00        -0.41447E+08
 
   -0.41190E+08         0.75833E+06         0.00000E+00
    0.75833E+06        -0.97597E+08         0.00000E+00
    0.00000E+00         0.00000E+00        -0.41268E+08
 
   -0.41020E+08         0.75961E+06         0.00000E+00
    0.75961E+06        -0.97598E+08         0.00000E+00
    0.00000E+00         0.00000E+00        -0.41086E+08
 
   -0.40849E+08         0.76012E+06         0.00000E+00
    0.76012E+06        -0.97600E+08         0.00000E+00
    0.00000E+00         0.00000E+00        -0.40903E+08
 
   -0.40677E+08         0.75976E+06         0.00000E+00
    0.75976E+06        -0.97602E+08         0.00000E+00
    0.00000E+00         0.00000E+00        -0.40719E+08
 
   -0.40506E+08         0.75843E+06         0.00000E+00
    0.75843E+06        -0.97605E+08         0.00000E+00
    0.00000E+00         0.00000E+00        -0.40533E+08
 
   -0.40334E+08         0.75600E+06         0.00000E+00
    0.75600E+06        -0.97608E+08         0.00000E+00
    0.00000E+00         0.00000E+00        -0.40345E+08
 
   -0.40163E+08         0.75235E+06         0.00000E+00
    0.75235E+06        -0.97611E+08         0.00000E+00
    0.00000E+00         0.00000E+00        -0.40156E+08
 
   -0.39993E+08         0.74733E+06         0.00000E+00
    0.74733E+06        -0.97614E+08         0.00000E+00
    0.00000E+00         0.00000E+00        -0.39965E+08
 
   -0.39823E+08         0.74078E+06         0.00000E+00
    0.74078E+06        -0.97618E+08         0.00000E+00
    0.00000E+00         0.00000E+00        -0.39773E+08
 
   -0.39654E+08         0.73250E+06         0.00000E+00
    0.73250E+06        -0.97623E+08         0.00000E+00
    0.00000E+00         0.00000E+00        -0.39580E+08
 
   -0.39487E+08         0.72230E+06         0.00000E+00
    0.72230E+06        -0.97628E+08         0.00000E+00
    0.00000E+00         0.00000E+00        -0.39386E+08
 
   -0.39321E+08         0.70994E+06         0.00000E+00
    0.70994E+06        -0.97633E+08         0.00000E+00
    0.00000E+00         0.00000E+00        -0.39190E+08
 
   -0.39158E+08         0.69519E+06         0.00000E+00
    0.69519E+06        -0.97640E+08         0.00000E+00
    0.00000E+00         0.00000E+00        -0.38993E+08
 
   -0.38996E+08         0.67778E+06         0.00000E+00
    0.67778E+06        -0.97647E+08         0.00000E+00
    0.00000E+00         0.00000E+00        -0.38795E+08
 
   -0.38837E+08         0.65743E+06         0.00000E+00
    0.65743E+06        -0.97655E+08         0.00000E+00
    0.00000E+00         0.00000E+00        -0.38596E+08
 
   -0.38682E+08         0.63385E+06         0.00000E+00
    0.63385E+06        -0.97664E+08         0.00000E+00
    0.00000E+00         0.00000E+00        -0.38395E+08
 
   -0.38529E+08         0.60673E+06         0.00000E+00
    0.60673E+06        -0.97674E+08         0.00000E+00
    0.00000E+00         0.00000E+00        -0.38194E+08
 
   -0.38381E+08         0.57580E+06         0.00000E+00
    0.57580E+06        -0.97684E+08         0.00000E+00
    0.00000E+00         0.00000E+00        -0.37992E+08
 
   -0.38237E+08         0.54080E+06         0.00000E+00
    0.54080E+06        -0.97696E+08         0.00000E+00
    0.00000E+00         0.00000E+00        -0.37789E+08
 
   -0.38098E+08         0.50153E+06         0.00000E+00
    0.50153E+06        -0.97708E+08         0.00000E+00
    0.00000E+00         0.00000E+00        -0.37585E+08
 
   -0.37963E+08         0.45789E+06         0.00000E+00
    0.45789E+06        -0.97721E+08         0.00000E+00
    0.00000E+00         0.00000E+00        -0.37381E+08
 
   -0.37834E+08         0.40995E+06         0.00000E+00
    0.40995E+06        -0.97733E+08         0.00000E+00
    0.00000E+00         0.00000E+00        -0.37176E+08
 
   -0.37711E+08         0.35796E+06         0.00000E+00
    0.35796E+06        -0.97744E+08         0.00000E+00
    0.00000E+00         0.00000E+00        -0.36970E+08
 
   -0.37594E+08         0.30255E+06         0.00000E+00
    0.30255E+06        -0.97754E+08         0.00000E+00
    0.00000E+00         0.00000E+00        -0.36764E+08
 
   -0.37484E+08         0.24478E+06         0.00000E+00
    0.24478E+06        -0.97761E+08         0.00000E+00
    0.00000E+00         0.00000E+00        -0.36557E+08
 
   -0.37380E+08         0.18635E+06         0.00000E+00
    0.18635E+06        -0.97762E+08         0.00000E+00
    0.00000E+00         0.00000E+00        -0.36350E+08
 
   -0.37284E+08         0.12978E+06         0.00000E+00
    0.12978E+06        -0.97755E+08         0.00000E+00
    0.00000E+00         0.00000E+00        -0.36142E+08
 
   -0.37195E+08         0.78559E+05         0.00000E+00
    0.78559E+05        -0.97735E+08         0.00000E+00
    0.00000E+00         0.00000E+00        -0.35935E+08
 
   -0.37117E+08         0.36922E+05         0.00000E+00
    0.36922E+05        -0.97697E+08         0.00000E+00
    0.00000E+00         0.00000E+00        -0.35727E+08
 
   -0.37051E+08         0.89612E+04         0.00000E+00
    0.89612E+04        -0.97632E+08         0.00000E+00
    0.00000E+00         0.00000E+00        -0.35519E+08
 
   -0.37003E+08        -0.34130E+04         0.00000E+00
   -0.34130E+04        -0.97530E+08         0.00000E+00
    0.00000E+00         0.00000E+00        -0.35312E+08
 
   -0.36976E+08        -0.28439E+04         0.00000E+00
   -0.28439E+04        -0.97378E+08         0.00000E+00
    0.00000E+00         0.00000E+00        -0.35104E+08
 
   -0.49005E+08        -0.67051E+03         0.00000E+00
   -0.67051E+03        -0.97693E+08         0.00000E+00
    0.00000E+00         0.00000E+00        -0.49952E+08
 
   -0.48992E+08         0.53596E+03         0.00000E+00
    0.53596E+03        -0.97624E+08         0.00000E+00
    0.00000E+00         0.00000E+00        -0.49855E+08
 
   -0.48969E+08         0.82116E+04         0.00000E+00
    0.82116E+04        -0.97578E+08         0.00000E+00
    0.00000E+00         0.00000E+00        -0.49759E+08
 
   -0.48937E+08         0.23612E+05         0.00000E+00
    0.23612E+05        -0.97549E+08         0.00000E+00
    0.00000E+00         0.00000E+00        -0.49663E+08
 
   -0.48900E+08         0.45705E+05         0.00000E+00
    0.45705E+05        -0.97533E+08         0.00000E+00
    0.00000E+00         0.00000E+00        -0.49566E+08
 
   -0.48858E+08         0.72447E+05         0.00000E+00
    0.72447E+05        -0.97525E+08         0.00000E+00
    0.00000E+00         0.00000E+00        -0.49470E+08
 
   -0.48811E+08         0.10179E+06         0.00000E+00
    0.10179E+06        -0.97522E+08         0.00000E+00
    0.00000E+00         0.00000E+00        -0.49373E+08
 
   -0.48760E+08         0.13209E+06         0.00000E+00
    0.13209E+06        -0.97522E+08         0.00000E+00
    0.00000E+00         0.00000E+00        -0.49276E+08
 
   -0.48706E+08         0.16219E+06         0.00000E+00
    0.16219E+06        -0.97525E+08         0.00000E+00
    0.00000E+00         0.00000E+00        -0.49179E+08
 
   -0.48647E+08         0.19132E+06         0.00000E+00
    0.19132E+06        -0.97529E+08         0.00000E+00
    0.00000E+00         0.00000E+00        -0.49082E+08
 
   -0.48584E+08         0.21899E+06         0.00000E+00
    0.21899E+06        -0.97534E+08         0.00000E+00
    0.00000E+00         0.00000E+00        -0.48984E+08
 
   -0.48517E+08         0.24495E+06         0.00000E+00
    0.24495E+06        -0.97539E+08         0.00000E+00
    0.00000E+00         0.00000E+00        -0.48886E+08
 
   -0.48447E+08         0.26909E+06         0.00000E+00
    0.26909E+06        -0.97544E+08         0.00000E+00
    0.00000E+00         0.00000E+00        -0.48787E+08
 
   -0.48374E+08         0.29140E+06         0.00000E+00
    0.29140E+06        -0.97549E+08         0.00000E+00
    0.00000E+00         0.00000E+00        -0.48688E+08
 
   -0.48296E+08         0.31193E+06         0.00000E+00
    0.31193E+06        -0.97554E+08         0.00000E+00
    0.00000E+00         0.00000E+00        -0.48588E+08
 
   -0.48216E+08         0.33079E+06         0.00000E+00
    0.33079E+06        -0.97558E+08         0.00000E+00
    0.00000E+00         0.00000E+00        -0.48487E+08
 
   -0.48133E+08         0.34811E+06         0.00000E+00
    0.34811E+06        -0.97562E+08         0.00000E+00
    0.00000E+00         0.00000E+00        -0.48386E+08
 
   -0.48047E+08         0.36402E+06         0.00000E+00
    0.36402E+06        -0.97565E+08         0.00000E+00
    0.00000E+00         0.00000E+00        -0.48284E+08
 
   -0.47958E+08         0.37868E+06         0.00000E+00
    0.37868E+06        -0.97568E+08         0.00000E+00
    0.00000E+00         0.00000E+00        -0.48181E+08
 
   -0.47866E+08         0.39221E+06         0.00000E+00
    0.39221E+06        -0.97571E+08         0.00000E+00
    0.00000E+00         0.00000E+00        -0.48078E+08
 
   -0.47772E+08         0.40474E+06         0.00000E+00
    0.40474E+06        -0.97573E+08         0.00000E+00
    0.00000E+00         0.00000E+00        -0.47973E+08
 
   -0.47675E+08         0.41641E+06         0.00000E+00
    0.41641E+06        -0.97575E+08         0.00000E+00
    0.00000E+00         0.00000E+00        -0.47868E+08
 
   -0.47576E+08         0.42733E+06         0.00000E+00
    0.42733E+06        -0.97577E+08         0.00000E+00
    0.00000E+00         0.00000E+00        -0.47762E+08
 
   -0.47475E+08         0.43758E+06         0.00000E+00
    0.43758E+06        -0.97578E+08         0.00000E+00
    0.00000E+00         0.00000E+00        -0.47654E+08
 
   -0.47372E+08         0.44728E+06         0.00000E+00
    0.44728E+06        -0.97579E+08         0.00000E+00
    0.00000E+00         0.00000E+00        -0.47546E+08
 
   -0.47267E+08         0.45648E+06         0.00000E+00
    0.45648E+06        -0.97580E+08         0.00000E+00
    0.00000E+00         0.00000E+00        -0.47436E+08
 
   -0.47160E+08         0.46528E+06         0.00000E+00
    0.46528E+06        -0.97581E+08         0.00000E+00
    0.00000E+00         0.00000E+00        -0.47326E+08
 
   -0.47051E+08         0.47373E+06         0.00000E+00
    0.47373E+06        -0.97582E+08         0.00000E+00
    0.00000E+00         0.00000E+00        -0.47214E+08
 
   -0.46940E+08         0.48188E+06         0.00000E+00
    0.48188E+06        -0.97583E+08         0.00000E+00
    0.00000E+00         0.00000E+00        -0.47101E+08
 
   -0.46827E+08         0.48979E+06         0.00000E+00
    0.48979E+06        -0.97583E+08         0.00000E+00
    0.00000E+00         0.00000E+00        -0.46986E+08
 
   -0.46713E+08         0.49749E+06         0.00000E+00
    0.49749E+06        -0.97584E+08         0.00000E+00
    0.00000E+00         0.00000E+00        -0.46871E+08
 
   -0.46597E+08         0.50502E+06         0.00000E+00
    0.50502E+06        -0.97584E+08         0.00000E+00
    0.00000E+00         0.00000E+00        -0.46753E+08
 
   -0.46479E+08         0.51241E+06         0.00000E+00
    0.51241E+06        -0.97584E+08         0.00000E+00
    0.00000E+00         0.00000E+00        -0.46635E+08
 
   -0.46359E+08         0.51968E+06         0.00000E+00
    0.51968E+06        -0.97584E+08         0.00000E+00
    0.00000E+00         0.00000E+00        -0.46515E+08
 
   -0.46238E+08         0.52686E+06         0.00000E+00
    0.52686E+06        -0.97585E+08         0.00000E+00
    0.00000E+00         0.00000E+00        -0.46394E+08
 
   -0.46115E+08         0.53397E+06         0.00000E+00
    0.53397E+06        -0.97585E+08         0.00000E+00
    0.00000E+00         0.00000E+00        -0.46271E+08
 
   -0.45991E+08         0.54101E+06         0.00000E+00
    0.54101E+06        -0.97585E+08         0.00000E+00
    0.00000E+00         0.00000E+00        -0.46147E+08
 
   -0.45865E+08         0.54801E+06         0.00000E+00
    0.54801E+06        -0.97585E+08         0.00000E+00
    0.00000E+00         0.00000E+00        -0.46021E+08
 
   -0.45737E+08         0.55497E+06         0.00000E+00
    0.55497E+06        -0.97585E+08         0.00000E+00
    0.00000E+00         0.00000E+00        -0.45894E+08
 
   -0.45608E+08         0.56189E+06         0.00000E+00
    0.56189E+06        -0.97585E+08         0.00000E+00
    0.00000E+00         0.00000E+00        -0.45765E+08
 
   -0.45477E+08         0.56880E+06         0.00000E+00
    0.56880E+06        -0.97585E+08         0.00000E+00
    0.00000E+00         0.00000E+00        -0.45635E+08
 
   -0.45344E+08         0.57567E+06         0.00000E+00
    0.57567E+06        -0.97585E+08         0.00000E+00
    0.00000E+00         0.00000E+00        -0.45502E+08
 
   -0.45210E+08         0.58253E+06         0.00000E+00
    0.58253E+06        -0.97585E+08         0.00000E+00
    0.00000E+00         0.00000E+00        -0.45369E+08
 
   -0.45074E+08         0.58937E+06         0.00000E+00
    0.58937E+06        -0.97585E+08         0.00000E+00
    0.00000E+00         0.00000E+00        -0.45233E+08
 
   -0.44936E+08         0.59619E+06         0.00000E+00
    0.59619E+06        -0.97585E+08         0.00000E+00
    0.00000E+00         0.00000E+00        -0.45096E+08
 
   -0.44797E+08         0.60298E+06         0.00000E+00
    0.60298E+06        -0.97585E+08         0.00000E+00
    0.00000E+00         0.00000E+00        -0.44957E+08
 
   -0.44656E+08         0.60974E+06         0.00000E+00
    0.60974E+06        -0.97586E+08         0.00000E+00
    0.00000E+00         0.00000E+00        -0.44816E+08
 
   -0.44514E+08         0.61646E+06         0.00000E+00
    0.61646E+06        -0.97586E+08         0.00000E+00
    0.00000E+00         0.00000E+00        -0.44674E+08
 
   -0.44370E+08         0.62315E+06         0.00000E+00
    0.62315E+06        -0.97586E+08         0.00000E+00
    0.00000E+00         0.00000E+00        -0.44530E+08
 
   -0.44224E+08         0.62979E+06         0.00000E+00
    0.62979E+06        -0.97586E+08         0.00000E+00
    0.00000E+00         0.00000E+00        -0.44384E+08
 
   -0.44077E+08         0.63637E+06         0.00000E+00
    0.63637E+06        -0.97586E+08         0.00000E+00
    0.00000E+00         0.00000E+00        -0.44236E+08
 
   -0.43928E+08         0.64288E+06         0.00000E+00
    0.64288E+06        -0.97586E+08         0.00000E+00
    0.00000E+00         0.00000E+00        -0.44086E+08
 
   -0.43778E+08         0.64931E+06         0.00000E+00
    0.64931E+06        -0.97586E+08         0.00000E+00
    0.00000E+00         0.00000E+00        -0.43935E+08
 
   -0.43626E+08         0.65564E+06         0.00000E+00
    0.65564E+06        -0.97587E+08         0.00000E+00
    0.00000E+00         0.00000E+00        -0.43782E+08
 
   -0.43473E+08         0.66187E+06         0.00000E+00
    0.66187E+06        -0.97587E+08         0.00000E+00
    0.00000E+00         0.00000E+00        -0.43627E+08
 
   -0.43318E+08         0.66797E+06         0.00000E+00
    0.66797E+06        -0.97587E+08         0.00000E+00
    0.00000E+00         0.00000E+00        -0.43470E+08
 
   -0.43161E+08         0.67393E+06         0.00000E+00
    0.67393E+06        -0.97587E+08         0.00000E+00
    0.00000E+00         0.00000E+00        -0.43311E+08
 
   -0.43004E+08         0.67973E+06         0.00000E+00
    0.67973E+06        -0.97588E+08         0.00000E+00
    0.00000E+00         0.00000E+00        -0.43151E+08
 
   -0.42844E+08         0.68534E+06         0.00000E+00
    0.68534E+06        -0.97588E+08         0.00000E+00
    0.00000E+00         0.00000E+00        -0.42988E+08
 
   -0.42684E+08         0.69074E+06         0.00000E+00
    0.69074E+06        -0.97589E+08         0.00000E+00
    0.00000E+00         0.00000E+00        -0.42824E+08
 
   -0.42522E+08         0.69590E+06         0.00000E+00
    0.69590E+06        -0.97589E+08         0.00000E+00
    0.00000E+00         0.00000E+00        -0.42658E+08
 
   -0.42359E+08         0.70080E+06         0.00000E+00
    0.70080E+06        -0.97590E+08         0.00000E+00
    0.00000E+00         0.00000E+00        -0.42490E+08
 
   -0.42194E+08         0.70539E+06         0.00000E+00
    0.70539E+06        -0.97591E+08         0.00000E+00
    0.00000E+00         0.00000E+00        -0.42321E+08
 
   -0.42029E+08         0.70965E+06         0.00000E+00
    0.70965E+06        -0.97591E+08         0.00000E+00
    0.00000E+00         0.00000E+00        -0.42150E+08
 
   -0.41862E+08         0.71353E+06         0.00000E+00
    0.71353E+06        -0.97592E+08         0.00000E+00
    0.00000E+00         0.00000E+00        -0.41977E+08
 
   -0.41695E+08         0.71698E+06         0.00000E+00
    0.71698E+06        -0.97593E+08         0.00000E+00
    0.00000E+00         0.00000E+00        -0.41802E+08
 
   -0.41526E+08         0.71997E+06         0.00000E+00
    0.71997E+06        -0.97594E+08         0.00000E+00
    0.00000E+00         0.00000E+00        -0.41626E+08
 
   -0.41357E+08         0.72242E+06         0.00000E+00
    0.72242E+06        -0.97596E+08         0.00000E+00
    0.00000E+00         0.00000E+00        -0.41447E+08
 
   -0.41187E+08         0.72427E+06         0.00000E+00
    0.72427E+06        -0.97597E+08         0.00000E+00
    0.00000E+00         0.00000E+00        -0.41268E+08
 
   -0.41017E+08         0.72546E+06         0.00000E+00
    0.72546E+06        -0.97599E+08         0.00000E+00
    0.00000E+00         0.00000E+00        -0.41086E+08
 
   -0.40846E+08         0.72591E+06         0.00000E+00
    0.72591E+06        -0.97600E+08         0.00000E+00
    0.00000E+00         0.00000E+00        -0.40903E+08
 
   -0.40675E+08         0.72551E+06         0.00000E+00
    0.72551E+06        -0.97602E+08         0.00000E+00
    0.00000E+00         0.00000E+00        -0.40719E+08
 
   -0.40504E+08         0.72418E+06         0.00000E+00
    0.72418E+06        -0.97605E+08         0.00000E+00
    0.00000E+00         0.00000E+00        -0.40533E+08
 
   -0.40333E+08         0.72180E+06         0.00000E+00
    0.72180E+06        -0.97607E+08         0.00000E+00
    0.00000E+00         0.00000E+00        -0.40345E+08
 
   -0.40163E+08         0.71824E+06         0.00000E+00
    0.71824E+06        -0.97610E+08         0.00000E+00
    0.00000E+00         0.00000E+00        -0.40156E+08
 
   -0.39993E+08         0.71336E+06         0.00000E+00
    0.71336E+06        -0.97613E+08         0.00000E+00
    0.00000E+00         0.00000E+00        -0.39965E+08
 
   -0.39823E+08         0.70699E+06         0.00000E+00
    0.70699E+06        -0.97617E+08         0.00000E+00
    0.00000E+00         0.00000E+00        -0.39773E+08
 
   -0.39655E+08         0.69895E+06         0.00000E+00
    0.69895E+06        -0.97621E+08         0.00000E+00
    0.00000E+00         0.00000E+00        -0.39580E+08
 
   -0.39489E+08         0.68905E+06         0.00000E+00
    0.68905E+06        -0.97625E+08         0.00000E+00
    0.00000E+00         0.00000E+00        -0.39386E+08
 
   -0.39324E+08         0.67707E+06         0.00000E+00
    0.67707E+06        -0.97631E+08         0.00000E+00
    0.00000E+00         0.00000E+00        -0.39190E+08
 
   -0.39161E+08         0.66276E+06         0.00000E+00
    0.66276E+06        -0.97637E+08         0.00000E+00
    0.00000E+00         0.00000E+00        -0.38993E+08
 
   -0.39001E+08         0.64587E+06         0.00000E+00
    0.64587E+06        -0.97643E+08         0.00000E+00
    0.00000E+00         0.00000E+00        -0.38795E+08
 
   -0.38843E+08         0.62610E+06         0.00000E+00
    0.62610E+06        -0.97651E+08         0.00000E+00
    0.00000E+00         0.00000E+00        -0.38596E+08
 
   -0.38689E+08         0.60319E+06         0.00000E+00
    0.60319E+06        -0.97659E+08         0.00000E+00
    0.00000E+00         0.00000E+00        -0.38395E+08
 
   -0.38538E+08         0.57683E+06         0.00000E+00
    0.57683E+06        -0.97668E+08         0.00000E+00
    0.00000E+00         0.00000E+00        -0.38194E+08
 
   -0.38392E+08         0.54673E+06         0.00000E+00
    0.54673E+06        -0.97678E+08         0.00000E+00
    0.00000E+00         0.00000E+00        -0.37992E+08
 
   -0.38250E+08         0.51265E+06         0.00000E+00
    0.51265E+06        -0.97689E+08         0.00000E+00
    0.00000E+00         0.00000E+00        -0.37789E+08
 
   -0.38112E+08         0.47438E+06         0.00000E+00
    0.47438E+06        -0.97700E+08         0.00000E+00
    0.00000E+00         0.00000E+00        -0.37585E+08
 
   -0.37981E+08         0.43183E+06         0.00000E+00
    0.43183E+06        -0.97711E+08         0.00000E+00
    0.00000E+00         0.00000E+00        -0.37381E+08
 
   -0.37855E+08         0.38504E+06         0.00000E+00
    0.38504E+06        -0.97723E+08         0.00000E+00
    0.00000E+00         0.00000E+00        -0.37176E+08
 
   -0.37735E+08         0.33429E+06         0.00000E+00
    0.33429E+06        -0.97734E+08         0.00000E+00
    0.00000E+00         0.00000E+00        -0.36970E+08
 
   -0.37622E+08         0.28017E+06         0.00000E+00
    0.28017E+06        -0.97743E+08         0.00000E+00
    0.00000E+00         0.00000E+00        -0.36764E+08
 
   -0.37515E+08         0.22375E+06         0.00000E+00
    0.22375E+06        -0.97749E+08         0.00000E+00
    0.00000E+00         0.00000E+00        -0.36557E+08
 
   -0.37416E+08         0.16673E+06         0.00000E+00
    0.16673E+06        -0.97750E+08         0.00000E+00
    0.00000E+00         0.00000E+00        -0.36350E+08
 
   -0.37324E+08         0.11168E+06         0.00000E+00
    0.11168E+06        -0.97744E+08         0.00000E+00
    0.00000E+00         0.00000E+00        -0.36142E+08
 
   -0.37240E+08         0.62146E+05         0.00000E+00
    0.62146E+05        -0.97726E+08         0.00000E+00
    0.00000E+00         0.00000E+00        -0.35935E+08
 
   -0.37165E+08         0.22582E+05         0.00000E+00
    0.22582E+05        -0.97690E+08         0.00000E+00
    0.00000E+00         0.00000E+00        -0.35727E+08
 
   -0.37101E+08        -0.25778E+04         0.00000E+00
   -0.25778E+04        -0.97629E+08         0.00000E+00
    0.00000E+00         0.00000E+00        -0.35519E+08
 
   -0.37054E+08        -0.11074E+05         0.00000E+00
   -0.11074E+05        -0.97529E+08         0.00000E+00
    0.00000E+00         0.00000E+00        -0.35312E+08
 
   -0.37028E+08        -0.55524E+04         0.00000E+00
   -0.55524E+04        -0.97380E+08         0.00000E+00
    0.00000E+00         0.00000E+00        -0.35104E+08
 
   -0.48979E+08        -0.19756E+04         0.00000E+00
   -0.19756E+04        -0.97693E+08         0.00000E+00
    0.00000E+00         0.00000E+00        -0.49952E+08
 
   -0.48967E+08        -0.31399E+04         0.00000E+00
   -0.31399E+04        -0.97625E+08         0.00000E+00
    0.00000E+00         0.00000E+00        -0.49855E+08
 
   -0.48944E+08         0.27040E+04         0.00000E+00
    0.27040E+04        -0.97580E+08         0.00000E+00
    0.00000E+00         0.00000E+00        -0.49759E+08
 
   -0.48914E+08         0.16782E+05         0.00000E+00
    0.16782E+05        -0.97553E+08         0.00000E+00
    0.00000E+00         0.00000E+00        -0.49663E+08
 
   -0.48878E+08         0.37861E+05         0.00000E+00
    0.37861E+05        -0.97538E+08         0.00000E+00
    0.00000E+00         0.00000E+00        -0.49566E+08
 
   -0.48837E+08         0.63721E+05         0.00000E+00
    0.63721E+05        -0.97530E+08         0.00000E+00
    0.00000E+00         0.00000E+00        -0.49470E+08
 
   -0.48793E+08         0.92222E+05         0.00000E+00
    0.92222E+05        -0.97528E+08         0.00000E+00
    0.00000E+00         0.00000E+00        -0.49373E+08
 
   -0.48744E+08         0.12170E+06         0.00000E+00
    0.12170E+06        -0.97528E+08         0.00000E+00
    0.00000E+00         0.00000E+00        -0.49276E+08
 
   -0.48691E+08         0.15098E+06         0.00000E+00
    0.15098E+06        -0.97531E+08         0.00000E+00
    0.00000E+00         0.00000E+00        -0.49179E+08
 
   -0.48634E+08         0.17931E+06         0.00000E+00
    0.17931E+06        -0.97535E+08         0.00000E+00
    0.00000E+00         0.00000E+00        -0.49082E+08
 
   -0.48572E+08         0.20620E+06         0.00000E+00
    0.20620E+06        -0.97539E+08         0.00000E+00
    0.00000E+00         0.00000E+00        -0.48984E+08
 
   -0.48507E+08         0.23140E+06         0.00000E+00
    0.23140E+06        -0.97544E+08         0.00000E+00
    0.00000E+00         0.00000E+00        -0.48886E+08
 
   -0.48438E+08         0.25480E+06         0.00000E+00
    0.25480E+06        -0.97549E+08         0.00000E+00
    0.00000E+00         0.00000E+00        -0.48787E+08
 
   -0.48365E+08         0.27640E+06         0.00000E+00
    0.27640E+06        -0.97553E+08         0.00000E+00
    0.00000E+00         0.00000E+00        -0.48688E+08
 
   -0.48289E+08         0.29626E+06         0.00000E+00
    0.29626E+06        -0.97557E+08         0.00000E+00
    0.00000E+00         0.00000E+00        -0.48588E+08
 
   -0.48209E+08         0.31448E+06         0.00000E+00
    0.31448E+06        -0.97561E+08         0.00000E+00
    0.00000E+00         0.00000E+00        -0.48487E+08
 
   -0.48126E+08         0.33120E+06         0.00000E+00
    0.33120E+06        -0.97565E+08         0.00000E+00
    0.00000E+00         0.00000E+00        -0.48386E+08
 
   -0.48041E+08         0.34653E+06         0.00000E+00
    0.34653E+06        -0.97568E+08         0.00000E+00
    0.00000E+00         0.00000E+00        -0.48284E+08
 
   -0.47952E+08         0.36064E+06         0.00000E+00
    0.36064E+06        -0.97571E+08         0.00000E+00
    0.00000E+00         0.00000E+00        -0.48181E+08
 
   -0.47861E+08         0.37365E+06         0.00000E+00
    0.37365E+06        -0.97573E+08         0.00000E+00
    0.00000E+00         0.00000E+00        -0.48078E+08
 
   -0.47767E+08         0.38569E+06         0.00000E+00
    0.38569E+06        -0.97575E+08         0.00000E+00
    0.00000E+00         0.00000E+00        -0.47973E+08
 
   -0.47670E+08         0.39689E+06         0.00000E+00
    0.39689E+06        -0.97577E+08         0.00000E+00
    0.00000E+00         0.00000E+00        -0.47868E+08
 
   -0.47572E+08         0.40735E+06         0.00000E+00
    0.40735E+06        -0.97579E+08         0.00000E+00
    0.00000E+00         0.00000E+00        -0.47762E+08
 
   -0.47471E+08         0.41717E+06         0.00000E+00
    0.41717E+06        -0.97580E+08         0.00000E+00
    0.00000E+00         0.00000E+00        -0.47654E+08
 
   -0.47368E+08         0.42645E+06         0.00000E+00
    0.42645E+06        -0.97581E+08         0.00000E+00
    0.00000E+00         0.00000E+00        -0.47546E+08
 
   -0.47263E+08         0.43526E+06         0.00000E+00
    0.43526E+06        -0.97582E+08         0.00000E+00
    0.00000E+00         0.00000E+00        -0.47436E+08
 
   -0.47156E+08         0.44367E+06         0.00000E+00
    0.44367E+06        -0.97583E+08         0.00000E+00
    0.00000E+00         0.00000E+00        -0.47326E+08
 
   -0.47047E+08         0.45175E+06         0.00000E+00
    0.45175E+06        -0.97584E+08         0.00000E+00
    0.00000E+00         0.00000E+00        -0.47214E+08
 
   -0.46936E+08         0.45953E+06         0.00000E+00
    0.45953E+06        -0.97584E+08         0.00000E+00
    0.00000E+00         0.00000E+00        -0.47101E+08
 
   -0.46823E+08         0.46708E+06         0.00000E+00
    0.46708E+06        -0.97585E+08         0.00000E+00
    0.00000E+00         0.00000E+00        -0.46986E+08
 
   -0.46709E+08         0.47443E+06         0.00000E+00
    0.47443E+06        -0.97585E+08         0.00000E+00
    0.00000E+00         0.00000E+00        -0.46871E+08
 
   -0.46593E+08         0.48162E+06         0.00000E+00
    0.48162E+06        -0.97585E+08         0.00000E+00
    0.00000E+00         0.00000E+00        -0.46753E+08
 
   -0.46475E+08         0.48867E+06         0.00000E+00
    0.48867E+06        -0.97586E+08         0.00000E+00
    0.00000E+00         0.00000E+00        -0.46635E+08
 
   -0.46355E+08         0.49561E+06         0.00000E+00
    0.49561E+06        -0.97586E+08         0.00000E+00
    0.00000E+00         0.00000E+00        -0.46515E+08
 
   -0.46234E+08         0.50245E+06         0.00000E+00
    0.50245E+06        -0.97586E+08         0.00000E+00
    0.00000E+00         0.00000E+00        -0.46394E+08
 
   -0.46111E+08         0.50923E+06         0.00000E+00
    0.50923E+06        -0.97586E+08         0.00000E+00
    0.00000E+00         0.00000E+00        -0.46271E+08
 
   -0.45986E+08         0.51594E+06         0.00000E+00
    0.51594E+06        -0.97586E+08         0.00000E+00
    0.00000E+00         0.00000E+00        -0.46147E+08
 
   -0.45860E+08         0.52261E+06         0.00000E+00
    0.52261E+06        -0.97586E+08         0.00000E+00
    0.00000E+00         0.00000E+00        -0.46021E+08
 
   -0.45732E+08         0.52924E+06         0.00000E+00
    0.52924E+06        -0.97586E+08         0.00000E+00
    0.00000E+00         0.00000E+00        -0.45894E+08
 
   -0.45603E+08         0.53585E+06         0.00000E+00
    0.53585E+06        -0.97587E+08         0.00000E+00
    0.00000E+00         0.00000E+00        -0.45765E+08
 
   -0.45472E+08         0.54242E+06         0.00000E+00
    0.54242E+06        -0.97587E+08         0.00000E+00
    0.00000E+00         0.00000E+00        -0.45635E+08
 
   -0.45339E+08         0.54898E+06         0.00000E+00
    0.54898E+06        -0.97587E+08         0.00000E+00
    0.00000E+00         0.00000E+00        -0.45502E+08
 
   -0.45205E+08         0.55551E+06         0.00000E+00
    0.55551E+06        -0.97587E+08         0.00000E+00
    0.00000E+00         0.00000E+00        -0.45369E+08
 
   -0.45069E+08         0.56202E+06         0.00000E+00
    0.56202E+06        -0.97587E+08         0.00000E+00
    0.00000E+00         0.00000E+00        -0.45233E+08
 
   -0.44931E+08         0.56851E+06         0.00000E+00
    0.56851E+06        -0.97587E+08         0.00000E+00
    0.00000E+00         0.00000E+00        -0.45096E+08
 
   -0.44792E+08         0.57498E+06         0.00000E+00
    0.57498E+06        -0.97587E+08         0.00000E+00
    0.00000E+00         0.00000E+00        -0.44957E+08
 
   -0.44651E+08         0.58142E+06         0.00000E+00
    0.58142E+06        -0.97587E+08         0.00000E+00
    0.00000E+00         0.00000E+00        -0.44816E+08
 
   -0.44509E+08         0.58783E+06         0.00000E+00
    0.58783E+06        -0.97587E+08         0.00000E+00
    0.00000E+00         0.00000E+00        -0.44674E+08
 
   -0.44365E+08         0.59419E+06         0.00000E+00
    0.59419E+06        -0.97587E+08         0.00000E+00
    0.00000E+00         0.00000E+00        -0.44530E+08
 
   -0.44220E+08         0.60051E+06         0.00000E+00
    0.60051E+06        -0.97587E+08         0.00000E+00
    0.00000E+00         0.00000E+00        -0.44384E+08
 
   -0.44072E+08         0.60678E+06         0.00000E+00
    0.60678E+06        -0.97587E+08         0.00000E+00
    0.00000E+00         0.00000E+00        -0.44236E+08
 
   -0.43924E+08         0.61297E+06         0.00000E+00
    0.61297E+06        -0.97587E+08         0.00000E+00
    0.00000E+00         0.00000E+00        -0.44086E+08
 
   -0.43773E+08         0.61909E+06         0.00000E+00
    0.61909E+06        -0.97588E+08         0.00000E+00
    0.00000E+00         0.00000E+00        -0.43935E+08
 
   -0.43621E+08         0.62512E+06         0.00000E+00
    0.62512E+06        -0.97588E+08         0.00000E+00
    0.00000E+00         0.00000E+00        -0.43782E+08
 
   -0.43468E+08         0.63105E+06         0.00000E+00
    0.63105E+06        -0.97588E+08         0.00000E+00
    0.00000E+00         0.00000E+00        -0.43627E+08
 
   -0.43313E+08         0.63685E+06         0.00000E+00
    0.63685E+06        -0.97588E+08         0.00000E+00
    0.00000E+00         0.00000E+00        -0.43470E+08
 
   -0.43157E+08         0.64252E+06         0.00000E+00
    0.64252E+06        -0.97589E+08         0.00000E+00
    0.00000E+00         0.00000E+00        -0.43311E+08
 
   -0.42999E+08         0.64803E+06         0.00000E+00
    0.64803E+06        -0.97589E+08         0.00000E+00
    0.00000E+00         0.00000E+00        -0.43151E+08
 
   -0.42840E+08         0.65336E+06         0.00000E+00
    0.65336E+06        -0.97589E+08         0.00000E+00
    0.00000E+00         0.00000E+00        -0.42988E+08
 
   -0.42680E+08         0.65850E+06         0.00000E+00
    0.65850E+06        -0.97590E+08         0.00000E+00
    0.00000E+00         0.00000E+00        -0.42824E+08
 
   -0.42518E+08         0.66340E+06         0.00000E+00
    0.66340E+06        -0.97590E+08         0.00000E+00
    0.00000E+00         0.00000E+00        -0.42658E+08
 
   -0.42355E+08         0.66805E+06         0.00000E+00
    0.66805E+06        -0.97591E+08         0.00000E+00
    0.00000E+00         0.00000E+00        -0.42490E+08
 
   -0.42190E+08         0.67241E+06         0.00000E+00
    0.67241E+06        -0.97592E+08         0.00000E+00
    0.00000E+00         0.00000E+00        -0.42321E+08
 
   -0.42025E+08         0.67645E+06         0.00000E+00
    0.67645E+06        -0.97592E+08         0.00000E+00
    0.00000E+00         0.00000E+00        -0.42150E+08
 
   -0.41859E+08         0.68013E+06         0.00000E+00
    0.68013E+06        -0.97593E+08         0.00000E+00
    0.00000E+00         0.00000E+00        -0.41977E+08
 
   -0.41691E+08         0.68340E+06         0.00000E+00
    0.68340E+06        -0.97594E+08         0.00000E+00
    0.00000E+00         0.00000E+00        -0.41802E+08
 
   -0.41523E+08         0.68622E+06         0.00000E+00
    0.68622E+06        -0.97595E+08         0.00000E+00
    0.00000E+00         0.00000E+00        -0.41626E+08
 
   -0.41354E+08         0.68853E+06         0.00000E+00
    0.68853E+06        -0.97596E+08         0.00000E+00
    0.00000E+00         0.00000E+00        -0.41448E+08
 
   -0.41184E+08         0.69027E+06         0.00000E+00
    0.69027E+06        -0.97597E+08         0.00000E+00
    0.00000E+00         0.00000E+00        -0.41268E+08
 
   -0.41014E+08         0.69137E+06         0.00000E+00
    0.69137E+06        -0.97599E+08         0.00000E+00
    0.00000E+00         0.00000E+00        -0.41086E+08
 
   -0.40844E+08         0.69175E+06         0.00000E+00
    0.69175E+06        -0.97600E+08         0.00000E+00
    0.00000E+00         0.00000E+00        -0.40903E+08
 
   -0.40673E+08         0.69133E+06         0.00000E+00
    0.69133E+06        -0.97602E+08         0.00000E+00
    0.00000E+00         0.00000E+00        -0.40719E+08
 
   -0.40502E+08         0.69001E+06         0.00000E+00
    0.69001E+06        -0.97604E+08         0.00000E+00
    0.00000E+00         0.00000E+00        -0.40533E+08
 
   -0.40332E+08         0.68768E+06         0.00000E+00
    0.68768E+06        -0.97606E+08         0.00000E+00
    0.00000E+00         0.00000E+00        -0.40345E+08
 
   -0.40162E+08         0.68422E+06         0.00000E+00
    0.68422E+06        -0.97609E+08         0.00000E+00
    0.00000E+00         0.00000E+00        -0.40156E+08
 
   -0.39992E+08         0.67948E+06         0.00000E+00
    0.67948E+06        -0.97612E+08         0.00000E+00
    0.00000E+00         0.00000E+00        -0.39965E+08
 
   -0.39823E+08         0.67331E+06         0.00000E+00
    0.67331E+06        -0.97615E+08         0.00000E+00
    0.00000E+00         0.00000E+00        -0.39773E+08
 
   -0.39656E+08         0.66554E+06         0.00000E+00
    0.66554E+06        -0.97619E+08         0.00000E+00
    0.00000E+00         0.00000E+00        -0.39580E+08
 
   -0.39490E+08         0.65596E+06         0.00000E+00
    0.65596E+06        -0.97623E+08         0.00000E+00
    0.00000E+00         0.00000E+00        -0.39386E+08
 
   -0.39326E+08         0.64437E+06         0.00000E+00
    0.64437E+06        -0.97628E+08         0.00000E+00
    0.00000E+00         0.00000E+00        -0.39190E+08
 
   -0.39164E+08         0.63053E+06         0.00000E+00
    0.63053E+06        -0.97633E+08         0.00000E+00
    0.00000E+00         0.00000E+00        -0.38993E+08
 
   -0.39005E+08         0.61417E+06         0.00000E+00
    0.61417E+06        -0.97640E+08         0.00000E+00
    0.00000E+00         0.00000E+00        -0.38795E+08
 
   -0.38848E+08         0.59503E+06         0.00000E+00
    0.59503E+06        -0.97646E+08         0.00000E+00
    0.00000E+00         0.00000E+00        -0.38596E+08
 
   -0.38695E+08         0.57283E+06         0.00000E+00
    0.57283E+06        -0.97654E+08         0.00000E+00
    0.00000E+00         0.00000E+00        -0.38395E+08
 
   -0.38546E+08         0.54726E+06         0.00000E+00
    0.54726E+06        -0.97662E+08         0.00000E+00
    0.00000E+00         0.00000E+00        -0.38194E+08
 
   -0.38401E+08         0.51805E+06         0.00000E+00
    0.51805E+06        -0.97672E+08         0.00000E+00
    0.00000E+00         0.00000E+00        -0.37992E+08
 
   -0.38262E+08         0.48495E+06         0.00000E+00
    0.48495E+06        -0.97681E+08         0.00000E+00
    0.00000E+00         0.00000E+00        -0.37789E+08
 
   -0.38127E+08         0.44775E+06         0.00000E+00
    0.44775E+06        -0.97692E+08         0.00000E+00
    0.00000E+00         0.00000E+00        -0.37585E+08
 
   -0.37998E+08         0.40635E+06         0.00000E+00
    0.40635E+06        -0.97703E+08         0.00000E+00
    0.00000E+00         0.00000E+00        -0.37381E+08
 
   -0.37875E+08         0.36079E+06         0.00000E+00
    0.36079E+06        -0.97713E+08         0.00000E+00
    0.00000E+00         0.00000E+00        -0.37176E+08
 
   -0.37759E+08         0.31133E+06         0.00000E+00
    0.31133E+06        -0.97723E+08         0.00000E+00
    0.00000E+00         0.00000E+00        -0.36970E+08
 
   -0.37649E+08         0.25857E+06         0.00000E+00
    0.25857E+06        -0.97732E+08         0.00000E+00
    0.00000E+00         0.00000E+00        -0.36764E+08
 
   -0.37547E+08         0.20356E+06         0.00000E+00
    0.20356E+06        -0.97738E+08         0.00000E+00
    0.00000E+00         0.00000E+00        -0.36557E+08
 
   -0.37452E+08         0.14800E+06         0.00000E+00
    0.14800E+06        -0.97739E+08         0.00000E+00
    0.00000E+00         0.00000E+00        -0.36350E+08
 
   -0.37364E+08         0.94434E+05         0.00000E+00
    0.94434E+05        -0.97733E+08         0.00000E+00
    0.00000E+00         0.00000E+00        -0.36142E+08
 
   -0.37284E+08         0.46498E+05         0.00000E+00
    0.46498E+05        -0.97717E+08         0.00000E+00
    0.00000E+00         0.00000E+00        -0.35935E+08
 
   -0.37213E+08         0.88309E+04         0.00000E+00
    0.88309E+04        -0.97684E+08         0.00000E+00
    0.00000E+00         0.00000E+00        -0.35727E+08
 
   -0.37152E+08        -0.13759E+05         0.00000E+00
   -0.13759E+05        -0.97625E+08         0.00000E+00
    0.00000E+00         0.00000E+00        -0.35519E+08
 
   -0.37106E+08        -0.18583E+05         0.00000E+00
   -0.18583E+05        -0.97529E+08         0.00000E+00
    0.00000E+00         0.00000E+00        -0.35312E+08
 
   -0.37081E+08        -0.82276E+04         0.00000E+00
   -0.82276E+04        -0.97382E+08         0.00000E+00
    0.00000E+00         0.00000E+00        -0.35104E+08
 
   -0.48953E+08        -0.32684E+04         0.00000E+00
   -0.32684E+04        -0.97692E+08         0.00000E+00
    0.00000E+00         0.00000E+00        -0.49952E+08
 
   -0.48941E+08        -0.67507E+04         0.00000E+00
   -0.67507E+04        -0.97625E+08         0.00000E+00
    0.00000E+00         0.00000E+00        -0.49855E+08
 
   -0.48919E+08        -0.26391E+04         0.00000E+00
   -0.26391E+04        -0.97582E+08         0.00000E+00
    0.00000E+00         0.00000E+00        -0.49759E+08
 
   -0.48890E+08         0.10226E+05         0.00000E+00
    0.10226E+05        -0.97557E+08         0.00000E+00
    0.00000E+00         0.00000E+00        -0.49663E+08
 
   -0.48856E+08         0.30370E+05         0.00000E+00
    0.30370E+05        -0.97543E+08         0.00000E+00
    0.00000E+00         0.00000E+00        -0.49566E+08
 
   -0.48817E+08         0.55385E+05         0.00000E+00
    0.55385E+05        -0.97536E+08         0.00000E+00
    0.00000E+00         0.00000E+00        -0.49470E+08
 
   -0.48774E+08         0.83050E+05         0.00000E+00
    0.83050E+05        -0.97533E+08         0.00000E+00
    0.00000E+00         0.00000E+00        -0.49373E+08
 
   -0.48728E+08         0.11168E+06         0.00000E+00
    0.11168E+06        -0.97534E+08         0.00000E+00
    0.00000E+00         0.00000E+00        -0.49276E+08
 
   -0.48676E+08         0.14012E+06         0.00000E+00
    0.14012E+06        -0.97536E+08         0.00000E+00
    0.00000E+00         0.00000E+00        -0.49179E+08
 
   -0.48621E+08         0.16760E+06         0.00000E+00
    0.16760E+06        -0.97540E+08         0.00000E+00
    0.00000E+00         0.00000E+00        -0.49082E+08
 
   -0.48561E+08         0.19367E+06         0.00000E+00
    0.19367E+06        -0.97544E+08         0.00000E+00
    0.00000E+00         0.00000E+00        -0.48984E+08
 
   -0.48497E+08         0.21807E+06         0.00000E+00
    0.21807E+06        -0.97549E+08         0.00000E+00
    0.00000E+00         0.00000E+00        -0.48886E+08
 
   -0.48429E+08         0.24071E+06         0.00000E+00
    0.24071E+06        -0.97553E+08         0.00000E+00
    0.00000E+00         0.00000E+00        -0.48787E+08
 
   -0.48357E+08         0.26158E+06         0.00000E+00
    0.26158E+06        -0.97557E+08         0.00000E+00
    0.00000E+00         0.00000E+00        -0.48688E+08
 
   -0.48281E+08         0.28074E+06         0.00000E+00
    0.28074E+06        -0.97561E+08         0.00000E+00
    0.00000E+00         0.00000E+00        -0.48588E+08
 
   -0.48202E+08         0.29830E+06         0.00000E+00
    0.29830E+06        -0.97565E+08         0.00000E+00
    0.00000E+00         0.00000E+00        -0.48487E+08
 
   -0.48120E+08         0.31438E+06         0.00000E+00
    0.31438E+06        -0.97568E+08         0.00000E+00
    0.00000E+00         0.00000E+00        -0.48386E+08
 
   -0.48035E+08         0.32913E+06         0.00000E+00
    0.32913E+06        -0.97571E+08         0.00000E+00
    0.00000E+00         0.00000E+00        -0.48284E+08
 
   -0.47947E+08         0.34267E+06         0.00000E+00
    0.34267E+06        -0.97573E+08         0.00000E+00
    0.00000E+00         0.00000E+00        -0.48181E+08
 
   -0.47856E+08         0.35514E+06         0.00000E+00
    0.35514E+06        -0.97576E+08         0.00000E+00
    0.00000E+00         0.00000E+00        -0.48078E+08
 
   -0.47762E+08         0.36668E+06         0.00000E+00
    0.36668E+06        -0.97578E+08         0.00000E+00
    0.00000E+00         0.00000E+00        -0.47973E+08
 
   -0.47666E+08         0.37739E+06         0.00000E+00
    0.37739E+06        -0.97579E+08         0.00000E+00
    0.00000E+00         0.00000E+00        -0.47868E+08
 
   -0.47567E+08         0.38740E+06         0.00000E+00
    0.38740E+06        -0.97581E+08         0.00000E+00
    0.00000E+00         0.00000E+00        -0.47762E+08
 
   -0.47466E+08         0.39679E+06         0.00000E+00
    0.39679E+06        -0.97582E+08         0.00000E+00
    0.00000E+00         0.00000E+00        -0.47654E+08
 
   -0.47363E+08         0.40564E+06         0.00000E+00
    0.40564E+06        -0.97583E+08         0.00000E+00
    0.00000E+00         0.00000E+00        -0.47546E+08
 
   -0.47258E+08         0.41405E+06         0.00000E+00
    0.41405E+06        -0.97584E+08         0.00000E+00
    0.00000E+00         0.00000E+00        -0.47436E+08
 
   -0.47151E+08         0.42207E+06         0.00000E+00
    0.42207E+06        -0.97585E+08         0.00000E+00
    0.00000E+00         0.00000E+00        -0.47326E+08
 
   -0.47042E+08         0.42977E+06         0.00000E+00
    0.42977E+06        -0.97585E+08         0.00000E+00
    0.00000E+00         0.00000E+00        -0.47214E+08
 
   -0.46932E+08         0.43719E+06         0.00000E+00
    0.43719E+06        -0.97586E+08         0.00000E+00
    0.00000E+00         0.00000E+00        -0.47101E+08
 
   -0.46819E+08         0.44438E+06         0.00000E+00
    0.44438E+06        -0.97586E+08         0.00000E+00
    0.00000E+00         0.00000E+00        -0.46986E+08
 
   -0.46704E+08         0.45138E+06         0.00000E+00
    0.45138E+06        -0.97586E+08         0.00000E+00
    0.00000E+00         0.00000E+00        -0.46871E+08
 
   -0.46588E+08         0.45821E+06         0.00000E+00
    0.45821E+06        -0.97587E+08         0.00000E+00
    0.00000E+00         0.00000E+00        -0.46754E+08
 
   -0.46470E+08         0.46492E+06         0.00000E+00
    0.46492E+06        -0.97587E+08         0.00000E+00
    0.00000E+00         0.00000E+00        -0.46635E+08
 
   -0.46351E+08         0.47152E+06         0.00000E+00
    0.47152E+06        -0.97587E+08         0.00000E+00
    0.00000E+00         0.00000E+00        -0.46515E+08
 
   -0.46230E+08         0.47804E+06         0.00000E+00
    0.47804E+06        -0.97587E+08         0.00000E+00
    0.00000E+00         0.00000E+00        -0.46394E+08
 
   -0.46107E+08         0.48448E+06         0.00000E+00
    0.48448E+06        -0.97587E+08         0.00000E+00
    0.00000E+00         0.00000E+00        -0.46271E+08
 
   -0.45982E+08         0.49087E+06         0.00000E+00
    0.49087E+06        -0.97588E+08         0.00000E+00
    0.00000E+00         0.00000E+00        -0.46147E+08
 
   -0.45856E+08         0.49721E+06         0.00000E+00
    0.49721E+06        -0.97588E+08         0.00000E+00
    0.00000E+00         0.00000E+00        -0.46021E+08
 
   -0.45728E+08         0.50352E+06         0.00000E+00
    0.50352E+06        -0.97588E+08         0.00000E+00
    0.00000E+00         0.00000E+00        -0.45894E+08
 
   -0.45599E+08         0.50979E+06         0.00000E+00
    0.50979E+06        -0.97588E+08         0.00000E+00
    0.00000E+00         0.00000E+00        -0.45765E+08
 
   -0.45467E+08         0.51604E+06         0.00000E+00
    0.51604E+06        -0.97588E+08         0.00000E+00
    0.00000E+00         0.00000E+00        -0.45635E+08
 
   -0.45335E+08         0.52227E+06         0.00000E+00
    0.52227E+06        -0.97588E+08         0.00000E+00
    0.00000E+00         0.00000E+00        -0.45502E+08
 
   -0.45200E+08         0.52848E+06         0.00000E+00
    0.52848E+06        -0.97588E+08         0.00000E+00
    0.00000E+00         0.00000E+00        -0.45369E+08
 
   -0.45064E+08         0.53467E+06         0.00000E+00
    0.53467E+06        -0.97588E+08         0.00000E+00
    0.00000E+00         0.00000E+00        -0.45233E+08
 
   -0.44927E+08         0.54084E+06         0.00000E+00
    0.54084E+06        -0.97588E+08         0.00000E+00
    0.00000E+00         0.00000E+00        -0.45096E+08
 
   -0.44788E+08         0.54698E+06         0.00000E+00
    0.54698E+06        -0.97588E+08         0.00000E+00
    0.00000E+00         0.00000E+00        -0.44957E+08
 
   -0.44647E+08         0.55310E+06         0.00000E+00
    0.55310E+06        -0.97588E+08         0.00000E+00
    0.00000E+00         0.00000E+00        -0.44816E+08
 
   -0.44504E+08         0.55919E+06         0.00000E+00
    0.55919E+06        -0.97588E+08         0.00000E+00
    0.00000E+00         0.00000E+00        -0.44674E+08
 
   -0.44360E+08         0.56523E+06         0.00000E+00
    0.56523E+06        -0.97588E+08         0.00000E+00
    0.00000E+00         0.00000E+00        -0.44530E+08
 
   -0.44215E+08         0.57124E+06         0.00000E+00
    0.57124E+06        -0.97588E+08         0.00000E+00
    0.00000E+00         0.00000E+00        -0.44384E+08
 
   -0.44068E+08         0.57718E+06         0.00000E+00
    0.57718E+06        -0.97589E+08         0.00000E+00
    0.00000E+00         0.00000E+00        -0.44236E+08
 
   -0.43919E+08         0.58307E+06         0.00000E+00
    0.58307E+06        -0.97589E+08         0.00000E+00
    0.00000E+00         0.00000E+00        -0.44086E+08
 
   -0.43769E+08         0.58888E+06         0.00000E+00
    0.58888E+06        -0.97589E+08         0.00000E+00
    0.00000E+00         0.00000E+00        -0.43935E+08
 
   -0.43617E+08         0.59460E+06         0.00000E+00
    0.59460E+06        -0.97589E+08         0.00000E+00
    0.00000E+00         0.00000E+00        -0.43782E+08
 
   -0.43464E+08         0.60023E+06         0.00000E+00
    0.60023E+06        -0.97589E+08         0.00000E+00
    0.00000E+00         0.00000E+00        -0.43627E+08
 
   -0.43309E+08         0.60574E+06         0.00000E+00
    0.60574E+06        -0.97589E+08         0.00000E+00
    0.00000E+00         0.00000E+00        -0.43470E+08
 
   -0.43152E+08         0.61112E+06         0.00000E+00
    0.61112E+06        -0.97590E+08         0.00000E+00
    0.00000E+00         0.00000E+00        -0.43311E+08
 
   -0.42995E+08         0.61635E+06         0.00000E+00
    0.61635E+06        -0.97590E+08         0.00000E+00
    0.00000E+00         0.00000E+00        -0.43151E+08
 
   -0.42836E+08         0.62141E+06         0.00000E+00
    0.62141E+06        -0.97590E+08         0.00000E+00
    0.00000E+00         0.00000E+00        -0.42988E+08
 
   -0.42675E+08         0.62627E+06         0.00000E+00
    0.62627E+06        -0.97591E+08         0.00000E+00
    0.00000E+00         0.00000E+00        -0.42824E+08
 
   -0.42513E+08         0.63092E+06         0.00000E+00
    0.63092E+06        -0.97591E+08         0.00000E+00
    0.00000E+00         0.00000E+00        -0.42658E+08
 
   -0.42351E+08         0.63533E+06         0.00000E+00
    0.63533E+06        -0.97592E+08         0.00000E+00
    0.00000E+00         0.00000E+00        -0.42491E+08
 
   -0.42186E+08         0.63946E+06         0.00000E+00
    0.63946E+06        -0.97592E+08         0.00000E+00
    0.00000E+00         0.00000E+00        -0.42321E+08
 
   -0.42021E+08         0.64328E+06         0.00000E+00
    0.64328E+06        -0.97593E+08         0.00000E+00
    0.00000E+00         0.00000E+00        -0.42150E+08
 
   -0.41855E+08         0.64676E+06         0.00000E+00
    0.64676E+06        -0.97594E+08         0.00000E+00
    0.00000E+00         0.00000E+00        -0.41977E+08
 
   -0.41688E+08         0.64985E+06         0.00000E+00
    0.64985E+06        -0.97595E+08         0.00000E+00
    0.00000E+00         0.00000E+00        -0.41802E+08
 
   -0.41520E+08         0.65251E+06         0.00000E+00
    0.65251E+06        -0.97595E+08         0.00000E+00
    0.00000E+00         0.00000E+00        -0.41626E+08
 
   -0.41351E+08         0.65468E+06         0.00000E+00
    0.65468E+06        -0.97596E+08         0.00000E+00
    0.00000E+00         0.00000E+00        -0.41448E+08
 
   -0.41181E+08         0.65630E+06         0.00000E+00
    0.65630E+06        -0.97598E+08         0.00000E+00
    0.00000E+00         0.00000E+00        -0.41268E+08
 
   -0.41011E+08         0.65732E+06         0.00000E+00
    0.65732E+06        -0.97599E+08         0.00000E+00
    0.00000E+00         0.00000E+00        -0.41086E+08
 
   -0.40841E+08         0.65765E+06         0.00000E+00
    0.65765E+06        -0.97600E+08         0.00000E+00
    0.00000E+00         0.00000E+00        -0.40903E+08
 
   -0.40671E+08         0.65721E+06         0.00000E+00
    0.65721E+06        -0.97602E+08         0.00000E+00
    0.00000E+00         0.00000E+00        -0.40719E+08
 
   -0.40500E+08         0.65591E+06         0.00000E+00
    0.65591E+06        -0.97604E+08         0.00000E+00
    0.00000E+00         0.00000E+00        -0.40533E+08
 
   -0.40330E+08         0.65364E+06         0.00000E+00
    0.65364E+06        -0.97606E+08         0.00000E+00
    0.00000E+00         0.00000E+00        -0.40345E+08
 
   -0.40160E+08         0.65029E+06         0.00000E+00
    0.65029E+06        -0.97608E+08         0.00000E+00
    0.00000E+00         0.00000E+00        -0.40156E+08
 
   -0.39991E+08         0.64571E+06         0.00000E+00
    0.64571E+06        -0.97611E+08         0.00000E+00
    0.00000E+00         0.00000E+00        -0.39965E+08
 
   -0.39823E+08         0.63975E+06         0.00000E+00
    0.63975E+06        -0.97614E+08         0.00000E+00
    0.00000E+00         0.00000E+00        -0.39773E+08
 
   -0.39656E+08         0.63225E+06         0.00000E+00
    0.63225E+06        -0.97617E+08         0.00000E+00
    0.00000E+00         0.00000E+00        -0.39580E+08
 
   -0.39491E+08         0.62302E+06         0.00000E+00
    0.62302E+06        -0.97621E+08         0.00000E+00
    0.00000E+00         0.00000E+00        -0.39386E+08
 
   -0.39328E+08         0.61184E+06         0.00000E+00
    0.61184E+06        -0.97626E+08         0.00000E+00
    0.00000E+00         0.00000E+00        -0.39190E+08
 
   -0.39167E+08         0.59848E+06         0.00000E+00
    0.59848E+06        -0.97631E+08         0.00000E+00
    0.00000E+00         0.00000E+00        -0.38993E+08
 
   -0.39008E+08         0.58269E+06         0.00000E+00
    0.58269E+06        -0.97636E+08         0.00000E+00
    0.00000E+00         0.00000E+00        -0.38795E+08
 
   -0.38853E+08         0.56421E+06         0.00000E+00
    0.56421E+06        -0.97642E+08         0.00000E+00
    0.00000E+00         0.00000E+00        -0.38596E+08
 
   -0.38702E+08         0.54275E+06         0.00000E+00
    0.54275E+06        -0.97649E+08         0.00000E+00
    0.00000E+00         0.00000E+00        -0.38395E+08
 
   -0.38554E+08         0.51803E+06         0.00000E+00
    0.51803E+06        -0.97657E+08         0.00000E+00
    0.00000E+00         0.00000E+00        -0.38194E+08
 
   -0.38411E+08         0.48976E+06         0.00000E+00
    0.48976E+06        -0.97665E+08         0.00000E+00
    0.00000E+00         0.00000E+00        -0.37992E+08
 
   -0.38273E+08         0.45768E+06         0.00000E+00
    0.45768E+06        -0.97674E+08         0.00000E+00
    0.00000E+00         0.00000E+00        -0.37789E+08
 
   -0.38141E+08         0.42161E+06         0.00000E+00
    0.42161E+06        -0.97684E+08         0.00000E+00
    0.00000E+00         0.00000E+00        -0.37585E+08
 
   -0.38014E+08         0.38143E+06         0.00000E+00
    0.38143E+06        -0.97694E+08         0.00000E+00
    0.00000E+00         0.00000E+00        -0.37381E+08
 
   -0.37895E+08         0.33718E+06         0.00000E+00
    0.33718E+06        -0.97704E+08         0.00000E+00
    0.00000E+00         0.00000E+00        -0.37176E+08
 
   -0.37782E+08         0.28911E+06         0.00000E+00
    0.28911E+06        -0.97713E+08         0.00000E+00
    0.00000E+00         0.00000E+00        -0.36970E+08
 
   -0.37676E+08         0.23778E+06         0.00000E+00
    0.23778E+06        -0.97721E+08         0.00000E+00
    0.00000E+00         0.00000E+00        -0.36764E+08
 
   -0.37578E+08         0.18424E+06         0.00000E+00
    0.18424E+06        -0.97727E+08         0.00000E+00
    0.00000E+00         0.00000E+00        -0.36557E+08
 
   -0.37488E+08         0.13016E+06         0.00000E+00
    0.13016E+06        -0.97728E+08         0.00000E+00
    0.00000E+00         0.00000E+00        -0.36350E+08
 
   -0.37405E+08         0.78075E+05         0.00000E+00
    0.78075E+05        -0.97723E+08         0.00000E+00
    0.00000E+00         0.00000E+00        -0.36142E+08
 
   -0.37329E+08         0.31650E+05         0.00000E+00
    0.31650E+05        -0.97708E+08         0.00000E+00
    0.00000E+00         0.00000E+00        -0.35935E+08
 
   -0.37261E+08        -0.42992E+04         0.00000E+00
   -0.42992E+04        -0.97678E+08         0.00000E+00
    0.00000E+00         0.00000E+00        -0.35727E+08
 
   -0.37203E+08        -0.24563E+05         0.00000E+00
   -0.24563E+05        -0.97623E+08         0.00000E+00
    0.00000E+00         0.00000E+00        -0.35519E+08
 
   -0.37158E+08        -0.25938E+05         0.00000E+00
   -0.25938E+05        -0.97531E+08         0.00000E+00
    0.00000E+00         0.00000E+00        -0.35312E+08
 
   -0.37133E+08        -0.10871E+05         0.00000E+00
   -0.10871E+05        -0.97386E+08         0.00000E+00
    0.00000E+00         0.00000E+00        -0.35104E+08
 
   -0.48927E+08        -0.45495E+04         0.00000E+00
   -0.45495E+04        -0.97690E+08         0.00000E+00
    0.00000E+00         0.00000E+00        -0.49952E+08
 
   -0.48915E+08        -0.10293E+05         0.00000E+00
   -0.10293E+05        -0.97624E+08         0.00000E+00
    0.00000E+00         0.00000E+00        -0.49855E+08
 
   -0.48894E+08        -0.78054E+04         0.00000E+00
   -0.78054E+04        -0.97583E+08         0.00000E+00
    0.00000E+00         0.00000E+00        -0.49759E+08
 
   -0.48866E+08         0.39631E+04         0.00000E+00
    0.39631E+04        -0.97560E+08         0.00000E+00
    0.00000E+00         0.00000E+00        -0.49663E+08
 
   -0.48834E+08         0.23252E+05         0.00000E+00
    0.23252E+05        -0.97547E+08         0.00000E+00
    0.00000E+00         0.00000E+00        -0.49566E+08
 
   -0.48797E+08         0.47456E+05         0.00000E+00
    0.47456E+05        -0.97541E+08         0.00000E+00
    0.00000E+00         0.00000E+00        -0.49470E+08
 
   -0.48756E+08         0.74283E+05         0.00000E+00
    0.74283E+05        -0.97539E+08         0.00000E+00
    0.00000E+00         0.00000E+00        -0.49373E+08
 
   -0.48711E+08         0.10205E+06         0.00000E+00
    0.10205E+06        -0.97540E+08         0.00000E+00
    0.00000E+00         0.00000E+00        -0.49276E+08
 
   -0.48662E+08         0.12960E+06         0.00000E+00
    0.12960E+06        -0.97542E+08         0.00000E+00
    0.00000E+00         0.00000E+00        -0.49179E+08
 
   -0.48608E+08         0.15620E+06         0.00000E+00
    0.15620E+06        -0.97545E+08         0.00000E+00
    0.00000E+00         0.00000E+00        -0.49082E+08
 
   -0.48550E+08         0.18141E+06         0.00000E+00
    0.18141E+06        -0.97549E+08         0.00000E+00
    0.00000E+00         0.00000E+00        -0.48984E+08
 
   -0.48487E+08         0.20498E+06         0.00000E+00
    0.20498E+06        -0.97553E+08         0.00000E+00
    0.00000E+00         0.00000E+00        -0.48886E+08
 
   -0.48420E+08         0.22682E+06         0.00000E+00
    0.22682E+06        -0.97557E+08         0.00000E+00
    0.00000E+00         0.00000E+00        -0.48787E+08
 
   -0.48349E+08         0.24692E+06         0.00000E+00
    0.24692E+06        -0.97561E+08         0.00000E+00
    0.00000E+00         0.00000E+00        -0.48688E+08
 
   -0.48274E+08         0.26536E+06         0.00000E+00
    0.26536E+06        -0.97565E+08         0.00000E+00
    0.00000E+00         0.00000E+00        -0.48588E+08
 
   -0.48196E+08         0.28223E+06         0.00000E+00
    0.28223E+06        -0.97568E+08         0.00000E+00
    0.00000E+00         0.00000E+00        -0.48487E+08
 
   -0.48114E+08         0.29767E+06         0.00000E+00
    0.29767E+06        -0.97571E+08         0.00000E+00
    0.00000E+00         0.00000E+00        -0.48386E+08
 
   -0.48029E+08         0.31180E+06         0.00000E+00
    0.31180E+06        -0.97574E+08         0.00000E+00
    0.00000E+00         0.00000E+00        -0.48284E+08
 
   -0.47941E+08         0.32476E+06         0.00000E+00
    0.32476E+06        -0.97576E+08         0.00000E+00
    0.00000E+00         0.00000E+00        -0.48181E+08
 
   -0.47851E+08         0.33669E+06         0.00000E+00
    0.33669E+06        -0.97578E+08         0.00000E+00
    0.00000E+00         0.00000E+00        -0.48078E+08
 
   -0.47757E+08         0.34771E+06         0.00000E+00
    0.34771E+06        -0.97580E+08         0.00000E+00
    0.00000E+00         0.00000E+00        -0.47973E+08
 
   -0.47661E+08         0.35793E+06         0.00000E+00
    0.35793E+06        -0.97581E+08         0.00000E+00
    0.00000E+00         0.00000E+00        -0.47868E+08
 
   -0.47563E+08         0.36747E+06         0.00000E+00
    0.36747E+06        -0.97583E+08         0.00000E+00
    0.00000E+00         0.00000E+00        -0.47762E+08
 
   -0.47462E+08         0.37642E+06         0.00000E+00
    0.37642E+06        -0.97584E+08         0.00000E+00
    0.00000E+00         0.00000E+00        -0.47654E+08
 
   -0.47359E+08         0.38485E+06         0.00000E+00
    0.38485E+06        -0.97585E+08         0.00000E+00
    0.00000E+00         0.00000E+00        -0.47546E+08
 
   -0.47254E+08         0.39285E+06         0.00000E+00
    0.39285E+06        -0.97585E+08         0.00000E+00
    0.00000E+00         0.00000E+00        -0.47436E+08
 
   -0.47147E+08         0.40048E+06         0.00000E+00
    0.40048E+06        -0.97586E+08         0.00000E+00
    0.00000E+00         0.00000E+00        -0.47326E+08
 
   -0.47038E+08         0.40779E+06         0.00000E+00
    0.40779E+06        -0.97587E+08         0.00000E+00
    0.00000E+00         0.00000E+00        -0.47214E+08
 
   -0.46927E+08         0.41484E+06         0.00000E+00
    0.41484E+06        -0.97587E+08         0.00000E+00
    0.00000E+00         0.00000E+00        -0.47101E+08
 
   -0.46815E+08         0.42167E+06         0.00000E+00
    0.42167E+06        -0.97587E+08         0.00000E+00
    0.00000E+00         0.00000E+00        -0.46986E+08
 
   -0.46700E+08         0.42831E+06         0.00000E+00
    0.42831E+06        -0.97588E+08         0.00000E+00
    0.00000E+00         0.00000E+00        -0.46871E+08
 
   -0.46584E+08         0.43481E+06         0.00000E+00
    0.43481E+06        -0.97588E+08         0.00000E+00
    0.00000E+00         0.00000E+00        -0.46754E+08
 
   -0.46466E+08         0.44117E+06         0.00000E+00
    0.44117E+06        -0.97588E+08         0.00000E+00
    0.00000E+00         0.00000E+00        -0.46635E+08
 
   -0.46347E+08         0.44744E+06         0.00000E+00
    0.44744E+06        -0.97588E+08         0.00000E+00
    0.00000E+00         0.00000E+00        -0.46515E+08
 
   -0.46225E+08         0.45362E+06         0.00000E+00
    0.45362E+06        -0.97589E+08         0.00000E+00
    0.00000E+00         0.00000E+00        -0.46394E+08
 
   -0.46102E+08         0.45973E+06         0.00000E+00
    0.45973E+06        -0.97589E+08         0.00000E+00
    0.00000E+00         0.00000E+00        -0.46271E+08
 
   -0.45978E+08         0.46579E+06         0.00000E+00
    0.46579E+06        -0.97589E+08         0.00000E+00
    0.00000E+00         0.00000E+00        -0.46147E+08
 
   -0.45852E+08         0.47180E+06         0.00000E+00
    0.47180E+06        -0.97589E+08         0.00000E+00
    0.00000E+00         0.00000E+00        -0.46021E+08
 
   -0.45724E+08         0.47778E+06         0.00000E+00
    0.47778E+06        -0.97589E+08         0.00000E+00
    0.00000E+00         0.00000E+00        -0.45894E+08
 
   -0.45594E+08         0.48373E+06         0.00000E+00
    0.48373E+06        -0.97589E+08         0.00000E+00
    0.00000E+00         0.00000E+00        -0.45765E+08
 
   -0.45463E+08         0.48966E+06         0.00000E+00
    0.48966E+06        -0.97589E+08         0.00000E+00
    0.00000E+00         0.00000E+00        -0.45635E+08
 
   -0.45330E+08         0.49556E+06         0.00000E+00
    0.49556E+06        -0.97589E+08         0.00000E+00
    0.00000E+00         0.00000E+00        -0.45502E+08
 
   -0.45196E+08         0.50145E+06         0.00000E+00
    0.50145E+06        -0.97589E+08         0.00000E+00
    0.00000E+00         0.00000E+00        -0.45369E+08
 
   -0.45060E+08         0.50731E+06         0.00000E+00
    0.50731E+06        -0.97589E+08         0.00000E+00
    0.00000E+00         0.00000E+00        -0.45233E+08
 
   -0.44922E+08         0.51316E+06         0.00000E+00
    0.51316E+06        -0.97589E+08         0.00000E+00
    0.00000E+00         0.00000E+00        -0.45096E+08
 
   -0.44783E+08         0.51898E+06         0.00000E+00
    0.51898E+06        -0.97589E+08         0.00000E+00
    0.00000E+00         0.00000E+00        -0.44957E+08
 
   -0.44642E+08         0.52478E+06         0.00000E+00
    0.52478E+06        -0.97589E+08         0.00000E+00
    0.00000E+00         0.00000E+00        -0.44816E+08
 
   -0.44500E+08         0.53054E+06         0.00000E+00
    0.53054E+06        -0.97589E+08         0.00000E+00
    0.00000E+00         0.00000E+00        -0.44674E+08
 
   -0.44356E+08         0.53627E+06         0.00000E+00
    0.53627E+06        -0.97589E+08         0.00000E+00
    0.00000E+00         0.00000E+00        -0.44530E+08
 
   -0.44210E+08         0.54196E+06         0.00000E+00
    0.54196E+06        -0.97590E+08         0.00000E+00
    0.00000E+00         0.00000E+00        -0.44384E+08
 
   -0.44063E+08         0.54759E+06         0.00000E+00
    0.54759E+06        -0.97590E+08         0.00000E+00
    0.00000E+00         0.00000E+00        -0.44236E+08
 
   -0.43914E+08         0.55317E+06         0.00000E+00
    0.55317E+06        -0.97590E+08         0.00000E+00
    0.00000E+00         0.00000E+00        -0.44086E+08
 
   -0.43764E+08         0.55867E+06         0.00000E+00
    0.55867E+06        -0.97590E+08         0.00000E+00
    0.00000E+00         0.00000E+00        -0.43935E+08
 
   -0.43612E+08         0.56409E+06         0.00000E+00
    0.56409E+06        -0.97590E+08         0.00000E+00
    0.00000E+00         0.00000E+00        -0.43782E+08
 
   -0.43459E+08         0.56942E+06         0.00000E+00
    0.56942E+06        -0.97590E+08         0.00000E+00
    0.00000E+00         0.00000E+00        -0.43627E+08
 
   -0.43304E+08         0.57463E+06         0.00000E+00
    0.57463E+06        -0.97591E+08         0.00000E+00
    0.00000E+00         0.00000E+00        -0.43470E+08
 
   -0.43148E+08         0.57972E+06         0.00000E+00
    0.57972E+06        -0.97591E+08         0.00000E+00
    0.00000E+00         0.00000E+00        -0.43311E+08
 
   -0.42990E+08         0.58467E+06         0.00000E+00
    0.58467E+06        -0.97591E+08         0.00000E+00
    0.00000E+00         0.00000E+00        -0.43151E+08
 
   -0.42831E+08         0.58946E+06         0.00000E+00
    0.58946E+06        -0.97591E+08         0.00000E+00
    0.00000E+00         0.00000E+00        -0.42988E+08
 
   -0.42671E+08         0.59406E+06         0.00000E+00
    0.59406E+06        -0.97592E+08         0.00000E+00
    0.00000E+00         0.00000E+00        -0.42824E+08
 
   -0.42509E+08         0.59846E+06         0.00000E+00
    0.59846E+06        -0.97592E+08         0.00000E+00
    0.00000E+00         0.00000E+00        -0.42658E+08
 
   -0.42346E+08         0.60263E+06         0.00000E+00
    0.60263E+06        -0.97593E+08         0.00000E+00
    0.00000E+00         0.00000E+00        -0.42491E+08
 
   -0.42182E+08         0.60653E+06         0.00000E+00
    0.60653E+06        -0.97593E+08         0.00000E+00
    0.00000E+00         0.00000E+00        -0.42321E+08
 
   -0.42017E+08         0.61014E+06         0.00000E+00
    0.61014E+06        -0.97594E+08         0.00000E+00
    0.00000E+00         0.00000E+00        -0.42150E+08
 
   -0.41851E+08         0.61342E+06         0.00000E+00
    0.61342E+06        -0.97594E+08         0.00000E+00
    0.00000E+00         0.00000E+00        -0.41977E+08
 
   -0.41684E+08         0.61633E+06         0.00000E+00
    0.61633E+06        -0.97595E+08         0.00000E+00
    0.00000E+00         0.00000E+00        -0.41802E+08
 
   -0.41516E+08         0.61883E+06         0.00000E+00
    0.61883E+06        -0.97596E+08         0.00000E+00
    0.00000E+00         0.00000E+00        -0.41626E+08
 
   -0.41347E+08         0.62087E+06         0.00000E+00
    0.62087E+06        -0.97597E+08         0.00000E+00
    0.00000E+00         0.00000E+00        -0.41448E+08
 
   -0.41178E+08         0.62239E+06         0.00000E+00
    0.62239E+06        -0.97598E+08         0.00000E+00
    0.00000E+00         0.00000E+00        -0.41268E+08
 
   -0.41009E+08         0.62332E+06         0.00000E+00
    0.62332E+06        -0.97599E+08         0.00000E+00
    0.00000E+00         0.00000E+00        -0.41086E+08
 
   -0.40839E+08         0.62360E+06         0.00000E+00
    0.62360E+06        -0.97600E+08         0.00000E+00
    0.00000E+00         0.00000E+00        -0.40903E+08
 
   -0.40668E+08         0.62315E+06         0.00000E+00
    0.62315E+06        -0.97602E+08         0.00000E+00
    0.00000E+00         0.00000E+00        -0.40719E+08
 
   -0.40498E+08         0.62188E+06         0.00000E+00
    0.62188E+06        -0.97603E+08         0.00000E+00
    0.00000E+00         0.00000E+00        -0.40533E+08
 
   -0.40329E+08         0.61968E+06         0.00000E+00
    0.61968E+06        -0.97605E+08         0.00000E+00
    0.00000E+00         0.00000E+00        -0.40345E+08
 
   -0.40159E+08         0.61644E+06         0.00000E+00
    0.61644E+06        -0.97607E+08         0.00000E+00
    0.00000E+00         0.00000E+00        -0.40156E+08
 
   -0.39991E+08         0.61203E+06         0.00000E+00
    0.61203E+06        -0.97610E+08         0.00000E+00
    0.00000E+00         0.00000E+00        -0.39965E+08
 
   -0.39823E+08         0.60630E+06         0.00000E+00
    0.60630E+06        -0.97613E+08         0.00000E+00
    0.00000E+00         0.00000E+00        -0.39773E+08
 
   -0.39657E+08         0.59909E+06         0.00000E+00
    0.59909E+06        -0.97616E+08         0.00000E+00
    0.00000E+00         0.00000E+00        -0.39580E+08
 
   -0.39492E+08         0.59021E+06         0.00000E+00
    0.59021E+06        -0.97619E+08         0.00000E+00
    0.00000E+00         0.00000E+00        -0.39386E+08
 
   -0.39329E+08         0.57946E+06         0.00000E+00
    0.57946E+06        -0.97623E+08         0.00000E+00
    0.00000E+00         0.00000E+00        -0.39190E+08
 
   -0.39169E+08         0.56662E+06         0.00000E+00
    0.56662E+06        -0.97628E+08         0.00000E+00
    0.00000E+00         0.00000E+00        -0.38993E+08
 
   -0.39012E+08         0.55143E+06         0.00000E+00
    0.55143E+06        -0.97633E+08         0.00000E+00
    0.00000E+00         0.00000E+00        -0.38795E+08
 
   -0.38858E+08         0.53363E+06         0.00000E+00
    0.53363E+06        -0.97638E+08         0.00000E+00
    0.00000E+00         0.00000E+00        -0.38596E+08
 
   -0.38707E+08         0.51296E+06         0.00000E+00
    0.51296E+06        -0.97645E+08         0.00000E+00
    0.00000E+00         0.00000E+00        -0.38395E+08
 
   -0.38561E+08         0.48912E+06         0.00000E+00
    0.48912E+06        -0.97652E+08         0.00000E+00
    0.00000E+00         0.00000E+00        -0.38194E+08
 
   -0.38420E+08         0.46183E+06         0.00000E+00
    0.46183E+06        -0.97659E+08         0.00000E+00
    0.00000E+00         0.00000E+00        -0.37992E+08
 
   -0.38284E+08         0.43086E+06         0.00000E+00
    0.43086E+06        -0.97668E+08         0.00000E+00
    0.00000E+00         0.00000E+00        -0.37789E+08
 
   -0.38154E+08         0.39598E+06         0.00000E+00
    0.39598E+06        -0.97677E+08         0.00000E+00
    0.00000E+00         0.00000E+00        -0.37585E+08
 
   -0.38030E+08         0.35709E+06         0.00000E+00
    0.35709E+06        -0.97686E+08         0.00000E+00
    0.00000E+00         0.00000E+00        -0.37381E+08
 
   -0.37914E+08         0.31423E+06         0.00000E+00
    0.31423E+06        -0.97695E+08         0.00000E+00
    0.00000E+00         0.00000E+00        -0.37175E+08
 
   -0.37804E+08         0.26761E+06         0.00000E+00
    0.26761E+06        -0.97703E+08         0.00000E+00
    0.00000E+00         0.00000E+00        -0.36970E+08
 
   -0.37703E+08         0.21780E+06         0.00000E+00
    0.21780E+06        -0.97711E+08         0.00000E+00
    0.00000E+00         0.00000E+00        -0.36763E+08
 
   -0.37609E+08         0.16580E+06         0.00000E+00
    0.16580E+06        -0.97716E+08         0.00000E+00
    0.00000E+00         0.00000E+00        -0.36557E+08
 
   -0.37523E+08         0.11325E+06         0.00000E+00
    0.11325E+06        -0.97718E+08         0.00000E+00
    0.00000E+00         0.00000E+00        -0.36350E+08
 
   -0.37444E+08         0.62637E+05         0.00000E+00
    0.62637E+05        -0.97713E+08         0.00000E+00
    0.00000E+00         0.00000E+00        -0.36142E+08
 
   -0.37373E+08         0.17644E+05         0.00000E+00
    0.17644E+05        -0.97700E+08         0.00000E+00
    0.00000E+00         0.00000E+00        -0.35935E+08
 
   -0.37309E+08        -0.16767E+05         0.00000E+00
   -0.16767E+05        -0.97672E+08         0.00000E+00
    0.00000E+00         0.00000E+00        -0.35727E+08
 
   -0.37254E+08        -0.34963E+05         0.00000E+00
   -0.34963E+05        -0.97621E+08         0.00000E+00
    0.00000E+00         0.00000E+00        -0.35519E+08
 
   -0.37211E+08        -0.33131E+05         0.00000E+00
   -0.33131E+05        -0.97533E+08         0.00000E+00
    0.00000E+00         0.00000E+00        -0.35311E+08
 
   -0.37187E+08        -0.13485E+05         0.00000E+00
   -0.13485E+05        -0.97391E+08         0.00000E+00
    0.00000E+00         0.00000E+00        -0.35104E+08
 
   -0.48901E+08        -0.58190E+04         0.00000E+00
   -0.58190E+04        -0.97688E+08         0.00000E+00
    0.00000E+00         0.00000E+00        -0.49952E+08
 
   -0.48889E+08        -0.13762E+05         0.00000E+00
   -0.13762E+05        -0.97624E+08         0.00000E+00
    0.00000E+00         0.00000E+00        -0.49855E+08
 
   -0.48869E+08        -0.12778E+05         0.00000E+00
   -0.12778E+05        -0.97585E+08         0.00000E+00
    0.00000E+00         0.00000E+00        -0.49759E+08
 
   -0.48842E+08        -0.19826E+04         0.00000E+00
   -0.19826E+04        -0.97563E+08         0.00000E+00
    0.00000E+00         0.00000E+00        -0.49663E+08
 
   -0.48812E+08         0.16530E+05         0.00000E+00
    0.16530E+05        -0.97551E+08         0.00000E+00
    0.00000E+00         0.00000E+00        -0.49566E+08
 
   -0.48777E+08         0.39950E+05         0.00000E+00
    0.39950E+05        -0.97546E+08         0.00000E+00
    0.00000E+00         0.00000E+00        -0.49470E+08
 
   -0.48739E+08         0.65932E+05         0.00000E+00
    0.65932E+05        -0.97544E+08         0.00000E+00
    0.00000E+00         0.00000E+00        -0.49373E+08
 
   -0.48696E+08         0.92800E+05         0.00000E+00
    0.92800E+05        -0.97545E+08         0.00000E+00
    0.00000E+00         0.00000E+00        -0.49276E+08
 
   -0.48648E+08         0.11944E+06         0.00000E+00
    0.11944E+06        -0.97547E+08         0.00000E+00
    0.00000E+00         0.00000E+00        -0.49179E+08
 
   -0.48596E+08         0.14512E+06         0.00000E+00
    0.14512E+06        -0.97550E+08         0.00000E+00
    0.00000E+00         0.00000E+00        -0.49082E+08
 
   -0.48539E+08         0.16942E+06         0.00000E+00
    0.16942E+06        -0.97554E+08         0.00000E+00
    0.00000E+00         0.00000E+00        -0.48984E+08
 
   -0.48477E+08         0.19212E+06         0.00000E+00
    0.19212E+06        -0.97558E+08         0.00000E+00
    0.00000E+00         0.00000E+00        -0.48886E+08
 
   -0.48412E+08         0.21312E+06         0.00000E+00
    0.21312E+06        -0.97561E+08         0.00000E+00
    0.00000E+00         0.00000E+00        -0.48787E+08
 
   -0.48341E+08         0.23243E+06         0.00000E+00
    0.23243E+06        -0.97565E+08         0.00000E+00
    0.00000E+00         0.00000E+00        -0.48688E+08
 
   -0.48267E+08         0.25011E+06         0.00000E+00
    0.25011E+06        -0.97568E+08         0.00000E+00
    0.00000E+00         0.00000E+00        -0.48588E+08
 
   -0.48190E+08         0.26628E+06         0.00000E+00
    0.26628E+06        -0.97571E+08         0.00000E+00
    0.00000E+00         0.00000E+00        -0.48487E+08
 
   -0.48109E+08         0.28104E+06         0.00000E+00
    0.28104E+06        -0.97574E+08         0.00000E+00
    0.00000E+00         0.00000E+00        -0.48386E+08
 
   -0.48024E+08         0.29454E+06         0.00000E+00
    0.29454E+06        -0.97576E+08         0.00000E+00
    0.00000E+00         0.00000E+00        -0.48284E+08
 
   -0.47936E+08         0.30691E+06         0.00000E+00
    0.30691E+06        -0.97578E+08         0.00000E+00
    0.00000E+00         0.00000E+00        -0.48181E+08
 
   -0.47846E+08         0.31828E+06         0.00000E+00
    0.31828E+06        -0.97580E+08         0.00000E+00
    0.00000E+00         0.00000E+00        -0.48078E+08
 
   -0.47753E+08         0.32877E+06         0.00000E+00
    0.32877E+06        -0.97582E+08         0.00000E+00
    0.00000E+00         0.00000E+00        -0.47973E+08
 
   -0.47657E+08         0.33850E+06         0.00000E+00
    0.33850E+06        -0.97583E+08         0.00000E+00
    0.00000E+00         0.00000E+00        -0.47868E+08
 
   -0.47558E+08         0.34757E+06         0.00000E+00
    0.34757E+06        -0.97584E+08         0.00000E+00
    0.00000E+00         0.00000E+00        -0.47762E+08
 
   -0.47458E+08         0.35606E+06         0.00000E+00
    0.35606E+06        -0.97585E+08         0.00000E+00
    0.00000E+00         0.00000E+00        -0.47654E+08
 
   -0.47355E+08         0.36407E+06         0.00000E+00
    0.36407E+06        -0.97586E+08         0.00000E+00
    0.00000E+00         0.00000E+00        -0.47546E+08
 
   -0.47250E+08         0.37165E+06         0.00000E+00
    0.37165E+06        -0.97587E+08         0.00000E+00
    0.00000E+00         0.00000E+00        -0.47436E+08
 
   -0.47143E+08         0.37888E+06         0.00000E+00
    0.37888E+06        -0.97588E+08         0.00000E+00
    0.00000E+00         0.00000E+00        -0.47326E+08
 
   -0.47034E+08         0.38581E+06         0.00000E+00
    0.38581E+06        -0.97588E+08         0.00000E+00
    0.00000E+00         0.00000E+00        -0.47214E+08
 
   -0.46923E+08         0.39249E+06         0.00000E+00
    0.39249E+06        -0.97588E+08         0.00000E+00
    0.00000E+00         0.00000E+00        -0.47101E+08
 
   -0.46811E+08         0.39896E+06         0.00000E+00
    0.39896E+06        -0.97589E+08         0.00000E+00
    0.00000E+00         0.00000E+00        -0.46986E+08
 
   -0.46696E+08         0.40525E+06         0.00000E+00
    0.40525E+06        -0.97589E+08         0.00000E+00
    0.00000E+00         0.00000E+00        -0.46871E+08
 
   -0.46580E+08         0.41139E+06         0.00000E+00
    0.41139E+06        -0.97589E+08         0.00000E+00
    0.00000E+00         0.00000E+00        -0.46754E+08
 
   -0.46462E+08         0.41742E+06         0.00000E+00
    0.41742E+06        -0.97590E+08         0.00000E+00
    0.00000E+00         0.00000E+00        -0.46635E+08
 
   -0.46343E+08         0.42334E+06         0.00000E+00
    0.42334E+06        -0.97590E+08         0.00000E+00
    0.00000E+00         0.00000E+00        -0.46515E+08
 
   -0.46221E+08         0.42919E+06         0.00000E+00
    0.42919E+06        -0.97590E+08         0.00000E+00
    0.00000E+00         0.00000E+00        -0.46394E+08
 
   -0.46098E+08         0.43497E+06         0.00000E+00
    0.43497E+06        -0.97590E+08         0.00000E+00
    0.00000E+00         0.00000E+00        -0.46271E+08
 
   -0.45974E+08         0.44070E+06         0.00000E+00
    0.44070E+06        -0.97590E+08         0.00000E+00
    0.00000E+00         0.00000E+00        -0.46147E+08
 
   -0.45847E+08         0.44638E+06         0.00000E+00
    0.44638E+06        -0.97590E+08         0.00000E+00
    0.00000E+00         0.00000E+00        -0.46021E+08
 
   -0.45719E+08         0.45204E+06         0.00000E+00
    0.45204E+06        -0.97590E+08         0.00000E+00
    0.00000E+00         0.00000E+00        -0.45894E+08
 
   -0.45590E+08         0.45766E+06         0.00000E+00
    0.45766E+06        -0.97590E+08         0.00000E+00
    0.00000E+00         0.00000E+00        -0.45765E+08
 
   -0.45459E+08         0.46326E+06         0.00000E+00
    0.46326E+06        -0.97590E+08         0.00000E+00
    0.00000E+00         0.00000E+00        -0.45635E+08
 
   -0.45326E+08         0.46884E+06         0.00000E+00
    0.46884E+06        -0.97590E+08         0.00000E+00
    0.00000E+00         0.00000E+00        -0.45502E+08
 
   -0.45191E+08         0.47441E+06         0.00000E+00
    0.47441E+06        -0.97590E+08         0.00000E+00
    0.00000E+00         0.00000E+00        -0.45369E+08
 
   -0.45055E+08         0.47995E+06         0.00000E+00
    0.47995E+06        -0.97590E+08         0.00000E+00
    0.00000E+00         0.00000E+00        -0.45233E+08
 
   -0.44918E+08         0.48547E+06         0.00000E+00
    0.48547E+06        -0.97590E+08         0.00000E+00
    0.00000E+00         0.00000E+00        -0.45096E+08
 
   -0.44779E+08         0.49098E+06         0.00000E+00
    0.49098E+06        -0.97590E+08         0.00000E+00
    0.00000E+00         0.00000E+00        -0.44957E+08
 
   -0.44638E+08         0.49645E+06         0.00000E+00
    0.49645E+06        -0.97590E+08         0.00000E+00
    0.00000E+00         0.00000E+00        -0.44816E+08
 
   -0.44495E+08         0.50190E+06         0.00000E+00
    0.50190E+06        -0.97591E+08         0.00000E+00
    0.00000E+00         0.00000E+00        -0.44674E+08
 
   -0.44351E+08         0.50731E+06         0.00000E+00
    0.50731E+06        -0.97591E+08         0.00000E+00
    0.00000E+00         0.00000E+00        -0.44530E+08
 
   -0.44206E+08         0.51268E+06         0.00000E+00
    0.51268E+06        -0.97591E+08         0.00000E+00
    0.00000E+00         0.00000E+00        -0.44384E+08
 
   -0.44059E+08         0.51800E+06         0.00000E+00
    0.51800E+06        -0.97591E+08         0.00000E+00
    0.00000E+00         0.00000E+00        -0.44236E+08
 
   -0.43910E+08         0.52327E+06         0.00000E+00
    0.52327E+06        -0.97591E+08         0.00000E+00
    0.00000E+00         0.00000E+00        -0.44086E+08
 
   -0.43760E+08         0.52846E+06         0.00000E+00
    0.52846E+06        -0.97591E+08         0.00000E+00
    0.00000E+00         0.00000E+00        -0.43935E+08
 
   -0.43608E+08         0.53358E+06         0.00000E+00
    0.53358E+06        -0.97591E+08         0.00000E+00
    0.00000E+00         0.00000E+00        -0.43782E+08
 
   -0.43454E+08         0.53861E+06         0.00000E+00
    0.53861E+06        -0.97591E+08         0.00000E+00
    0.00000E+00         0.00000E+00        -0.43627E+08
 
   -0.43300E+08         0.54353E+06         0.00000E+00
    0.54353E+06        -0.97592E+08         0.00000E+00
    0.00000E+00         0.00000E+00        -0.43470E+08
 
   -0.43144E+08         0.54834E+06         0.00000E+00
    0.54834E+06        -0.97592E+08         0.00000E+00
    0.00000E+00         0.00000E+00        -0.43311E+08
 
   -0.42986E+08         0.55301E+06         0.00000E+00
    0.55301E+06        -0.97592E+08         0.00000E+00
    0.00000E+00         0.00000E+00        -0.43151E+08
 
   -0.42827E+08         0.55753E+06         0.00000E+00
    0.55753E+06        -0.97592E+08         0.00000E+00
    0.00000E+00         0.00000E+00        -0.42988E+08
 
   -0.42667E+08         0.56187E+06         0.00000E+00
    0.56187E+06        -0.97593E+08         0.00000E+00
    0.00000E+00         0.00000E+00        -0.42824E+08
 
   -0.42505E+08         0.56602E+06         0.00000E+00
    0.56602E+06        -0.97593E+08         0.00000E+00
    0.00000E+00         0.00000E+00        -0.42658E+08
 
   -0.42342E+08         0.56994E+06         0.00000E+00
    0.56994E+06        -0.97593E+08         0.00000E+00
    0.00000E+00         0.00000E+00        -0.42491E+08
 
   -0.42178E+08         0.57362E+06         0.00000E+00
    0.57362E+06        -0.97594E+08         0.00000E+00
    0.00000E+00         0.00000E+00        -0.42321E+08
 
   -0.42013E+08         0.57702E+06         0.00000E+00
    0.57702E+06        -0.97594E+08         0.00000E+00
    0.00000E+00         0.00000E+00        -0.42150E+08
 
   -0.41847E+08         0.58011E+06         0.00000E+00
    0.58011E+06        -0.97595E+08         0.00000E+00
    0.00000E+00         0.00000E+00        -0.41977E+08
 
   -0.41680E+08         0.58285E+06         0.00000E+00
    0.58285E+06        -0.97596E+08         0.00000E+00
    0.00000E+00         0.00000E+00        -0.41802E+08
 
   -0.41513E+08         0.58519E+06         0.00000E+00
    0.58519E+06        -0.97596E+08         0.00000E+00
    0.00000E+00         0.00000E+00        -0.41626E+08
 
   -0.41344E+08         0.58710E+06         0.00000E+00
    0.58710E+06        -0.97597E+08         0.00000E+00
    0.00000E+00         0.00000E+00        -0.41448E+08
 
   -0.41175E+08         0.58851E+06         0.00000E+00
    0.58851E+06        -0.97598E+08         0.00000E+00
    0.00000E+00         0.00000E+00        -0.41268E+08
 
   -0.41006E+08         0.58937E+06         0.00000E+00
    0.58937E+06        -0.97599E+08         0.00000E+00
    0.00000E+00         0.00000E+00        -0.41086E+08
 
   -0.40836E+08         0.58961E+06         0.00000E+00
    0.58961E+06        -0.97600E+08         0.00000E+00
    0.00000E+00         0.00000E+00        -0.40903E+08
 
   -0.40666E+08         0.58915E+06         0.00000E+00
    0.58915E+06        -0.97602E+08         0.00000E+00
    0.00000E+00         0.00000E+00        -0.40719E+08
 
   -0.40496E+08         0.58791E+06         0.00000E+00
    0.58791E+06        -0.97603E+08         0.00000E+00
    0.00000E+00         0.00000E+00        -0.40533E+08
 
   -0.40327E+08         0.58579E+06         0.00000E+00
    0.58579E+06        -0.97605E+08         0.00000E+00
    0.00000E+00         0.00000E+00        -0.40345E+08
 
   -0.40158E+08         0.58267E+06         0.00000E+00
    0.58267E+06        -0.97607E+08         0.00000E+00
    0.00000E+00         0.00000E+00        -0.40156E+08
 
   -0.39990E+08         0.57844E+06         0.00000E+00
    0.57844E+06        -0.97609E+08         0.00000E+00
    0.00000E+00         0.00000E+00        -0.39965E+08
 
   -0.39822E+08         0.57295E+06         0.00000E+00
    0.57295E+06        -0.97611E+08         0.00000E+00
    0.00000E+00         0.00000E+00        -0.39773E+08
 
   -0.39657E+08         0.56604E+06         0.00000E+00
    0.56604E+06        -0.97614E+08         0.00000E+00
    0.00000E+00         0.00000E+00        -0.39580E+08
 
   -0.39493E+08         0.55754E+06         0.00000E+00
    0.55754E+06        -0.97617E+08         0.00000E+00
    0.00000E+00         0.00000E+00        -0.39386E+08
 
   -0.39331E+08         0.54724E+06         0.00000E+00
    0.54724E+06        -0.97621E+08         0.00000E+00
    0.00000E+00         0.00000E+00        -0.39190E+08
 
   -0.39171E+08         0.53493E+06         0.00000E+00
    0.53493E+06        -0.97625E+08         0.00000E+00
    0.00000E+00         0.00000E+00        -0.38993E+08
 
   -0.39015E+08         0.52036E+06         0.00000E+00
    0.52036E+06        -0.97630E+08         0.00000E+00
    0.00000E+00         0.00000E+00        -0.38795E+08
 
   -0.38862E+08         0.50329E+06         0.00000E+00
    0.50329E+06        -0.97635E+08         0.00000E+00
    0.00000E+00         0.00000E+00        -0.38596E+08
 
   -0.38713E+08         0.48344E+06         0.00000E+00
    0.48344E+06        -0.97640E+08         0.00000E+00
    0.00000E+00         0.00000E+00        -0.38395E+08
 
   -0.38568E+08         0.46053E+06         0.00000E+00
    0.46053E+06        -0.97647E+08         0.00000E+00
    0.00000E+00         0.00000E+00        -0.38194E+08
 
   -0.38429E+08         0.43428E+06         0.00000E+00
    0.43428E+06        -0.97654E+08         0.00000E+00
    0.00000E+00         0.00000E+00        -0.37992E+08
 
   -0.38295E+08         0.40445E+06         0.00000E+00
    0.40445E+06        -0.97661E+08         0.00000E+00
    0.00000E+00         0.00000E+00        -0.37789E+08
 
   -0.38167E+08         0.37084E+06         0.00000E+00
    0.37084E+06        -0.97669E+08         0.00000E+00
    0.00000E+00         0.00000E+00        -0.37585E+08
 
   -0.38046E+08         0.33332E+06         0.00000E+00
    0.33332E+06        -0.97678E+08         0.00000E+00
    0.00000E+00         0.00000E+00        -0.37381E+08
 
   -0.37932E+08         0.29192E+06         0.00000E+00
    0.29192E+06        -0.97686E+08         0.00000E+00
    0.00000E+00         0.00000E+00        -0.37175E+08
 
   -0.37826E+08         0.24685E+06         0.00000E+00
    0.24685E+06        -0.97694E+08         0.00000E+00
    0.00000E+00         0.00000E+00        -0.36970E+08
 
   -0.37728E+08         0.19864E+06         0.00000E+00
    0.19864E+06        -0.97701E+08         0.00000E+00
    0.00000E+00         0.00000E+00        -0.36763E+08
 
   -0.37639E+08         0.14826E+06         0.00000E+00
    0.14826E+06        -0.97706E+08         0.00000E+00
    0.00000E+00         0.00000E+00        -0.36557E+08
 
   -0.37558E+08         0.97280E+05         0.00000E+00
    0.97280E+05        -0.97707E+08         0.00000E+00
    0.00000E+00         0.00000E+00        -0.36350E+08
 
   -0.37484E+08         0.48156E+05         0.00000E+00
    0.48156E+05        -0.97704E+08         0.00000E+00
    0.00000E+00         0.00000E+00        -0.36142E+08
 
   -0.37418E+08         0.45292E+04         0.00000E+00
    0.45292E+04        -0.97692E+08         0.00000E+00
    0.00000E+00         0.00000E+00        -0.35935E+08
 
   -0.37358E+08        -0.28520E+05         0.00000E+00
   -0.28520E+05        -0.97667E+08         0.00000E+00
    0.00000E+00         0.00000E+00        -0.35727E+08
 
   -0.37306E+08        -0.44923E+05         0.00000E+00
   -0.44923E+05        -0.97620E+08         0.00000E+00
    0.00000E+00         0.00000E+00        -0.35519E+08
 
   -0.37264E+08        -0.40152E+05         0.00000E+00
   -0.40152E+05        -0.97535E+08         0.00000E+00
    0.00000E+00         0.00000E+00        -0.35311E+08
 
   -0.37240E+08        -0.16068E+05         0.00000E+00
   -0.16068E+05        -0.97396E+08         0.00000E+00
    0.00000E+00         0.00000E+00        -0.35104E+08
 
   -0.48874E+08        -0.70767E+04         0.00000E+00
   -0.70767E+04        -0.97686E+08         0.00000E+00
    0.00000E+00         0.00000E+00        -0.49952E+08
 
   -0.48863E+08        -0.17150E+05         0.00000E+00
   -0.17150E+05        -0.97623E+08         0.00000E+00
    0.00000E+00         0.00000E+00        -0.49855E+08
 
   -0.48843E+08        -0.17536E+05         0.00000E+00
   -0.17536E+05        -0.97586E+08         0.00000E+00
    0.00000E+00         0.00000E+00        -0.49759E+08
 
   -0.48818E+08        -0.75828E+04         0.00000E+00
   -0.75828E+04        -0.97566E+08         0.00000E+00
    0.00000E+00         0.00000E+00        -0.49663E+08
 
   -0.48790E+08         0.10229E+05         0.00000E+00
    0.10229E+05        -0.97556E+08         0.00000E+00
    0.00000E+00         0.00000E+00        -0.49566E+08
 
   -0.48757E+08         0.32887E+05         0.00000E+00
    0.32887E+05        -0.97551E+08         0.00000E+00
    0.00000E+00         0.00000E+00        -0.49470E+08
 
   -0.48721E+08         0.58009E+05         0.00000E+00
    0.58009E+05        -0.97550E+08         0.00000E+00
    0.00000E+00         0.00000E+00        -0.49373E+08
 
   -0.48680E+08         0.83950E+05         0.00000E+00
    0.83950E+05        -0.97550E+08         0.00000E+00
    0.00000E+00         0.00000E+00        -0.49276E+08
 
   -0.48635E+08         0.10962E+06         0.00000E+00
    0.10962E+06        -0.97552E+08         0.00000E+00
    0.00000E+00         0.00000E+00        -0.49179E+08
 
   -0.48584E+08         0.13435E+06         0.00000E+00
    0.13435E+06        -0.97555E+08         0.00000E+00
    0.00000E+00         0.00000E+00        -0.49082E+08
 
   -0.48528E+08         0.15771E+06         0.00000E+00
    0.15771E+06        -0.97559E+08         0.00000E+00
    0.00000E+00         0.00000E+00        -0.48984E+08
 
   -0.48468E+08         0.17949E+06         0.00000E+00
    0.17949E+06        -0.97562E+08         0.00000E+00
    0.00000E+00         0.00000E+00        -0.48886E+08
 
   -0.48403E+08         0.19962E+06         0.00000E+00
    0.19962E+06        -0.97565E+08         0.00000E+00
    0.00000E+00         0.00000E+00        -0.48787E+08
 
   -0.48334E+08         0.21810E+06         0.00000E+00
    0.21810E+06        -0.97569E+08         0.00000E+00
    0.00000E+00         0.00000E+00        -0.48688E+08
 
   -0.48261E+08         0.23500E+06         0.00000E+00
    0.23500E+06        -0.97571E+08         0.00000E+00
    0.00000E+00         0.00000E+00        -0.48588E+08
 
   -0.48184E+08         0.25043E+06         0.00000E+00
    0.25043E+06        -0.97574E+08         0.00000E+00
    0.00000E+00         0.00000E+00        -0.48487E+08
 
   -0.48103E+08         0.26450E+06         0.00000E+00
    0.26450E+06        -0.97577E+08         0.00000E+00
    0.00000E+00         0.00000E+00        -0.48386E+08
 
   -0.48019E+08         0.27736E+06         0.00000E+00
    0.27736E+06        -0.97579E+08         0.00000E+00
    0.00000E+00         0.00000E+00        -0.48284E+08
 
   -0.47932E+08         0.28912E+06         0.00000E+00
    0.28912E+06        -0.97581E+08         0.00000E+00
    0.00000E+00         0.00000E+00        -0.48181E+08
 
   -0.47841E+08         0.29992E+06         0.00000E+00
    0.29992E+06        -0.97582E+08         0.00000E+00
    0.00000E+00         0.00000E+00        -0.48078E+08
 
   -0.47748E+08         0.30988E+06         0.00000E+00
    0.30988E+06        -0.97584E+08         0.00000E+00
    0.00000E+00         0.00000E+00        -0.47973E+08
 
   -0.47653E+08         0.31910E+06         0.00000E+00
    0.31910E+06        -0.97585E+08         0.00000E+00
    0.00000E+00         0.00000E+00        -0.47868E+08
 
   -0.47554E+08         0.32768E+06         0.00000E+00
    0.32768E+06        -0.97586E+08         0.00000E+00
    0.00000E+00         0.00000E+00        -0.47762E+08
 
   -0.47454E+08         0.33572E+06         0.00000E+00
    0.33572E+06        -0.97587E+08         0.00000E+00
    0.00000E+00         0.00000E+00        -0.47654E+08
 
   -0.47351E+08         0.34329E+06         0.00000E+00
    0.34329E+06        -0.97588E+08         0.00000E+00
    0.00000E+00         0.00000E+00        -0.47546E+08
 
   -0.47246E+08         0.35046E+06         0.00000E+00
    0.35046E+06        -0.97588E+08         0.00000E+00
    0.00000E+00         0.00000E+00        -0.47436E+08
 
   -0.47139E+08         0.35729E+06         0.00000E+00
    0.35729E+06        -0.97589E+08         0.00000E+00
    0.00000E+00         0.00000E+00        -0.47326E+08
 
   -0.47030E+08         0.36384E+06         0.00000E+00
    0.36384E+06        -0.97589E+08         0.00000E+00
    0.00000E+00         0.00000E+00        -0.47214E+08
 
   -0.46920E+08         0.37014E+06         0.00000E+00
    0.37014E+06        -0.97590E+08         0.00000E+00
    0.00000E+00         0.00000E+00        -0.47101E+08
 
   -0.46807E+08         0.37625E+06         0.00000E+00
    0.37625E+06        -0.97590E+08         0.00000E+00
    0.00000E+00         0.00000E+00        -0.46986E+08
 
   -0.46692E+08         0.38218E+06         0.00000E+00
    0.38218E+06        -0.97590E+08         0.00000E+00
    0.00000E+00         0.00000E+00        -0.46871E+08
 
   -0.46576E+08         0.38798E+06         0.00000E+00
    0.38798E+06        -0.97591E+08         0.00000E+00
    0.00000E+00         0.00000E+00        -0.46754E+08
 
   -0.46458E+08         0.39366E+06         0.00000E+00
    0.39366E+06        -0.97591E+08         0.00000E+00
    0.00000E+00         0.00000E+00        -0.46635E+08
 
   -0.46338E+08         0.39924E+06         0.00000E+00
    0.39924E+06        -0.97591E+08         0.00000E+00
    0.00000E+00         0.00000E+00        -0.46515E+08
 
   -0.46217E+08         0.40475E+06         0.00000E+00
    0.40475E+06        -0.97591E+08         0.00000E+00
    0.00000E+00         0.00000E+00        -0.46394E+08
 
   -0.46094E+08         0.41020E+06         0.00000E+00
    0.41020E+06        -0.97591E+08         0.00000E+00
    0.00000E+00         0.00000E+00        -0.46271E+08
 
   -0.45969E+08         0.41560E+06         0.00000E+00
    0.41560E+06        -0.97591E+08         0.00000E+00
    0.00000E+00         0.00000E+00        -0.46147E+08
 
   -0.45843E+08         0.42096E+06         0.00000E+00
    0.42096E+06        -0.97591E+08         0.00000E+00
    0.00000E+00         0.00000E+00        -0.46021E+08
 
   -0.45715E+08         0.42629E+06         0.00000E+00
    0.42629E+06        -0.97591E+08         0.00000E+00
    0.00000E+00         0.00000E+00        -0.45894E+08
 
   -0.45586E+08         0.43159E+06         0.00000E+00
    0.43159E+06        -0.97591E+08         0.00000E+00
    0.00000E+00         0.00000E+00        -0.45765E+08
 
   -0.45454E+08         0.43686E+06         0.00000E+00
    0.43686E+06        -0.97591E+08         0.00000E+00
    0.00000E+00         0.00000E+00        -0.45635E+08
 
   -0.45322E+08         0.44212E+06         0.00000E+00
    0.44212E+06        -0.97591E+08         0.00000E+00
    0.00000E+00         0.00000E+00        -0.45502E+08
 
   -0.45187E+08         0.44736E+06         0.00000E+00
    0.44736E+06        -0.97591E+08         0.00000E+00
    0.00000E+00         0.00000E+00        -0.45369E+08
 
   -0.45051E+08         0.45258E+06         0.00000E+00
    0.45258E+06        -0.97591E+08         0.00000E+00
    0.00000E+00         0.00000E+00        -0.45233E+08
 
   -0.44913E+08         0.45778E+06         0.00000E+00
    0.45778E+06        -0.97591E+08         0.00000E+00
    0.00000E+00         0.00000E+00        -0.45096E+08
 
   -0.44774E+08         0.46297E+06         0.00000E+00
    0.46297E+06        -0.97591E+08         0.00000E+00
    0.00000E+00         0.00000E+00        -0.44957E+08
 
   -0.44633E+08         0.46812E+06         0.00000E+00
    0.46812E+06        -0.97592E+08         0.00000E+00
    0.00000E+00         0.00000E+00        -0.44816E+08
 
   -0.44491E+08         0.47325E+06         0.00000E+00
    0.47325E+06        -0.97592E+08         0.00000E+00
    0.00000E+00         0.00000E+00        -0.44674E+08
 
   -0.44347E+08         0.47835E+06         0.00000E+00
    0.47835E+06        -0.97592E+08         0.00000E+00
    0.00000E+00         0.00000E+00        -0.44530E+08
 
   -0.44201E+08         0.48341E+06         0.00000E+00
    0.48341E+06        -0.97592E+08         0.00000E+00
    0.00000E+00         0.00000E+00        -0.44384E+08
 
   -0.44054E+08         0.48842E+06         0.00000E+00
    0.48842E+06        -0.97592E+08         0.00000E+00
    0.00000E+00         0.00000E+00        -0.44236E+08
 
   -0.43905E+08         0.49337E+06         0.00000E+00
    0.49337E+06        -0.97592E+08         0.00000E+00
    0.00000E+00         0.00000E+00        -0.44086E+08
 
   -0.43755E+08         0.49826E+06         0.00000E+00
    0.49826E+06        -0.97592E+08         0.00000E+00
    0.00000E+00         0.00000E+00        -0.43935E+08
 
   -0.43603E+08         0.50308E+06         0.00000E+00
    0.50308E+06        -0.97592E+08         0.00000E+00
    0.00000E+00         0.00000E+00        -0.43782E+08
 
   -0.43450E+08         0.50781E+06         0.00000E+00
    0.50781E+06        -0.97592E+08         0.00000E+00
    0.00000E+00         0.00000E+00        -0.43627E+08
 
   -0.43295E+08         0.51244E+06         0.00000E+00
    0.51244E+06        -0.97592E+08         0.00000E+00
    0.00000E+00         0.00000E+00        -0.43470E+08
 
   -0.43139E+08         0.51697E+06         0.00000E+00
    0.51697E+06        -0.97593E+08         0.00000E+00
    0.00000E+00         0.00000E+00        -0.43311E+08
 
   -0.42982E+08         0.52136E+06         0.00000E+00
    0.52136E+06        -0.97593E+08         0.00000E+00
    0.00000E+00         0.00000E+00        -0.43151E+08
 
   -0.42823E+08         0.52561E+06         0.00000E+00
    0.52561E+06        -0.97593E+08         0.00000E+00
    0.00000E+00         0.00000E+00        -0.42988E+08
 
   -0.42662E+08         0.52969E+06         0.00000E+00
    0.52969E+06        -0.97593E+08         0.00000E+00
    0.00000E+00         0.00000E+00        -0.42824E+08
 
   -0.42501E+08         0.53359E+06         0.00000E+00
    0.53359E+06        -0.97594E+08         0.00000E+00
    0.00000E+00         0.00000E+00        -0.42658E+08
 
   -0.42338E+08         0.53728E+06         0.00000E+00
    0.53728E+06        -0.97594E+08         0.00000E+00
    0.00000E+00         0.00000E+00        -0.42491E+08
 
   -0.42174E+08         0.54073E+06         0.00000E+00
    0.54073E+06        -0.97595E+08         0.00000E+00
    0.00000E+00         0.00000E+00        -0.42321E+08
 
   -0.42010E+08         0.54392E+06         0.00000E+00
    0.54392E+06        -0.97595E+08         0.00000E+00
    0.00000E+00         0.00000E+00        -0.42150E+08
 
   -0.41844E+08         0.54682E+06         0.00000E+00
    0.54682E+06        -0.97596E+08         0.00000E+00
    0.00000E+00         0.00000E+00        -0.41977E+08
 
   -0.41677E+08         0.54939E+06         0.00000E+00
    0.54939E+06        -0.97596E+08         0.00000E+00
    0.00000E+00         0.00000E+00        -0.41802E+08
 
   -0.41509E+08         0.55158E+06         0.00000E+00
    0.55158E+06        -0.97597E+08         0.00000E+00
    0.00000E+00         0.00000E+00        -0.41626E+08
 
   -0.41341E+08         0.55336E+06         0.00000E+00
    0.55336E+06        -0.97597E+08         0.00000E+00
    0.00000E+00         0.00000E+00        -0.41448E+08
 
   -0.41172E+08         0.55467E+06         0.00000E+00
    0.55467E+06        -0.97598E+08         0.00000E+00
    0.00000E+00         0.00000E+00        -0.41268E+08
 
   -0.41003E+08         0.55546E+06         0.00000E+00
    0.55546E+06        -0.97599E+08         0.00000E+00
    0.00000E+00         0.00000E+00        -0.41086E+08
 
   -0.40833E+08         0.55566E+06         0.00000E+00
    0.55566E+06        -0.97600E+08         0.00000E+00
    0.00000E+00         0.00000E+00        -0.40903E+08
 
   -0.40664E+08         0.55520E+06         0.00000E+00
    0.55520E+06        -0.97601E+08         0.00000E+00
    0.00000E+00         0.00000E+00        -0.40719E+08
 
   -0.40494E+08         0.55400E+06         0.00000E+00
    0.55400E+06        -0.97603E+08         0.00000E+00
    0.00000E+00         0.00000E+00        -0.40533E+08
 
   -0.40325E+08         0.55196E+06         0.00000E+00
    0.55196E+06        -0.97604E+08         0.00000E+00
    0.00000E+00         0.00000E+00        -0.40345E+08
 
   -0.40156E+08         0.54898E+06         0.00000E+00
    0.54898E+06        -0.97606E+08         0.00000E+00
    0.00000E+00         0.00000E+00        -0.40156E+08
 
   -0.39988E+08         0.54494E+06         0.00000E+00
    0.54494E+06        -0.97608E+08         0.00000E+00
    0.00000E+00         0.00000E+00        -0.39965E+08
 
   -0.39822E+08         0.53970E+06         0.00000E+00
    0.53970E+06        -0.97610E+08         0.00000E+00
    0.00000E+00         0.00000E+00        -0.39774E+08
 
   -0.39657E+08         0.53310E+06         0.00000E+00
    0.53310E+06        -0.97613E+08         0.00000E+00
    0.00000E+00         0.00000E+00        -0.39580E+08
 
   -0.39493E+08         0.52499E+06         0.00000E+00
    0.52499E+06        -0.97615E+08         0.00000E+00
    0.00000E+00         0.00000E+00        -0.39386E+08
 
   -0.39332E+08         0.51516E+06         0.00000E+00
    0.51516E+06        -0.97619E+08         0.00000E+00
    0.00000E+00         0.00000E+00        -0.39190E+08
 
   -0.39173E+08         0.50341E+06         0.00000E+00
    0.50341E+06        -0.97622E+08         0.00000E+00
    0.00000E+00         0.00000E+00        -0.38993E+08
 
   -0.39018E+08         0.48950E+06         0.00000E+00
    0.48950E+06        -0.97626E+08         0.00000E+00
    0.00000E+00         0.00000E+00        -0.38795E+08
 
   -0.38866E+08         0.47318E+06         0.00000E+00
    0.47318E+06        -0.97631E+08         0.00000E+00
    0.00000E+00         0.00000E+00        -0.38596E+08
 
   -0.38718E+08         0.45418E+06         0.00000E+00
    0.45418E+06        -0.97636E+08         0.00000E+00
    0.00000E+00         0.00000E+00        -0.38395E+08
 
   -0.38575E+08         0.43224E+06         0.00000E+00
    0.43224E+06        -0.97642E+08         0.00000E+00
    0.00000E+00         0.00000E+00        -0.38194E+08
 
   -0.38437E+08         0.40709E+06         0.00000E+00
    0.40709E+06        -0.97648E+08         0.00000E+00
    0.00000E+00         0.00000E+00        -0.37992E+08
 
   -0.38305E+08         0.37847E+06         0.00000E+00
    0.37847E+06        -0.97655E+08         0.00000E+00
    0.00000E+00         0.00000E+00        -0.37789E+08
 
   -0.38179E+08         0.34619E+06         0.00000E+00
    0.34619E+06        -0.97662E+08         0.00000E+00
    0.00000E+00         0.00000E+00        -0.37585E+08
 
   -0.38061E+08         0.31011E+06         0.00000E+00
    0.31011E+06        -0.97670E+08         0.00000E+00
    0.00000E+00         0.00000E+00        -0.37381E+08
 
   -0.37950E+08         0.27026E+06         0.00000E+00
    0.27026E+06        -0.97678E+08         0.00000E+00
    0.00000E+00         0.00000E+00        -0.37175E+08
 
   -0.37848E+08         0.22683E+06         0.00000E+00
    0.22683E+06        -0.97685E+08         0.00000E+00
    0.00000E+00         0.00000E+00        -0.36970E+08
 
   -0.37754E+08         0.18031E+06         0.00000E+00
    0.18031E+06        -0.97691E+08         0.00000E+00
    0.00000E+00         0.00000E+00        -0.36763E+08
 
   -0.37668E+08         0.13163E+06         0.00000E+00
    0.13163E+06        -0.97696E+08         0.00000E+00
    0.00000E+00         0.00000E+00        -0.36557E+08
 
   -0.37592E+08         0.82289E+05         0.00000E+00
    0.82289E+05        -0.97697E+08         0.00000E+00
    0.00000E+00         0.00000E+00        -0.36350E+08
 
   -0.37523E+08         0.34675E+05         0.00000E+00
    0.34675E+05        -0.97694E+08         0.00000E+00
    0.00000E+00         0.00000E+00        -0.36142E+08
 
   -0.37462E+08        -0.76395E+04         0.00000E+00
   -0.76395E+04        -0.97684E+08         0.00000E+00
    0.00000E+00         0.00000E+00        -0.35935E+08
 
   -0.37407E+08        -0.39497E+05         0.00000E+00
   -0.39497E+05        -0.97662E+08         0.00000E+00
    0.00000E+00         0.00000E+00        -0.35727E+08
 
   -0.37358E+08        -0.54395E+05         0.00000E+00
   -0.54395E+05        -0.97619E+08         0.00000E+00
    0.00000E+00         0.00000E+00        -0.35519E+08
 
   -0.37318E+08        -0.46981E+05         0.00000E+00
   -0.46981E+05        -0.97539E+08         0.00000E+00
    0.00000E+00         0.00000E+00        -0.35311E+08
 
   -0.37295E+08        -0.18620E+05         0.00000E+00
   -0.18620E+05        -0.97403E+08         0.00000E+00
    0.00000E+00         0.00000E+00        -0.35104E+08
 
   -0.48847E+08        -0.83218E+04         0.00000E+00
   -0.83218E+04        -0.97683E+08         0.00000E+00
    0.00000E+00         0.00000E+00        -0.49952E+08
 
   -0.48836E+08        -0.20446E+05         0.00000E+00
   -0.20446E+05        -0.97621E+08         0.00000E+00
    0.00000E+00         0.00000E+00        -0.49855E+08
 
   -0.48817E+08        -0.22051E+05         0.00000E+00
   -0.22051E+05        -0.97587E+08         0.00000E+00
    0.00000E+00         0.00000E+00        -0.49759E+08
 
   -0.48794E+08        -0.12803E+05         0.00000E+00
   -0.12803E+05        -0.97569E+08         0.00000E+00
    0.00000E+00         0.00000E+00        -0.49663E+08
 
   -0.48768E+08         0.43788E+04         0.00000E+00
    0.43788E+04        -0.97560E+08         0.00000E+00
    0.00000E+00         0.00000E+00        -0.49566E+08
 
   -0.48738E+08         0.26287E+05         0.00000E+00
    0.26287E+05        -0.97556E+08         0.00000E+00
    0.00000E+00         0.00000E+00        -0.49470E+08
 
   -0.48704E+08         0.50528E+05         0.00000E+00
    0.50528E+05        -0.97555E+08         0.00000E+00
    0.00000E+00         0.00000E+00        -0.49373E+08
 
   -0.48665E+08         0.75503E+05         0.00000E+00
    0.75503E+05        -0.97556E+08         0.00000E+00
    0.00000E+00         0.00000E+00        -0.49276E+08
 
   -0.48621E+08         0.10017E+06         0.00000E+00
    0.10017E+06        -0.97557E+08         0.00000E+00
    0.00000E+00         0.00000E+00        -0.49179E+08
 
   -0.48572E+08         0.12388E+06         0.00000E+00
    0.12388E+06        -0.97560E+08         0.00000E+00
    0.00000E+00         0.00000E+00        -0.49082E+08
 
   -0.48518E+08         0.14625E+06         0.00000E+00
    0.14625E+06        -0.97563E+08         0.00000E+00
    0.00000E+00         0.00000E+00        -0.48984E+08
 
   -0.48459E+08         0.16708E+06         0.00000E+00
    0.16708E+06        -0.97566E+08         0.00000E+00
    0.00000E+00         0.00000E+00        -0.48886E+08
 
   -0.48396E+08         0.18630E+06         0.00000E+00
    0.18630E+06        -0.97569E+08         0.00000E+00
    0.00000E+00         0.00000E+00        -0.48787E+08
 
   -0.48327E+08         0.20392E+06         0.00000E+00
    0.20392E+06        -0.97572E+08         0.00000E+00
    0.00000E+00         0.00000E+00        -0.48688E+08
 
   -0.48255E+08         0.22002E+06         0.00000E+00
    0.22002E+06        -0.97575E+08         0.00000E+00
    0.00000E+00         0.00000E+00        -0.48588E+08
 
   -0.48178E+08         0.23469E+06         0.00000E+00
    0.23469E+06        -0.97577E+08         0.00000E+00
    0.00000E+00         0.00000E+00        -0.48487E+08
 
   -0.48098E+08         0.24805E+06         0.00000E+00
    0.24805E+06        -0.97579E+08         0.00000E+00
    0.00000E+00         0.00000E+00        -0.48386E+08
 
   -0.48014E+08         0.26024E+06         0.00000E+00
    0.26024E+06        -0.97581E+08         0.00000E+00
    0.00000E+00         0.00000E+00        -0.48284E+08
 
   -0.47927E+08         0.27138E+06         0.00000E+00
    0.27138E+06        -0.97583E+08         0.00000E+00
    0.00000E+00         0.00000E+00        -0.48181E+08
 
   -0.47837E+08         0.28160E+06         0.00000E+00
    0.28160E+06        -0.97584E+08         0.00000E+00
    0.00000E+00         0.00000E+00        -0.48078E+08
 
   -0.47744E+08         0.29101E+06         0.00000E+00
    0.29101E+06        -0.97586E+08         0.00000E+00
    0.00000E+00         0.00000E+00        -0.47973E+08
 
   -0.47649E+08         0.29972E+06         0.00000E+00
    0.29972E+06        -0.97587E+08         0.00000E+00
    0.00000E+00         0.00000E+00        -0.47868E+08
 
   -0.47550E+08         0.30782E+06         0.00000E+00
    0.30782E+06        -0.97588E+08         0.00000E+00
    0.00000E+00         0.00000E+00        -0.47762E+08
 
   -0.47450E+08         0.31540E+06         0.00000E+00
    0.31540E+06        -0.97588E+08         0.00000E+00
    0.00000E+00         0.00000E+00        -0.47654E+08
 
   -0.47347E+08         0.32253E+06         0.00000E+00
    0.32253E+06        -0.97589E+08         0.00000E+00
    0.00000E+00         0.00000E+00        -0.47546E+08
 
   -0.47242E+08         0.32928E+06         0.00000E+00
    0.32928E+06        -0.97590E+08         0.00000E+00
    0.00000E+00         0.00000E+00        -0.47436E+08
 
   -0.47135E+08         0.33571E+06         0.00000E+00
    0.33571E+06        -0.97590E+08         0.00000E+00
    0.00000E+00         0.00000E+00        -0.47326E+08
 
   -0.47027E+08         0.34186E+06         0.00000E+00
    0.34186E+06        -0.97591E+08         0.00000E+00
    0.00000E+00         0.00000E+00        -0.47214E+08
 
   -0.46916E+08         0.34779E+06         0.00000E+00
    0.34779E+06        -0.97591E+08         0.00000E+00
    0.00000E+00         0.00000E+00        -0.47101E+08
 
   -0.46803E+08         0.35353E+06         0.00000E+00
    0.35353E+06        -0.97591E+08         0.00000E+00
    0.00000E+00         0.00000E+00        -0.46986E+08
 
   -0.46689E+08         0.35911E+06         0.00000E+00
    0.35911E+06        -0.97591E+08         0.00000E+00
    0.00000E+00         0.00000E+00        -0.46871E+08
 
   -0.46572E+08         0.36455E+06         0.00000E+00
    0.36455E+06        -0.97592E+08         0.00000E+00
    0.00000E+00         0.00000E+00        -0.46754E+08
 
   -0.46454E+08         0.36989E+06         0.00000E+00
    0.36989E+06        -0.97592E+08         0.00000E+00
    0.00000E+00         0.00000E+00        -0.46635E+08
 
   -0.46335E+08         0.37513E+06         0.00000E+00
    0.37513E+06        -0.97592E+08         0.00000E+00
    0.00000E+00         0.00000E+00        -0.46515E+08
 
   -0.46213E+08         0.38031E+06         0.00000E+00
    0.38031E+06        -0.97592E+08         0.00000E+00
    0.00000E+00         0.00000E+00        -0.46394E+08
 
   -0.46090E+08         0.38543E+06         0.00000E+00
    0.38543E+06        -0.97592E+08         0.00000E+00
    0.00000E+00         0.00000E+00        -0.46271E+08
 
   -0.45965E+08         0.39050E+06         0.00000E+00
    0.39050E+06        -0.97592E+08         0.00000E+00
    0.00000E+00         0.00000E+00        -0.46147E+08
 
   -0.45839E+08         0.39553E+06         0.00000E+00
    0.39553E+06        -0.97592E+08         0.00000E+00
    0.00000E+00         0.00000E+00        -0.46021E+08
 
   -0.45711E+08         0.40053E+06         0.00000E+00
    0.40053E+06        -0.97592E+08         0.00000E+00
    0.00000E+00         0.00000E+00        -0.45894E+08
 
   -0.45581E+08         0.40550E+06         0.00000E+00
    0.40550E+06        -0.97592E+08         0.00000E+00
    0.00000E+00         0.00000E+00        -0.45765E+08
 
   -0.45450E+08         0.41046E+06         0.00000E+00
    0.41046E+06        -0.97592E+08         0.00000E+00
    0.00000E+00         0.00000E+00        -0.45635E+08
 
   -0.45317E+08         0.41539E+06         0.00000E+00
    0.41539E+06        -0.97592E+08         0.00000E+00
    0.00000E+00         0.00000E+00        -0.45502E+08
 
   -0.45183E+08         0.42031E+06         0.00000E+00
    0.42031E+06        -0.97592E+08         0.00000E+00
    0.00000E+00         0.00000E+00        -0.45369E+08
 
   -0.45047E+08         0.42521E+06         0.00000E+00
    0.42521E+06        -0.97592E+08         0.00000E+00
    0.00000E+00         0.00000E+00        -0.45233E+08
 
   -0.44909E+08         0.43009E+06         0.00000E+00
    0.43009E+06        -0.97592E+08         0.00000E+00
    0.00000E+00         0.00000E+00        -0.45096E+08
 
   -0.44770E+08         0.43495E+06         0.00000E+00
    0.43495E+06        -0.97592E+08         0.00000E+00
    0.00000E+00         0.00000E+00        -0.44957E+08
 
   -0.44629E+08         0.43979E+06         0.00000E+00
    0.43979E+06        -0.97593E+08         0.00000E+00
    0.00000E+00         0.00000E+00        -0.44816E+08
 
   -0.44486E+08         0.44460E+06         0.00000E+00
    0.44460E+06        -0.97593E+08         0.00000E+00
    0.00000E+00         0.00000E+00        -0.44674E+08
 
   -0.44342E+08         0.44939E+06         0.00000E+00
    0.44939E+06        -0.97593E+08         0.00000E+00
    0.00000E+00         0.00000E+00        -0.44530E+08
 
   -0.44197E+08         0.45413E+06         0.00000E+00
    0.45413E+06        -0.97593E+08         0.00000E+00
    0.00000E+00         0.00000E+00        -0.44384E+08
 
   -0.44050E+08         0.45883E+06         0.00000E+00
    0.45883E+06        -0.97593E+08         0.00000E+00
    0.00000E+00         0.00000E+00        -0.44236E+08
 
   -0.43901E+08         0.46348E+06         0.00000E+00
    0.46348E+06        -0.97593E+08         0.00000E+00
    0.00000E+00         0.00000E+00        -0.44086E+08
 
   -0.43751E+08         0.46806E+06         0.00000E+00
    0.46806E+06        -0.97593E+08         0.00000E+00
    0.00000E+00         0.00000E+00        -0.43935E+08
 
   -0.43599E+08         0.47258E+06         0.00000E+00
    0.47258E+06        -0.97593E+08         0.00000E+00
    0.00000E+00         0.00000E+00        -0.43782E+08
 
   -0.43446E+08         0.47702E+06         0.00000E+00
    0.47702E+06        -0.97593E+08         0.00000E+00
    0.00000E+00         0.00000E+00        -0.43627E+08
 
   -0.43291E+08         0.48136E+06         0.00000E+00
    0.48136E+06        -0.97593E+08         0.00000E+00
    0.00000E+00         0.00000E+00        -0.43470E+08
 
   -0.43135E+08         0.48560E+06         0.00000E+00
    0.48560E+06        -0.97594E+08         0.00000E+00
    0.00000E+00         0.00000E+00        -0.43311E+08
 
   -0.42977E+08         0.48972E+06         0.00000E+00
    0.48972E+06        -0.97594E+08         0.00000E+00
    0.00000E+00         0.00000E+00        -0.43151E+08
 
   -0.42818E+08         0.49370E+06         0.00000E+00
    0.49370E+06        -0.97594E+08         0.00000E+00
    0.00000E+00         0.00000E+00        -0.42988E+08
 
   -0.42658E+08         0.49752E+06         0.00000E+00
    0.49752E+06        -0.97594E+08         0.00000E+00
    0.00000E+00         0.00000E+00        -0.42824E+08
 
   -0.42497E+08         0.50117E+06         0.00000E+00
    0.50117E+06        -0.97594E+08         0.00000E+00
    0.00000E+00         0.00000E+00        -0.42658E+08
 
   -0.42334E+08         0.50463E+06         0.00000E+00
    0.50463E+06        -0.97595E+08         0.00000E+00
    0.00000E+00         0.00000E+00        -0.42491E+08
 
   -0.42171E+08         0.50786E+06         0.00000E+00
    0.50786E+06        -0.97595E+08         0.00000E+00
    0.00000E+00         0.00000E+00        -0.42321E+08
 
   -0.42006E+08         0.51085E+06         0.00000E+00
    0.51085E+06        -0.97596E+08         0.00000E+00
    0.00000E+00         0.00000E+00        -0.42150E+08
 
   -0.41840E+08         0.51356E+06         0.00000E+00
    0.51356E+06        -0.97596E+08         0.00000E+00
    0.00000E+00         0.00000E+00        -0.41977E+08
 
   -0.41673E+08         0.51595E+06         0.00000E+00
    0.51595E+06        -0.97597E+08         0.00000E+00
    0.00000E+00         0.00000E+00        -0.41802E+08
 
   -0.41506E+08         0.51800E+06         0.00000E+00
    0.51800E+06        -0.97597E+08         0.00000E+00
    0.00000E+00         0.00000E+00        -0.41626E+08
 
   -0.41338E+08         0.51966E+06         0.00000E+00
    0.51966E+06        -0.97598E+08         0.00000E+00
    0.00000E+00         0.00000E+00        -0.41448E+08
 
   -0.41169E+08         0.52087E+06         0.00000E+00
    0.52087E+06        -0.97599E+08         0.00000E+00
    0.00000E+00         0.00000E+00        -0.41268E+08
 
   -0.41000E+08         0.52159E+06         0.00000E+00
    0.52159E+06        -0.97599E+08         0.00000E+00
    0.00000E+00         0.00000E+00        -0.41086E+08
 
   -0.40831E+08         0.52176E+06         0.00000E+00
    0.52176E+06        -0.97600E+08         0.00000E+00
    0.00000E+00         0.00000E+00        -0.40903E+08
 
   -0.40661E+08         0.52131E+06         0.00000E+00
    0.52131E+06        -0.97601E+08         0.00000E+00
    0.00000E+00         0.00000E+00        -0.40719E+08
 
   -0.40492E+08         0.52015E+06         0.00000E+00
    0.52015E+06        -0.97602E+08         0.00000E+00
    0.00000E+00         0.00000E+00        -0.40533E+08
 
   -0.40323E+08         0.51820E+06         0.00000E+00
    0.51820E+06        -0.97604E+08         0.00000E+00
    0.00000E+00         0.00000E+00        -0.40345E+08
 
   -0.40155E+08         0.51536E+06         0.00000E+00
    0.51536E+06        -0.97605E+08         0.00000E+00
    0.00000E+00         0.00000E+00        -0.40156E+08
 
   -0.39987E+08         0.51152E+06         0.00000E+00
    0.51152E+06        -0.97607E+08         0.00000E+00
    0.00000E+00         0.00000E+00        -0.39965E+08
 
   -0.39821E+08         0.50654E+06         0.00000E+00
    0.50654E+06        -0.97609E+08         0.00000E+00
    0.00000E+00         0.00000E+00        -0.39774E+08
 
   -0.39656E+08         0.50027E+06         0.00000E+00
    0.50027E+06        -0.97611E+08         0.00000E+00
    0.00000E+00         0.00000E+00        -0.39580E+08
 
   -0.39493E+08         0.49257E+06         0.00000E+00
    0.49257E+06        -0.97614E+08         0.00000E+00
    0.00000E+00         0.00000E+00        -0.39386E+08
 
   -0.39333E+08         0.48323E+06         0.00000E+00
    0.48323E+06        -0.97617E+08         0.00000E+00
    0.00000E+00         0.00000E+00        -0.39190E+08
 
   -0.39175E+08         0.47205E+06         0.00000E+00
    0.47205E+06        -0.97620E+08         0.00000E+00
    0.00000E+00         0.00000E+00        -0.38993E+08
 
   -0.39020E+08         0.45882E+06         0.00000E+00
    0.45882E+06        -0.97624E+08         0.00000E+00
    0.00000E+00         0.00000E+00        -0.38795E+08
 
   -0.38869E+08         0.44328E+06         0.00000E+00
    0.44328E+06        -0.97628E+08         0.00000E+00
    0.00000E+00         0.00000E+00        -0.38596E+08
 
   -0.38722E+08         0.42518E+06         0.00000E+00
    0.42518E+06        -0.97632E+08         0.00000E+00
    0.00000E+00         0.00000E+00        -0.38395E+08
 
   -0.38581E+08         0.40426E+06         0.00000E+00
    0.40426E+06        -0.97637E+08         0.00000E+00
    0.00000E+00         0.00000E+00        -0.38194E+08
 
   -0.38444E+08         0.38025E+06         0.00000E+00
    0.38025E+06        -0.97643E+08         0.00000E+00
    0.00000E+00         0.00000E+00        -0.37992E+08
 
   -0.38314E+08         0.35290E+06         0.00000E+00
    0.35290E+06        -0.97649E+08         0.00000E+00
    0.00000E+00         0.00000E+00        -0.37789E+08
 
   -0.38191E+08         0.32201E+06         0.00000E+00
    0.32201E+06        -0.97656E+08         0.00000E+00
    0.00000E+00         0.00000E+00        -0.37585E+08
 
   -0.38075E+08         0.28746E+06         0.00000E+00
    0.28746E+06        -0.97663E+08         0.00000E+00
    0.00000E+00         0.00000E+00        -0.37381E+08
 
   -0.37967E+08         0.24925E+06         0.00000E+00
    0.24925E+06        -0.97669E+08         0.00000E+00
    0.00000E+00         0.00000E+00        -0.37175E+08
 
   -0.37868E+08         0.20754E+06         0.00000E+00
    0.20754E+06        -0.97676E+08         0.00000E+00
    0.00000E+00         0.00000E+00        -0.36970E+08
 
   -0.37778E+08         0.16281E+06         0.00000E+00
    0.16281E+06        -0.97682E+08         0.00000E+00
    0.00000E+00         0.00000E+00        -0.36763E+08
 
   -0.37697E+08         0.11592E+06         0.00000E+00
    0.11592E+06        -0.97686E+08         0.00000E+00
    0.00000E+00         0.00000E+00        -0.36557E+08
 
   -0.37626E+08         0.68302E+05         0.00000E+00
    0.68302E+05        -0.97688E+08         0.00000E+00
    0.00000E+00         0.00000E+00        -0.36350E+08
 
   -0.37563E+08         0.22236E+05         0.00000E+00
    0.22236E+05        -0.97685E+08         0.00000E+00
    0.00000E+00         0.00000E+00        -0.36142E+08
 
   -0.37507E+08        -0.18799E+05         0.00000E+00
   -0.18799E+05        -0.97677E+08         0.00000E+00
    0.00000E+00         0.00000E+00        -0.35935E+08
 
   -0.37456E+08        -0.49625E+05         0.00000E+00
   -0.49625E+05        -0.97657E+08         0.00000E+00
    0.00000E+00         0.00000E+00        -0.35727E+08
 
   -0.37411E+08        -0.63321E+05         0.00000E+00
   -0.63321E+05        -0.97618E+08         0.00000E+00
    0.00000E+00         0.00000E+00        -0.35519E+08
 
   -0.37373E+08        -0.53597E+05         0.00000E+00
   -0.53597E+05        -0.97543E+08         0.00000E+00
    0.00000E+00         0.00000E+00        -0.35311E+08
 
   -0.37351E+08        -0.21140E+05         0.00000E+00
   -0.21140E+05        -0.97411E+08         0.00000E+00
    0.00000E+00         0.00000E+00        -0.35104E+08
 
   -0.48820E+08        -0.95528E+04         0.00000E+00
   -0.95528E+04        -0.97680E+08         0.00000E+00
    0.00000E+00         0.00000E+00        -0.49952E+08
 
   -0.48809E+08        -0.23635E+05         0.00000E+00
   -0.23635E+05        -0.97620E+08         0.00000E+00
    0.00000E+00         0.00000E+00        -0.49855E+08
 
   -0.48791E+08        -0.26289E+05         0.00000E+00
   -0.26289E+05        -0.97588E+08         0.00000E+00
    0.00000E+00         0.00000E+00        -0.49759E+08
 
   -0.48770E+08        -0.17605E+05         0.00000E+00
   -0.17605E+05        -0.97571E+08         0.00000E+00
    0.00000E+00         0.00000E+00        -0.49663E+08
 
   -0.48746E+08        -0.98914E+03         0.00000E+00
   -0.98914E+03        -0.97564E+08         0.00000E+00
    0.00000E+00         0.00000E+00        -0.49566E+08
 
   -0.48718E+08         0.20171E+05         0.00000E+00
    0.20171E+05        -0.97560E+08         0.00000E+00
    0.00000E+00         0.00000E+00        -0.49470E+08
 
   -0.48687E+08         0.43502E+05         0.00000E+00
    0.43502E+05        -0.97560E+08         0.00000E+00
    0.00000E+00         0.00000E+00        -0.49373E+08
 
   -0.48650E+08         0.67466E+05         0.00000E+00
    0.67466E+05        -0.97560E+08         0.00000E+00
    0.00000E+00         0.00000E+00        -0.49276E+08
 
   -0.48609E+08         0.91080E+05         0.00000E+00
    0.91080E+05        -0.97562E+08         0.00000E+00
    0.00000E+00         0.00000E+00        -0.49179E+08
 
   -0.48561E+08         0.11373E+06         0.00000E+00
    0.11373E+06        -0.97565E+08         0.00000E+00
    0.00000E+00         0.00000E+00        -0.49082E+08
 
   -0.48509E+08         0.13507E+06         0.00000E+00
    0.13507E+06        -0.97567E+08         0.00000E+00
    0.00000E+00         0.00000E+00        -0.48984E+08
 
   -0.48451E+08         0.15490E+06         0.00000E+00
    0.15490E+06        -0.97570E+08         0.00000E+00
    0.00000E+00         0.00000E+00        -0.48886E+08
 
   -0.48388E+08         0.17318E+06         0.00000E+00
    0.17318E+06        -0.97573E+08         0.00000E+00
    0.00000E+00         0.00000E+00        -0.48787E+08
 
   -0.48321E+08         0.18990E+06         0.00000E+00
    0.18990E+06        -0.97575E+08         0.00000E+00
    0.00000E+00         0.00000E+00        -0.48688E+08
 
   -0.48249E+08         0.20516E+06         0.00000E+00
    0.20516E+06        -0.97578E+08         0.00000E+00
    0.00000E+00         0.00000E+00        -0.48588E+08
 
   -0.48173E+08         0.21904E+06         0.00000E+00
    0.21904E+06        -0.97580E+08         0.00000E+00
    0.00000E+00         0.00000E+00        -0.48487E+08
 
   -0.48093E+08         0.23168E+06         0.00000E+00
    0.23168E+06        -0.97582E+08         0.00000E+00
    0.00000E+00         0.00000E+00        -0.48386E+08
 
   -0.48009E+08         0.24319E+06         0.00000E+00
    0.24319E+06        -0.97583E+08         0.00000E+00
    0.00000E+00         0.00000E+00        -0.48284E+08
 
   -0.47923E+08         0.25369E+06         0.00000E+00
    0.25369E+06        -0.97585E+08         0.00000E+00
    0.00000E+00         0.00000E+00        -0.48181E+08
 
   -0.47833E+08         0.26332E+06         0.00000E+00
    0.26332E+06        -0.97586E+08         0.00000E+00
    0.00000E+00         0.00000E+00        -0.48078E+08
 
   -0.47740E+08         0.27217E+06         0.00000E+00
    0.27217E+06        -0.97587E+08         0.00000E+00
    0.00000E+00         0.00000E+00        -0.47973E+08
 
   -0.47645E+08         0.28036E+06         0.00000E+00
    0.28036E+06        -0.97588E+08         0.00000E+00
    0.00000E+00         0.00000E+00        -0.47868E+08
 
   -0.47547E+08         0.28797E+06         0.00000E+00
    0.28797E+06        -0.97589E+08         0.00000E+00
    0.00000E+00         0.00000E+00        -0.47762E+08
 
   -0.47446E+08         0.29508E+06         0.00000E+00
    0.29508E+06        -0.97590E+08         0.00000E+00
    0.00000E+00         0.00000E+00        -0.47654E+08
 
   -0.47344E+08         0.30177E+06         0.00000E+00
    0.30177E+06        -0.97590E+08         0.00000E+00
    0.00000E+00         0.00000E+00        -0.47546E+08
 
   -0.47239E+08         0.30810E+06         0.00000E+00
    0.30810E+06        -0.97591E+08         0.00000E+00
    0.00000E+00         0.00000E+00        -0.47436E+08
 
   -0.47132E+08         0.31412E+06         0.00000E+00
    0.31412E+06        -0.97591E+08         0.00000E+00
    0.00000E+00         0.00000E+00        -0.47326E+08
 
   -0.47023E+08         0.31989E+06         0.00000E+00
    0.31989E+06        -0.97592E+08         0.00000E+00
    0.00000E+00         0.00000E+00        -0.47214E+08
 
   -0.46912E+08         0.32544E+06         0.00000E+00
    0.32544E+06        -0.97592E+08         0.00000E+00
    0.00000E+00         0.00000E+00        -0.47101E+08
 
   -0.46799E+08         0.33080E+06         0.00000E+00
    0.33080E+06        -0.97592E+08         0.00000E+00
    0.00000E+00         0.00000E+00        -0.46986E+08
 
   -0.46685E+08         0.33602E+06         0.00000E+00
    0.33602E+06        -0.97592E+08         0.00000E+00
    0.00000E+00         0.00000E+00        -0.46871E+08
 
   -0.46568E+08         0.34112E+06         0.00000E+00
    0.34112E+06        -0.97593E+08         0.00000E+00
    0.00000E+00         0.00000E+00        -0.46754E+08
 
   -0.46450E+08         0.34611E+06         0.00000E+00
    0.34611E+06        -0.97593E+08         0.00000E+00
    0.00000E+00         0.00000E+00        -0.46635E+08
 
   -0.46331E+08         0.35102E+06         0.00000E+00
    0.35102E+06        -0.97593E+08         0.00000E+00
    0.00000E+00         0.00000E+00        -0.46515E+08
 
   -0.46209E+08         0.35586E+06         0.00000E+00
    0.35586E+06        -0.97593E+08         0.00000E+00
    0.00000E+00         0.00000E+00        -0.46394E+08
 
   -0.46086E+08         0.36064E+06         0.00000E+00
    0.36064E+06        -0.97593E+08         0.00000E+00
    0.00000E+00         0.00000E+00        -0.46271E+08
 
   -0.45961E+08         0.36538E+06         0.00000E+00
    0.36538E+06        -0.97593E+08         0.00000E+00
    0.00000E+00         0.00000E+00        -0.46147E+08
 
   -0.45835E+08         0.37009E+06         0.00000E+00
    0.37009E+06        -0.97593E+08         0.00000E+00
    0.00000E+00         0.00000E+00        -0.46021E+08
 
   -0.45707E+08         0.37476E+06         0.00000E+00
    0.37476E+06        -0.97593E+08         0.00000E+00
    0.00000E+00         0.00000E+00        -0.45894E+08
 
   -0.45577E+08         0.37941E+06         0.00000E+00
    0.37941E+06        -0.97593E+08         0.00000E+00
    0.00000E+00         0.00000E+00        -0.45765E+08
 
   -0.45446E+08         0.38404E+06         0.00000E+00
    0.38404E+06        -0.97593E+08         0.00000E+00
    0.00000E+00         0.00000E+00        -0.45635E+08
 
   -0.45313E+08         0.38865E+06         0.00000E+00
    0.38865E+06        -0.97593E+08         0.00000E+00
    0.00000E+00         0.00000E+00        -0.45503E+08
 
   -0.45179E+08         0.39325E+06         0.00000E+00
    0.39325E+06        -0.97593E+08         0.00000E+00
    0.00000E+00         0.00000E+00        -0.45369E+08
 
   -0.45042E+08         0.39783E+06         0.00000E+00
    0.39783E+06        -0.97593E+08         0.00000E+00
    0.00000E+00         0.00000E+00        -0.45233E+08
 
   -0.44905E+08         0.40239E+06         0.00000E+00
    0.40239E+06        -0.97593E+08         0.00000E+00
    0.00000E+00         0.00000E+00        -0.45096E+08
 
   -0.44765E+08         0.40693E+06         0.00000E+00
    0.40693E+06        -0.97593E+08         0.00000E+00
    0.00000E+00         0.00000E+00        -0.44957E+08
 
   -0.44624E+08         0.41146E+06         0.00000E+00
    0.41146E+06        -0.97593E+08         0.00000E+00
    0.00000E+00         0.00000E+00        -0.44816E+08
 
   -0.44482E+08         0.41595E+06         0.00000E+00
    0.41595E+06        -0.97593E+08         0.00000E+00
    0.00000E+00         0.00000E+00        -0.44674E+08
 
   -0.44338E+08         0.42042E+06         0.00000E+00
    0.42042E+06        -0.97594E+08         0.00000E+00
    0.00000E+00         0.00000E+00        -0.44530E+08
 
   -0.44192E+08         0.42485E+06         0.00000E+00
    0.42485E+06        -0.97594E+08         0.00000E+00
    0.00000E+00         0.00000E+00        -0.44384E+08
 
   -0.44045E+08         0.42924E+06         0.00000E+00
    0.42924E+06        -0.97594E+08         0.00000E+00
    0.00000E+00         0.00000E+00        -0.44236E+08
 
   -0.43896E+08         0.43358E+06         0.00000E+00
    0.43358E+06        -0.97594E+08         0.00000E+00
    0.00000E+00         0.00000E+00        -0.44086E+08
 
   -0.43746E+08         0.43786E+06         0.00000E+00
    0.43786E+06        -0.97594E+08         0.00000E+00
    0.00000E+00         0.00000E+00        -0.43935E+08
 
   -0.43594E+08         0.44208E+06         0.00000E+00
    0.44208E+06        -0.97594E+08         0.00000E+00
    0.00000E+00         0.00000E+00        -0.43782E+08
 
   -0.43441E+08         0.44623E+06         0.00000E+00
    0.44623E+06        -0.97594E+08         0.00000E+00
    0.00000E+00         0.00000E+00        -0.43627E+08
 
   -0.43287E+08         0.45028E+06         0.00000E+00
    0.45028E+06        -0.97594E+08         0.00000E+00
    0.00000E+00         0.00000E+00        -0.43470E+08
 
   -0.43131E+08         0.45424E+06         0.00000E+00
    0.45424E+06        -0.97594E+08         0.00000E+00
    0.00000E+00         0.00000E+00        -0.43311E+08
 
   -0.42973E+08         0.45808E+06         0.00000E+00
    0.45808E+06        -0.97595E+08         0.00000E+00
    0.00000E+00         0.00000E+00        -0.43151E+08
 
   -0.42814E+08         0.46180E+06         0.00000E+00
    0.46180E+06        -0.97595E+08         0.00000E+00
    0.00000E+00         0.00000E+00        -0.42988E+08
 
   -0.42654E+08         0.46537E+06         0.00000E+00
    0.46537E+06        -0.97595E+08         0.00000E+00
    0.00000E+00         0.00000E+00        -0.42824E+08
 
   -0.42493E+08         0.46877E+06         0.00000E+00
    0.46877E+06        -0.97595E+08         0.00000E+00
    0.00000E+00         0.00000E+00        -0.42658E+08
 
   -0.42330E+08         0.47200E+06         0.00000E+00
    0.47200E+06        -0.97595E+08         0.00000E+00
    0.00000E+00         0.00000E+00        -0.42491E+08
 
   -0.42167E+08         0.47501E+06         0.00000E+00
    0.47501E+06        -0.97596E+08         0.00000E+00
    0.00000E+00         0.00000E+00        -0.42321E+08
 
   -0.42002E+08         0.47780E+06         0.00000E+00
    0.47780E+06        -0.97596E+08         0.00000E+00
    0.00000E+00         0.00000E+00        -0.42150E+08
 
   -0.41836E+08         0.48032E+06         0.00000E+00
    0.48032E+06        -0.97597E+08         0.00000E+00
    0.00000E+00         0.00000E+00        -0.41977E+08
 
   -0.41670E+08         0.48255E+06         0.00000E+00
    0.48255E+06        -0.97597E+08         0.00000E+00
    0.00000E+00         0.00000E+00        -0.41802E+08
 
   -0.41502E+08         0.48445E+06         0.00000E+00
    0.48445E+06        -0.97598E+08         0.00000E+00
    0.00000E+00         0.00000E+00        -0.41626E+08
 
   -0.41334E+08         0.48599E+06         0.00000E+00
    0.48599E+06        -0.97598E+08         0.00000E+00
    0.00000E+00         0.00000E+00        -0.41448E+08
 
   -0.41166E+08         0.48711E+06         0.00000E+00
    0.48711E+06        -0.97599E+08         0.00000E+00
    0.00000E+00         0.00000E+00        -0.41268E+08
 
   -0.40997E+08         0.48777E+06         0.00000E+00
    0.48777E+06        -0.97599E+08         0.00000E+00
    0.00000E+00         0.00000E+00        -0.41086E+08
 
   -0.40828E+08         0.48791E+06         0.00000E+00
    0.48791E+06        -0.97600E+08         0.00000E+00
    0.00000E+00         0.00000E+00        -0.40903E+08
 
   -0.40659E+08         0.48746E+06         0.00000E+00
    0.48746E+06        -0.97601E+08         0.00000E+00
    0.00000E+00         0.00000E+00        -0.40719E+08
 
   -0.40490E+08         0.48635E+06         0.00000E+00
    0.48635E+06        -0.97602E+08         0.00000E+00
    0.00000E+00         0.00000E+00        -0.40533E+08
 
   -0.40321E+08         0.48450E+06         0.00000E+00
    0.48450E+06        -0.97603E+08         0.00000E+00
    0.00000E+00         0.00000E+00        -0.40345E+08
 
   -0.40153E+08         0.48181E+06         0.00000E+00
    0.48181E+06        -0.97605E+08         0.00000E+00
    0.00000E+00         0.00000E+00        -0.40156E+08
 
   -0.39986E+08         0.47817E+06         0.00000E+00
    0.47817E+06        -0.97606E+08         0.00000E+00
    0.00000E+00         0.00000E+00        -0.39965E+08
 
   -0.39820E+08         0.47346E+06         0.00000E+00
    0.47346E+06        -0.97608E+08         0.00000E+00
    0.00000E+00         0.00000E+00        -0.39774E+08
 
   -0.39656E+08         0.46754E+06         0.00000E+00
    0.46754E+06        -0.97610E+08         0.00000E+00
    0.00000E+00         0.00000E+00        -0.39580E+08
 
   -0.39493E+08         0.46026E+06         0.00000E+00
    0.46026E+06        -0.97612E+08         0.00000E+00
    0.00000E+00         0.00000E+00        -0.39386E+08
 
   -0.39333E+08         0.45142E+06         0.00000E+00
    0.45142E+06        -0.97615E+08         0.00000E+00
    0.00000E+00         0.00000E+00        -0.39190E+08
 
   -0.39176E+08         0.44085E+06         0.00000E+00
    0.44085E+06        -0.97617E+08         0.00000E+00
    0.00000E+00         0.00000E+00        -0.38993E+08
 
   -0.39022E+08         0.42832E+06         0.00000E+00
    0.42832E+06        -0.97621E+08         0.00000E+00
    0.00000E+00         0.00000E+00        -0.38795E+08
 
   -0.38872E+08         0.41359E+06         0.00000E+00
    0.41359E+06        -0.97624E+08         0.00000E+00
    0.00000E+00         0.00000E+00        -0.38596E+08
 
   -0.38726E+08         0.39643E+06         0.00000E+00
    0.39643E+06        -0.97628E+08         0.00000E+00
    0.00000E+00         0.00000E+00        -0.38395E+08
 
   -0.38586E+08         0.37657E+06         0.00000E+00
    0.37657E+06        -0.97633E+08         0.00000E+00
    0.00000E+00         0.00000E+00        -0.38194E+08
 
   -0.38451E+08         0.35375E+06         0.00000E+00
    0.35375E+06        -0.97638E+08         0.00000E+00
    0.00000E+00         0.00000E+00        -0.37992E+08
 
   -0.38323E+08         0.32773E+06         0.00000E+00
    0.32773E+06        -0.97643E+08         0.00000E+00
    0.00000E+00         0.00000E+00        -0.37789E+08
 
   -0.38202E+08         0.29831E+06         0.00000E+00
    0.29831E+06        -0.97649E+08         0.00000E+00
    0.00000E+00         0.00000E+00        -0.37585E+08
 
   -0.38088E+08         0.26537E+06         0.00000E+00
    0.26537E+06        -0.97655E+08         0.00000E+00
    0.00000E+00         0.00000E+00        -0.37381E+08
 
   -0.37984E+08         0.22887E+06         0.00000E+00
    0.22887E+06        -0.97662E+08         0.00000E+00
    0.00000E+00         0.00000E+00        -0.37175E+08
 
   -0.37888E+08         0.18899E+06         0.00000E+00
    0.18899E+06        -0.97667E+08         0.00000E+00
    0.00000E+00         0.00000E+00        -0.36970E+08
 
   -0.37802E+08         0.14615E+06         0.00000E+00
    0.14615E+06        -0.97673E+08         0.00000E+00
    0.00000E+00         0.00000E+00        -0.36763E+08
 
   -0.37726E+08         0.10115E+06         0.00000E+00
    0.10115E+06        -0.97677E+08         0.00000E+00
    0.00000E+00         0.00000E+00        -0.36557E+08
 
   -0.37659E+08         0.55346E+05         0.00000E+00
    0.55346E+05        -0.97678E+08         0.00000E+00
    0.00000E+00         0.00000E+00        -0.36350E+08
 
   -0.37601E+08         0.10888E+05         0.00000E+00
    0.10888E+05        -0.97677E+08         0.00000E+00
    0.00000E+00         0.00000E+00        -0.36142E+08
 
   -0.37551E+08        -0.28879E+05         0.00000E+00
   -0.28879E+05        -0.97669E+08         0.00000E+00
    0.00000E+00         0.00000E+00        -0.35935E+08
 
   -0.37506E+08        -0.58818E+05         0.00000E+00
   -0.58818E+05        -0.97652E+08         0.00000E+00
    0.00000E+00         0.00000E+00        -0.35727E+08
 
   -0.37465E+08        -0.71627E+05         0.00000E+00
   -0.71627E+05        -0.97617E+08         0.00000E+00
    0.00000E+00         0.00000E+00        -0.35519E+08
 
   -0.37430E+08        -0.59967E+05         0.00000E+00
   -0.59967E+05        -0.97548E+08         0.00000E+00
    0.00000E+00         0.00000E+00        -0.35311E+08
 
   -0.37408E+08        -0.23624E+05         0.00000E+00
   -0.23624E+05        -0.97419E+08         0.00000E+00
    0.00000E+00         0.00000E+00        -0.35104E+08
 
   -0.48792E+08        -0.10768E+05         0.00000E+00
   -0.10768E+05        -0.97676E+08         0.00000E+00
    0.00000E+00         0.00000E+00        -0.49952E+08
 
   -0.48781E+08        -0.26697E+05         0.00000E+00
   -0.26697E+05        -0.97618E+08         0.00000E+00
    0.00000E+00         0.00000E+00        -0.49855E+08
 
   -0.48765E+08        -0.30209E+05         0.00000E+00
   -0.30209E+05        -0.97588E+08         0.00000E+00
    0.00000E+00         0.00000E+00        -0.49759E+08
 
   -0.48745E+08        -0.21940E+05         0.00000E+00
   -0.21940E+05        -0.97574E+08         0.00000E+00
    0.00000E+00         0.00000E+00        -0.49662E+08
 
   -0.48724E+08        -0.58393E+04         0.00000E+00
   -0.58393E+04        -0.97568E+08         0.00000E+00
    0.00000E+00         0.00000E+00        -0.49566E+08
 
   -0.48699E+08         0.14562E+05         0.00000E+00
    0.14562E+05        -0.97565E+08         0.00000E+00
    0.00000E+00         0.00000E+00        -0.49470E+08
 
   -0.48670E+08         0.36943E+05         0.00000E+00
    0.36943E+05        -0.97564E+08         0.00000E+00
    0.00000E+00         0.00000E+00        -0.49373E+08
 
   -0.48636E+08         0.59846E+05         0.00000E+00
    0.59846E+05        -0.97565E+08         0.00000E+00
    0.00000E+00         0.00000E+00        -0.49276E+08
 
   -0.48596E+08         0.82353E+05         0.00000E+00
    0.82353E+05        -0.97567E+08         0.00000E+00
    0.00000E+00         0.00000E+00        -0.49179E+08
 
   -0.48551E+08         0.10390E+06         0.00000E+00
    0.10390E+06        -0.97569E+08         0.00000E+00
    0.00000E+00         0.00000E+00        -0.49082E+08
 
   -0.48499E+08         0.12415E+06         0.00000E+00
    0.12415E+06        -0.97571E+08         0.00000E+00
    0.00000E+00         0.00000E+00        -0.48984E+08
 
   -0.48443E+08         0.14294E+06         0.00000E+00
    0.14294E+06        -0.97574E+08         0.00000E+00
    0.00000E+00         0.00000E+00        -0.48886E+08
 
   -0.48381E+08         0.16023E+06         0.00000E+00
    0.16023E+06        -0.97576E+08         0.00000E+00
    0.00000E+00         0.00000E+00        -0.48787E+08
 
   -0.48314E+08         0.17603E+06         0.00000E+00
    0.17603E+06        -0.97578E+08         0.00000E+00
    0.00000E+00         0.00000E+00        -0.48688E+08
 
   -0.48243E+08         0.19042E+06         0.00000E+00
    0.19042E+06        -0.97580E+08         0.00000E+00
    0.00000E+00         0.00000E+00        -0.48588E+08
 
   -0.48168E+08         0.20350E+06         0.00000E+00
    0.20350E+06        -0.97582E+08         0.00000E+00
    0.00000E+00         0.00000E+00        -0.48487E+08
 
   -0.48088E+08         0.21538E+06         0.00000E+00
    0.21538E+06        -0.97584E+08         0.00000E+00
    0.00000E+00         0.00000E+00        -0.48386E+08
 
   -0.48005E+08         0.22619E+06         0.00000E+00
    0.22619E+06        -0.97586E+08         0.00000E+00
    0.00000E+00         0.00000E+00        -0.48284E+08
 
   -0.47919E+08         0.23605E+06         0.00000E+00
    0.23605E+06        -0.97587E+08         0.00000E+00
    0.00000E+00         0.00000E+00        -0.48181E+08
 
   -0.47829E+08         0.24507E+06         0.00000E+00
    0.24507E+06        -0.97588E+08         0.00000E+00
    0.00000E+00         0.00000E+00        -0.48078E+08
 
   -0.47736E+08         0.25336E+06         0.00000E+00
    0.25336E+06        -0.97589E+08         0.00000E+00
    0.00000E+00         0.00000E+00        -0.47973E+08
 
   -0.47641E+08         0.26102E+06         0.00000E+00
    0.26102E+06        -0.97590E+08         0.00000E+00
    0.00000E+00         0.00000E+00        -0.47868E+08
 
   -0.47543E+08         0.26813E+06         0.00000E+00
    0.26813E+06        -0.97591E+08         0.00000E+00
    0.00000E+00         0.00000E+00        -0.47762E+08
 
   -0.47443E+08         0.27477E+06         0.00000E+00
    0.27477E+06        -0.97591E+08         0.00000E+00
    0.00000E+00         0.00000E+00        -0.47654E+08
 
   -0.47340E+08         0.28101E+06         0.00000E+00
    0.28101E+06        -0.97592E+08         0.00000E+00
    0.00000E+00         0.00000E+00        -0.47546E+08
 
   -0.47235E+08         0.28691E+06         0.00000E+00
    0.28691E+06        -0.97592E+08         0.00000E+00
    0.00000E+00         0.00000E+00        -0.47436E+08
 
   -0.47128E+08         0.29253E+06         0.00000E+00
    0.29253E+06        -0.97593E+08         0.00000E+00
    0.00000E+00         0.00000E+00        -0.47326E+08
 
   -0.47019E+08         0.29790E+06         0.00000E+00
    0.29790E+06        -0.97593E+08         0.00000E+00
    0.00000E+00         0.00000E+00        -0.47214E+08
 
   -0.46908E+08         0.30307E+06         0.00000E+00
    0.30307E+06        -0.97593E+08         0.00000E+00
    0.00000E+00         0.00000E+00        -0.47101E+08
 
   -0.46796E+08         0.30808E+06         0.00000E+00
    0.30808E+06        -0.97593E+08         0.00000E+00
    0.00000E+00         0.00000E+00        -0.46986E+08
 
   -0.46681E+08         0.31294E+06         0.00000E+00
    0.31294E+06        -0.97593E+08         0.00000E+00
    0.00000E+00         0.00000E+00        -0.46871E+08
 
   -0.46565E+08         0.31768E+06         0.00000E+00
    0.31768E+06        -0.97594E+08         0.00000E+00
    0.00000E+00         0.00000E+00        -0.46754E+08
 
   -0.46447E+08         0.32233E+06         0.00000E+00
    0.32233E+06        -0.97594E+08         0.00000E+00
    0.00000E+00         0.00000E+00        -0.46635E+08
 
   -0.46327E+08         0.32689E+06         0.00000E+00
    0.32689E+06        -0.97594E+08         0.00000E+00
    0.00000E+00         0.00000E+00        -0.46515E+08
 
   -0.46205E+08         0.33140E+06         0.00000E+00
    0.33140E+06        -0.97594E+08         0.00000E+00
    0.00000E+00         0.00000E+00        -0.46394E+08
 
   -0.46082E+08         0.33585E+06         0.00000E+00
    0.33585E+06        -0.97594E+08         0.00000E+00
    0.00000E+00         0.00000E+00        -0.46271E+08
 
   -0.45957E+08         0.34026E+06         0.00000E+00
    0.34026E+06        -0.97594E+08         0.00000E+00
    0.00000E+00         0.00000E+00        -0.46147E+08
 
   -0.45831E+08         0.34464E+06         0.00000E+00
    0.34464E+06        -0.97594E+08         0.00000E+00
    0.00000E+00         0.00000E+00        -0.46021E+08
 
   -0.45703E+08         0.34899E+06         0.00000E+00
    0.34899E+06        -0.97594E+08         0.00000E+00
    0.00000E+00         0.00000E+00        -0.45894E+08
 
   -0.45573E+08         0.35331E+06         0.00000E+00
    0.35331E+06        -0.97594E+08         0.00000E+00
    0.00000E+00         0.00000E+00        -0.45765E+08
 
   -0.45442E+08         0.35762E+06         0.00000E+00
    0.35762E+06        -0.97594E+08         0.00000E+00
    0.00000E+00         0.00000E+00        -0.45635E+08
 
   -0.45309E+08         0.36191E+06         0.00000E+00
    0.36191E+06        -0.97594E+08         0.00000E+00
    0.00000E+00         0.00000E+00        -0.45503E+08
 
   -0.45174E+08         0.36618E+06         0.00000E+00
    0.36618E+06        -0.97594E+08         0.00000E+00
    0.00000E+00         0.00000E+00        -0.45369E+08
 
   -0.45038E+08         0.37044E+06         0.00000E+00
    0.37044E+06        -0.97594E+08         0.00000E+00
    0.00000E+00         0.00000E+00        -0.45233E+08
 
   -0.44900E+08         0.37469E+06         0.00000E+00
    0.37469E+06        -0.97594E+08         0.00000E+00
    0.00000E+00         0.00000E+00        -0.45096E+08
 
   -0.44761E+08         0.37891E+06         0.00000E+00
    0.37891E+06        -0.97594E+08         0.00000E+00
    0.00000E+00         0.00000E+00        -0.44957E+08
 
   -0.44620E+08         0.38312E+06         0.00000E+00
    0.38312E+06        -0.97594E+08         0.00000E+00
    0.00000E+00         0.00000E+00        -0.44816E+08
 
   -0.44478E+08         0.38730E+06         0.00000E+00
    0.38730E+06        -0.97594E+08         0.00000E+00
    0.00000E+00         0.00000E+00        -0.44674E+08
 
   -0.44334E+08         0.39145E+06         0.00000E+00
    0.39145E+06        -0.97594E+08         0.00000E+00
    0.00000E+00         0.00000E+00        -0.44530E+08
 
   -0.44188E+08         0.39557E+06         0.00000E+00
    0.39557E+06        -0.97594E+08         0.00000E+00
    0.00000E+00         0.00000E+00        -0.44384E+08
 
   -0.44041E+08         0.39965E+06         0.00000E+00
    0.39965E+06        -0.97594E+08         0.00000E+00
    0.00000E+00         0.00000E+00        -0.44236E+08
 
   -0.43892E+08         0.40369E+06         0.00000E+00
    0.40369E+06        -0.97595E+08         0.00000E+00
    0.00000E+00         0.00000E+00        -0.44086E+08
 
   -0.43742E+08         0.40767E+06         0.00000E+00
    0.40767E+06        -0.97595E+08         0.00000E+00
    0.00000E+00         0.00000E+00        -0.43935E+08
 
   -0.43590E+08         0.41159E+06         0.00000E+00
    0.41159E+06        -0.97595E+08         0.00000E+00
    0.00000E+00         0.00000E+00        -0.43782E+08
 
   -0.43437E+08         0.41544E+06         0.00000E+00
    0.41544E+06        -0.97595E+08         0.00000E+00
    0.00000E+00         0.00000E+00        -0.43627E+08
 
   -0.43282E+08         0.41921E+06         0.00000E+00
    0.41921E+06        -0.97595E+08         0.00000E+00
    0.00000E+00         0.00000E+00        -0.43470E+08
 
   -0.43126E+08         0.42289E+06         0.00000E+00
    0.42289E+06        -0.97595E+08         0.00000E+00
    0.00000E+00         0.00000E+00        -0.43311E+08
 
   -0.42969E+08         0.42646E+06         0.00000E+00
    0.42646E+06        -0.97595E+08         0.00000E+00
    0.00000E+00         0.00000E+00        -0.43151E+08
 
   -0.42810E+08         0.42991E+06         0.00000E+00
    0.42991E+06        -0.97595E+08         0.00000E+00
    0.00000E+00         0.00000E+00        -0.42988E+08
 
   -0.42650E+08         0.43322E+06         0.00000E+00
    0.43322E+06        -0.97596E+08         0.00000E+00
    0.00000E+00         0.00000E+00        -0.42824E+08
 
   -0.42489E+08         0.43639E+06         0.00000E+00
    0.43639E+06        -0.97596E+08         0.00000E+00
    0.00000E+00         0.00000E+00        -0.42658E+08
 
   -0.42326E+08         0.43938E+06         0.00000E+00
    0.43938E+06        -0.97596E+08         0.00000E+00
    0.00000E+00         0.00000E+00        -0.42491E+08
 
   -0.42163E+08         0.44218E+06         0.00000E+00
    0.44218E+06        -0.97596E+08         0.00000E+00
    0.00000E+00         0.00000E+00        -0.42321E+08
 
   -0.41998E+08         0.44476E+06         0.00000E+00
    0.44476E+06        -0.97597E+08         0.00000E+00
    0.00000E+00         0.00000E+00        -0.42150E+08
 
   -0.41832E+08         0.44710E+06         0.00000E+00
    0.44710E+06        -0.97597E+08         0.00000E+00
    0.00000E+00         0.00000E+00        -0.41977E+08
 
   -0.41666E+08         0.44917E+06         0.00000E+00
    0.44917E+06        -0.97597E+08         0.00000E+00
    0.00000E+00         0.00000E+00        -0.41802E+08
 
   -0.41499E+08         0.45093E+06         0.00000E+00
    0.45093E+06        -0.97598E+08         0.00000E+00
    0.00000E+00         0.00000E+00        -0.41626E+08
 
   -0.41331E+08         0.45234E+06         0.00000E+00
    0.45234E+06        -0.97598E+08         0.00000E+00
    0.00000E+00         0.00000E+00        -0.41448E+08
 
   -0.41163E+08         0.45338E+06         0.00000E+00
    0.45338E+06        -0.97599E+08         0.00000E+00
    0.00000E+00         0.00000E+00        -0.41268E+08
 
   -0.40994E+08         0.45398E+06         0.00000E+00
    0.45398E+06        -0.97600E+08         0.00000E+00
    0.00000E+00         0.00000E+00        -0.41086E+08
 
   -0.40825E+08         0.45409E+06         0.00000E+00
    0.45409E+06        -0.97600E+08         0.00000E+00
    0.00000E+00         0.00000E+00        -0.40903E+08
 
   -0.40656E+08         0.45366E+06         0.00000E+00
    0.45366E+06        -0.97601E+08         0.00000E+00
    0.00000E+00         0.00000E+00        -0.40719E+08
 
   -0.40487E+08         0.45260E+06         0.00000E+00
    0.45260E+06        -0.97602E+08         0.00000E+00
    0.00000E+00         0.00000E+00        -0.40533E+08
 
   -0.40319E+08         0.45086E+06         0.00000E+00
    0.45086E+06        -0.97603E+08         0.00000E+00
    0.00000E+00         0.00000E+00        -0.40345E+08
 
   -0.40151E+08         0.44832E+06         0.00000E+00
    0.44832E+06        -0.97604E+08         0.00000E+00
    0.00000E+00         0.00000E+00        -0.40156E+08
 
   -0.39984E+08         0.44490E+06         0.00000E+00
    0.44490E+06        -0.97605E+08         0.00000E+00
    0.00000E+00         0.00000E+00        -0.39965E+08
 
   -0.39819E+08         0.44047E+06         0.00000E+00
    0.44047E+06        -0.97607E+08         0.00000E+00
    0.00000E+00         0.00000E+00        -0.39774E+08
 
   -0.39655E+08         0.43491E+06         0.00000E+00
    0.43491E+06        -0.97609E+08         0.00000E+00
    0.00000E+00         0.00000E+00        -0.39580E+08
 
   -0.39493E+08         0.42805E+06         0.00000E+00
    0.42805E+06        -0.97611E+08         0.00000E+00
    0.00000E+00         0.00000E+00        -0.39386E+08
 
   -0.39333E+08         0.41974E+06         0.00000E+00
    0.41974E+06        -0.97613E+08         0.00000E+00
    0.00000E+00         0.00000E+00        -0.39190E+08
 
   -0.39177E+08         0.40979E+06         0.00000E+00
    0.40979E+06        -0.97615E+08         0.00000E+00
    0.00000E+00         0.00000E+00        -0.38993E+08
 
   -0.39024E+08         0.39799E+06         0.00000E+00
    0.39799E+06        -0.97618E+08         0.00000E+00
    0.00000E+00         0.00000E+00        -0.38795E+08
 
   -0.38875E+08         0.38411E+06         0.00000E+00
    0.38411E+06        -0.97621E+08         0.00000E+00
    0.00000E+00         0.00000E+00        -0.38596E+08
 
   -0.38730E+08         0.36791E+06         0.00000E+00
    0.36791E+06        -0.97625E+08         0.00000E+00
    0.00000E+00         0.00000E+00        -0.38395E+08
 
   -0.38591E+08         0.34916E+06         0.00000E+00
    0.34916E+06        -0.97629E+08         0.00000E+00
    0.00000E+00         0.00000E+00        -0.38194E+08
 
   -0.38458E+08         0.32758E+06         0.00000E+00
    0.32758E+06        -0.97633E+08         0.00000E+00
    0.00000E+00         0.00000E+00        -0.37992E+08
 
   -0.38331E+08         0.30296E+06         0.00000E+00
    0.30296E+06        -0.97638E+08         0.00000E+00
    0.00000E+00         0.00000E+00        -0.37789E+08
 
   -0.38212E+08         0.27508E+06         0.00000E+00
    0.27508E+06        -0.97643E+08         0.00000E+00
    0.00000E+00         0.00000E+00        -0.37585E+08
 
   -0.38101E+08         0.24381E+06         0.00000E+00
    0.24381E+06        -0.97649E+08         0.00000E+00
    0.00000E+00         0.00000E+00        -0.37381E+08
 
   -0.37999E+08         0.20914E+06         0.00000E+00
    0.20914E+06        -0.97654E+08         0.00000E+00
    0.00000E+00         0.00000E+00        -0.37175E+08
 
   -0.37907E+08         0.17118E+06         0.00000E+00
    0.17118E+06        -0.97659E+08         0.00000E+00
    0.00000E+00         0.00000E+00        -0.36970E+08
 
   -0.37825E+08         0.13034E+06         0.00000E+00
    0.13034E+06        -0.97664E+08         0.00000E+00
    0.00000E+00         0.00000E+00        -0.36763E+08
 
   -0.37753E+08         0.87342E+05         0.00000E+00
    0.87342E+05        -0.97668E+08         0.00000E+00
    0.00000E+00         0.00000E+00        -0.36557E+08
 
   -0.37692E+08         0.43452E+05         0.00000E+00
    0.43452E+05        -0.97669E+08         0.00000E+00
    0.00000E+00         0.00000E+00        -0.36350E+08
 
   -0.37640E+08         0.67990E+03         0.00000E+00
    0.67990E+03        -0.97668E+08         0.00000E+00
    0.00000E+00         0.00000E+00        -0.36142E+08
 
   -0.37595E+08        -0.37803E+05         0.00000E+00
   -0.37803E+05        -0.97662E+08         0.00000E+00
    0.00000E+00         0.00000E+00        -0.35935E+08
 
   -0.37556E+08        -0.66974E+05         0.00000E+00
   -0.66974E+05        -0.97648E+08         0.00000E+00
    0.00000E+00         0.00000E+00        -0.35727E+08
 
   -0.37519E+08        -0.79221E+05         0.00000E+00
   -0.79221E+05        -0.97617E+08         0.00000E+00
    0.00000E+00         0.00000E+00        -0.35519E+08
 
   -0.37487E+08        -0.66047E+05         0.00000E+00
   -0.66047E+05        -0.97553E+08         0.00000E+00
    0.00000E+00         0.00000E+00        -0.35311E+08
 
   -0.37467E+08        -0.26067E+05         0.00000E+00
   -0.26067E+05        -0.97429E+08         0.00000E+00
    0.00000E+00         0.00000E+00        -0.35104E+08
 
   -0.48763E+08        -0.11963E+05         0.00000E+00
   -0.11963E+05        -0.97671E+08         0.00000E+00
    0.00000E+00         0.00000E+00        -0.49952E+08
 
   -0.48753E+08        -0.29605E+05         0.00000E+00
   -0.29605E+05        -0.97616E+08         0.00000E+00
    0.00000E+00         0.00000E+00        -0.49855E+08
 
   -0.48738E+08        -0.33756E+05         0.00000E+00
   -0.33756E+05        -0.97589E+08         0.00000E+00
    0.00000E+00         0.00000E+00        -0.49759E+08
 
   -0.48721E+08        -0.25757E+05         0.00000E+00
   -0.25757E+05        -0.97577E+08         0.00000E+00
    0.00000E+00         0.00000E+00        -0.49662E+08
 
   -0.48702E+08        -0.10134E+05         0.00000E+00
   -0.10134E+05        -0.97571E+08         0.00000E+00
    0.00000E+00         0.00000E+00        -0.49566E+08
 
   -0.48680E+08         0.94834E+04         0.00000E+00
    0.94834E+04        -0.97569E+08         0.00000E+00
    0.00000E+00         0.00000E+00        -0.49470E+08
 
   -0.48654E+08         0.30865E+05         0.00000E+00
    0.30865E+05        -0.97569E+08         0.00000E+00
    0.00000E+00         0.00000E+00        -0.49373E+08
 
   -0.48622E+08         0.52649E+05         0.00000E+00
    0.52649E+05        -0.97570E+08         0.00000E+00
    0.00000E+00         0.00000E+00        -0.49276E+08
 
   -0.48584E+08         0.73990E+05         0.00000E+00
    0.73990E+05        -0.97571E+08         0.00000E+00
    0.00000E+00         0.00000E+00        -0.49179E+08
 
   -0.48540E+08         0.94369E+05         0.00000E+00
    0.94369E+05        -0.97573E+08         0.00000E+00
    0.00000E+00         0.00000E+00        -0.49082E+08
 
   -0.48490E+08         0.11349E+06         0.00000E+00
    0.11349E+06        -0.97575E+08         0.00000E+00
    0.00000E+00         0.00000E+00        -0.48984E+08
 
   -0.48435E+08         0.13120E+06         0.00000E+00
    0.13120E+06        -0.97577E+08         0.00000E+00
    0.00000E+00         0.00000E+00        -0.48886E+08
 
   -0.48374E+08         0.14746E+06         0.00000E+00
    0.14746E+06        -0.97579E+08         0.00000E+00
    0.00000E+00         0.00000E+00        -0.48787E+08
 
   -0.48308E+08         0.16230E+06         0.00000E+00
    0.16230E+06        -0.97581E+08         0.00000E+00
    0.00000E+00         0.00000E+00        -0.48688E+08
 
   -0.48238E+08         0.17580E+06         0.00000E+00
    0.17580E+06        -0.97583E+08         0.00000E+00
    0.00000E+00         0.00000E+00        -0.48588E+08
 
   -0.48163E+08         0.18805E+06         0.00000E+00
    0.18805E+06        -0.97585E+08         0.00000E+00
    0.00000E+00         0.00000E+00        -0.48487E+08
 
   -0.48084E+08         0.19916E+06         0.00000E+00
    0.19916E+06        -0.97586E+08         0.00000E+00
    0.00000E+00         0.00000E+00        -0.48386E+08
 
   -0.48001E+08         0.20926E+06         0.00000E+00
    0.20926E+06        -0.97588E+08         0.00000E+00
    0.00000E+00         0.00000E+00        -0.48284E+08
 
   -0.47915E+08         0.21845E+06         0.00000E+00
    0.21845E+06        -0.97589E+08         0.00000E+00
    0.00000E+00         0.00000E+00        -0.48181E+08
 
   -0.47825E+08         0.22686E+06         0.00000E+00
    0.22686E+06        -0.97590E+08         0.00000E+00
    0.00000E+00         0.00000E+00        -0.48078E+08
 
   -0.47733E+08         0.23457E+06         0.00000E+00
    0.23457E+06        -0.97591E+08         0.00000E+00
    0.00000E+00         0.00000E+00        -0.47973E+08
 
   -0.47637E+08         0.24169E+06         0.00000E+00
    0.24169E+06        -0.97591E+08         0.00000E+00
    0.00000E+00         0.00000E+00        -0.47868E+08
 
   -0.47540E+08         0.24830E+06         0.00000E+00
    0.24830E+06        -0.97592E+08         0.00000E+00
    0.00000E+00         0.00000E+00        -0.47762E+08
 
   -0.47439E+08         0.25446E+06         0.00000E+00
    0.25446E+06        -0.97592E+08         0.00000E+00
    0.00000E+00         0.00000E+00        -0.47654E+08
 
   -0.47337E+08         0.26026E+06         0.00000E+00
    0.26026E+06        -0.97593E+08         0.00000E+00
    0.00000E+00         0.00000E+00        -0.47546E+08
 
   -0.47232E+08         0.26573E+06         0.00000E+00
    0.26573E+06        -0.97593E+08         0.00000E+00
    0.00000E+00         0.00000E+00        -0.47436E+08
 
   -0.47125E+08         0.27094E+06         0.00000E+00
    0.27094E+06        -0.97594E+08         0.00000E+00
    0.00000E+00         0.00000E+00        -0.47326E+08
 
   -0.47016E+08         0.27592E+06         0.00000E+00
    0.27592E+06        -0.97594E+08         0.00000E+00
    0.00000E+00         0.00000E+00        -0.47214E+08
 
   -0.46905E+08         0.28071E+06         0.00000E+00
    0.28071E+06        -0.97594E+08         0.00000E+00
    0.00000E+00         0.00000E+00        -0.47101E+08
 
   -0.46792E+08         0.28534E+06         0.00000E+00
    0.28534E+06        -0.97594E+08         0.00000E+00
    0.00000E+00         0.00000E+00        -0.46986E+08
 
   -0.46677E+08         0.28984E+06         0.00000E+00
    0.28984E+06        -0.97594E+08         0.00000E+00
    0.00000E+00         0.00000E+00        -0.46871E+08
 
   -0.46561E+08         0.29423E+06         0.00000E+00
    0.29423E+06        -0.97595E+08         0.00000E+00
    0.00000E+00         0.00000E+00        -0.46754E+08
 
   -0.46443E+08         0.29853E+06         0.00000E+00
    0.29853E+06        -0.97595E+08         0.00000E+00
    0.00000E+00         0.00000E+00        -0.46635E+08
 
   -0.46323E+08         0.30276E+06         0.00000E+00
    0.30276E+06        -0.97595E+08         0.00000E+00
    0.00000E+00         0.00000E+00        -0.46515E+08
 
   -0.46202E+08         0.30693E+06         0.00000E+00
    0.30693E+06        -0.97595E+08         0.00000E+00
    0.00000E+00         0.00000E+00        -0.46394E+08
 
   -0.46078E+08         0.31105E+06         0.00000E+00
    0.31105E+06        -0.97595E+08         0.00000E+00
    0.00000E+00         0.00000E+00        -0.46271E+08
 
   -0.45953E+08         0.31513E+06         0.00000E+00
    0.31513E+06        -0.97595E+08         0.00000E+00
    0.00000E+00         0.00000E+00        -0.46147E+08
 
   -0.45827E+08         0.31918E+06         0.00000E+00
    0.31918E+06        -0.97595E+08         0.00000E+00
    0.00000E+00         0.00000E+00        -0.46021E+08
 
   -0.45699E+08         0.32320E+06         0.00000E+00
    0.32320E+06        -0.97595E+08         0.00000E+00
    0.00000E+00         0.00000E+00        -0.45894E+08
 
   -0.45569E+08         0.32720E+06         0.00000E+00
    0.32720E+06        -0.97595E+08         0.00000E+00
    0.00000E+00         0.00000E+00        -0.45765E+08
 
   -0.45438E+08         0.33119E+06         0.00000E+00
    0.33119E+06        -0.97595E+08         0.00000E+00
    0.00000E+00         0.00000E+00        -0.45635E+08
 
   -0.45305E+08         0.33516E+06         0.00000E+00
    0.33516E+06        -0.97595E+08         0.00000E+00
    0.00000E+00         0.00000E+00        -0.45503E+08
 
   -0.45170E+08         0.33911E+06         0.00000E+00
    0.33911E+06        -0.97595E+08         0.00000E+00
    0.00000E+00         0.00000E+00        -0.45369E+08
 
   -0.45034E+08         0.34305E+06         0.00000E+00
    0.34305E+06        -0.97595E+08         0.00000E+00
    0.00000E+00         0.00000E+00        -0.45233E+08
 
   -0.44896E+08         0.34698E+06         0.00000E+00
    0.34698E+06        -0.97595E+08         0.00000E+00
    0.00000E+00         0.00000E+00        -0.45096E+08
 
   -0.44757E+08         0.35088E+06         0.00000E+00
    0.35088E+06        -0.97595E+08         0.00000E+00
    0.00000E+00         0.00000E+00        -0.44957E+08
 
   -0.44616E+08         0.35477E+06         0.00000E+00
    0.35477E+06        -0.97595E+08         0.00000E+00
    0.00000E+00         0.00000E+00        -0.44816E+08
 
   -0.44473E+08         0.35864E+06         0.00000E+00
    0.35864E+06        -0.97595E+08         0.00000E+00
    0.00000E+00         0.00000E+00        -0.44674E+08
 
   -0.44329E+08         0.36248E+06         0.00000E+00
    0.36248E+06        -0.97595E+08         0.00000E+00
    0.00000E+00         0.00000E+00        -0.44530E+08
 
   -0.44184E+08         0.36629E+06         0.00000E+00
    0.36629E+06        -0.97595E+08         0.00000E+00
    0.00000E+00         0.00000E+00        -0.44384E+08
 
   -0.44036E+08         0.37006E+06         0.00000E+00
    0.37006E+06        -0.97595E+08         0.00000E+00
    0.00000E+00         0.00000E+00        -0.44236E+08
 
   -0.43888E+08         0.37379E+06         0.00000E+00
    0.37379E+06        -0.97595E+08         0.00000E+00
    0.00000E+00         0.00000E+00        -0.44086E+08
 
   -0.43738E+08         0.37747E+06         0.00000E+00
    0.37747E+06        -0.97595E+08         0.00000E+00
    0.00000E+00         0.00000E+00        -0.43935E+08
 
   -0.43586E+08         0.38110E+06         0.00000E+00
    0.38110E+06        -0.97595E+08         0.00000E+00
    0.00000E+00         0.00000E+00        -0.43782E+08
 
   -0.43433E+08         0.38466E+06         0.00000E+00
    0.38466E+06        -0.97596E+08         0.00000E+00
    0.00000E+00         0.00000E+00        -0.43627E+08
 
   -0.43278E+08         0.38814E+06         0.00000E+00
    0.38814E+06        -0.97596E+08         0.00000E+00
    0.00000E+00         0.00000E+00        -0.43470E+08
 
   -0.43122E+08         0.39154E+06         0.00000E+00
    0.39154E+06        -0.97596E+08         0.00000E+00
    0.00000E+00         0.00000E+00        -0.43311E+08
 
   -0.42965E+08         0.39484E+06         0.00000E+00
    0.39484E+06        -0.97596E+08         0.00000E+00
    0.00000E+00         0.00000E+00        -0.43151E+08
 
   -0.42806E+08         0.39803E+06         0.00000E+00
    0.39803E+06        -0.97596E+08         0.00000E+00
    0.00000E+00         0.00000E+00        -0.42988E+08
 
   -0.42646E+08         0.40109E+06         0.00000E+00
    0.40109E+06        -0.97596E+08         0.00000E+00
    0.00000E+00         0.00000E+00        -0.42824E+08
 
   -0.42485E+08         0.40401E+06         0.00000E+00
    0.40401E+06        -0.97596E+08         0.00000E+00
    0.00000E+00         0.00000E+00        -0.42658E+08
 
   -0.42322E+08         0.40678E+06         0.00000E+00
    0.40678E+06        -0.97597E+08         0.00000E+00
    0.00000E+00         0.00000E+00        -0.42491E+08
 
   -0.42159E+08         0.40936E+06         0.00000E+00
    0.40936E+06        -0.97597E+08         0.00000E+00
    0.00000E+00         0.00000E+00        -0.42321E+08
 
   -0.41994E+08         0.41174E+06         0.00000E+00
    0.41174E+06        -0.97597E+08         0.00000E+00
    0.00000E+00         0.00000E+00        -0.42150E+08
 
   -0.41829E+08         0.41390E+06         0.00000E+00
    0.41390E+06        -0.97597E+08         0.00000E+00
    0.00000E+00         0.00000E+00        -0.41977E+08
 
   -0.41662E+08         0.41580E+06         0.00000E+00
    0.41580E+06        -0.97598E+08         0.00000E+00
    0.00000E+00         0.00000E+00        -0.41802E+08
 
   -0.41495E+08         0.41743E+06         0.00000E+00
    0.41743E+06        -0.97598E+08         0.00000E+00
    0.00000E+00         0.00000E+00        -0.41626E+08
 
   -0.41327E+08         0.41873E+06         0.00000E+00
    0.41873E+06        -0.97599E+08         0.00000E+00
    0.00000E+00         0.00000E+00        -0.41448E+08
 
   -0.41159E+08         0.41967E+06         0.00000E+00
    0.41967E+06        -0.97599E+08         0.00000E+00
    0.00000E+00         0.00000E+00        -0.41268E+08
 
   -0.40991E+08         0.42022E+06         0.00000E+00
    0.42022E+06        -0.97600E+08         0.00000E+00
    0.00000E+00         0.00000E+00        -0.41086E+08
 
   -0.40822E+08         0.42031E+06         0.00000E+00
    0.42031E+06        -0.97600E+08         0.00000E+00
    0.00000E+00         0.00000E+00        -0.40903E+08
 
   -0.40653E+08         0.41989E+06         0.00000E+00
    0.41989E+06        -0.97601E+08         0.00000E+00
    0.00000E+00         0.00000E+00        -0.40719E+08
 
   -0.40485E+08         0.41890E+06         0.00000E+00
    0.41890E+06        -0.97602E+08         0.00000E+00
    0.00000E+00         0.00000E+00        -0.40533E+08
 
   -0.40316E+08         0.41726E+06         0.00000E+00
    0.41726E+06        -0.97603E+08         0.00000E+00
    0.00000E+00         0.00000E+00        -0.40345E+08
 
   -0.40149E+08         0.41489E+06         0.00000E+00
    0.41489E+06        -0.97604E+08         0.00000E+00
    0.00000E+00         0.00000E+00        -0.40156E+08
 
   -0.39982E+08         0.41169E+06         0.00000E+00
    0.41169E+06        -0.97605E+08         0.00000E+00
    0.00000E+00         0.00000E+00        -0.39965E+08
 
   -0.39817E+08         0.40756E+06         0.00000E+00
    0.40756E+06        -0.97606E+08         0.00000E+00
    0.00000E+00         0.00000E+00        -0.39774E+08
 
   -0.39654E+08         0.40236E+06         0.00000E+00
    0.40236E+06        -0.97607E+08         0.00000E+00
    0.00000E+00         0.00000E+00        -0.39580E+08
 
   -0.39492E+08         0.39595E+06         0.00000E+00
    0.39595E+06        -0.97609E+08         0.00000E+00
    0.00000E+00         0.00000E+00        -0.39386E+08
 
   -0.39333E+08         0.38818E+06         0.00000E+00
    0.38818E+06        -0.97611E+08         0.00000E+00
    0.00000E+00         0.00000E+00        -0.39190E+08
 
   -0.39177E+08         0.37887E+06         0.00000E+00
    0.37887E+06        -0.97613E+08         0.00000E+00
    0.00000E+00         0.00000E+00        -0.38993E+08
 
   -0.39025E+08         0.36782E+06         0.00000E+00
    0.36782E+06        -0.97616E+08         0.00000E+00
    0.00000E+00         0.00000E+00        -0.38795E+08
 
   -0.38877E+08         0.35481E+06         0.00000E+00
    0.35481E+06        -0.97618E+08         0.00000E+00
    0.00000E+00         0.00000E+00        -0.38596E+08
 
   -0.38733E+08         0.33962E+06         0.00000E+00
    0.33962E+06        -0.97621E+08         0.00000E+00
    0.00000E+00         0.00000E+00        -0.38395E+08
 
   -0.38595E+08         0.32201E+06         0.00000E+00
    0.32201E+06        -0.97625E+08         0.00000E+00
    0.00000E+00         0.00000E+00        -0.38194E+08
 
   -0.38463E+08         0.30173E+06         0.00000E+00
    0.30173E+06        -0.97629E+08         0.00000E+00
    0.00000E+00         0.00000E+00        -0.37992E+08
 
   -0.38339E+08         0.27856E+06         0.00000E+00
    0.27856E+06        -0.97633E+08         0.00000E+00
    0.00000E+00         0.00000E+00        -0.37789E+08
 
   -0.38222E+08         0.25229E+06         0.00000E+00
    0.25229E+06        -0.97638E+08         0.00000E+00
    0.00000E+00         0.00000E+00        -0.37585E+08
 
   -0.38113E+08         0.22280E+06         0.00000E+00
    0.22280E+06        -0.97642E+08         0.00000E+00
    0.00000E+00         0.00000E+00        -0.37381E+08
 
   -0.38014E+08         0.19003E+06         0.00000E+00
    0.19003E+06        -0.97647E+08         0.00000E+00
    0.00000E+00         0.00000E+00        -0.37175E+08
 
   -0.37926E+08         0.15411E+06         0.00000E+00
    0.15411E+06        -0.97652E+08         0.00000E+00
    0.00000E+00         0.00000E+00        -0.36970E+08
 
   -0.37848E+08         0.11538E+06         0.00000E+00
    0.11538E+06        -0.97656E+08         0.00000E+00
    0.00000E+00         0.00000E+00        -0.36763E+08
 
   -0.37780E+08         0.74506E+05         0.00000E+00
    0.74506E+05        -0.97659E+08         0.00000E+00
    0.00000E+00         0.00000E+00        -0.36557E+08
 
   -0.37724E+08         0.32648E+05         0.00000E+00
    0.32648E+05        -0.97661E+08         0.00000E+00
    0.00000E+00         0.00000E+00        -0.36350E+08
 
   -0.37678E+08        -0.83374E+04         0.00000E+00
   -0.83374E+04        -0.97660E+08         0.00000E+00
    0.00000E+00         0.00000E+00        -0.36142E+08
 
   -0.37639E+08        -0.45489E+05         0.00000E+00
   -0.45489E+05        -0.97655E+08         0.00000E+00
    0.00000E+00         0.00000E+00        -0.35935E+08
 
   -0.37606E+08        -0.73980E+05         0.00000E+00
   -0.73980E+05        -0.97643E+08         0.00000E+00
    0.00000E+00         0.00000E+00        -0.35727E+08
 
   -0.37575E+08        -0.85989E+05         0.00000E+00
   -0.85989E+05        -0.97617E+08         0.00000E+00
    0.00000E+00         0.00000E+00        -0.35519E+08
 
   -0.37546E+08        -0.71780E+05         0.00000E+00
   -0.71780E+05        -0.97559E+08         0.00000E+00
    0.00000E+00         0.00000E+00        -0.35311E+08
 
   -0.37527E+08        -0.28462E+05         0.00000E+00
   -0.28462E+05        -0.97440E+08         0.00000E+00
    0.00000E+00         0.00000E+00        -0.35104E+08
 
   -0.48733E+08        -0.13134E+05         0.00000E+00
   -0.13134E+05        -0.97666E+08         0.00000E+00
    0.00000E+00         0.00000E+00        -0.49952E+08
 
   -0.48724E+08        -0.32325E+05         0.00000E+00
   -0.32325E+05        -0.97613E+08         0.00000E+00
    0.00000E+00         0.00000E+00        -0.49855E+08
 
   -0.48710E+08        -0.36868E+05         0.00000E+00
   -0.36868E+05        -0.97589E+08         0.00000E+00
    0.00000E+00         0.00000E+00        -0.49759E+08
 
   -0.48696E+08        -0.28995E+05         0.00000E+00
   -0.28995E+05        -0.97579E+08         0.00000E+00
    0.00000E+00         0.00000E+00        -0.49662E+08
 
   -0.48681E+08        -0.13832E+05         0.00000E+00
   -0.13832E+05        -0.97575E+08         0.00000E+00
    0.00000E+00         0.00000E+00        -0.49566E+08
 
   -0.48662E+08         0.49589E+04         0.00000E+00
    0.49589E+04        -0.97573E+08         0.00000E+00
    0.00000E+00         0.00000E+00        -0.49470E+08
 
   -0.48638E+08         0.25280E+05         0.00000E+00
    0.25280E+05        -0.97573E+08         0.00000E+00
    0.00000E+00         0.00000E+00        -0.49373E+08
 
   -0.48608E+08         0.45882E+05         0.00000E+00
    0.45882E+05        -0.97574E+08         0.00000E+00
    0.00000E+00         0.00000E+00        -0.49276E+08
 
   -0.48573E+08         0.65995E+05         0.00000E+00
    0.65995E+05        -0.97575E+08         0.00000E+00
    0.00000E+00         0.00000E+00        -0.49179E+08
 
   -0.48530E+08         0.85150E+05         0.00000E+00
    0.85150E+05        -0.97577E+08         0.00000E+00
    0.00000E+00         0.00000E+00        -0.49082E+08
 
   -0.48482E+08         0.10308E+06         0.00000E+00
    0.10308E+06        -0.97579E+08         0.00000E+00
    0.00000E+00         0.00000E+00        -0.48984E+08
 
   -0.48428E+08         0.11966E+06         0.00000E+00
    0.11966E+06        -0.97580E+08         0.00000E+00
    0.00000E+00         0.00000E+00        -0.48886E+08
 
   -0.48368E+08         0.13486E+06         0.00000E+00
    0.13486E+06        -0.97582E+08         0.00000E+00
    0.00000E+00         0.00000E+00        -0.48787E+08
 
   -0.48303E+08         0.14871E+06         0.00000E+00
    0.14871E+06        -0.97584E+08         0.00000E+00
    0.00000E+00         0.00000E+00        -0.48688E+08
 
   -0.48233E+08         0.16128E+06         0.00000E+00
    0.16128E+06        -0.97586E+08         0.00000E+00
    0.00000E+00         0.00000E+00        -0.48588E+08
 
   -0.48158E+08         0.17268E+06         0.00000E+00
    0.17268E+06        -0.97587E+08         0.00000E+00
    0.00000E+00         0.00000E+00        -0.48487E+08
 
   -0.48080E+08         0.18300E+06         0.00000E+00
    0.18300E+06        -0.97588E+08         0.00000E+00
    0.00000E+00         0.00000E+00        -0.48386E+08
 
   -0.47997E+08         0.19237E+06         0.00000E+00
    0.19237E+06        -0.97589E+08         0.00000E+00
    0.00000E+00         0.00000E+00        -0.48284E+08
 
   -0.47911E+08         0.20089E+06         0.00000E+00
    0.20089E+06        -0.97590E+08         0.00000E+00
    0.00000E+00         0.00000E+00        -0.48181E+08
 
   -0.47822E+08         0.20867E+06         0.00000E+00
    0.20867E+06        -0.97591E+08         0.00000E+00
    0.00000E+00         0.00000E+00        -0.48078E+08
 
   -0.47729E+08         0.21580E+06         0.00000E+00
    0.21580E+06        -0.97592E+08         0.00000E+00
    0.00000E+00         0.00000E+00        -0.47973E+08
 
   -0.47634E+08         0.22238E+06         0.00000E+00
    0.22238E+06        -0.97593E+08         0.00000E+00
    0.00000E+00         0.00000E+00        -0.47868E+08
 
   -0.47536E+08         0.22847E+06         0.00000E+00
    0.22847E+06        -0.97593E+08         0.00000E+00
    0.00000E+00         0.00000E+00        -0.47762E+08
 
   -0.47436E+08         0.23416E+06         0.00000E+00
    0.23416E+06        -0.97594E+08         0.00000E+00
    0.00000E+00         0.00000E+00        -0.47654E+08
 
   -0.47333E+08         0.23950E+06         0.00000E+00
    0.23950E+06        -0.97594E+08         0.00000E+00
    0.00000E+00         0.00000E+00        -0.47546E+08
 
   -0.47228E+08         0.24454E+06         0.00000E+00
    0.24454E+06        -0.97594E+08         0.00000E+00
    0.00000E+00         0.00000E+00        -0.47436E+08
 
   -0.47121E+08         0.24934E+06         0.00000E+00
    0.24934E+06        -0.97595E+08         0.00000E+00
    0.00000E+00         0.00000E+00        -0.47326E+08
 
   -0.47012E+08         0.25392E+06         0.00000E+00
    0.25392E+06        -0.97595E+08         0.00000E+00
    0.00000E+00         0.00000E+00        -0.47214E+08
 
   -0.46901E+08         0.25833E+06         0.00000E+00
    0.25833E+06        -0.97595E+08         0.00000E+00
    0.00000E+00         0.00000E+00        -0.47101E+08
 
   -0.46789E+08         0.26259E+06         0.00000E+00
    0.26259E+06        -0.97595E+08         0.00000E+00
    0.00000E+00         0.00000E+00        -0.46986E+08
 
   -0.46674E+08         0.26673E+06         0.00000E+00
    0.26673E+06        -0.97595E+08         0.00000E+00
    0.00000E+00         0.00000E+00        -0.46871E+08
 
   -0.46558E+08         0.27077E+06         0.00000E+00
    0.27077E+06        -0.97595E+08         0.00000E+00
    0.00000E+00         0.00000E+00        -0.46754E+08
 
   -0.46439E+08         0.27473E+06         0.00000E+00
    0.27473E+06        -0.97595E+08         0.00000E+00
    0.00000E+00         0.00000E+00        -0.46635E+08
 
   -0.46319E+08         0.27861E+06         0.00000E+00
    0.27861E+06        -0.97596E+08         0.00000E+00
    0.00000E+00         0.00000E+00        -0.46515E+08
 
   -0.46198E+08         0.28245E+06         0.00000E+00
    0.28245E+06        -0.97596E+08         0.00000E+00
    0.00000E+00         0.00000E+00        -0.46394E+08
 
   -0.46075E+08         0.28624E+06         0.00000E+00
    0.28624E+06        -0.97596E+08         0.00000E+00
    0.00000E+00         0.00000E+00        -0.46271E+08
 
   -0.45950E+08         0.28999E+06         0.00000E+00
    0.28999E+06        -0.97596E+08         0.00000E+00
    0.00000E+00         0.00000E+00        -0.46147E+08
 
   -0.45823E+08         0.29371E+06         0.00000E+00
    0.29371E+06        -0.97596E+08         0.00000E+00
    0.00000E+00         0.00000E+00        -0.46021E+08
 
   -0.45695E+08         0.29741E+06         0.00000E+00
    0.29741E+06        -0.97596E+08         0.00000E+00
    0.00000E+00         0.00000E+00        -0.45894E+08
 
   -0.45565E+08         0.30109E+06         0.00000E+00
    0.30109E+06        -0.97596E+08         0.00000E+00
    0.00000E+00         0.00000E+00        -0.45765E+08
 
   -0.45434E+08         0.30475E+06         0.00000E+00
    0.30475E+06        -0.97596E+08         0.00000E+00
    0.00000E+00         0.00000E+00        -0.45635E+08
 
   -0.45301E+08         0.30840E+06         0.00000E+00
    0.30840E+06        -0.97596E+08         0.00000E+00
    0.00000E+00         0.00000E+00        -0.45503E+08
 
   -0.45166E+08         0.31203E+06         0.00000E+00
    0.31203E+06        -0.97596E+08         0.00000E+00
    0.00000E+00         0.00000E+00        -0.45369E+08
 
   -0.45030E+08         0.31565E+06         0.00000E+00
    0.31565E+06        -0.97596E+08         0.00000E+00
    0.00000E+00         0.00000E+00        -0.45233E+08
 
   -0.44892E+08         0.31926E+06         0.00000E+00
    0.31926E+06        -0.97596E+08         0.00000E+00
    0.00000E+00         0.00000E+00        -0.45096E+08
 
   -0.44753E+08         0.32285E+06         0.00000E+00
    0.32285E+06        -0.97596E+08         0.00000E+00
    0.00000E+00         0.00000E+00        -0.44957E+08
 
   -0.44612E+08         0.32642E+06         0.00000E+00
    0.32642E+06        -0.97596E+08         0.00000E+00
    0.00000E+00         0.00000E+00        -0.44816E+08
 
   -0.44469E+08         0.32998E+06         0.00000E+00
    0.32998E+06        -0.97596E+08         0.00000E+00
    0.00000E+00         0.00000E+00        -0.44674E+08
 
   -0.44325E+08         0.33350E+06         0.00000E+00
    0.33350E+06        -0.97596E+08         0.00000E+00
    0.00000E+00         0.00000E+00        -0.44530E+08
 
   -0.44179E+08         0.33700E+06         0.00000E+00
    0.33700E+06        -0.97596E+08         0.00000E+00
    0.00000E+00         0.00000E+00        -0.44384E+08
 
   -0.44032E+08         0.34047E+06         0.00000E+00
    0.34047E+06        -0.97596E+08         0.00000E+00
    0.00000E+00         0.00000E+00        -0.44236E+08
 
   -0.43884E+08         0.34390E+06         0.00000E+00
    0.34390E+06        -0.97596E+08         0.00000E+00
    0.00000E+00         0.00000E+00        -0.44086E+08
 
   -0.43733E+08         0.34728E+06         0.00000E+00
    0.34728E+06        -0.97596E+08         0.00000E+00
    0.00000E+00         0.00000E+00        -0.43935E+08
 
   -0.43582E+08         0.35061E+06         0.00000E+00
    0.35061E+06        -0.97596E+08         0.00000E+00
    0.00000E+00         0.00000E+00        -0.43782E+08
 
   -0.43428E+08         0.35388E+06         0.00000E+00
    0.35388E+06        -0.97596E+08         0.00000E+00
    0.00000E+00         0.00000E+00        -0.43627E+08
 
   -0.43274E+08         0.35708E+06         0.00000E+00
    0.35708E+06        -0.97596E+08         0.00000E+00
    0.00000E+00         0.00000E+00        -0.43470E+08
 
   -0.43118E+08         0.36020E+06         0.00000E+00
    0.36020E+06        -0.97596E+08         0.00000E+00
    0.00000E+00         0.00000E+00        -0.43311E+08
 
   -0.42960E+08         0.36323E+06         0.00000E+00
    0.36323E+06        -0.97597E+08         0.00000E+00
    0.00000E+00         0.00000E+00        -0.43151E+08
 
   -0.42802E+08         0.36616E+06         0.00000E+00
    0.36616E+06        -0.97597E+08         0.00000E+00
    0.00000E+00         0.00000E+00        -0.42988E+08
 
   -0.42642E+08         0.36897E+06         0.00000E+00
    0.36897E+06        -0.97597E+08         0.00000E+00
    0.00000E+00         0.00000E+00        -0.42824E+08
 
   -0.42481E+08         0.37165E+06         0.00000E+00
    0.37165E+06        -0.97597E+08         0.00000E+00
    0.00000E+00         0.00000E+00        -0.42658E+08
 
   -0.42318E+08         0.37419E+06         0.00000E+00
    0.37419E+06        -0.97597E+08         0.00000E+00
    0.00000E+00         0.00000E+00        -0.42491E+08
 
   -0.42155E+08         0.37656E+06         0.00000E+00
    0.37656E+06        -0.97597E+08         0.00000E+00
    0.00000E+00         0.00000E+00        -0.42321E+08
 
   -0.41990E+08         0.37874E+06         0.00000E+00
    0.37874E+06        -0.97598E+08         0.00000E+00
    0.00000E+00         0.00000E+00        -0.42150E+08
 
   -0.41825E+08         0.38072E+06         0.00000E+00
    0.38072E+06        -0.97598E+08         0.00000E+00
    0.00000E+00         0.00000E+00        -0.41977E+08
 
   -0.41659E+08         0.38246E+06         0.00000E+00
    0.38246E+06        -0.97598E+08         0.00000E+00
    0.00000E+00         0.00000E+00        -0.41802E+08
 
   -0.41492E+08         0.38395E+06         0.00000E+00
    0.38395E+06        -0.97598E+08         0.00000E+00
    0.00000E+00         0.00000E+00        -0.41626E+08
 
   -0.41324E+08         0.38514E+06         0.00000E+00
    0.38514E+06        -0.97599E+08         0.00000E+00
    0.00000E+00         0.00000E+00        -0.41448E+08
 
   -0.41156E+08         0.38600E+06         0.00000E+00
    0.38600E+06        -0.97599E+08         0.00000E+00
    0.00000E+00         0.00000E+00        -0.41268E+08
 
   -0.40987E+08         0.38649E+06         0.00000E+00
    0.38649E+06        -0.97600E+08         0.00000E+00
    0.00000E+00         0.00000E+00        -0.41086E+08
 
   -0.40819E+08         0.38656E+06         0.00000E+00
    0.38656E+06        -0.97600E+08         0.00000E+00
    0.00000E+00         0.00000E+00        -0.40903E+08
 
   -0.40650E+08         0.38617E+06         0.00000E+00
    0.38617E+06        -0.97601E+08         0.00000E+00
    0.00000E+00         0.00000E+00        -0.40719E+08
 
   -0.40482E+08         0.38524E+06         0.00000E+00
    0.38524E+06        -0.97601E+08         0.00000E+00
    0.00000E+00         0.00000E+00        -0.40533E+08
 
   -0.40314E+08         0.38372E+06         0.00000E+00
    0.38372E+06        -0.97602E+08         0.00000E+00
    0.00000E+00         0.00000E+00        -0.40345E+08
 
   -0.40147E+08         0.38152E+06         0.00000E+00
    0.38152E+06        -0.97603E+08         0.00000E+00
    0.00000E+00         0.00000E+00        -0.40156E+08
 
   -0.39981E+08         0.37855E+06         0.00000E+00
    0.37855E+06        -0.97604E+08         0.00000E+00
    0.00000E+00         0.00000E+00        -0.39965E+08
 
   -0.39816E+08         0.37471E+06         0.00000E+00
    0.37471E+06        -0.97605E+08         0.00000E+00
    0.00000E+00         0.00000E+00        -0.39774E+08
 
   -0.39653E+08         0.36989E+06         0.00000E+00
    0.36989E+06        -0.97606E+08         0.00000E+00
    0.00000E+00         0.00000E+00        -0.39580E+08
 
   -0.39492E+08         0.36394E+06         0.00000E+00
    0.36394E+06        -0.97608E+08         0.00000E+00
    0.00000E+00         0.00000E+00        -0.39386E+08
 
   -0.39333E+08         0.35673E+06         0.00000E+00
    0.35673E+06        -0.97609E+08         0.00000E+00
    0.00000E+00         0.00000E+00        -0.39190E+08
 
   -0.39178E+08         0.34808E+06         0.00000E+00
    0.34808E+06        -0.97611E+08         0.00000E+00
    0.00000E+00         0.00000E+00        -0.38993E+08
 
   -0.39026E+08         0.33780E+06         0.00000E+00
    0.33780E+06        -0.97613E+08         0.00000E+00
    0.00000E+00         0.00000E+00        -0.38795E+08
 
   -0.38879E+08         0.32570E+06         0.00000E+00
    0.32570E+06        -0.97616E+08         0.00000E+00
    0.00000E+00         0.00000E+00        -0.38596E+08
 
   -0.38736E+08         0.31155E+06         0.00000E+00
    0.31155E+06        -0.97618E+08         0.00000E+00
    0.00000E+00         0.00000E+00        -0.38395E+08
 
   -0.38599E+08         0.29513E+06         0.00000E+00
    0.29513E+06        -0.97621E+08         0.00000E+00
    0.00000E+00         0.00000E+00        -0.38194E+08
 
   -0.38469E+08         0.27620E+06         0.00000E+00
    0.27620E+06        -0.97625E+08         0.00000E+00
    0.00000E+00         0.00000E+00        -0.37992E+08
 
   -0.38346E+08         0.25454E+06         0.00000E+00
    0.25454E+06        -0.97628E+08         0.00000E+00
    0.00000E+00         0.00000E+00        -0.37789E+08
 
   -0.38231E+08         0.22995E+06         0.00000E+00
    0.22995E+06        -0.97632E+08         0.00000E+00
    0.00000E+00         0.00000E+00        -0.37585E+08
 
   -0.38125E+08         0.20231E+06         0.00000E+00
    0.20231E+06        -0.97636E+08         0.00000E+00
    0.00000E+00         0.00000E+00        -0.37381E+08
 
   -0.38029E+08         0.17155E+06         0.00000E+00
    0.17155E+06        -0.97640E+08         0.00000E+00
    0.00000E+00         0.00000E+00        -0.37175E+08
 
   -0.37943E+08         0.13777E+06         0.00000E+00
    0.13777E+06        -0.97644E+08         0.00000E+00
    0.00000E+00         0.00000E+00        -0.36970E+08
 
   -0.37869E+08         0.10127E+06         0.00000E+00
    0.10127E+06        -0.97648E+08         0.00000E+00
    0.00000E+00         0.00000E+00        -0.36763E+08
 
   -0.37806E+08         0.62655E+05         0.00000E+00
    0.62655E+05        -0.97651E+08         0.00000E+00
    0.00000E+00         0.00000E+00        -0.36557E+08
 
   -0.37755E+08         0.22964E+05         0.00000E+00
    0.22964E+05        -0.97653E+08         0.00000E+00
    0.00000E+00         0.00000E+00        -0.36350E+08
 
   -0.37715E+08        -0.16112E+05         0.00000E+00
   -0.16112E+05        -0.97652E+08         0.00000E+00
    0.00000E+00         0.00000E+00        -0.36142E+08
 
   -0.37683E+08        -0.51849E+05         0.00000E+00
   -0.51849E+05        -0.97649E+08         0.00000E+00
    0.00000E+00         0.00000E+00        -0.35935E+08
 
   -0.37657E+08        -0.79705E+05         0.00000E+00
   -0.79705E+05        -0.97639E+08         0.00000E+00
    0.00000E+00         0.00000E+00        -0.35727E+08
 
   -0.37632E+08        -0.91793E+05         0.00000E+00
   -0.91793E+05        -0.97617E+08         0.00000E+00
    0.00000E+00         0.00000E+00        -0.35519E+08
 
   -0.37607E+08        -0.77090E+05         0.00000E+00
   -0.77090E+05        -0.97565E+08         0.00000E+00
    0.00000E+00         0.00000E+00        -0.35311E+08
 
   -0.37589E+08        -0.30798E+05         0.00000E+00
   -0.30798E+05        -0.97451E+08         0.00000E+00
    0.00000E+00         0.00000E+00        -0.35104E+08
 
   -0.48702E+08        -0.14274E+05         0.00000E+00
   -0.14274E+05        -0.97661E+08         0.00000E+00
    0.00000E+00         0.00000E+00        -0.49952E+08
 
   -0.48694E+08        -0.34810E+05         0.00000E+00
   -0.34810E+05        -0.97611E+08         0.00000E+00
    0.00000E+00         0.00000E+00        -0.49855E+08
 
   -0.48683E+08        -0.39466E+05         0.00000E+00
   -0.39466E+05        -0.97590E+08         0.00000E+00
    0.00000E+00         0.00000E+00        -0.49759E+08
 
   -0.48672E+08        -0.31587E+05         0.00000E+00
   -0.31587E+05        -0.97582E+08         0.00000E+00
    0.00000E+00         0.00000E+00        -0.49662E+08
 
   -0.48660E+08        -0.16893E+05         0.00000E+00
   -0.16893E+05        -0.97578E+08         0.00000E+00
    0.00000E+00         0.00000E+00        -0.49566E+08
 
   -0.48644E+08         0.10122E+04         0.00000E+00
    0.10122E+04        -0.97577E+08         0.00000E+00
    0.00000E+00         0.00000E+00        -0.49470E+08
 
   -0.48623E+08         0.20202E+05         0.00000E+00
    0.20202E+05        -0.97577E+08         0.00000E+00
    0.00000E+00         0.00000E+00        -0.49373E+08
 
   -0.48595E+08         0.39550E+05         0.00000E+00
    0.39550E+05        -0.97578E+08         0.00000E+00
    0.00000E+00         0.00000E+00        -0.49276E+08
 
   -0.48561E+08         0.58367E+05         0.00000E+00
    0.58367E+05        -0.97579E+08         0.00000E+00
    0.00000E+00         0.00000E+00        -0.49179E+08
 
   -0.48521E+08         0.76239E+05         0.00000E+00
    0.76239E+05        -0.97580E+08         0.00000E+00
    0.00000E+00         0.00000E+00        -0.49082E+08
 
   -0.48474E+08         0.92930E+05         0.00000E+00
    0.92930E+05        -0.97582E+08         0.00000E+00
    0.00000E+00         0.00000E+00        -0.48984E+08
 
   -0.48421E+08         0.10833E+06         0.00000E+00
    0.10833E+06        -0.97584E+08         0.00000E+00
    0.00000E+00         0.00000E+00        -0.48886E+08
 
   -0.48362E+08         0.12243E+06         0.00000E+00
    0.12243E+06        -0.97585E+08         0.00000E+00
    0.00000E+00         0.00000E+00        -0.48787E+08
 
   -0.48297E+08         0.13525E+06         0.00000E+00
    0.13525E+06        -0.97587E+08         0.00000E+00
    0.00000E+00         0.00000E+00        -0.48688E+08
 
   -0.48228E+08         0.14687E+06         0.00000E+00
    0.14687E+06        -0.97588E+08         0.00000E+00
    0.00000E+00         0.00000E+00        -0.48588E+08
 
   -0.48154E+08         0.15739E+06         0.00000E+00
    0.15739E+06        -0.97589E+08         0.00000E+00
    0.00000E+00         0.00000E+00        -0.48487E+08
 
   -0.48076E+08         0.16690E+06         0.00000E+00
    0.16690E+06        -0.97590E+08         0.00000E+00
    0.00000E+00         0.00000E+00        -0.48386E+08
 
   -0.47993E+08         0.17553E+06         0.00000E+00
    0.17553E+06        -0.97591E+08         0.00000E+00
    0.00000E+00         0.00000E+00        -0.48284E+08
 
   -0.47908E+08         0.18336E+06         0.00000E+00
    0.18336E+06        -0.97592E+08         0.00000E+00
    0.00000E+00         0.00000E+00        -0.48181E+08
 
   -0.47818E+08         0.19050E+06         0.00000E+00
    0.19050E+06        -0.97593E+08         0.00000E+00
    0.00000E+00         0.00000E+00        -0.48078E+08
 
   -0.47726E+08         0.19705E+06         0.00000E+00
    0.19705E+06        -0.97593E+08         0.00000E+00
    0.00000E+00         0.00000E+00        -0.47973E+08
 
   -0.47631E+08         0.20307E+06         0.00000E+00
    0.20307E+06        -0.97594E+08         0.00000E+00
    0.00000E+00         0.00000E+00        -0.47868E+08
 
   -0.47533E+08         0.20866E+06         0.00000E+00
    0.20866E+06        -0.97594E+08         0.00000E+00
    0.00000E+00         0.00000E+00        -0.47762E+08
 
   -0.47433E+08         0.21386E+06         0.00000E+00
    0.21386E+06        -0.97595E+08         0.00000E+00
    0.00000E+00         0.00000E+00        -0.47654E+08
 
   -0.47330E+08         0.21874E+06         0.00000E+00
    0.21874E+06        -0.97595E+08         0.00000E+00
    0.00000E+00         0.00000E+00        -0.47546E+08
 
   -0.47225E+08         0.22335E+06         0.00000E+00
    0.22335E+06        -0.97595E+08         0.00000E+00
    0.00000E+00         0.00000E+00        -0.47436E+08
 
   -0.47118E+08         0.22773E+06         0.00000E+00
    0.22773E+06        -0.97595E+08         0.00000E+00
    0.00000E+00         0.00000E+00        -0.47326E+08
 
   -0.47009E+08         0.23192E+06         0.00000E+00
    0.23192E+06        -0.97596E+08         0.00000E+00
    0.00000E+00         0.00000E+00        -0.47214E+08
 
   -0.46898E+08         0.23595E+06         0.00000E+00
    0.23595E+06        -0.97596E+08         0.00000E+00
    0.00000E+00         0.00000E+00        -0.47101E+08
 
   -0.46785E+08         0.23984E+06         0.00000E+00
    0.23984E+06        -0.97596E+08         0.00000E+00
    0.00000E+00         0.00000E+00        -0.46986E+08
 
   -0.46671E+08         0.24361E+06         0.00000E+00
    0.24361E+06        -0.97596E+08         0.00000E+00
    0.00000E+00         0.00000E+00        -0.46871E+08
 
   -0.46554E+08         0.24730E+06         0.00000E+00
    0.24730E+06        -0.97596E+08         0.00000E+00
    0.00000E+00         0.00000E+00        -0.46754E+08
 
   -0.46436E+08         0.25091E+06         0.00000E+00
    0.25091E+06        -0.97596E+08         0.00000E+00
    0.00000E+00         0.00000E+00        -0.46635E+08
 
   -0.46316E+08         0.25446E+06         0.00000E+00
    0.25446E+06        -0.97596E+08         0.00000E+00
    0.00000E+00         0.00000E+00        -0.46515E+08
 
   -0.46194E+08         0.25796E+06         0.00000E+00
    0.25796E+06        -0.97596E+08         0.00000E+00
    0.00000E+00         0.00000E+00        -0.46394E+08
 
   -0.46071E+08         0.26141E+06         0.00000E+00
    0.26141E+06        -0.97596E+08         0.00000E+00
    0.00000E+00         0.00000E+00        -0.46271E+08
 
   -0.45946E+08         0.26484E+06         0.00000E+00
    0.26484E+06        -0.97596E+08         0.00000E+00
    0.00000E+00         0.00000E+00        -0.46147E+08
 
   -0.45819E+08         0.26823E+06         0.00000E+00
    0.26823E+06        -0.97596E+08         0.00000E+00
    0.00000E+00         0.00000E+00        -0.46021E+08
 
   -0.45691E+08         0.27161E+06         0.00000E+00
    0.27161E+06        -0.97596E+08         0.00000E+00
    0.00000E+00         0.00000E+00        -0.45894E+08
 
   -0.45561E+08         0.27496E+06         0.00000E+00
    0.27496E+06        -0.97596E+08         0.00000E+00
    0.00000E+00         0.00000E+00        -0.45765E+08
 
   -0.45430E+08         0.27830E+06         0.00000E+00
    0.27830E+06        -0.97596E+08         0.00000E+00
    0.00000E+00         0.00000E+00        -0.45635E+08
 
   -0.45297E+08         0.28163E+06         0.00000E+00
    0.28163E+06        -0.97596E+08         0.00000E+00
    0.00000E+00         0.00000E+00        -0.45503E+08
 
   -0.45162E+08         0.28495E+06         0.00000E+00
    0.28495E+06        -0.97596E+08         0.00000E+00
    0.00000E+00         0.00000E+00        -0.45369E+08
 
   -0.45026E+08         0.28825E+06         0.00000E+00
    0.28825E+06        -0.97597E+08         0.00000E+00
    0.00000E+00         0.00000E+00        -0.45233E+08
 
   -0.44888E+08         0.29154E+06         0.00000E+00
    0.29154E+06        -0.97597E+08         0.00000E+00
    0.00000E+00         0.00000E+00        -0.45096E+08
 
   -0.44749E+08         0.29481E+06         0.00000E+00
    0.29481E+06        -0.97597E+08         0.00000E+00
    0.00000E+00         0.00000E+00        -0.44957E+08
 
   -0.44608E+08         0.29807E+06         0.00000E+00
    0.29807E+06        -0.97597E+08         0.00000E+00
    0.00000E+00         0.00000E+00        -0.44816E+08
 
   -0.44465E+08         0.30131E+06         0.00000E+00
    0.30131E+06        -0.97597E+08         0.00000E+00
    0.00000E+00         0.00000E+00        -0.44674E+08
 
   -0.44321E+08         0.30453E+06         0.00000E+00
    0.30453E+06        -0.97597E+08         0.00000E+00
    0.00000E+00         0.00000E+00        -0.44530E+08
 
   -0.44175E+08         0.30772E+06         0.00000E+00
    0.30772E+06        -0.97597E+08         0.00000E+00
    0.00000E+00         0.00000E+00        -0.44384E+08
 
   -0.44028E+08         0.31088E+06         0.00000E+00
    0.31088E+06        -0.97597E+08         0.00000E+00
    0.00000E+00         0.00000E+00        -0.44236E+08
 
   -0.43879E+08         0.31401E+06         0.00000E+00
    0.31401E+06        -0.97597E+08         0.00000E+00
    0.00000E+00         0.00000E+00        -0.44086E+08
 
   -0.43729E+08         0.31709E+06         0.00000E+00
    0.31709E+06        -0.97597E+08         0.00000E+00
    0.00000E+00         0.00000E+00        -0.43935E+08
 
   -0.43577E+08         0.32012E+06         0.00000E+00
    0.32012E+06        -0.97597E+08         0.00000E+00
    0.00000E+00         0.00000E+00        -0.43782E+08
 
   -0.43424E+08         0.32310E+06         0.00000E+00
    0.32310E+06        -0.97597E+08         0.00000E+00
    0.00000E+00         0.00000E+00        -0.43627E+08
 
   -0.43270E+08         0.32602E+06         0.00000E+00
    0.32602E+06        -0.97597E+08         0.00000E+00
    0.00000E+00         0.00000E+00        -0.43470E+08
 
   -0.43114E+08         0.32886E+06         0.00000E+00
    0.32886E+06        -0.97597E+08         0.00000E+00
    0.00000E+00         0.00000E+00        -0.43311E+08
 
   -0.42956E+08         0.33163E+06         0.00000E+00
    0.33163E+06        -0.97597E+08         0.00000E+00
    0.00000E+00         0.00000E+00        -0.43151E+08
 
   -0.42798E+08         0.33429E+06         0.00000E+00
    0.33429E+06        -0.97597E+08         0.00000E+00
    0.00000E+00         0.00000E+00        -0.42988E+08
 
   -0.42638E+08         0.33686E+06         0.00000E+00
    0.33686E+06        -0.97597E+08         0.00000E+00
    0.00000E+00         0.00000E+00        -0.42824E+08
 
   -0.42477E+08         0.33930E+06         0.00000E+00
    0.33930E+06        -0.97597E+08         0.00000E+00
    0.00000E+00         0.00000E+00        -0.42658E+08
 
   -0.42314E+08         0.34161E+06         0.00000E+00
    0.34161E+06        -0.97598E+08         0.00000E+00
    0.00000E+00         0.00000E+00        -0.42491E+08
 
   -0.42151E+08         0.34377E+06         0.00000E+00
    0.34377E+06        -0.97598E+08         0.00000E+00
    0.00000E+00         0.00000E+00        -0.42321E+08
 
   -0.41987E+08         0.34576E+06         0.00000E+00
    0.34576E+06        -0.97598E+08         0.00000E+00
    0.00000E+00         0.00000E+00        -0.42150E+08
 
   -0.41821E+08         0.34756E+06         0.00000E+00
    0.34756E+06        -0.97598E+08         0.00000E+00
    0.00000E+00         0.00000E+00        -0.41977E+08
 
   -0.41655E+08         0.34914E+06         0.00000E+00
    0.34914E+06        -0.97598E+08         0.00000E+00
    0.00000E+00         0.00000E+00        -0.41802E+08
 
   -0.41488E+08         0.35049E+06         0.00000E+00
    0.35049E+06        -0.97599E+08         0.00000E+00
    0.00000E+00         0.00000E+00        -0.41626E+08
 
   -0.41321E+08         0.35157E+06         0.00000E+00
    0.35157E+06        -0.97599E+08         0.00000E+00
    0.00000E+00         0.00000E+00        -0.41448E+08
 
   -0.41153E+08         0.35235E+06         0.00000E+00
    0.35235E+06        -0.97599E+08         0.00000E+00
    0.00000E+00         0.00000E+00        -0.41268E+08
 
   -0.40984E+08         0.35279E+06         0.00000E+00
    0.35279E+06        -0.97600E+08         0.00000E+00
    0.00000E+00         0.00000E+00        -0.41086E+08
 
   -0.40816E+08         0.35285E+06         0.00000E+00
    0.35285E+06        -0.97600E+08         0.00000E+00
    0.00000E+00         0.00000E+00        -0.40903E+08
 
   -0.40647E+08         0.35248E+06         0.00000E+00
    0.35248E+06        -0.97601E+08         0.00000E+00
    0.00000E+00         0.00000E+00        -0.40719E+08
 
   -0.40479E+08         0.35162E+06         0.00000E+00
    0.35162E+06        -0.97601E+08         0.00000E+00
    0.00000E+00         0.00000E+00        -0.40533E+08
 
   -0.40311E+08         0.35022E+06         0.00000E+00
    0.35022E+06        -0.97602E+08         0.00000E+00
    0.00000E+00         0.00000E+00        -0.40345E+08
 
   -0.40144E+08         0.34819E+06         0.00000E+00
    0.34819E+06        -0.97602E+08         0.00000E+00
    0.00000E+00         0.00000E+00        -0.40156E+08
 
   -0.39978E+08         0.34546E+06         0.00000E+00
    0.34546E+06        -0.97603E+08         0.00000E+00
    0.00000E+00         0.00000E+00        -0.39965E+08
 
   -0.39814E+08         0.34193E+06         0.00000E+00
    0.34193E+06        -0.97604E+08         0.00000E+00
    0.00000E+00         0.00000E+00        -0.39774E+08
 
   -0.39651E+08         0.33749E+06         0.00000E+00
    0.33749E+06        -0.97605E+08         0.00000E+00
    0.00000E+00         0.00000E+00        -0.39580E+08
 
   -0.39490E+08         0.33202E+06         0.00000E+00
    0.33202E+06        -0.97606E+08         0.00000E+00
    0.00000E+00         0.00000E+00        -0.39386E+08
 
   -0.39332E+08         0.32537E+06         0.00000E+00
    0.32537E+06        -0.97608E+08         0.00000E+00
    0.00000E+00         0.00000E+00        -0.39190E+08
 
   -0.39178E+08         0.31740E+06         0.00000E+00
    0.31740E+06        -0.97609E+08         0.00000E+00
    0.00000E+00         0.00000E+00        -0.38993E+08
 
   -0.39027E+08         0.30793E+06         0.00000E+00
    0.30793E+06        -0.97611E+08         0.00000E+00
    0.00000E+00         0.00000E+00        -0.38795E+08
 
   -0.38880E+08         0.29675E+06         0.00000E+00
    0.29675E+06        -0.97613E+08         0.00000E+00
    0.00000E+00         0.00000E+00        -0.38596E+08
 
   -0.38738E+08         0.28368E+06         0.00000E+00
    0.28368E+06        -0.97615E+08         0.00000E+00
    0.00000E+00         0.00000E+00        -0.38395E+08
 
   -0.38602E+08         0.26849E+06         0.00000E+00
    0.26849E+06        -0.97618E+08         0.00000E+00
    0.00000E+00         0.00000E+00        -0.38194E+08
 
   -0.38473E+08         0.25096E+06         0.00000E+00
    0.25096E+06        -0.97621E+08         0.00000E+00
    0.00000E+00         0.00000E+00        -0.37992E+08
 
   -0.38352E+08         0.23087E+06         0.00000E+00
    0.23087E+06        -0.97624E+08         0.00000E+00
    0.00000E+00         0.00000E+00        -0.37789E+08
 
   -0.38239E+08         0.20804E+06         0.00000E+00
    0.20804E+06        -0.97627E+08         0.00000E+00
    0.00000E+00         0.00000E+00        -0.37585E+08
 
   -0.38135E+08         0.18233E+06         0.00000E+00
    0.18233E+06        -0.97631E+08         0.00000E+00
    0.00000E+00         0.00000E+00        -0.37381E+08
 
   -0.38042E+08         0.15368E+06         0.00000E+00
    0.15368E+06        -0.97634E+08         0.00000E+00
    0.00000E+00         0.00000E+00        -0.37175E+08
 
   -0.37960E+08         0.12216E+06         0.00000E+00
    0.12216E+06        -0.97638E+08         0.00000E+00
    0.00000E+00         0.00000E+00        -0.36970E+08
 
   -0.37889E+08         0.88020E+05         0.00000E+00
    0.88020E+05        -0.97641E+08         0.00000E+00
    0.00000E+00         0.00000E+00        -0.36763E+08
 
   -0.37832E+08         0.51801E+05         0.00000E+00
    0.51801E+05        -0.97643E+08         0.00000E+00
    0.00000E+00         0.00000E+00        -0.36557E+08
 
   -0.37786E+08         0.14426E+05         0.00000E+00
    0.14426E+05        -0.97645E+08         0.00000E+00
    0.00000E+00         0.00000E+00        -0.36350E+08
 
   -0.37752E+08        -0.22591E+05         0.00000E+00
   -0.22591E+05        -0.97645E+08         0.00000E+00
    0.00000E+00         0.00000E+00        -0.36142E+08
 
   -0.37727E+08        -0.56793E+05         0.00000E+00
   -0.56793E+05        -0.97642E+08         0.00000E+00
    0.00000E+00         0.00000E+00        -0.35935E+08
 
   -0.37708E+08        -0.84005E+05         0.00000E+00
   -0.84005E+05        -0.97635E+08         0.00000E+00
    0.00000E+00         0.00000E+00        -0.35727E+08
 
   -0.37690E+08        -0.96463E+05         0.00000E+00
   -0.96463E+05        -0.97617E+08         0.00000E+00
    0.00000E+00         0.00000E+00        -0.35519E+08
 
   -0.37670E+08        -0.81878E+05         0.00000E+00
   -0.81878E+05        -0.97571E+08         0.00000E+00
    0.00000E+00         0.00000E+00        -0.35311E+08
 
   -0.37654E+08        -0.33062E+05         0.00000E+00
   -0.33062E+05        -0.97463E+08         0.00000E+00
    0.00000E+00         0.00000E+00        -0.35104E+08
 
   -0.48670E+08        -0.15374E+05         0.00000E+00
   -0.15374E+05        -0.97655E+08         0.00000E+00
    0.00000E+00         0.00000E+00        -0.49952E+08
 
   -0.48663E+08        -0.36998E+05         0.00000E+00
   -0.36998E+05        -0.97608E+08         0.00000E+00
    0.00000E+00         0.00000E+00        -0.49855E+08
 
   -0.48654E+08        -0.41453E+05         0.00000E+00
   -0.41453E+05        -0.97591E+08         0.00000E+00
    0.00000E+00         0.00000E+00        -0.49759E+08
 
   -0.48647E+08        -0.33459E+05         0.00000E+00
   -0.33459E+05        -0.97584E+08         0.00000E+00
    0.00000E+00         0.00000E+00        -0.49662E+08
 
   -0.48638E+08        -0.19274E+05         0.00000E+00
   -0.19274E+05        -0.97582E+08         0.00000E+00
    0.00000E+00         0.00000E+00        -0.49566E+08
 
   -0.48626E+08        -0.23333E+04         0.00000E+00
   -0.23333E+04        -0.97581E+08         0.00000E+00
    0.00000E+00         0.00000E+00        -0.49470E+08
 
   -0.48608E+08         0.15642E+05         0.00000E+00
    0.15642E+05        -0.97581E+08         0.00000E+00
    0.00000E+00         0.00000E+00        -0.49373E+08
 
   -0.48583E+08         0.33656E+05         0.00000E+00
    0.33656E+05        -0.97581E+08         0.00000E+00
    0.00000E+00         0.00000E+00        -0.49276E+08
 
   -0.48551E+08         0.51106E+05         0.00000E+00
    0.51106E+05        -0.97582E+08         0.00000E+00
    0.00000E+00         0.00000E+00        -0.49179E+08
 
   -0.48512E+08         0.67630E+05         0.00000E+00
    0.67630E+05        -0.97584E+08         0.00000E+00
    0.00000E+00         0.00000E+00        -0.49082E+08
 
   -0.48466E+08         0.83027E+05         0.00000E+00
    0.83027E+05        -0.97585E+08         0.00000E+00
    0.00000E+00         0.00000E+00        -0.48984E+08
 
   -0.48414E+08         0.97206E+05         0.00000E+00
    0.97206E+05        -0.97586E+08         0.00000E+00
    0.00000E+00         0.00000E+00        -0.48886E+08
 
   -0.48356E+08         0.11016E+06         0.00000E+00
    0.11016E+06        -0.97588E+08         0.00000E+00
    0.00000E+00         0.00000E+00        -0.48787E+08
 
   -0.48293E+08         0.12192E+06         0.00000E+00
    0.12192E+06        -0.97589E+08         0.00000E+00
    0.00000E+00         0.00000E+00        -0.48688E+08
 
   -0.48224E+08         0.13256E+06         0.00000E+00
    0.13256E+06        -0.97590E+08         0.00000E+00
    0.00000E+00         0.00000E+00        -0.48588E+08
 
   -0.48150E+08         0.14218E+06         0.00000E+00
    0.14218E+06        -0.97591E+08         0.00000E+00
    0.00000E+00         0.00000E+00        -0.48487E+08
 
   -0.48072E+08         0.15086E+06         0.00000E+00
    0.15086E+06        -0.97592E+08         0.00000E+00
    0.00000E+00         0.00000E+00        -0.48386E+08
 
   -0.47990E+08         0.15873E+06         0.00000E+00
    0.15873E+06        -0.97593E+08         0.00000E+00
    0.00000E+00         0.00000E+00        -0.48284E+08
 
   -0.47904E+08         0.16586E+06         0.00000E+00
    0.16586E+06        -0.97593E+08         0.00000E+00
    0.00000E+00         0.00000E+00        -0.48181E+08
 
   -0.47815E+08         0.17236E+06         0.00000E+00
    0.17236E+06        -0.97594E+08         0.00000E+00
    0.00000E+00         0.00000E+00        -0.48078E+08
 
   -0.47723E+08         0.17830E+06         0.00000E+00
    0.17830E+06        -0.97595E+08         0.00000E+00
    0.00000E+00         0.00000E+00        -0.47973E+08
 
   -0.47628E+08         0.18377E+06         0.00000E+00
    0.18377E+06        -0.97595E+08         0.00000E+00
    0.00000E+00         0.00000E+00        -0.47868E+08
 
   -0.47530E+08         0.18884E+06         0.00000E+00
    0.18884E+06        -0.97595E+08         0.00000E+00
    0.00000E+00         0.00000E+00        -0.47762E+08
 
   -0.47430E+08         0.19356E+06         0.00000E+00
    0.19356E+06        -0.97596E+08         0.00000E+00
    0.00000E+00         0.00000E+00        -0.47654E+08
 
   -0.47327E+08         0.19798E+06         0.00000E+00
    0.19798E+06        -0.97596E+08         0.00000E+00
    0.00000E+00         0.00000E+00        -0.47546E+08
 
   -0.47222E+08         0.20215E+06         0.00000E+00
    0.20215E+06        -0.97596E+08         0.00000E+00
    0.00000E+00         0.00000E+00        -0.47436E+08
 
   -0.47115E+08         0.20612E+06         0.00000E+00
    0.20612E+06        -0.97596E+08         0.00000E+00
    0.00000E+00         0.00000E+00        -0.47326E+08
 
   -0.47006E+08         0.20991E+06         0.00000E+00
    0.20991E+06        -0.97596E+08         0.00000E+00
    0.00000E+00         0.00000E+00        -0.47214E+08
 
   -0.46895E+08         0.21355E+06         0.00000E+00
    0.21355E+06        -0.97597E+08         0.00000E+00
    0.00000E+00         0.00000E+00        -0.47101E+08
 
   -0.46782E+08         0.21707E+06         0.00000E+00
    0.21707E+06        -0.97597E+08         0.00000E+00
    0.00000E+00         0.00000E+00        -0.46986E+08
 
   -0.46667E+08         0.22049E+06         0.00000E+00
    0.22049E+06        -0.97597E+08         0.00000E+00
    0.00000E+00         0.00000E+00        -0.46871E+08
 
   -0.46551E+08         0.22382E+06         0.00000E+00
    0.22382E+06        -0.97597E+08         0.00000E+00
    0.00000E+00         0.00000E+00        -0.46754E+08
 
   -0.46432E+08         0.22708E+06         0.00000E+00
    0.22708E+06        -0.97597E+08         0.00000E+00
    0.00000E+00         0.00000E+00        -0.46635E+08
 
   -0.46312E+08         0.23029E+06         0.00000E+00
    0.23029E+06        -0.97597E+08         0.00000E+00
    0.00000E+00         0.00000E+00        -0.46515E+08
 
   -0.46191E+08         0.23345E+06         0.00000E+00
    0.23345E+06        -0.97597E+08         0.00000E+00
    0.00000E+00         0.00000E+00        -0.46394E+08
 
   -0.46067E+08         0.23658E+06         0.00000E+00
    0.23658E+06        -0.97597E+08         0.00000E+00
    0.00000E+00         0.00000E+00        -0.46271E+08
 
   -0.45942E+08         0.23967E+06         0.00000E+00
    0.23967E+06        -0.97597E+08         0.00000E+00
    0.00000E+00         0.00000E+00        -0.46147E+08
 
   -0.45816E+08         0.24274E+06         0.00000E+00
    0.24274E+06        -0.97597E+08         0.00000E+00
    0.00000E+00         0.00000E+00        -0.46021E+08
 
   -0.45687E+08         0.24579E+06         0.00000E+00
    0.24579E+06        -0.97597E+08         0.00000E+00
    0.00000E+00         0.00000E+00        -0.45894E+08
 
   -0.45557E+08         0.24883E+06         0.00000E+00
    0.24883E+06        -0.97597E+08         0.00000E+00
    0.00000E+00         0.00000E+00        -0.45765E+08
 
   -0.45426E+08         0.25185E+06         0.00000E+00
    0.25185E+06        -0.97597E+08         0.00000E+00
    0.00000E+00         0.00000E+00        -0.45635E+08
 
   -0.45293E+08         0.25485E+06         0.00000E+00
    0.25485E+06        -0.97597E+08         0.00000E+00
    0.00000E+00         0.00000E+00        -0.45503E+08
 
   -0.45158E+08         0.25785E+06         0.00000E+00
    0.25785E+06        -0.97597E+08         0.00000E+00
    0.00000E+00         0.00000E+00        -0.45369E+08
 
   -0.45022E+08         0.26083E+06         0.00000E+00
    0.26083E+06        -0.97597E+08         0.00000E+00
    0.00000E+00         0.00000E+00        -0.45233E+08
 
   -0.44884E+08         0.26381E+06         0.00000E+00
    0.26381E+06        -0.97597E+08         0.00000E+00
    0.00000E+00         0.00000E+00        -0.45096E+08
 
   -0.44745E+08         0.26677E+06         0.00000E+00
    0.26677E+06        -0.97597E+08         0.00000E+00
    0.00000E+00         0.00000E+00        -0.44957E+08
 
   -0.44603E+08         0.26971E+06         0.00000E+00
    0.26971E+06        -0.97597E+08         0.00000E+00
    0.00000E+00         0.00000E+00        -0.44816E+08
 
   -0.44461E+08         0.27264E+06         0.00000E+00
    0.27264E+06        -0.97597E+08         0.00000E+00
    0.00000E+00         0.00000E+00        -0.44674E+08
 
   -0.44317E+08         0.27555E+06         0.00000E+00
    0.27555E+06        -0.97597E+08         0.00000E+00
    0.00000E+00         0.00000E+00        -0.44530E+08
 
   -0.44171E+08         0.27843E+06         0.00000E+00
    0.27843E+06        -0.97597E+08         0.00000E+00
    0.00000E+00         0.00000E+00        -0.44384E+08
 
   -0.44024E+08         0.28129E+06         0.00000E+00
    0.28129E+06        -0.97597E+08         0.00000E+00
    0.00000E+00         0.00000E+00        -0.44236E+08
 
   -0.43875E+08         0.28411E+06         0.00000E+00
    0.28411E+06        -0.97597E+08         0.00000E+00
    0.00000E+00         0.00000E+00        -0.44086E+08
 
   -0.43725E+08         0.28690E+06         0.00000E+00
    0.28690E+06        -0.97597E+08         0.00000E+00
    0.00000E+00         0.00000E+00        -0.43935E+08
 
   -0.43573E+08         0.28964E+06         0.00000E+00
    0.28964E+06        -0.97597E+08         0.00000E+00
    0.00000E+00         0.00000E+00        -0.43782E+08
 
   -0.43420E+08         0.29233E+06         0.00000E+00
    0.29233E+06        -0.97597E+08         0.00000E+00
    0.00000E+00         0.00000E+00        -0.43627E+08
 
   -0.43266E+08         0.29496E+06         0.00000E+00
    0.29496E+06        -0.97597E+08         0.00000E+00
    0.00000E+00         0.00000E+00        -0.43470E+08
 
   -0.43110E+08         0.29753E+06         0.00000E+00
    0.29753E+06        -0.97598E+08         0.00000E+00
    0.00000E+00         0.00000E+00        -0.43311E+08
 
   -0.42952E+08         0.30003E+06         0.00000E+00
    0.30003E+06        -0.97598E+08         0.00000E+00
    0.00000E+00         0.00000E+00        -0.43151E+08
 
   -0.42794E+08         0.30244E+06         0.00000E+00
    0.30244E+06        -0.97598E+08         0.00000E+00
    0.00000E+00         0.00000E+00        -0.42988E+08
 
   -0.42634E+08         0.30475E+06         0.00000E+00
    0.30475E+06        -0.97598E+08         0.00000E+00
    0.00000E+00         0.00000E+00        -0.42824E+08
 
   -0.42473E+08         0.30696E+06         0.00000E+00
    0.30696E+06        -0.97598E+08         0.00000E+00
    0.00000E+00         0.00000E+00        -0.42658E+08
 
   -0.42310E+08         0.30904E+06         0.00000E+00
    0.30904E+06        -0.97598E+08         0.00000E+00
    0.00000E+00         0.00000E+00        -0.42491E+08
 
   -0.42147E+08         0.31099E+06         0.00000E+00
    0.31099E+06        -0.97598E+08         0.00000E+00
    0.00000E+00         0.00000E+00        -0.42321E+08
 
   -0.41983E+08         0.31279E+06         0.00000E+00
    0.31279E+06        -0.97598E+08         0.00000E+00
    0.00000E+00         0.00000E+00        -0.42150E+08
 
   -0.41817E+08         0.31441E+06         0.00000E+00
    0.31441E+06        -0.97599E+08         0.00000E+00
    0.00000E+00         0.00000E+00        -0.41977E+08
 
   -0.41651E+08         0.31584E+06         0.00000E+00
    0.31584E+06        -0.97599E+08         0.00000E+00
    0.00000E+00         0.00000E+00        -0.41802E+08
 
   -0.41484E+08         0.31706E+06         0.00000E+00
    0.31706E+06        -0.97599E+08         0.00000E+00
    0.00000E+00         0.00000E+00        -0.41626E+08
 
   -0.41317E+08         0.31803E+06         0.00000E+00
    0.31803E+06        -0.97599E+08         0.00000E+00
    0.00000E+00         0.00000E+00        -0.41448E+08
 
   -0.41149E+08         0.31873E+06         0.00000E+00
    0.31873E+06        -0.97599E+08         0.00000E+00
    0.00000E+00         0.00000E+00        -0.41268E+08
 
   -0.40981E+08         0.31912E+06         0.00000E+00
    0.31912E+06        -0.97600E+08         0.00000E+00
    0.00000E+00         0.00000E+00        -0.41086E+08
 
   -0.40813E+08         0.31917E+06         0.00000E+00
    0.31917E+06        -0.97600E+08         0.00000E+00
    0.00000E+00         0.00000E+00        -0.40903E+08
 
   -0.40644E+08         0.31882E+06         0.00000E+00
    0.31882E+06        -0.97600E+08         0.00000E+00
    0.00000E+00         0.00000E+00        -0.40719E+08
 
   -0.40476E+08         0.31804E+06         0.00000E+00
    0.31804E+06        -0.97601E+08         0.00000E+00
    0.00000E+00         0.00000E+00        -0.40533E+08
 
   -0.40309E+08         0.31676E+06         0.00000E+00
    0.31676E+06        -0.97601E+08         0.00000E+00
    0.00000E+00         0.00000E+00        -0.40345E+08
 
   -0.40142E+08         0.31491E+06         0.00000E+00
    0.31491E+06        -0.97602E+08         0.00000E+00
    0.00000E+00         0.00000E+00        -0.40156E+08
 
   -0.39976E+08         0.31242E+06         0.00000E+00
    0.31242E+06        -0.97603E+08         0.00000E+00
    0.00000E+00         0.00000E+00        -0.39965E+08
 
   -0.39812E+08         0.30921E+06         0.00000E+00
    0.30921E+06        -0.97603E+08         0.00000E+00
    0.00000E+00         0.00000E+00        -0.39774E+08
 
   -0.39649E+08         0.30516E+06         0.00000E+00
    0.30516E+06        -0.97604E+08         0.00000E+00
    0.00000E+00         0.00000E+00        -0.39580E+08
 
   -0.39489E+08         0.30017E+06         0.00000E+00
    0.30017E+06        -0.97605E+08         0.00000E+00
    0.00000E+00         0.00000E+00        -0.39386E+08
 
   -0.39332E+08         0.29411E+06         0.00000E+00
    0.29411E+06        -0.97606E+08         0.00000E+00
    0.00000E+00         0.00000E+00        -0.39190E+08
 
   -0.39177E+08         0.28684E+06         0.00000E+00
    0.28684E+06        -0.97608E+08         0.00000E+00
    0.00000E+00         0.00000E+00        -0.38993E+08
 
   -0.39027E+08         0.27818E+06         0.00000E+00
    0.27818E+06        -0.97609E+08         0.00000E+00
    0.00000E+00         0.00000E+00        -0.38795E+08
 
   -0.38881E+08         0.26797E+06         0.00000E+00
    0.26797E+06        -0.97611E+08         0.00000E+00
    0.00000E+00         0.00000E+00        -0.38596E+08
 
   -0.38740E+08         0.25601E+06         0.00000E+00
    0.25601E+06        -0.97613E+08         0.00000E+00
    0.00000E+00         0.00000E+00        -0.38395E+08
 
   -0.38605E+08         0.24209E+06         0.00000E+00
    0.24209E+06        -0.97615E+08         0.00000E+00
    0.00000E+00         0.00000E+00        -0.38194E+08
 
   -0.38477E+08         0.22600E+06         0.00000E+00
    0.22600E+06        -0.97617E+08         0.00000E+00
    0.00000E+00         0.00000E+00        -0.37992E+08
 
   -0.38357E+08         0.20755E+06         0.00000E+00
    0.20755E+06        -0.97620E+08         0.00000E+00
    0.00000E+00         0.00000E+00        -0.37789E+08
 
   -0.38246E+08         0.18655E+06         0.00000E+00
    0.18655E+06        -0.97622E+08         0.00000E+00
    0.00000E+00         0.00000E+00        -0.37585E+08
 
   -0.38145E+08         0.16286E+06         0.00000E+00
    0.16286E+06        -0.97625E+08         0.00000E+00
    0.00000E+00         0.00000E+00        -0.37381E+08
 
   -0.38054E+08         0.13642E+06         0.00000E+00
    0.13642E+06        -0.97628E+08         0.00000E+00
    0.00000E+00         0.00000E+00        -0.37175E+08
 
   -0.37975E+08         0.10727E+06         0.00000E+00
    0.10727E+06        -0.97631E+08         0.00000E+00
    0.00000E+00         0.00000E+00        -0.36970E+08
 
   -0.37909E+08         0.75627E+05         0.00000E+00
    0.75627E+05        -0.97634E+08         0.00000E+00
    0.00000E+00         0.00000E+00        -0.36763E+08
 
   -0.37856E+08         0.41956E+05         0.00000E+00
    0.41956E+05        -0.97636E+08         0.00000E+00
    0.00000E+00         0.00000E+00        -0.36557E+08
 
   -0.37816E+08         0.70629E+04         0.00000E+00
    0.70629E+04        -0.97638E+08         0.00000E+00
    0.00000E+00         0.00000E+00        -0.36350E+08
 
   -0.37788E+08        -0.27723E+05         0.00000E+00
   -0.27723E+05        -0.97638E+08         0.00000E+00
    0.00000E+00         0.00000E+00        -0.36142E+08
 
   -0.37770E+08        -0.60227E+05         0.00000E+00
   -0.60227E+05        -0.97636E+08         0.00000E+00
    0.00000E+00         0.00000E+00        -0.35935E+08
 
   -0.37760E+08        -0.86718E+05         0.00000E+00
   -0.86718E+05        -0.97630E+08         0.00000E+00
    0.00000E+00         0.00000E+00        -0.35727E+08
 
   -0.37750E+08        -0.99794E+05         0.00000E+00
   -0.99794E+05        -0.97616E+08         0.00000E+00
    0.00000E+00         0.00000E+00        -0.35519E+08
 
   -0.37735E+08        -0.86007E+05         0.00000E+00
   -0.86007E+05        -0.97578E+08         0.00000E+00
    0.00000E+00         0.00000E+00        -0.35311E+08
 
   -0.37721E+08        -0.35231E+05         0.00000E+00
   -0.35231E+05        -0.97476E+08         0.00000E+00
    0.00000E+00         0.00000E+00        -0.35104E+08
 
   -0.48637E+08        -0.16420E+05         0.00000E+00
   -0.16420E+05        -0.97649E+08         0.00000E+00
    0.00000E+00         0.00000E+00        -0.49952E+08
 
   -0.48631E+08        -0.38805E+05         0.00000E+00
   -0.38805E+05        -0.97606E+08         0.00000E+00
    0.00000E+00         0.00000E+00        -0.49855E+08
 
   -0.48625E+08        -0.42715E+05         0.00000E+00
   -0.42715E+05        -0.97591E+08         0.00000E+00
    0.00000E+00         0.00000E+00        -0.49759E+08
 
   -0.48622E+08        -0.34533E+05         0.00000E+00
   -0.34533E+05        -0.97586E+08         0.00000E+00
    0.00000E+00         0.00000E+00        -0.49662E+08
 
   -0.48618E+08        -0.20933E+05         0.00000E+00
   -0.20933E+05        -0.97585E+08         0.00000E+00
    0.00000E+00         0.00000E+00        -0.49566E+08
 
   -0.48609E+08        -0.50554E+04         0.00000E+00
   -0.50554E+04        -0.97584E+08         0.00000E+00
    0.00000E+00         0.00000E+00        -0.49470E+08
 
   -0.48593E+08         0.11610E+05         0.00000E+00
    0.11610E+05        -0.97584E+08         0.00000E+00
    0.00000E+00         0.00000E+00        -0.49373E+08
 
   -0.48571E+08         0.28205E+05         0.00000E+00
    0.28205E+05        -0.97585E+08         0.00000E+00
    0.00000E+00         0.00000E+00        -0.49276E+08
 
   -0.48541E+08         0.44211E+05         0.00000E+00
    0.44211E+05        -0.97586E+08         0.00000E+00
    0.00000E+00         0.00000E+00        -0.49179E+08
 
   -0.48504E+08         0.59321E+05         0.00000E+00
    0.59321E+05        -0.97587E+08         0.00000E+00
    0.00000E+00         0.00000E+00        -0.49082E+08
 
   -0.48459E+08         0.73365E+05         0.00000E+00
    0.73365E+05        -0.97588E+08         0.00000E+00
    0.00000E+00         0.00000E+00        -0.48984E+08
 
   -0.48408E+08         0.86272E+05         0.00000E+00
    0.86272E+05        -0.97589E+08         0.00000E+00
    0.00000E+00         0.00000E+00        -0.48886E+08
 
   -0.48351E+08         0.98037E+05         0.00000E+00
    0.98037E+05        -0.97590E+08         0.00000E+00
    0.00000E+00         0.00000E+00        -0.48787E+08
 
   -0.48288E+08         0.10870E+06         0.00000E+00
    0.10870E+06        -0.97591E+08         0.00000E+00
    0.00000E+00         0.00000E+00        -0.48688E+08
 
   -0.48220E+08         0.11834E+06         0.00000E+00
    0.11834E+06        -0.97592E+08         0.00000E+00
    0.00000E+00         0.00000E+00        -0.48588E+08
 
   -0.48146E+08         0.12703E+06         0.00000E+00
    0.12703E+06        -0.97593E+08         0.00000E+00
    0.00000E+00         0.00000E+00        -0.48487E+08
 
   -0.48069E+08         0.13487E+06         0.00000E+00
    0.13487E+06        -0.97593E+08         0.00000E+00
    0.00000E+00         0.00000E+00        -0.48386E+08
 
   -0.47987E+08         0.14196E+06         0.00000E+00
    0.14196E+06        -0.97594E+08         0.00000E+00
    0.00000E+00         0.00000E+00        -0.48284E+08
 
   -0.47901E+08         0.14838E+06         0.00000E+00
    0.14838E+06        -0.97595E+08         0.00000E+00
    0.00000E+00         0.00000E+00        -0.48181E+08
 
   -0.47812E+08         0.15422E+06         0.00000E+00
    0.15422E+06        -0.97595E+08         0.00000E+00
    0.00000E+00         0.00000E+00        -0.48078E+08
 
   -0.47720E+08         0.15957E+06         0.00000E+00
    0.15957E+06        -0.97596E+08         0.00000E+00
    0.00000E+00         0.00000E+00        -0.47973E+08
 
   -0.47625E+08         0.16448E+06         0.00000E+00
    0.16448E+06        -0.97596E+08         0.00000E+00
    0.00000E+00         0.00000E+00        -0.47868E+08
 
   -0.47527E+08         0.16902E+06         0.00000E+00
    0.16902E+06        -0.97596E+08         0.00000E+00
    0.00000E+00         0.00000E+00        -0.47762E+08
 
   -0.47427E+08         0.17325E+06         0.00000E+00
    0.17325E+06        -0.97596E+08         0.00000E+00
    0.00000E+00         0.00000E+00        -0.47654E+08
 
   -0.47324E+08         0.17721E+06         0.00000E+00
    0.17721E+06        -0.97597E+08         0.00000E+00
    0.00000E+00         0.00000E+00        -0.47546E+08
 
   -0.47219E+08         0.18095E+06         0.00000E+00
    0.18095E+06        -0.97597E+08         0.00000E+00
    0.00000E+00         0.00000E+00        -0.47436E+08
 
   -0.47112E+08         0.18450E+06         0.00000E+00
    0.18450E+06        -0.97597E+08         0.00000E+00
    0.00000E+00         0.00000E+00        -0.47326E+08
 
   -0.47003E+08         0.18789E+06         0.00000E+00
    0.18789E+06        -0.97597E+08         0.00000E+00
    0.00000E+00         0.00000E+00        -0.47214E+08
 
   -0.46892E+08         0.19114E+06         0.00000E+00
    0.19114E+06        -0.97597E+08         0.00000E+00
    0.00000E+00         0.00000E+00        -0.47101E+08
 
   -0.46779E+08         0.19429E+06         0.00000E+00
    0.19429E+06        -0.97597E+08         0.00000E+00
    0.00000E+00         0.00000E+00        -0.46986E+08
 
   -0.46664E+08         0.19735E+06         0.00000E+00
    0.19735E+06        -0.97597E+08         0.00000E+00
    0.00000E+00         0.00000E+00        -0.46871E+08
 
   -0.46547E+08         0.20033E+06         0.00000E+00
    0.20033E+06        -0.97597E+08         0.00000E+00
    0.00000E+00         0.00000E+00        -0.46754E+08
 
   -0.46429E+08         0.20325E+06         0.00000E+00
    0.20325E+06        -0.97598E+08         0.00000E+00
    0.00000E+00         0.00000E+00        -0.46635E+08
 
   -0.46309E+08         0.20611E+06         0.00000E+00
    0.20611E+06        -0.97598E+08         0.00000E+00
    0.00000E+00         0.00000E+00        -0.46515E+08
 
   -0.46187E+08         0.20894E+06         0.00000E+00
    0.20894E+06        -0.97598E+08         0.00000E+00
    0.00000E+00         0.00000E+00        -0.46394E+08
 
   -0.46064E+08         0.21173E+06         0.00000E+00
    0.21173E+06        -0.97598E+08         0.00000E+00
    0.00000E+00         0.00000E+00        -0.46271E+08
 
   -0.45939E+08         0.21450E+06         0.00000E+00
    0.21450E+06        -0.97598E+08         0.00000E+00
    0.00000E+00         0.00000E+00        -0.46147E+08
 
   -0.45812E+08         0.21724E+06         0.00000E+00
    0.21724E+06        -0.97598E+08         0.00000E+00
    0.00000E+00         0.00000E+00        -0.46021E+08
 
   -0.45684E+08         0.21997E+06         0.00000E+00
    0.21997E+06        -0.97598E+08         0.00000E+00
    0.00000E+00         0.00000E+00        -0.45894E+08
 
   -0.45554E+08         0.22268E+06         0.00000E+00
    0.22268E+06        -0.97598E+08         0.00000E+00
    0.00000E+00         0.00000E+00        -0.45765E+08
 
   -0.45422E+08         0.22538E+06         0.00000E+00
    0.22538E+06        -0.97598E+08         0.00000E+00
    0.00000E+00         0.00000E+00        -0.45635E+08
 
   -0.45289E+08         0.22807E+06         0.00000E+00
    0.22807E+06        -0.97598E+08         0.00000E+00
    0.00000E+00         0.00000E+00        -0.45503E+08
 
   -0.45154E+08         0.23075E+06         0.00000E+00
    0.23075E+06        -0.97598E+08         0.00000E+00
    0.00000E+00         0.00000E+00        -0.45369E+08
 
   -0.45018E+08         0.23341E+06         0.00000E+00
    0.23341E+06        -0.97598E+08         0.00000E+00
    0.00000E+00         0.00000E+00        -0.45233E+08
 
   -0.44880E+08         0.23607E+06         0.00000E+00
    0.23607E+06        -0.97598E+08         0.00000E+00
    0.00000E+00         0.00000E+00        -0.45096E+08
 
   -0.44741E+08         0.23872E+06         0.00000E+00
    0.23872E+06        -0.97598E+08         0.00000E+00
    0.00000E+00         0.00000E+00        -0.44957E+08
 
   -0.44599E+08         0.24135E+06         0.00000E+00
    0.24135E+06        -0.97598E+08         0.00000E+00
    0.00000E+00         0.00000E+00        -0.44816E+08
 
   -0.44457E+08         0.24396E+06         0.00000E+00
    0.24396E+06        -0.97598E+08         0.00000E+00
    0.00000E+00         0.00000E+00        -0.44674E+08
 
   -0.44313E+08         0.24656E+06         0.00000E+00
    0.24656E+06        -0.97598E+08         0.00000E+00
    0.00000E+00         0.00000E+00        -0.44530E+08
 
   -0.44167E+08         0.24914E+06         0.00000E+00
    0.24914E+06        -0.97598E+08         0.00000E+00
    0.00000E+00         0.00000E+00        -0.44384E+08
 
   -0.44020E+08         0.25169E+06         0.00000E+00
    0.25169E+06        -0.97598E+08         0.00000E+00
    0.00000E+00         0.00000E+00        -0.44236E+08
 
   -0.43871E+08         0.25421E+06         0.00000E+00
    0.25421E+06        -0.97598E+08         0.00000E+00
    0.00000E+00         0.00000E+00        -0.44086E+08
 
   -0.43721E+08         0.25670E+06         0.00000E+00
    0.25670E+06        -0.97598E+08         0.00000E+00
    0.00000E+00         0.00000E+00        -0.43935E+08
 
   -0.43569E+08         0.25915E+06         0.00000E+00
    0.25915E+06        -0.97598E+08         0.00000E+00
    0.00000E+00         0.00000E+00        -0.43782E+08
 
   -0.43416E+08         0.26156E+06         0.00000E+00
    0.26156E+06        -0.97598E+08         0.00000E+00
    0.00000E+00         0.00000E+00        -0.43627E+08
 
   -0.43261E+08         0.26391E+06         0.00000E+00
    0.26391E+06        -0.97598E+08         0.00000E+00
    0.00000E+00         0.00000E+00        -0.43470E+08
 
   -0.43105E+08         0.26621E+06         0.00000E+00
    0.26621E+06        -0.97598E+08         0.00000E+00
    0.00000E+00         0.00000E+00        -0.43311E+08
 
   -0.42948E+08         0.26843E+06         0.00000E+00
    0.26843E+06        -0.97598E+08         0.00000E+00
    0.00000E+00         0.00000E+00        -0.43151E+08
 
   -0.42790E+08         0.27059E+06         0.00000E+00
    0.27059E+06        -0.97598E+08         0.00000E+00
    0.00000E+00         0.00000E+00        -0.42988E+08
 
   -0.42630E+08         0.27265E+06         0.00000E+00
    0.27265E+06        -0.97598E+08         0.00000E+00
    0.00000E+00         0.00000E+00        -0.42824E+08
 
   -0.42469E+08         0.27462E+06         0.00000E+00
    0.27462E+06        -0.97598E+08         0.00000E+00
    0.00000E+00         0.00000E+00        -0.42658E+08
 
   -0.42306E+08         0.27648E+06         0.00000E+00
    0.27648E+06        -0.97598E+08         0.00000E+00
    0.00000E+00         0.00000E+00        -0.42491E+08
 
   -0.42143E+08         0.27822E+06         0.00000E+00
    0.27822E+06        -0.97599E+08         0.00000E+00
    0.00000E+00         0.00000E+00        -0.42321E+08
 
   -0.41979E+08         0.27983E+06         0.00000E+00
    0.27983E+06        -0.97599E+08         0.00000E+00
    0.00000E+00         0.00000E+00        -0.42150E+08
 
   -0.41814E+08         0.28128E+06         0.00000E+00
    0.28128E+06        -0.97599E+08         0.00000E+00
    0.00000E+00         0.00000E+00        -0.41977E+08
 
   -0.41648E+08         0.28255E+06         0.00000E+00
    0.28255E+06        -0.97599E+08         0.00000E+00
    0.00000E+00         0.00000E+00        -0.41802E+08
 
   -0.41481E+08         0.28364E+06         0.00000E+00
    0.28364E+06        -0.97599E+08         0.00000E+00
    0.00000E+00         0.00000E+00        -0.41626E+08
 
   -0.41314E+08         0.28450E+06         0.00000E+00
    0.28450E+06        -0.97599E+08         0.00000E+00
    0.00000E+00         0.00000E+00        -0.41448E+08
 
   -0.41146E+08         0.28512E+06         0.00000E+00
    0.28512E+06        -0.97600E+08         0.00000E+00
    0.00000E+00         0.00000E+00        -0.41268E+08
 
   -0.40978E+08         0.28547E+06         0.00000E+00
    0.28547E+06        -0.97600E+08         0.00000E+00
    0.00000E+00         0.00000E+00        -0.41086E+08
 
   -0.40809E+08         0.28551E+06         0.00000E+00
    0.28551E+06        -0.97600E+08         0.00000E+00
    0.00000E+00         0.00000E+00        -0.40903E+08
 
   -0.40641E+08         0.28519E+06         0.00000E+00
    0.28519E+06        -0.97600E+08         0.00000E+00
    0.00000E+00         0.00000E+00        -0.40719E+08
 
   -0.40473E+08         0.28449E+06         0.00000E+00
    0.28449E+06        -0.97601E+08         0.00000E+00
    0.00000E+00         0.00000E+00        -0.40533E+08
 
   -0.40306E+08         0.28333E+06         0.00000E+00
    0.28333E+06        -0.97601E+08         0.00000E+00
    0.00000E+00         0.00000E+00        -0.40345E+08
 
   -0.40139E+08         0.28167E+06         0.00000E+00
    0.28167E+06        -0.97602E+08         0.00000E+00
    0.00000E+00         0.00000E+00        -0.40156E+08
 
   -0.39974E+08         0.27943E+06         0.00000E+00
    0.27943E+06        -0.97602E+08         0.00000E+00
    0.00000E+00         0.00000E+00        -0.39965E+08
 
   -0.39810E+08         0.27654E+06         0.00000E+00
    0.27654E+06        -0.97603E+08         0.00000E+00
    0.00000E+00         0.00000E+00        -0.39774E+08
 
   -0.39648E+08         0.27289E+06         0.00000E+00
    0.27289E+06        -0.97603E+08         0.00000E+00
    0.00000E+00         0.00000E+00        -0.39580E+08
 
   -0.39488E+08         0.26840E+06         0.00000E+00
    0.26840E+06        -0.97604E+08         0.00000E+00
    0.00000E+00         0.00000E+00        -0.39386E+08
 
   -0.39330E+08         0.26294E+06         0.00000E+00
    0.26294E+06        -0.97605E+08         0.00000E+00
    0.00000E+00         0.00000E+00        -0.39190E+08
 
   -0.39176E+08         0.25638E+06         0.00000E+00
    0.25638E+06        -0.97606E+08         0.00000E+00
    0.00000E+00         0.00000E+00        -0.38993E+08
 
   -0.39026E+08         0.24856E+06         0.00000E+00
    0.24856E+06        -0.97607E+08         0.00000E+00
    0.00000E+00         0.00000E+00        -0.38795E+08
 
   -0.38881E+08         0.23933E+06         0.00000E+00
    0.23933E+06        -0.97609E+08         0.00000E+00
    0.00000E+00         0.00000E+00        -0.38596E+08
 
   -0.38741E+08         0.22851E+06         0.00000E+00
    0.22851E+06        -0.97610E+08         0.00000E+00
    0.00000E+00         0.00000E+00        -0.38395E+08
 
   -0.38607E+08         0.21590E+06         0.00000E+00
    0.21590E+06        -0.97612E+08         0.00000E+00
    0.00000E+00         0.00000E+00        -0.38194E+08
 
   -0.38480E+08         0.20131E+06         0.00000E+00
    0.20131E+06        -0.97614E+08         0.00000E+00
    0.00000E+00         0.00000E+00        -0.37992E+08
 
   -0.38362E+08         0.18456E+06         0.00000E+00
    0.18456E+06        -0.97616E+08         0.00000E+00
    0.00000E+00         0.00000E+00        -0.37789E+08
 
   -0.38252E+08         0.16546E+06         0.00000E+00
    0.16546E+06        -0.97618E+08         0.00000E+00
    0.00000E+00         0.00000E+00        -0.37585E+08
 
   -0.38153E+08         0.14388E+06         0.00000E+00
    0.14388E+06        -0.97621E+08         0.00000E+00
    0.00000E+00         0.00000E+00        -0.37381E+08
 
   -0.38065E+08         0.11975E+06         0.00000E+00
    0.11975E+06        -0.97623E+08         0.00000E+00
    0.00000E+00         0.00000E+00        -0.37175E+08
 
   -0.37990E+08         0.93092E+05         0.00000E+00
    0.93092E+05        -0.97625E+08         0.00000E+00
    0.00000E+00         0.00000E+00        -0.36970E+08
 
   -0.37927E+08         0.64089E+05         0.00000E+00
    0.64089E+05        -0.97628E+08         0.00000E+00
    0.00000E+00         0.00000E+00        -0.36763E+08
 
   -0.37879E+08         0.33127E+05         0.00000E+00
    0.33127E+05        -0.97630E+08         0.00000E+00
    0.00000E+00         0.00000E+00        -0.36557E+08
 
   -0.37844E+08         0.89710E+03         0.00000E+00
    0.89710E+03        -0.97631E+08         0.00000E+00
    0.00000E+00         0.00000E+00        -0.36350E+08
 
   -0.37823E+08        -0.31459E+05         0.00000E+00
   -0.31459E+05        -0.97631E+08         0.00000E+00
    0.00000E+00         0.00000E+00        -0.36142E+08
 
   -0.37813E+08        -0.62060E+05         0.00000E+00
   -0.62060E+05        -0.97630E+08         0.00000E+00
    0.00000E+00         0.00000E+00        -0.35935E+08
 
   -0.37811E+08        -0.87676E+05         0.00000E+00
   -0.87676E+05        -0.97626E+08         0.00000E+00
    0.00000E+00         0.00000E+00        -0.35727E+08
 
   -0.37810E+08        -0.10153E+06         0.00000E+00
   -0.10153E+06        -0.97615E+08         0.00000E+00
    0.00000E+00         0.00000E+00        -0.35519E+08
 
   -0.37803E+08        -0.89299E+05         0.00000E+00
   -0.89299E+05        -0.97584E+08         0.00000E+00
    0.00000E+00         0.00000E+00        -0.35311E+08
 
   -0.37792E+08        -0.37279E+05         0.00000E+00
   -0.37279E+05        -0.97490E+08         0.00000E+00
    0.00000E+00         0.00000E+00        -0.35104E+08
 
   -0.48602E+08        -0.17394E+05         0.00000E+00
   -0.17394E+05        -0.97643E+08         0.00000E+00
    0.00000E+00         0.00000E+00        -0.49952E+08
 
   -0.48597E+08        -0.40117E+05         0.00000E+00
   -0.40117E+05        -0.97603E+08         0.00000E+00
    0.00000E+00         0.00000E+00        -0.49855E+08
 
   -0.48596E+08        -0.43114E+05         0.00000E+00
   -0.43114E+05        -0.97592E+08         0.00000E+00
    0.00000E+00         0.00000E+00        -0.49759E+08
 
   -0.48597E+08        -0.34726E+05         0.00000E+00
   -0.34726E+05        -0.97589E+08         0.00000E+00
    0.00000E+00         0.00000E+00        -0.49662E+08
 
   -0.48597E+08        -0.21828E+05         0.00000E+00
   -0.21828E+05        -0.97588E+08         0.00000E+00
    0.00000E+00         0.00000E+00        -0.49566E+08
 
   -0.48592E+08        -0.71329E+04         0.00000E+00
   -0.71329E+04        -0.97587E+08         0.00000E+00
    0.00000E+00         0.00000E+00        -0.49470E+08
 
   -0.48579E+08         0.81166E+04         0.00000E+00
    0.81166E+04        -0.97587E+08         0.00000E+00
    0.00000E+00         0.00000E+00        -0.49373E+08
 
   -0.48559E+08         0.23198E+05         0.00000E+00
    0.23198E+05        -0.97588E+08         0.00000E+00
    0.00000E+00         0.00000E+00        -0.49276E+08
 
   -0.48531E+08         0.37680E+05         0.00000E+00
    0.37680E+05        -0.97589E+08         0.00000E+00
    0.00000E+00         0.00000E+00        -0.49179E+08
 
   -0.48496E+08         0.51307E+05         0.00000E+00
    0.51307E+05        -0.97590E+08         0.00000E+00
    0.00000E+00         0.00000E+00        -0.49082E+08
 
   -0.48453E+08         0.63939E+05         0.00000E+00
    0.63939E+05        -0.97590E+08         0.00000E+00
    0.00000E+00         0.00000E+00        -0.48984E+08
 
   -0.48403E+08         0.75524E+05         0.00000E+00
    0.75524E+05        -0.97591E+08         0.00000E+00
    0.00000E+00         0.00000E+00        -0.48886E+08
 
   -0.48347E+08         0.86063E+05         0.00000E+00
    0.86063E+05        -0.97592E+08         0.00000E+00
    0.00000E+00         0.00000E+00        -0.48787E+08
 
   -0.48284E+08         0.95599E+05         0.00000E+00
    0.95599E+05        -0.97593E+08         0.00000E+00
    0.00000E+00         0.00000E+00        -0.48688E+08
 
   -0.48216E+08         0.10420E+06         0.00000E+00
    0.10420E+06        -0.97594E+08         0.00000E+00
    0.00000E+00         0.00000E+00        -0.48588E+08
 
   -0.48143E+08         0.11195E+06         0.00000E+00
    0.11195E+06        -0.97594E+08         0.00000E+00
    0.00000E+00         0.00000E+00        -0.48487E+08
 
   -0.48066E+08         0.11893E+06         0.00000E+00
    0.11893E+06        -0.97595E+08         0.00000E+00
    0.00000E+00         0.00000E+00        -0.48386E+08
 
   -0.47984E+08         0.12522E+06         0.00000E+00
    0.12522E+06        -0.97595E+08         0.00000E+00
    0.00000E+00         0.00000E+00        -0.48284E+08
 
   -0.47899E+08         0.13092E+06         0.00000E+00
    0.13092E+06        -0.97596E+08         0.00000E+00
    0.00000E+00         0.00000E+00        -0.48181E+08
 
   -0.47810E+08         0.13610E+06         0.00000E+00
    0.13610E+06        -0.97596E+08         0.00000E+00
    0.00000E+00         0.00000E+00        -0.48078E+08
 
   -0.47718E+08         0.14083E+06         0.00000E+00
    0.14083E+06        -0.97597E+08         0.00000E+00
    0.00000E+00         0.00000E+00        -0.47973E+08
 
   -0.47622E+08         0.14518E+06         0.00000E+00
    0.14518E+06        -0.97597E+08         0.00000E+00
    0.00000E+00         0.00000E+00        -0.47868E+08
 
   -0.47525E+08         0.14919E+06         0.00000E+00
    0.14919E+06        -0.97597E+08         0.00000E+00
    0.00000E+00         0.00000E+00        -0.47762E+08
 
   -0.47424E+08         0.15293E+06         0.00000E+00
    0.15293E+06        -0.97597E+08         0.00000E+00
    0.00000E+00         0.00000E+00        -0.47654E+08
 
   -0.47321E+08         0.15643E+06         0.00000E+00
    0.15643E+06        -0.97597E+08         0.00000E+00
    0.00000E+00         0.00000E+00        -0.47546E+08
 
   -0.47216E+08         0.15973E+06         0.00000E+00
    0.15973E+06        -0.97598E+08         0.00000E+00
    0.00000E+00         0.00000E+00        -0.47436E+08
 
   -0.47109E+08         0.16286E+06         0.00000E+00
    0.16286E+06        -0.97598E+08         0.00000E+00
    0.00000E+00         0.00000E+00        -0.47326E+08
 
   -0.47000E+08         0.16585E+06         0.00000E+00
    0.16585E+06        -0.97598E+08         0.00000E+00
    0.00000E+00         0.00000E+00        -0.47214E+08
 
   -0.46889E+08         0.16872E+06         0.00000E+00
    0.16872E+06        -0.97598E+08         0.00000E+00
    0.00000E+00         0.00000E+00        -0.47101E+08
 
   -0.46776E+08         0.17150E+06         0.00000E+00
    0.17150E+06        -0.97598E+08         0.00000E+00
    0.00000E+00         0.00000E+00        -0.46986E+08
 
   -0.46661E+08         0.17419E+06         0.00000E+00
    0.17419E+06        -0.97598E+08         0.00000E+00
    0.00000E+00         0.00000E+00        -0.46871E+08
 
   -0.46544E+08         0.17682E+06         0.00000E+00
    0.17682E+06        -0.97598E+08         0.00000E+00
    0.00000E+00         0.00000E+00        -0.46754E+08
 
   -0.46426E+08         0.17939E+06         0.00000E+00
    0.17939E+06        -0.97598E+08         0.00000E+00
    0.00000E+00         0.00000E+00        -0.46635E+08
 
   -0.46306E+08         0.18192E+06         0.00000E+00
    0.18192E+06        -0.97598E+08         0.00000E+00
    0.00000E+00         0.00000E+00        -0.46515E+08
 
   -0.46184E+08         0.18441E+06         0.00000E+00
    0.18441E+06        -0.97598E+08         0.00000E+00
    0.00000E+00         0.00000E+00        -0.46394E+08
 
   -0.46060E+08         0.18688E+06         0.00000E+00
    0.18688E+06        -0.97598E+08         0.00000E+00
    0.00000E+00         0.00000E+00        -0.46271E+08
 
   -0.45935E+08         0.18932E+06         0.00000E+00
    0.18932E+06        -0.97598E+08         0.00000E+00
    0.00000E+00         0.00000E+00        -0.46147E+08
 
   -0.45808E+08         0.19173E+06         0.00000E+00
    0.19173E+06        -0.97598E+08         0.00000E+00
    0.00000E+00         0.00000E+00        -0.46021E+08
 
   -0.45680E+08         0.19414E+06         0.00000E+00
    0.19414E+06        -0.97598E+08         0.00000E+00
    0.00000E+00         0.00000E+00        -0.45894E+08
 
   -0.45550E+08         0.19653E+06         0.00000E+00
    0.19653E+06        -0.97598E+08         0.00000E+00
    0.00000E+00         0.00000E+00        -0.45765E+08
 
   -0.45418E+08         0.19891E+06         0.00000E+00
    0.19891E+06        -0.97598E+08         0.00000E+00
    0.00000E+00         0.00000E+00        -0.45635E+08
 
   -0.45285E+08         0.20128E+06         0.00000E+00
    0.20128E+06        -0.97598E+08         0.00000E+00
    0.00000E+00         0.00000E+00        -0.45503E+08
 
   -0.45150E+08         0.20364E+06         0.00000E+00
    0.20364E+06        -0.97598E+08         0.00000E+00
    0.00000E+00         0.00000E+00        -0.45369E+08
 
   -0.45014E+08         0.20599E+06         0.00000E+00
    0.20599E+06        -0.97598E+08         0.00000E+00
    0.00000E+00         0.00000E+00        -0.45233E+08
 
   -0.44876E+08         0.20833E+06         0.00000E+00
    0.20833E+06        -0.97598E+08         0.00000E+00
    0.00000E+00         0.00000E+00        -0.45096E+08
 
   -0.44737E+08         0.21066E+06         0.00000E+00
    0.21066E+06        -0.97598E+08         0.00000E+00
    0.00000E+00         0.00000E+00        -0.44957E+08
 
   -0.44595E+08         0.21298E+06         0.00000E+00
    0.21298E+06        -0.97598E+08         0.00000E+00
    0.00000E+00         0.00000E+00        -0.44816E+08
 
   -0.44453E+08         0.21529E+06         0.00000E+00
    0.21529E+06        -0.97598E+08         0.00000E+00
    0.00000E+00         0.00000E+00        -0.44674E+08
 
   -0.44309E+08         0.21757E+06         0.00000E+00
    0.21757E+06        -0.97598E+08         0.00000E+00
    0.00000E+00         0.00000E+00        -0.44530E+08
 
   -0.44163E+08         0.21985E+06         0.00000E+00
    0.21985E+06        -0.97598E+08         0.00000E+00
    0.00000E+00         0.00000E+00        -0.44384E+08
 
   -0.44016E+08         0.22209E+06         0.00000E+00
    0.22209E+06        -0.97598E+08         0.00000E+00
    0.00000E+00         0.00000E+00        -0.44236E+08
 
   -0.43867E+08         0.22432E+06         0.00000E+00
    0.22432E+06        -0.97598E+08         0.00000E+00
    0.00000E+00         0.00000E+00        -0.44086E+08
 
   -0.43717E+08         0.22651E+06         0.00000E+00
    0.22651E+06        -0.97598E+08         0.00000E+00
    0.00000E+00         0.00000E+00        -0.43935E+08
 
   -0.43565E+08         0.22867E+06         0.00000E+00
    0.22867E+06        -0.97598E+08         0.00000E+00
    0.00000E+00         0.00000E+00        -0.43782E+08
 
   -0.43412E+08         0.23079E+06         0.00000E+00
    0.23079E+06        -0.97598E+08         0.00000E+00
    0.00000E+00         0.00000E+00        -0.43627E+08
 
   -0.43257E+08         0.23286E+06         0.00000E+00
    0.23286E+06        -0.97598E+08         0.00000E+00
    0.00000E+00         0.00000E+00        -0.43470E+08
 
   -0.43101E+08         0.23488E+06         0.00000E+00
    0.23488E+06        -0.97598E+08         0.00000E+00
    0.00000E+00         0.00000E+00        -0.43311E+08
 
   -0.42944E+08         0.23685E+06         0.00000E+00
    0.23685E+06        -0.97599E+08         0.00000E+00
    0.00000E+00         0.00000E+00        -0.43151E+08
 
   -0.42786E+08         0.23874E+06         0.00000E+00
    0.23874E+06        -0.97599E+08         0.00000E+00
    0.00000E+00         0.00000E+00        -0.42988E+08
 
   -0.42626E+08         0.24056E+06         0.00000E+00
    0.24056E+06        -0.97599E+08         0.00000E+00
    0.00000E+00         0.00000E+00        -0.42824E+08
 
   -0.42465E+08         0.24230E+06         0.00000E+00
    0.24230E+06        -0.97599E+08         0.00000E+00
    0.00000E+00         0.00000E+00        -0.42658E+08
 
   -0.42303E+08         0.24394E+06         0.00000E+00
    0.24394E+06        -0.97599E+08         0.00000E+00
    0.00000E+00         0.00000E+00        -0.42491E+08
 
   -0.42139E+08         0.24547E+06         0.00000E+00
    0.24547E+06        -0.97599E+08         0.00000E+00
    0.00000E+00         0.00000E+00        -0.42321E+08
 
   -0.41975E+08         0.24688E+06         0.00000E+00
    0.24688E+06        -0.97599E+08         0.00000E+00
    0.00000E+00         0.00000E+00        -0.42150E+08
 
   -0.41810E+08         0.24815E+06         0.00000E+00
    0.24815E+06        -0.97599E+08         0.00000E+00
    0.00000E+00         0.00000E+00        -0.41977E+08
 
   -0.41644E+08         0.24928E+06         0.00000E+00
    0.24928E+06        -0.97599E+08         0.00000E+00
    0.00000E+00         0.00000E+00        -0.41802E+08
 
   -0.41477E+08         0.25023E+06         0.00000E+00
    0.25023E+06        -0.97599E+08         0.00000E+00
    0.00000E+00         0.00000E+00        -0.41626E+08
 
   -0.41310E+08         0.25099E+06         0.00000E+00
    0.25099E+06        -0.97599E+08         0.00000E+00
    0.00000E+00         0.00000E+00        -0.41448E+08
 
   -0.41142E+08         0.25154E+06         0.00000E+00
    0.25154E+06        -0.97600E+08         0.00000E+00
    0.00000E+00         0.00000E+00        -0.41268E+08
 
   -0.40974E+08         0.25184E+06         0.00000E+00
    0.25184E+06        -0.97600E+08         0.00000E+00
    0.00000E+00         0.00000E+00        -0.41086E+08
 
   -0.40806E+08         0.25187E+06         0.00000E+00
    0.25187E+06        -0.97600E+08         0.00000E+00
    0.00000E+00         0.00000E+00        -0.40903E+08
 
   -0.40638E+08         0.25159E+06         0.00000E+00
    0.25159E+06        -0.97600E+08         0.00000E+00
    0.00000E+00         0.00000E+00        -0.40719E+08
 
   -0.40470E+08         0.25096E+06         0.00000E+00
    0.25096E+06        -0.97601E+08         0.00000E+00
    0.00000E+00         0.00000E+00        -0.40533E+08
 
   -0.40303E+08         0.24994E+06         0.00000E+00
    0.24994E+06        -0.97601E+08         0.00000E+00
    0.00000E+00         0.00000E+00        -0.40345E+08
 
   -0.40137E+08         0.24846E+06         0.00000E+00
    0.24846E+06        -0.97601E+08         0.00000E+00
    0.00000E+00         0.00000E+00        -0.40156E+08
 
   -0.39971E+08         0.24648E+06         0.00000E+00
    0.24648E+06        -0.97602E+08         0.00000E+00
    0.00000E+00         0.00000E+00        -0.39966E+08
 
   -0.39807E+08         0.24391E+06         0.00000E+00
    0.24391E+06        -0.97602E+08         0.00000E+00
    0.00000E+00         0.00000E+00        -0.39774E+08
 
   -0.39645E+08         0.24068E+06         0.00000E+00
    0.24068E+06        -0.97603E+08         0.00000E+00
    0.00000E+00         0.00000E+00        -0.39580E+08
 
   -0.39486E+08         0.23669E+06         0.00000E+00
    0.23669E+06        -0.97603E+08         0.00000E+00
    0.00000E+00         0.00000E+00        -0.39386E+08
 
   -0.39329E+08         0.23184E+06         0.00000E+00
    0.23184E+06        -0.97604E+08         0.00000E+00
    0.00000E+00         0.00000E+00        -0.39190E+08
 
   -0.39175E+08         0.22600E+06         0.00000E+00
    0.22600E+06        -0.97605E+08         0.00000E+00
    0.00000E+00         0.00000E+00        -0.38993E+08
 
   -0.39026E+08         0.21905E+06         0.00000E+00
    0.21905E+06        -0.97606E+08         0.00000E+00
    0.00000E+00         0.00000E+00        -0.38795E+08
 
   -0.38881E+08         0.21083E+06         0.00000E+00
    0.21083E+06        -0.97607E+08         0.00000E+00
    0.00000E+00         0.00000E+00        -0.38596E+08
 
   -0.38742E+08         0.20118E+06         0.00000E+00
    0.20118E+06        -0.97608E+08         0.00000E+00
    0.00000E+00         0.00000E+00        -0.38395E+08
 
   -0.38609E+08         0.18992E+06         0.00000E+00
    0.18992E+06        -0.97609E+08         0.00000E+00
    0.00000E+00         0.00000E+00        -0.38194E+08
 
   -0.38483E+08         0.17688E+06         0.00000E+00
    0.17688E+06        -0.97611E+08         0.00000E+00
    0.00000E+00         0.00000E+00        -0.37992E+08
 
   -0.38366E+08         0.16188E+06         0.00000E+00
    0.16188E+06        -0.97613E+08         0.00000E+00
    0.00000E+00         0.00000E+00        -0.37789E+08
 
   -0.38258E+08         0.14475E+06         0.00000E+00
    0.14475E+06        -0.97614E+08         0.00000E+00
    0.00000E+00         0.00000E+00        -0.37585E+08
 
   -0.38161E+08         0.12537E+06         0.00000E+00
    0.12537E+06        -0.97616E+08         0.00000E+00
    0.00000E+00         0.00000E+00        -0.37381E+08
 
   -0.38076E+08         0.10366E+06         0.00000E+00
    0.10366E+06        -0.97618E+08         0.00000E+00
    0.00000E+00         0.00000E+00        -0.37175E+08
 
   -0.38003E+08         0.79622E+05         0.00000E+00
    0.79622E+05        -0.97620E+08         0.00000E+00
    0.00000E+00         0.00000E+00        -0.36970E+08
 
   -0.37945E+08         0.53403E+05         0.00000E+00
    0.53403E+05        -0.97622E+08         0.00000E+00
    0.00000E+00         0.00000E+00        -0.36763E+08
 
   -0.37901E+08         0.25320E+05         0.00000E+00
    0.25320E+05        -0.97624E+08         0.00000E+00
    0.00000E+00         0.00000E+00        -0.36557E+08
 
   -0.37872E+08        -0.40494E+04         0.00000E+00
   -0.40494E+04        -0.97625E+08         0.00000E+00
    0.00000E+00         0.00000E+00        -0.36350E+08
 
   -0.37857E+08        -0.33751E+05         0.00000E+00
   -0.33751E+05        -0.97625E+08         0.00000E+00
    0.00000E+00         0.00000E+00        -0.36142E+08
 
   -0.37856E+08        -0.62203E+05         0.00000E+00
   -0.62203E+05        -0.97624E+08         0.00000E+00
    0.00000E+00         0.00000E+00        -0.35935E+08
 
   -0.37863E+08        -0.86700E+05         0.00000E+00
   -0.86700E+05        -0.97622E+08         0.00000E+00
    0.00000E+00         0.00000E+00        -0.35727E+08
 
   -0.37872E+08        -0.10139E+06         0.00000E+00
   -0.10139E+06        -0.97614E+08         0.00000E+00
    0.00000E+00         0.00000E+00        -0.35519E+08
 
   -0.37874E+08        -0.91507E+05         0.00000E+00
   -0.91507E+05        -0.97590E+08         0.00000E+00
    0.00000E+00         0.00000E+00        -0.35311E+08
 
   -0.37867E+08        -0.39163E+05         0.00000E+00
   -0.39163E+05        -0.97505E+08         0.00000E+00
    0.00000E+00         0.00000E+00        -0.35104E+08
 
   -0.48564E+08        -0.18267E+05         0.00000E+00
   -0.18267E+05        -0.97636E+08         0.00000E+00
    0.00000E+00         0.00000E+00        -0.49952E+08
 
   -0.48563E+08        -0.40779E+05         0.00000E+00
   -0.40779E+05        -0.97601E+08         0.00000E+00
    0.00000E+00         0.00000E+00        -0.49855E+08
 
   -0.48566E+08        -0.42488E+05         0.00000E+00
   -0.42488E+05        -0.97593E+08         0.00000E+00
    0.00000E+00         0.00000E+00        -0.49759E+08
 
   -0.48573E+08        -0.33958E+05         0.00000E+00
   -0.33958E+05        -0.97591E+08         0.00000E+00
    0.00000E+00         0.00000E+00        -0.49662E+08
 
   -0.48577E+08        -0.21923E+05         0.00000E+00
   -0.21923E+05        -0.97590E+08         0.00000E+00
    0.00000E+00         0.00000E+00        -0.49566E+08
 
   -0.48575E+08        -0.85462E+04         0.00000E+00
   -0.85462E+04        -0.97590E+08         0.00000E+00
    0.00000E+00         0.00000E+00        -0.49470E+08
 
   -0.48566E+08         0.51684E+04         0.00000E+00
    0.51684E+04        -0.97590E+08         0.00000E+00
    0.00000E+00         0.00000E+00        -0.49373E+08
 
   -0.48549E+08         0.18636E+05         0.00000E+00
    0.18636E+05        -0.97591E+08         0.00000E+00
    0.00000E+00         0.00000E+00        -0.49276E+08
 
   -0.48523E+08         0.31509E+05         0.00000E+00
    0.31509E+05        -0.97591E+08         0.00000E+00
    0.00000E+00         0.00000E+00        -0.49179E+08
 
   -0.48489E+08         0.43581E+05         0.00000E+00
    0.43581E+05        -0.97592E+08         0.00000E+00
    0.00000E+00         0.00000E+00        -0.49082E+08
 
   -0.48447E+08         0.54742E+05         0.00000E+00
    0.54742E+05        -0.97593E+08         0.00000E+00
    0.00000E+00         0.00000E+00        -0.48984E+08
 
   -0.48398E+08         0.64954E+05         0.00000E+00
    0.64954E+05        -0.97593E+08         0.00000E+00
    0.00000E+00         0.00000E+00        -0.48886E+08
 
   -0.48342E+08         0.74225E+05         0.00000E+00
    0.74225E+05        -0.97594E+08         0.00000E+00
    0.00000E+00         0.00000E+00        -0.48787E+08
 
   -0.48280E+08         0.82599E+05         0.00000E+00
    0.82599E+05        -0.97595E+08         0.00000E+00
    0.00000E+00         0.00000E+00        -0.48688E+08
 
   -0.48213E+08         0.90138E+05         0.00000E+00
    0.90138E+05        -0.97595E+08         0.00000E+00
    0.00000E+00         0.00000E+00        -0.48588E+08
 
   -0.48140E+08         0.96917E+05         0.00000E+00
    0.96917E+05        -0.97596E+08         0.00000E+00
    0.00000E+00         0.00000E+00        -0.48487E+08
 
   -0.48063E+08         0.10302E+06         0.00000E+00
    0.10302E+06        -0.97596E+08         0.00000E+00
    0.00000E+00         0.00000E+00        -0.48386E+08
 
   -0.47982E+08         0.10851E+06         0.00000E+00
    0.10851E+06        -0.97597E+08         0.00000E+00
    0.00000E+00         0.00000E+00        -0.48284E+08
 
   -0.47896E+08         0.11348E+06         0.00000E+00
    0.11348E+06        -0.97597E+08         0.00000E+00
    0.00000E+00         0.00000E+00        -0.48181E+08
 
   -0.47807E+08         0.11799E+06         0.00000E+00
    0.11799E+06        -0.97597E+08         0.00000E+00
    0.00000E+00         0.00000E+00        -0.48078E+08
 
   -0.47715E+08         0.12210E+06         0.00000E+00
    0.12210E+06        -0.97597E+08         0.00000E+00
    0.00000E+00         0.00000E+00        -0.47973E+08
 
   -0.47620E+08         0.12588E+06         0.00000E+00
    0.12588E+06        -0.97598E+08         0.00000E+00
    0.00000E+00         0.00000E+00        -0.47868E+08
 
   -0.47522E+08         0.12936E+06         0.00000E+00
    0.12936E+06        -0.97598E+08         0.00000E+00
    0.00000E+00         0.00000E+00        -0.47762E+08
 
   -0.47422E+08         0.13260E+06         0.00000E+00
    0.13260E+06        -0.97598E+08         0.00000E+00
    0.00000E+00         0.00000E+00        -0.47654E+08
 
   -0.47319E+08         0.13564E+06         0.00000E+00
    0.13564E+06        -0.97598E+08         0.00000E+00
    0.00000E+00         0.00000E+00        -0.47546E+08
 
   -0.47214E+08         0.13850E+06         0.00000E+00
    0.13850E+06        -0.97598E+08         0.00000E+00
    0.00000E+00         0.00000E+00        -0.47436E+08
 
   -0.47106E+08         0.14121E+06         0.00000E+00
    0.14121E+06        -0.97598E+08         0.00000E+00
    0.00000E+00         0.00000E+00        -0.47326E+08
 
   -0.46997E+08         0.14380E+06         0.00000E+00
    0.14380E+06        -0.97598E+08         0.00000E+00
    0.00000E+00         0.00000E+00        -0.47214E+08
 
   -0.46886E+08         0.14629E+06         0.00000E+00
    0.14629E+06        -0.97598E+08         0.00000E+00
    0.00000E+00         0.00000E+00        -0.47101E+08
 
   -0.46773E+08         0.14869E+06         0.00000E+00
    0.14869E+06        -0.97598E+08         0.00000E+00
    0.00000E+00         0.00000E+00        -0.46986E+08
 
   -0.46658E+08         0.15103E+06         0.00000E+00
    0.15103E+06        -0.97598E+08         0.00000E+00
    0.00000E+00         0.00000E+00        -0.46871E+08
 
   -0.46541E+08         0.15330E+06         0.00000E+00
    0.15330E+06        -0.97598E+08         0.00000E+00
    0.00000E+00         0.00000E+00        -0.46754E+08
 
   -0.46423E+08         0.15553E+06         0.00000E+00
    0.15553E+06        -0.97599E+08         0.00000E+00
    0.00000E+00         0.00000E+00        -0.46635E+08
 
   -0.46302E+08         0.15772E+06         0.00000E+00
    0.15772E+06        -0.97599E+08         0.00000E+00
    0.00000E+00         0.00000E+00        -0.46515E+08
 
   -0.46180E+08         0.15988E+06         0.00000E+00
    0.15988E+06        -0.97599E+08         0.00000E+00
    0.00000E+00         0.00000E+00        -0.46394E+08
 
   -0.46057E+08         0.16201E+06         0.00000E+00
    0.16201E+06        -0.97599E+08         0.00000E+00
    0.00000E+00         0.00000E+00        -0.46271E+08
 
   -0.45932E+08         0.16412E+06         0.00000E+00
    0.16412E+06        -0.97599E+08         0.00000E+00
    0.00000E+00         0.00000E+00        -0.46147E+08
 
   -0.45805E+08         0.16621E+06         0.00000E+00
    0.16621E+06        -0.97599E+08         0.00000E+00
    0.00000E+00         0.00000E+00        -0.46021E+08
 
   -0.45676E+08         0.16829E+06         0.00000E+00
    0.16829E+06        -0.97599E+08         0.00000E+00
    0.00000E+00         0.00000E+00        -0.45894E+08
 
   -0.45546E+08         0.17036E+06         0.00000E+00
    0.17036E+06        -0.97599E+08         0.00000E+00
    0.00000E+00         0.00000E+00        -0.45765E+08
 
   -0.45415E+08         0.17242E+06         0.00000E+00
    0.17242E+06        -0.97599E+08         0.00000E+00
    0.00000E+00         0.00000E+00        -0.45635E+08
 
   -0.45281E+08         0.17447E+06         0.00000E+00
    0.17447E+06        -0.97599E+08         0.00000E+00
    0.00000E+00         0.00000E+00        -0.45503E+08
 
   -0.45147E+08         0.17652E+06         0.00000E+00
    0.17652E+06        -0.97599E+08         0.00000E+00
    0.00000E+00         0.00000E+00        -0.45369E+08
 
   -0.45010E+08         0.17855E+06         0.00000E+00
    0.17855E+06        -0.97599E+08         0.00000E+00
    0.00000E+00         0.00000E+00        -0.45233E+08
 
   -0.44872E+08         0.18058E+06         0.00000E+00
    0.18058E+06        -0.97599E+08         0.00000E+00
    0.00000E+00         0.00000E+00        -0.45096E+08
 
   -0.44733E+08         0.18260E+06         0.00000E+00
    0.18260E+06        -0.97599E+08         0.00000E+00
    0.00000E+00         0.00000E+00        -0.44957E+08
 
   -0.44592E+08         0.18460E+06         0.00000E+00
    0.18460E+06        -0.97599E+08         0.00000E+00
    0.00000E+00         0.00000E+00        -0.44816E+08
 
   -0.44449E+08         0.18660E+06         0.00000E+00
    0.18660E+06        -0.97599E+08         0.00000E+00
    0.00000E+00         0.00000E+00        -0.44674E+08
 
   -0.44305E+08         0.18858E+06         0.00000E+00
    0.18858E+06        -0.97599E+08         0.00000E+00
    0.00000E+00         0.00000E+00        -0.44530E+08
 
   -0.44159E+08         0.19055E+06         0.00000E+00
    0.19055E+06        -0.97599E+08         0.00000E+00
    0.00000E+00         0.00000E+00        -0.44384E+08
 
   -0.44012E+08         0.19249E+06         0.00000E+00
    0.19249E+06        -0.97599E+08         0.00000E+00
    0.00000E+00         0.00000E+00        -0.44236E+08
 
   -0.43863E+08         0.19442E+06         0.00000E+00
    0.19442E+06        -0.97599E+08         0.00000E+00
    0.00000E+00         0.00000E+00        -0.44086E+08
 
   -0.43713E+08         0.19632E+06         0.00000E+00
    0.19632E+06        -0.97599E+08         0.00000E+00
    0.00000E+00         0.00000E+00        -0.43935E+08
 
   -0.43561E+08         0.19818E+06         0.00000E+00
    0.19818E+06        -0.97599E+08         0.00000E+00
    0.00000E+00         0.00000E+00        -0.43782E+08
 
   -0.43408E+08         0.20002E+06         0.00000E+00
    0.20002E+06        -0.97599E+08         0.00000E+00
    0.00000E+00         0.00000E+00        -0.43627E+08
 
   -0.43253E+08         0.20181E+06         0.00000E+00
    0.20181E+06        -0.97599E+08         0.00000E+00
    0.00000E+00         0.00000E+00        -0.43470E+08
 
   -0.43097E+08         0.20356E+06         0.00000E+00
    0.20356E+06        -0.97599E+08         0.00000E+00
    0.00000E+00         0.00000E+00        -0.43311E+08
 
   -0.42940E+08         0.20526E+06         0.00000E+00
    0.20526E+06        -0.97599E+08         0.00000E+00
    0.00000E+00         0.00000E+00        -0.43151E+08
 
   -0.42782E+08         0.20690E+06         0.00000E+00
    0.20690E+06        -0.97599E+08         0.00000E+00
    0.00000E+00         0.00000E+00        -0.42988E+08
 
   -0.42622E+08         0.20848E+06         0.00000E+00
    0.20848E+06        -0.97599E+08         0.00000E+00
    0.00000E+00         0.00000E+00        -0.42824E+08
 
   -0.42461E+08         0.20998E+06         0.00000E+00
    0.20998E+06        -0.97599E+08         0.00000E+00
    0.00000E+00         0.00000E+00        -0.42658E+08
 
   -0.42299E+08         0.21140E+06         0.00000E+00
    0.21140E+06        -0.97599E+08         0.00000E+00
    0.00000E+00         0.00000E+00        -0.42491E+08
 
   -0.42135E+08         0.21272E+06         0.00000E+00
    0.21272E+06        -0.97599E+08         0.00000E+00
    0.00000E+00         0.00000E+00        -0.42321E+08
 
   -0.41971E+08         0.21394E+06         0.00000E+00
    0.21394E+06        -0.97599E+08         0.00000E+00
    0.00000E+00         0.00000E+00        -0.42150E+08
 
   -0.41806E+08         0.21504E+06         0.00000E+00
    0.21504E+06        -0.97599E+08         0.00000E+00
    0.00000E+00         0.00000E+00        -0.41977E+08
 
   -0.41640E+08         0.21602E+06         0.00000E+00
    0.21602E+06        -0.97599E+08         0.00000E+00
    0.00000E+00         0.00000E+00        -0.41802E+08
 
   -0.41474E+08         0.21684E+06         0.00000E+00
    0.21684E+06        -0.97599E+08         0.00000E+00
    0.00000E+00         0.00000E+00        -0.41626E+08
 
   -0.41306E+08         0.21750E+06         0.00000E+00
    0.21750E+06        -0.97600E+08         0.00000E+00
    0.00000E+00         0.00000E+00        -0.41448E+08
 
   -0.41139E+08         0.21797E+06         0.00000E+00
    0.21797E+06        -0.97600E+08         0.00000E+00
    0.00000E+00         0.00000E+00        -0.41268E+08
 
   -0.40971E+08         0.21823E+06         0.00000E+00
    0.21823E+06        -0.97600E+08         0.00000E+00
    0.00000E+00         0.00000E+00        -0.41087E+08
 
   -0.40803E+08         0.21825E+06         0.00000E+00
    0.21825E+06        -0.97600E+08         0.00000E+00
    0.00000E+00         0.00000E+00        -0.40903E+08
 
   -0.40635E+08         0.21801E+06         0.00000E+00
    0.21801E+06        -0.97600E+08         0.00000E+00
    0.00000E+00         0.00000E+00        -0.40719E+08
 
   -0.40467E+08         0.21746E+06         0.00000E+00
    0.21746E+06        -0.97600E+08         0.00000E+00
    0.00000E+00         0.00000E+00        -0.40533E+08
 
   -0.40300E+08         0.21657E+06         0.00000E+00
    0.21657E+06        -0.97601E+08         0.00000E+00
    0.00000E+00         0.00000E+00        -0.40345E+08
 
   -0.40134E+08         0.21528E+06         0.00000E+00
    0.21528E+06        -0.97601E+08         0.00000E+00
    0.00000E+00         0.00000E+00        -0.40156E+08
 
   -0.39968E+08         0.21356E+06         0.00000E+00
    0.21356E+06        -0.97601E+08         0.00000E+00
    0.00000E+00         0.00000E+00        -0.39966E+08
 
   -0.39805E+08         0.21132E+06         0.00000E+00
    0.21132E+06        -0.97602E+08         0.00000E+00
    0.00000E+00         0.00000E+00        -0.39774E+08
 
   -0.39643E+08         0.20851E+06         0.00000E+00
    0.20851E+06        -0.97602E+08         0.00000E+00
    0.00000E+00         0.00000E+00        -0.39580E+08
 
   -0.39483E+08         0.20503E+06         0.00000E+00
    0.20503E+06        -0.97602E+08         0.00000E+00
    0.00000E+00         0.00000E+00        -0.39386E+08
 
   -0.39327E+08         0.20080E+06         0.00000E+00
    0.20080E+06        -0.97603E+08         0.00000E+00
    0.00000E+00         0.00000E+00        -0.39190E+08
 
   -0.39174E+08         0.19571E+06         0.00000E+00
    0.19571E+06        -0.97604E+08         0.00000E+00
    0.00000E+00         0.00000E+00        -0.38993E+08
 
   -0.39024E+08         0.18964E+06         0.00000E+00
    0.18964E+06        -0.97604E+08         0.00000E+00
    0.00000E+00         0.00000E+00        -0.38795E+08
 
   -0.38880E+08         0.18245E+06         0.00000E+00
    0.18245E+06        -0.97605E+08         0.00000E+00
    0.00000E+00         0.00000E+00        -0.38596E+08
 
   -0.38742E+08         0.17400E+06         0.00000E+00
    0.17400E+06        -0.97606E+08         0.00000E+00
    0.00000E+00         0.00000E+00        -0.38395E+08
 
   -0.38609E+08         0.16413E+06         0.00000E+00
    0.16413E+06        -0.97607E+08         0.00000E+00
    0.00000E+00         0.00000E+00        -0.38194E+08
 
   -0.38485E+08         0.15268E+06         0.00000E+00
    0.15268E+06        -0.97608E+08         0.00000E+00
    0.00000E+00         0.00000E+00        -0.37992E+08
 
   -0.38369E+08         0.13949E+06         0.00000E+00
    0.13949E+06        -0.97610E+08         0.00000E+00
    0.00000E+00         0.00000E+00        -0.37789E+08
 
   -0.38263E+08         0.12442E+06         0.00000E+00
    0.12442E+06        -0.97611E+08         0.00000E+00
    0.00000E+00         0.00000E+00        -0.37585E+08
 
   -0.38168E+08         0.10732E+06         0.00000E+00
    0.10732E+06        -0.97612E+08         0.00000E+00
    0.00000E+00         0.00000E+00        -0.37381E+08
 
   -0.38085E+08         0.88133E+05         0.00000E+00
    0.88133E+05        -0.97614E+08         0.00000E+00
    0.00000E+00         0.00000E+00        -0.37175E+08
 
   -0.38016E+08         0.66846E+05         0.00000E+00
    0.66846E+05        -0.97615E+08         0.00000E+00
    0.00000E+00         0.00000E+00        -0.36970E+08
 
   -0.37961E+08         0.43563E+05         0.00000E+00
    0.43563E+05        -0.97617E+08         0.00000E+00
    0.00000E+00         0.00000E+00        -0.36763E+08
 
   -0.37922E+08         0.18539E+05         0.00000E+00
    0.18539E+05        -0.97618E+08         0.00000E+00
    0.00000E+00         0.00000E+00        -0.36557E+08
 
   -0.37898E+08        -0.77585E+04         0.00000E+00
   -0.77585E+04        -0.97619E+08         0.00000E+00
    0.00000E+00         0.00000E+00        -0.36349E+08
 
   -0.37891E+08        -0.34557E+05         0.00000E+00
   -0.34557E+05        -0.97619E+08         0.00000E+00
    0.00000E+00         0.00000E+00        -0.36142E+08
 
   -0.37897E+08        -0.60570E+05         0.00000E+00
   -0.60570E+05        -0.97619E+08         0.00000E+00
    0.00000E+00         0.00000E+00        -0.35934E+08
 
   -0.37915E+08        -0.83613E+05         0.00000E+00
   -0.83613E+05        -0.97617E+08         0.00000E+00
    0.00000E+00         0.00000E+00        -0.35727E+08
 
   -0.37936E+08        -0.99010E+05         0.00000E+00
   -0.99010E+05        -0.97613E+08         0.00000E+00
    0.00000E+00         0.00000E+00        -0.35519E+08
 
   -0.37947E+08        -0.92296E+05         0.00000E+00
   -0.92296E+05        -0.97596E+08         0.00000E+00
    0.00000E+00         0.00000E+00        -0.35311E+08
 
   -0.37946E+08        -0.40822E+05         0.00000E+00
   -0.40822E+05        -0.97520E+08         0.00000E+00
    0.00000E+00         0.00000E+00        -0.35104E+08
 
   -0.48525E+08        -0.18996E+05         0.00000E+00
   -0.18996E+05        -0.97629E+08         0.00000E+00
    0.00000E+00         0.00000E+00        -0.49952E+08
 
   -0.48526E+08        -0.40574E+05         0.00000E+00
   -0.40574E+05        -0.97599E+08         0.00000E+00
    0.00000E+00         0.00000E+00        -0.49855E+08
 
   -0.48536E+08        -0.40652E+05         0.00000E+00
   -0.40652E+05        -0.97594E+08         0.00000E+00
    0.00000E+00         0.00000E+00        -0.49759E+08
 
   -0.48549E+08        -0.32151E+05         0.00000E+00
   -0.32151E+05        -0.97593E+08         0.00000E+00
    0.00000E+00         0.00000E+00        -0.49662E+08
 
   -0.48558E+08        -0.21180E+05         0.00000E+00
   -0.21180E+05        -0.97593E+08         0.00000E+00
    0.00000E+00         0.00000E+00        -0.49566E+08
 
   -0.48560E+08        -0.92780E+04         0.00000E+00
   -0.92780E+04        -0.97593E+08         0.00000E+00
    0.00000E+00         0.00000E+00        -0.49470E+08
 
   -0.48553E+08         0.27715E+04         0.00000E+00
    0.27715E+04        -0.97593E+08         0.00000E+00
    0.00000E+00         0.00000E+00        -0.49373E+08
 
   -0.48538E+08         0.14518E+05         0.00000E+00
    0.14518E+05        -0.97593E+08         0.00000E+00
    0.00000E+00         0.00000E+00        -0.49276E+08
 
   -0.48514E+08         0.25693E+05         0.00000E+00
    0.25693E+05        -0.97594E+08         0.00000E+00
    0.00000E+00         0.00000E+00        -0.49179E+08
 
   -0.48482E+08         0.36136E+05         0.00000E+00
    0.36136E+05        -0.97594E+08         0.00000E+00
    0.00000E+00         0.00000E+00        -0.49082E+08
 
   -0.48442E+08         0.45765E+05         0.00000E+00
    0.45765E+05        -0.97595E+08         0.00000E+00
    0.00000E+00         0.00000E+00        -0.48984E+08
 
   -0.48394E+08         0.54553E+05         0.00000E+00
    0.54553E+05        -0.97595E+08         0.00000E+00
    0.00000E+00         0.00000E+00        -0.48886E+08
 
   -0.48339E+08         0.62515E+05         0.00000E+00
    0.62515E+05        -0.97596E+08         0.00000E+00
    0.00000E+00         0.00000E+00        -0.48787E+08
 
   -0.48277E+08         0.69693E+05         0.00000E+00
    0.69693E+05        -0.97596E+08         0.00000E+00
    0.00000E+00         0.00000E+00        -0.48688E+08
 
   -0.48210E+08         0.76144E+05         0.00000E+00
    0.76144E+05        -0.97597E+08         0.00000E+00
    0.00000E+00         0.00000E+00        -0.48588E+08
 
   -0.48138E+08         0.81935E+05         0.00000E+00
    0.81935E+05        -0.97597E+08         0.00000E+00
    0.00000E+00         0.00000E+00        -0.48487E+08
 
   -0.48061E+08         0.87136E+05         0.00000E+00
    0.87136E+05        -0.97597E+08         0.00000E+00
    0.00000E+00         0.00000E+00        -0.48386E+08
 
   -0.47979E+08         0.91816E+05         0.00000E+00
    0.91816E+05        -0.97597E+08         0.00000E+00
    0.00000E+00         0.00000E+00        -0.48284E+08
 
   -0.47894E+08         0.96041E+05         0.00000E+00
    0.96041E+05        -0.97598E+08         0.00000E+00
    0.00000E+00         0.00000E+00        -0.48181E+08
 
   -0.47805E+08         0.99872E+05         0.00000E+00
    0.99872E+05        -0.97598E+08         0.00000E+00
    0.00000E+00         0.00000E+00        -0.48078E+08
 
   -0.47713E+08         0.10336E+06         0.00000E+00
    0.10336E+06        -0.97598E+08         0.00000E+00
    0.00000E+00         0.00000E+00        -0.47973E+08
 
   -0.47618E+08         0.10656E+06         0.00000E+00
    0.10656E+06        -0.97598E+08         0.00000E+00
    0.00000E+00         0.00000E+00        -0.47868E+08
 
   -0.47520E+08         0.10952E+06         0.00000E+00
    0.10952E+06        -0.97598E+08         0.00000E+00
    0.00000E+00         0.00000E+00        -0.47762E+08
 
   -0.47419E+08         0.11226E+06         0.00000E+00
    0.11226E+06        -0.97599E+08         0.00000E+00
    0.00000E+00         0.00000E+00        -0.47654E+08
 
   -0.47316E+08         0.11483E+06         0.00000E+00
    0.11483E+06        -0.97599E+08         0.00000E+00
    0.00000E+00         0.00000E+00        -0.47546E+08
 
   -0.47211E+08         0.11725E+06         0.00000E+00
    0.11725E+06        -0.97599E+08         0.00000E+00
    0.00000E+00         0.00000E+00        -0.47436E+08
 
   -0.47104E+08         0.11955E+06         0.00000E+00
    0.11955E+06        -0.97599E+08         0.00000E+00
    0.00000E+00         0.00000E+00        -0.47326E+08
 
   -0.46994E+08         0.12174E+06         0.00000E+00
    0.12174E+06        -0.97599E+08         0.00000E+00
    0.00000E+00         0.00000E+00        -0.47214E+08
 
   -0.46883E+08         0.12384E+06         0.00000E+00
    0.12384E+06        -0.97599E+08         0.00000E+00
    0.00000E+00         0.00000E+00        -0.47101E+08
 
   -0.46770E+08         0.12587E+06         0.00000E+00
    0.12587E+06        -0.97599E+08         0.00000E+00
    0.00000E+00         0.00000E+00        -0.46986E+08
 
   -0.46655E+08         0.12784E+06         0.00000E+00
    0.12784E+06        -0.97599E+08         0.00000E+00
    0.00000E+00         0.00000E+00        -0.46871E+08
 
   -0.46538E+08         0.12977E+06         0.00000E+00
    0.12977E+06        -0.97599E+08         0.00000E+00
    0.00000E+00         0.00000E+00        -0.46754E+08
 
   -0.46419E+08         0.13165E+06         0.00000E+00
    0.13165E+06        -0.97599E+08         0.00000E+00
    0.00000E+00         0.00000E+00        -0.46635E+08
 
   -0.46299E+08         0.13350E+06         0.00000E+00
    0.13350E+06        -0.97599E+08         0.00000E+00
    0.00000E+00         0.00000E+00        -0.46515E+08
 
   -0.46177E+08         0.13532E+06         0.00000E+00
    0.13532E+06        -0.97599E+08         0.00000E+00
    0.00000E+00         0.00000E+00        -0.46394E+08
 
   -0.46054E+08         0.13712E+06         0.00000E+00
    0.13712E+06        -0.97599E+08         0.00000E+00
    0.00000E+00         0.00000E+00        -0.46271E+08
 
   -0.45928E+08         0.13891E+06         0.00000E+00
    0.13891E+06        -0.97599E+08         0.00000E+00
    0.00000E+00         0.00000E+00        -0.46147E+08
 
   -0.45801E+08         0.14068E+06         0.00000E+00
    0.14068E+06        -0.97599E+08         0.00000E+00
    0.00000E+00         0.00000E+00        -0.46021E+08
 
   -0.45673E+08         0.14244E+06         0.00000E+00
    0.14244E+06        -0.97599E+08         0.00000E+00
    0.00000E+00         0.00000E+00        -0.45894E+08
 
   -0.45543E+08         0.14419E+06         0.00000E+00
    0.14419E+06        -0.97599E+08         0.00000E+00
    0.00000E+00         0.00000E+00        -0.45765E+08
 
   -0.45411E+08         0.14593E+06         0.00000E+00
    0.14593E+06        -0.97599E+08         0.00000E+00
    0.00000E+00         0.00000E+00        -0.45635E+08
 
   -0.45278E+08         0.14766E+06         0.00000E+00
    0.14766E+06        -0.97599E+08         0.00000E+00
    0.00000E+00         0.00000E+00        -0.45503E+08
 
   -0.45143E+08         0.14939E+06         0.00000E+00
    0.14939E+06        -0.97599E+08         0.00000E+00
    0.00000E+00         0.00000E+00        -0.45369E+08
 
   -0.45006E+08         0.15111E+06         0.00000E+00
    0.15111E+06        -0.97599E+08         0.00000E+00
    0.00000E+00         0.00000E+00        -0.45233E+08
 
   -0.44868E+08         0.15282E+06         0.00000E+00
    0.15282E+06        -0.97599E+08         0.00000E+00
    0.00000E+00         0.00000E+00        -0.45096E+08
 
   -0.44729E+08         0.15453E+06         0.00000E+00
    0.15453E+06        -0.97599E+08         0.00000E+00
    0.00000E+00         0.00000E+00        -0.44957E+08
 
   -0.44588E+08         0.15622E+06         0.00000E+00
    0.15622E+06        -0.97599E+08         0.00000E+00
    0.00000E+00         0.00000E+00        -0.44816E+08
 
   -0.44445E+08         0.15791E+06         0.00000E+00
    0.15791E+06        -0.97599E+08         0.00000E+00
    0.00000E+00         0.00000E+00        -0.44674E+08
 
   -0.44301E+08         0.15959E+06         0.00000E+00
    0.15959E+06        -0.97599E+08         0.00000E+00
    0.00000E+00         0.00000E+00        -0.44530E+08
 
   -0.44155E+08         0.16125E+06         0.00000E+00
    0.16125E+06        -0.97599E+08         0.00000E+00
    0.00000E+00         0.00000E+00        -0.44384E+08
 
   -0.44008E+08         0.16289E+06         0.00000E+00
    0.16289E+06        -0.97599E+08         0.00000E+00
    0.00000E+00         0.00000E+00        -0.44236E+08
 
   -0.43859E+08         0.16452E+06         0.00000E+00
    0.16452E+06        -0.97599E+08         0.00000E+00
    0.00000E+00         0.00000E+00        -0.44086E+08
 
   -0.43709E+08         0.16612E+06         0.00000E+00
    0.16612E+06        -0.97599E+08         0.00000E+00
    0.00000E+00         0.00000E+00        -0.43935E+08
 
   -0.43557E+08         0.16770E+06         0.00000E+00
    0.16770E+06        -0.97599E+08         0.00000E+00
    0.00000E+00         0.00000E+00        -0.43782E+08
 
   -0.43404E+08         0.16925E+06         0.00000E+00
    0.16925E+06        -0.97599E+08         0.00000E+00
    0.00000E+00         0.00000E+00        -0.43627E+08
 
   -0.43249E+08         0.17077E+06         0.00000E+00
    0.17077E+06        -0.97599E+08         0.00000E+00
    0.00000E+00         0.00000E+00        -0.43470E+08
 
   -0.43093E+08         0.17224E+06         0.00000E+00
    0.17224E+06        -0.97599E+08         0.00000E+00
    0.00000E+00         0.00000E+00        -0.43311E+08
 
   -0.42936E+08         0.17368E+06         0.00000E+00
    0.17368E+06        -0.97599E+08         0.00000E+00
    0.00000E+00         0.00000E+00        -0.43151E+08
 
   -0.42778E+08         0.17506E+06         0.00000E+00
    0.17506E+06        -0.97599E+08         0.00000E+00
    0.00000E+00         0.00000E+00        -0.42988E+08
 
   -0.42618E+08         0.17640E+06         0.00000E+00
    0.17640E+06        -0.97599E+08         0.00000E+00
    0.00000E+00         0.00000E+00        -0.42824E+08
 
   -0.42457E+08         0.17766E+06         0.00000E+00
    0.17766E+06        -0.97599E+08         0.00000E+00
    0.00000E+00         0.00000E+00        -0.42658E+08
 
   -0.42295E+08         0.17886E+06         0.00000E+00
    0.17886E+06        -0.97599E+08         0.00000E+00
    0.00000E+00         0.00000E+00        -0.42491E+08
 
   -0.42132E+08         0.17998E+06         0.00000E+00
    0.17998E+06        -0.97599E+08         0.00000E+00
    0.00000E+00         0.00000E+00        -0.42321E+08
 
   -0.41967E+08         0.18101E+06         0.00000E+00
    0.18101E+06        -0.97599E+08         0.00000E+00
    0.00000E+00         0.00000E+00        -0.42150E+08
 
   -0.41802E+08         0.18194E+06         0.00000E+00
    0.18194E+06        -0.97599E+08         0.00000E+00
    0.00000E+00         0.00000E+00        -0.41977E+08
 
   -0.41636E+08         0.18277E+06         0.00000E+00
    0.18277E+06        -0.97600E+08         0.00000E+00
    0.00000E+00         0.00000E+00        -0.41802E+08
 
   -0.41470E+08         0.18346E+06         0.00000E+00
    0.18346E+06        -0.97600E+08         0.00000E+00
    0.00000E+00         0.00000E+00        -0.41626E+08
 
   -0.41303E+08         0.18402E+06         0.00000E+00
    0.18402E+06        -0.97600E+08         0.00000E+00
    0.00000E+00         0.00000E+00        -0.41448E+08
 
   -0.41135E+08         0.18441E+06         0.00000E+00
    0.18441E+06        -0.97600E+08         0.00000E+00
    0.00000E+00         0.00000E+00        -0.41268E+08
 
   -0.40967E+08         0.18463E+06         0.00000E+00
    0.18463E+06        -0.97600E+08         0.00000E+00
    0.00000E+00         0.00000E+00        -0.41087E+08
 
   -0.40799E+08         0.18465E+06         0.00000E+00
    0.18465E+06        -0.97600E+08         0.00000E+00
    0.00000E+00         0.00000E+00        -0.40903E+08
 
   -0.40631E+08         0.18444E+06         0.00000E+00
    0.18444E+06        -0.97600E+08         0.00000E+00
    0.00000E+00         0.00000E+00        -0.40719E+08
 
   -0.40464E+08         0.18398E+06         0.00000E+00
    0.18398E+06        -0.97600E+08         0.00000E+00
    0.00000E+00         0.00000E+00        -0.40533E+08
 
   -0.40297E+08         0.18322E+06         0.00000E+00
    0.18322E+06        -0.97600E+08         0.00000E+00
    0.00000E+00         0.00000E+00        -0.40345E+08
 
   -0.40131E+08         0.18213E+06         0.00000E+00
    0.18213E+06        -0.97601E+08         0.00000E+00
    0.00000E+00         0.00000E+00        -0.40156E+08
 
   -0.39966E+08         0.18067E+06         0.00000E+00
    0.18067E+06        -0.97601E+08         0.00000E+00
    0.00000E+00         0.00000E+00        -0.39966E+08
 
   -0.39802E+08         0.17877E+06         0.00000E+00
    0.17877E+06        -0.97601E+08         0.00000E+00
    0.00000E+00         0.00000E+00        -0.39774E+08
 
   -0.39640E+08         0.17638E+06         0.00000E+00
    0.17638E+06        -0.97601E+08         0.00000E+00
    0.00000E+00         0.00000E+00        -0.39580E+08
 
   -0.39481E+08         0.17342E+06         0.00000E+00
    0.17342E+06        -0.97602E+08         0.00000E+00
    0.00000E+00         0.00000E+00        -0.39386E+08
 
   -0.39325E+08         0.16982E+06         0.00000E+00
    0.16982E+06        -0.97602E+08         0.00000E+00
    0.00000E+00         0.00000E+00        -0.39190E+08
 
   -0.39172E+08         0.16549E+06         0.00000E+00
    0.16549E+06        -0.97603E+08         0.00000E+00
    0.00000E+00         0.00000E+00        -0.38993E+08
 
   -0.39023E+08         0.16031E+06         0.00000E+00
    0.16031E+06        -0.97603E+08         0.00000E+00
    0.00000E+00         0.00000E+00        -0.38795E+08
 
   -0.38879E+08         0.15417E+06         0.00000E+00
    0.15417E+06        -0.97604E+08         0.00000E+00
    0.00000E+00         0.00000E+00        -0.38596E+08
 
   -0.38741E+08         0.14695E+06         0.00000E+00
    0.14695E+06        -0.97604E+08         0.00000E+00
    0.00000E+00         0.00000E+00        -0.38395E+08
 
   -0.38610E+08         0.13851E+06         0.00000E+00
    0.13851E+06        -0.97605E+08         0.00000E+00
    0.00000E+00         0.00000E+00        -0.38194E+08
 
   -0.38486E+08         0.12871E+06         0.00000E+00
    0.12871E+06        -0.97606E+08         0.00000E+00
    0.00000E+00         0.00000E+00        -0.37992E+08
 
   -0.38371E+08         0.11739E+06         0.00000E+00
    0.11739E+06        -0.97607E+08         0.00000E+00
    0.00000E+00         0.00000E+00        -0.37789E+08
 
   -0.38267E+08         0.10443E+06         0.00000E+00
    0.10443E+06        -0.97608E+08         0.00000E+00
    0.00000E+00         0.00000E+00        -0.37585E+08
 
   -0.38174E+08         0.89711E+05         0.00000E+00
    0.89711E+05        -0.97609E+08         0.00000E+00
    0.00000E+00         0.00000E+00        -0.37381E+08
 
   -0.38093E+08         0.73156E+05         0.00000E+00
    0.73156E+05        -0.97610E+08         0.00000E+00
    0.00000E+00         0.00000E+00        -0.37175E+08
 
   -0.38027E+08         0.54749E+05         0.00000E+00
    0.54749E+05        -0.97611E+08         0.00000E+00
    0.00000E+00         0.00000E+00        -0.36970E+08
 
   -0.37976E+08         0.34559E+05         0.00000E+00
    0.34559E+05        -0.97612E+08         0.00000E+00
    0.00000E+00         0.00000E+00        -0.36763E+08
 
   -0.37941E+08         0.12782E+05         0.00000E+00
    0.12782E+05        -0.97613E+08         0.00000E+00
    0.00000E+00         0.00000E+00        -0.36557E+08
 
   -0.37924E+08        -0.10216E+05         0.00000E+00
   -0.10216E+05        -0.97614E+08         0.00000E+00
    0.00000E+00         0.00000E+00        -0.36349E+08
 
   -0.37923E+08        -0.33836E+05         0.00000E+00
   -0.33836E+05        -0.97614E+08         0.00000E+00
    0.00000E+00         0.00000E+00        -0.36142E+08
 
   -0.37938E+08        -0.57084E+05         0.00000E+00
   -0.57084E+05        -0.97614E+08         0.00000E+00
    0.00000E+00         0.00000E+00        -0.35934E+08
 
   -0.37966E+08        -0.78250E+05         0.00000E+00
   -0.78250E+05        -0.97613E+08         0.00000E+00
    0.00000E+00         0.00000E+00        -0.35727E+08
 
   -0.38000E+08        -0.93997E+05         0.00000E+00
   -0.93997E+05        -0.97611E+08         0.00000E+00
    0.00000E+00         0.00000E+00        -0.35519E+08
 
   -0.38025E+08        -0.91201E+05         0.00000E+00
   -0.91201E+05        -0.97601E+08         0.00000E+00
    0.00000E+00         0.00000E+00        -0.35311E+08
 
   -0.38030E+08        -0.42164E+05         0.00000E+00
   -0.42164E+05        -0.97535E+08         0.00000E+00
    0.00000E+00         0.00000E+00        -0.35104E+08
 
   -0.48482E+08        -0.19513E+05         0.00000E+00
   -0.19513E+05        -0.97623E+08         0.00000E+00
    0.00000E+00         0.00000E+00        -0.49952E+08
 
   -0.48488E+08        -0.39199E+05         0.00000E+00
   -0.39199E+05        -0.97598E+08         0.00000E+00
    0.00000E+00         0.00000E+00        -0.49855E+08
 
   -0.48505E+08        -0.37405E+05         0.00000E+00
   -0.37405E+05        -0.97596E+08         0.00000E+00
    0.00000E+00         0.00000E+00        -0.49759E+08
 
   -0.48524E+08        -0.29242E+05         0.00000E+00
   -0.29242E+05        -0.97595E+08         0.00000E+00
    0.00000E+00         0.00000E+00        -0.49662E+08
 
   -0.48538E+08        -0.19569E+05         0.00000E+00
   -0.19569E+05        -0.97595E+08         0.00000E+00
    0.00000E+00         0.00000E+00        -0.49566E+08
 
   -0.48545E+08        -0.93140E+04         0.00000E+00
   -0.93140E+04        -0.97595E+08         0.00000E+00
    0.00000E+00         0.00000E+00        -0.49470E+08
 
   -0.48541E+08         0.92960E+03         0.00000E+00
    0.92960E+03        -0.97595E+08         0.00000E+00
    0.00000E+00         0.00000E+00        -0.49373E+08
 
   -0.48529E+08         0.10843E+05         0.00000E+00
    0.10843E+05        -0.97595E+08         0.00000E+00
    0.00000E+00         0.00000E+00        -0.49276E+08
 
   -0.48507E+08         0.20227E+05         0.00000E+00
    0.20227E+05        -0.97596E+08         0.00000E+00
    0.00000E+00         0.00000E+00        -0.49179E+08
 
   -0.48476E+08         0.28965E+05         0.00000E+00
    0.28965E+05        -0.97596E+08         0.00000E+00
    0.00000E+00         0.00000E+00        -0.49082E+08
 
   -0.48437E+08         0.36998E+05         0.00000E+00
    0.36998E+05        -0.97596E+08         0.00000E+00
    0.00000E+00         0.00000E+00        -0.48984E+08
 
   -0.48390E+08         0.44313E+05         0.00000E+00
    0.44313E+05        -0.97597E+08         0.00000E+00
    0.00000E+00         0.00000E+00        -0.48886E+08
 
   -0.48335E+08         0.50925E+05         0.00000E+00
    0.50925E+05        -0.97597E+08         0.00000E+00
    0.00000E+00         0.00000E+00        -0.48787E+08
 
   -0.48275E+08         0.56873E+05         0.00000E+00
    0.56873E+05        -0.97597E+08         0.00000E+00
    0.00000E+00         0.00000E+00        -0.48688E+08
 
   -0.48208E+08         0.62210E+05         0.00000E+00
    0.62210E+05        -0.97598E+08         0.00000E+00
    0.00000E+00         0.00000E+00        -0.48588E+08
 
   -0.48136E+08         0.66992E+05         0.00000E+00
    0.66992E+05        -0.97598E+08         0.00000E+00
    0.00000E+00         0.00000E+00        -0.48487E+08
 
   -0.48059E+08         0.71280E+05         0.00000E+00
    0.71280E+05        -0.97598E+08         0.00000E+00
    0.00000E+00         0.00000E+00        -0.48386E+08
 
   -0.47977E+08         0.75133E+05         0.00000E+00
    0.75133E+05        -0.97598E+08         0.00000E+00
    0.00000E+00         0.00000E+00        -0.48284E+08
 
   -0.47892E+08         0.78607E+05         0.00000E+00
    0.78607E+05        -0.97598E+08         0.00000E+00
    0.00000E+00         0.00000E+00        -0.48181E+08
 
   -0.47803E+08         0.81753E+05         0.00000E+00
    0.81753E+05        -0.97599E+08         0.00000E+00
    0.00000E+00         0.00000E+00        -0.48078E+08
 
   -0.47711E+08         0.84617E+05         0.00000E+00
    0.84617E+05        -0.97599E+08         0.00000E+00
    0.00000E+00         0.00000E+00        -0.47973E+08
 
   -0.47616E+08         0.87241E+05         0.00000E+00
    0.87241E+05        -0.97599E+08         0.00000E+00
    0.00000E+00         0.00000E+00        -0.47868E+08
 
   -0.47518E+08         0.89661E+05         0.00000E+00
    0.89661E+05        -0.97599E+08         0.00000E+00
    0.00000E+00         0.00000E+00        -0.47762E+08
 
   -0.47417E+08         0.91907E+05         0.00000E+00
    0.91907E+05        -0.97599E+08         0.00000E+00
    0.00000E+00         0.00000E+00        -0.47654E+08
 
   -0.47314E+08         0.94008E+05         0.00000E+00
    0.94008E+05        -0.97599E+08         0.00000E+00
    0.00000E+00         0.00000E+00        -0.47546E+08
 
   -0.47209E+08         0.95987E+05         0.00000E+00
    0.95987E+05        -0.97599E+08         0.00000E+00
    0.00000E+00         0.00000E+00        -0.47436E+08
 
   -0.47101E+08         0.97863E+05         0.00000E+00
    0.97863E+05        -0.97599E+08         0.00000E+00
    0.00000E+00         0.00000E+00        -0.47326E+08
 
   -0.46992E+08         0.99653E+05         0.00000E+00
    0.99653E+05        -0.97599E+08         0.00000E+00
    0.00000E+00         0.00000E+00        -0.47214E+08
 
   -0.46880E+08         0.10137E+06         0.00000E+00
    0.10137E+06        -0.97599E+08         0.00000E+00
    0.00000E+00         0.00000E+00        -0.47101E+08
 
   -0.46767E+08         0.10303E+06         0.00000E+00
    0.10303E+06        -0.97599E+08         0.00000E+00
    0.00000E+00         0.00000E+00        -0.46986E+08
 
   -0.46652E+08         0.10464E+06         0.00000E+00
    0.10464E+06        -0.97599E+08         0.00000E+00
    0.00000E+00         0.00000E+00        -0.46871E+08
 
   -0.46535E+08         0.10622E+06         0.00000E+00
    0.10622E+06        -0.97599E+08         0.00000E+00
    0.00000E+00         0.00000E+00        -0.46754E+08
 
   -0.46416E+08         0.10775E+06         0.00000E+00
    0.10775E+06        -0.97599E+08         0.00000E+00
    0.00000E+00         0.00000E+00        -0.46635E+08
 
   -0.46296E+08         0.10927E+06         0.00000E+00
    0.10927E+06        -0.97599E+08         0.00000E+00
    0.00000E+00         0.00000E+00        -0.46515E+08
 
   -0.46174E+08         0.11076E+06         0.00000E+00
    0.11076E+06        -0.97599E+08         0.00000E+00
    0.00000E+00         0.00000E+00        -0.46394E+08
 
   -0.46050E+08         0.11223E+06         0.00000E+00
    0.11223E+06        -0.97599E+08         0.00000E+00
    0.00000E+00         0.00000E+00        -0.46271E+08
 
   -0.45925E+08         0.11369E+06         0.00000E+00
    0.11369E+06        -0.97599E+08         0.00000E+00
    0.00000E+00         0.00000E+00        -0.46147E+08
 
   -0.45798E+08         0.11513E+06         0.00000E+00
    0.11513E+06        -0.97599E+08         0.00000E+00
    0.00000E+00         0.00000E+00        -0.46021E+08
 
   -0.45669E+08         0.11657E+06         0.00000E+00
    0.11657E+06        -0.97599E+08         0.00000E+00
    0.00000E+00         0.00000E+00        -0.45894E+08
 
   -0.45539E+08         0.11800E+06         0.00000E+00
    0.11800E+06        -0.97599E+08         0.00000E+00
    0.00000E+00         0.00000E+00        -0.45765E+08
 
   -0.45408E+08         0.11942E+06         0.00000E+00
    0.11942E+06        -0.97599E+08         0.00000E+00
    0.00000E+00         0.00000E+00        -0.45635E+08
 
   -0.45274E+08         0.12084E+06         0.00000E+00
    0.12084E+06        -0.97599E+08         0.00000E+00
    0.00000E+00         0.00000E+00        -0.45503E+08
 
   -0.45139E+08         0.12225E+06         0.00000E+00
    0.12225E+06        -0.97599E+08         0.00000E+00
    0.00000E+00         0.00000E+00        -0.45369E+08
 
   -0.45003E+08         0.12366E+06         0.00000E+00
    0.12366E+06        -0.97599E+08         0.00000E+00
    0.00000E+00         0.00000E+00        -0.45233E+08
 
   -0.44865E+08         0.12506E+06         0.00000E+00
    0.12506E+06        -0.97599E+08         0.00000E+00
    0.00000E+00         0.00000E+00        -0.45096E+08
 
   -0.44725E+08         0.12645E+06         0.00000E+00
    0.12645E+06        -0.97599E+08         0.00000E+00
    0.00000E+00         0.00000E+00        -0.44957E+08
 
   -0.44584E+08         0.12784E+06         0.00000E+00
    0.12784E+06        -0.97599E+08         0.00000E+00
    0.00000E+00         0.00000E+00        -0.44816E+08
 
   -0.44441E+08         0.12921E+06         0.00000E+00
    0.12921E+06        -0.97599E+08         0.00000E+00
    0.00000E+00         0.00000E+00        -0.44674E+08
 
   -0.44297E+08         0.13058E+06         0.00000E+00
    0.13058E+06        -0.97599E+08         0.00000E+00
    0.00000E+00         0.00000E+00        -0.44530E+08
 
   -0.44151E+08         0.13194E+06         0.00000E+00
    0.13194E+06        -0.97599E+08         0.00000E+00
    0.00000E+00         0.00000E+00        -0.44384E+08
 
   -0.44004E+08         0.13328E+06         0.00000E+00
    0.13328E+06        -0.97599E+08         0.00000E+00
    0.00000E+00         0.00000E+00        -0.44236E+08
 
   -0.43855E+08         0.13461E+06         0.00000E+00
    0.13461E+06        -0.97599E+08         0.00000E+00
    0.00000E+00         0.00000E+00        -0.44086E+08
 
   -0.43705E+08         0.13592E+06         0.00000E+00
    0.13592E+06        -0.97599E+08         0.00000E+00
    0.00000E+00         0.00000E+00        -0.43935E+08
 
   -0.43553E+08         0.13721E+06         0.00000E+00
    0.13721E+06        -0.97599E+08         0.00000E+00
    0.00000E+00         0.00000E+00        -0.43782E+08
 
   -0.43400E+08         0.13848E+06         0.00000E+00
    0.13848E+06        -0.97599E+08         0.00000E+00
    0.00000E+00         0.00000E+00        -0.43627E+08
 
   -0.43245E+08         0.13972E+06         0.00000E+00
    0.13972E+06        -0.97599E+08         0.00000E+00
    0.00000E+00         0.00000E+00        -0.43470E+08
 
   -0.43089E+08         0.14093E+06         0.00000E+00
    0.14093E+06        -0.97599E+08         0.00000E+00
    0.00000E+00         0.00000E+00        -0.43311E+08
 
   -0.42932E+08         0.14210E+06         0.00000E+00
    0.14210E+06        -0.97599E+08         0.00000E+00
    0.00000E+00         0.00000E+00        -0.43151E+08
 
   -0.42774E+08         0.14323E+06         0.00000E+00
    0.14323E+06        -0.97599E+08         0.00000E+00
    0.00000E+00         0.00000E+00        -0.42988E+08
 
   -0.42614E+08         0.14432E+06         0.00000E+00
    0.14432E+06        -0.97599E+08         0.00000E+00
    0.00000E+00         0.00000E+00        -0.42824E+08
 
   -0.42453E+08         0.14535E+06         0.00000E+00
    0.14535E+06        -0.97599E+08         0.00000E+00
    0.00000E+00         0.00000E+00        -0.42658E+08
 
   -0.42291E+08         0.14633E+06         0.00000E+00
    0.14633E+06        -0.97600E+08         0.00000E+00
    0.00000E+00         0.00000E+00        -0.42491E+08
 
   -0.42128E+08         0.14725E+06         0.00000E+00
    0.14725E+06        -0.97600E+08         0.00000E+00
    0.00000E+00         0.00000E+00        -0.42321E+08
 
   -0.41964E+08         0.14809E+06         0.00000E+00
    0.14809E+06        -0.97600E+08         0.00000E+00
    0.00000E+00         0.00000E+00        -0.42150E+08
 
   -0.41799E+08         0.14885E+06         0.00000E+00
    0.14885E+06        -0.97600E+08         0.00000E+00
    0.00000E+00         0.00000E+00        -0.41977E+08
 
   -0.41633E+08         0.14952E+06         0.00000E+00
    0.14952E+06        -0.97600E+08         0.00000E+00
    0.00000E+00         0.00000E+00        -0.41802E+08
 
   -0.41466E+08         0.15009E+06         0.00000E+00
    0.15009E+06        -0.97600E+08         0.00000E+00
    0.00000E+00         0.00000E+00        -0.41626E+08
 
   -0.41299E+08         0.15054E+06         0.00000E+00
    0.15054E+06        -0.97600E+08         0.00000E+00
    0.00000E+00         0.00000E+00        -0.41448E+08
 
   -0.41132E+08         0.15087E+06         0.00000E+00
    0.15087E+06        -0.97600E+08         0.00000E+00
    0.00000E+00         0.00000E+00        -0.41268E+08
 
   -0.40964E+08         0.15105E+06         0.00000E+00
    0.15105E+06        -0.97600E+08         0.00000E+00
    0.00000E+00         0.00000E+00        -0.41087E+08
 
   -0.40796E+08         0.15106E+06         0.00000E+00
    0.15106E+06        -0.97600E+08         0.00000E+00
    0.00000E+00         0.00000E+00        -0.40904E+08
 
   -0.40628E+08         0.15089E+06         0.00000E+00
    0.15089E+06        -0.97600E+08         0.00000E+00
    0.00000E+00         0.00000E+00        -0.40719E+08
 
   -0.40461E+08         0.15051E+06         0.00000E+00
    0.15051E+06        -0.97600E+08         0.00000E+00
    0.00000E+00         0.00000E+00        -0.40533E+08
 
   -0.40294E+08         0.14989E+06         0.00000E+00
    0.14989E+06        -0.97600E+08         0.00000E+00
    0.00000E+00         0.00000E+00        -0.40345E+08
 
   -0.40127E+08         0.14900E+06         0.00000E+00
    0.14900E+06        -0.97600E+08         0.00000E+00
    0.00000E+00         0.00000E+00        -0.40156E+08
 
   -0.39962E+08         0.14780E+06         0.00000E+00
    0.14780E+06        -0.97601E+08         0.00000E+00
    0.00000E+00         0.00000E+00        -0.39966E+08
 
   -0.39799E+08         0.14624E+06         0.00000E+00
    0.14624E+06        -0.97601E+08         0.00000E+00
    0.00000E+00         0.00000E+00        -0.39774E+08
 
   -0.39637E+08         0.14428E+06         0.00000E+00
    0.14428E+06        -0.97601E+08         0.00000E+00
    0.00000E+00         0.00000E+00        -0.39580E+08
 
   -0.39478E+08         0.14185E+06         0.00000E+00
    0.14185E+06        -0.97601E+08         0.00000E+00
    0.00000E+00         0.00000E+00        -0.39386E+08
 
   -0.39322E+08         0.13889E+06         0.00000E+00
    0.13889E+06        -0.97601E+08         0.00000E+00
    0.00000E+00         0.00000E+00        -0.39190E+08
 
   -0.39169E+08         0.13532E+06         0.00000E+00
    0.13532E+06        -0.97602E+08         0.00000E+00
    0.00000E+00         0.00000E+00        -0.38993E+08
 
   -0.39021E+08         0.13106E+06         0.00000E+00
    0.13106E+06        -0.97602E+08         0.00000E+00
    0.00000E+00         0.00000E+00        -0.38795E+08
 
   -0.38877E+08         0.12600E+06         0.00000E+00
    0.12600E+06        -0.97603E+08         0.00000E+00
    0.00000E+00         0.00000E+00        -0.38596E+08
 
   -0.38740E+08         0.12003E+06         0.00000E+00
    0.12003E+06        -0.97603E+08         0.00000E+00
    0.00000E+00         0.00000E+00        -0.38395E+08
 
   -0.38609E+08         0.11305E+06         0.00000E+00
    0.11305E+06        -0.97603E+08         0.00000E+00
    0.00000E+00         0.00000E+00        -0.38194E+08
 
   -0.38486E+08         0.10493E+06         0.00000E+00
    0.10493E+06        -0.97604E+08         0.00000E+00
    0.00000E+00         0.00000E+00        -0.37992E+08
 
   -0.38373E+08         0.95544E+05         0.00000E+00
    0.95544E+05        -0.97605E+08         0.00000E+00
    0.00000E+00         0.00000E+00        -0.37789E+08
 
   -0.38270E+08         0.84775E+05         0.00000E+00
    0.84775E+05        -0.97605E+08         0.00000E+00
    0.00000E+00         0.00000E+00        -0.37585E+08
 
   -0.38178E+08         0.72521E+05         0.00000E+00
    0.72521E+05        -0.97606E+08         0.00000E+00
    0.00000E+00         0.00000E+00        -0.37381E+08
 
   -0.38100E+08         0.58709E+05         0.00000E+00
    0.58709E+05        -0.97607E+08         0.00000E+00
    0.00000E+00         0.00000E+00        -0.37175E+08
 
   -0.38037E+08         0.43314E+05         0.00000E+00
    0.43314E+05        -0.97608E+08         0.00000E+00
    0.00000E+00         0.00000E+00        -0.36970E+08
 
   -0.37990E+08         0.26380E+05         0.00000E+00
    0.26380E+05        -0.97608E+08         0.00000E+00
    0.00000E+00         0.00000E+00        -0.36763E+08
 
   -0.37960E+08         0.80479E+04         0.00000E+00
    0.80479E+04        -0.97609E+08         0.00000E+00
    0.00000E+00         0.00000E+00        -0.36557E+08
 
   -0.37948E+08        -0.11413E+05         0.00000E+00
   -0.11413E+05        -0.97610E+08         0.00000E+00
    0.00000E+00         0.00000E+00        -0.36349E+08
 
   -0.37954E+08        -0.31556E+05         0.00000E+00
   -0.31556E+05        -0.97610E+08         0.00000E+00
    0.00000E+00         0.00000E+00        -0.36142E+08
 
   -0.37978E+08        -0.51674E+05         0.00000E+00
   -0.51674E+05        -0.97610E+08         0.00000E+00
    0.00000E+00         0.00000E+00        -0.35934E+08
 
   -0.38017E+08        -0.70468E+05         0.00000E+00
   -0.70468E+05        -0.97610E+08         0.00000E+00
    0.00000E+00         0.00000E+00        -0.35727E+08
 
   -0.38065E+08        -0.85916E+05         0.00000E+00
   -0.85916E+05        -0.97608E+08         0.00000E+00
    0.00000E+00         0.00000E+00        -0.35519E+08
 
   -0.38106E+08        -0.87572E+05         0.00000E+00
   -0.87572E+05        -0.97604E+08         0.00000E+00
    0.00000E+00         0.00000E+00        -0.35311E+08
 
   -0.38122E+08        -0.43040E+05         0.00000E+00
   -0.43040E+05        -0.97551E+08         0.00000E+00
    0.00000E+00         0.00000E+00        -0.35104E+08
 
   -0.48435E+08        -0.19704E+05         0.00000E+00
   -0.19704E+05        -0.97616E+08         0.00000E+00
    0.00000E+00         0.00000E+00        -0.49952E+08
 
   -0.48449E+08        -0.36227E+05         0.00000E+00
   -0.36227E+05        -0.97597E+08         0.00000E+00
    0.00000E+00         0.00000E+00        -0.49855E+08
 
   -0.48475E+08        -0.32547E+05         0.00000E+00
   -0.32547E+05        -0.97597E+08         0.00000E+00
    0.00000E+00         0.00000E+00        -0.49759E+08
 
   -0.48501E+08        -0.25181E+05         0.00000E+00
   -0.25181E+05        -0.97597E+08         0.00000E+00
    0.00000E+00         0.00000E+00        -0.49662E+08
 
   -0.48520E+08        -0.17058E+05         0.00000E+00
   -0.17058E+05        -0.97597E+08         0.00000E+00
    0.00000E+00         0.00000E+00        -0.49566E+08
 
   -0.48530E+08        -0.86437E+04         0.00000E+00
   -0.86437E+04        -0.97597E+08         0.00000E+00
    0.00000E+00         0.00000E+00        -0.49470E+08
 
   -0.48530E+08        -0.35603E+03         0.00000E+00
   -0.35603E+03        -0.97597E+08         0.00000E+00
    0.00000E+00         0.00000E+00        -0.49373E+08
 
   -0.48520E+08         0.76051E+04         0.00000E+00
    0.76051E+04        -0.97597E+08         0.00000E+00
    0.00000E+00         0.00000E+00        -0.49276E+08
 
   -0.48500E+08         0.15103E+05         0.00000E+00
    0.15103E+05        -0.97597E+08         0.00000E+00
    0.00000E+00         0.00000E+00        -0.49179E+08
 
   -0.48471E+08         0.22058E+05         0.00000E+00
    0.22058E+05        -0.97598E+08         0.00000E+00
    0.00000E+00         0.00000E+00        -0.49082E+08
 
   -0.48433E+08         0.28433E+05         0.00000E+00
    0.28433E+05        -0.97598E+08         0.00000E+00
    0.00000E+00         0.00000E+00        -0.48984E+08
 
   -0.48386E+08         0.34222E+05         0.00000E+00
    0.34222E+05        -0.97598E+08         0.00000E+00
    0.00000E+00         0.00000E+00        -0.48886E+08
 
   -0.48333E+08         0.39443E+05         0.00000E+00
    0.39443E+05        -0.97598E+08         0.00000E+00
    0.00000E+00         0.00000E+00        -0.48787E+08
 
   -0.48272E+08         0.44130E+05         0.00000E+00
    0.44130E+05        -0.97598E+08         0.00000E+00
    0.00000E+00         0.00000E+00        -0.48688E+08
 
   -0.48206E+08         0.48326E+05         0.00000E+00
    0.48326E+05        -0.97599E+08         0.00000E+00
    0.00000E+00         0.00000E+00        -0.48588E+08
 
   -0.48134E+08         0.52080E+05         0.00000E+00
    0.52080E+05        -0.97599E+08         0.00000E+00
    0.00000E+00         0.00000E+00        -0.48487E+08
 
   -0.48057E+08         0.55441E+05         0.00000E+00
    0.55441E+05        -0.97599E+08         0.00000E+00
    0.00000E+00         0.00000E+00        -0.48386E+08
 
   -0.47976E+08         0.58456E+05         0.00000E+00
    0.58456E+05        -0.97599E+08         0.00000E+00
    0.00000E+00         0.00000E+00        -0.48284E+08
 
   -0.47890E+08         0.61170E+05         0.00000E+00
    0.61170E+05        -0.97599E+08         0.00000E+00
    0.00000E+00         0.00000E+00        -0.48181E+08
 
   -0.47801E+08         0.63625E+05         0.00000E+00
    0.63625E+05        -0.97599E+08         0.00000E+00
    0.00000E+00         0.00000E+00        -0.48078E+08
 
   -0.47709E+08         0.65858E+05         0.00000E+00
    0.65858E+05        -0.97599E+08         0.00000E+00
    0.00000E+00         0.00000E+00        -0.47973E+08
 
   -0.47614E+08         0.67902E+05         0.00000E+00
    0.67902E+05        -0.97599E+08         0.00000E+00
    0.00000E+00         0.00000E+00        -0.47868E+08
 
   -0.47516E+08         0.69785E+05         0.00000E+00
    0.69785E+05        -0.97599E+08         0.00000E+00
    0.00000E+00         0.00000E+00        -0.47762E+08
 
   -0.47415E+08         0.71532E+05         0.00000E+00
    0.71532E+05        -0.97599E+08         0.00000E+00
    0.00000E+00         0.00000E+00        -0.47654E+08
 
   -0.47312E+08         0.73166E+05         0.00000E+00
    0.73166E+05        -0.97599E+08         0.00000E+00
    0.00000E+00         0.00000E+00        -0.47546E+08
 
   -0.47206E+08         0.74703E+05         0.00000E+00
    0.74703E+05        -0.97599E+08         0.00000E+00
    0.00000E+00         0.00000E+00        -0.47436E+08
 
   -0.47099E+08         0.76161E+05         0.00000E+00
    0.76161E+05        -0.97599E+08         0.00000E+00
    0.00000E+00         0.00000E+00        -0.47326E+08
 
   -0.46989E+08         0.77552E+05         0.00000E+00
    0.77552E+05        -0.97599E+08         0.00000E+00
    0.00000E+00         0.00000E+00        -0.47214E+08
 
   -0.46878E+08         0.78887E+05         0.00000E+00
    0.78887E+05        -0.97600E+08         0.00000E+00
    0.00000E+00         0.00000E+00        -0.47101E+08
 
   -0.46764E+08         0.80177E+05         0.00000E+00
    0.80177E+05        -0.97600E+08         0.00000E+00
    0.00000E+00         0.00000E+00        -0.46986E+08
 
   -0.46649E+08         0.81428E+05         0.00000E+00
    0.81428E+05        -0.97600E+08         0.00000E+00
    0.00000E+00         0.00000E+00        -0.46871E+08
 
   -0.46532E+08         0.82649E+05         0.00000E+00
    0.82649E+05        -0.97600E+08         0.00000E+00
    0.00000E+00         0.00000E+00        -0.46754E+08
 
   -0.46413E+08         0.83844E+05         0.00000E+00
    0.83844E+05        -0.97600E+08         0.00000E+00
    0.00000E+00         0.00000E+00        -0.46635E+08
 
   -0.46293E+08         0.85018E+05         0.00000E+00
    0.85018E+05        -0.97600E+08         0.00000E+00
    0.00000E+00         0.00000E+00        -0.46515E+08
 
   -0.46171E+08         0.86175E+05         0.00000E+00
    0.86175E+05        -0.97600E+08         0.00000E+00
    0.00000E+00         0.00000E+00        -0.46394E+08
 
   -0.46047E+08         0.87318E+05         0.00000E+00
    0.87318E+05        -0.97600E+08         0.00000E+00
    0.00000E+00         0.00000E+00        -0.46271E+08
 
   -0.45922E+08         0.88451E+05         0.00000E+00
    0.88451E+05        -0.97600E+08         0.00000E+00
    0.00000E+00         0.00000E+00        -0.46147E+08
 
   -0.45795E+08         0.89575E+05         0.00000E+00
    0.89575E+05        -0.97600E+08         0.00000E+00
    0.00000E+00         0.00000E+00        -0.46021E+08
 
   -0.45666E+08         0.90691E+05         0.00000E+00
    0.90691E+05        -0.97600E+08         0.00000E+00
    0.00000E+00         0.00000E+00        -0.45894E+08
 
   -0.45536E+08         0.91801E+05         0.00000E+00
    0.91801E+05        -0.97600E+08         0.00000E+00
    0.00000E+00         0.00000E+00        -0.45765E+08
 
   -0.45404E+08         0.92906E+05         0.00000E+00
    0.92906E+05        -0.97600E+08         0.00000E+00
    0.00000E+00         0.00000E+00        -0.45635E+08
 
   -0.45271E+08         0.94007E+05         0.00000E+00
    0.94007E+05        -0.97600E+08         0.00000E+00
    0.00000E+00         0.00000E+00        -0.45503E+08
 
   -0.45136E+08         0.95103E+05         0.00000E+00
    0.95103E+05        -0.97600E+08         0.00000E+00
    0.00000E+00         0.00000E+00        -0.45369E+08
 
   -0.44999E+08         0.96195E+05         0.00000E+00
    0.96195E+05        -0.97600E+08         0.00000E+00
    0.00000E+00         0.00000E+00        -0.45233E+08
 
   -0.44861E+08         0.97282E+05         0.00000E+00
    0.97282E+05        -0.97600E+08         0.00000E+00
    0.00000E+00         0.00000E+00        -0.45096E+08
 
   -0.44721E+08         0.98365E+05         0.00000E+00
    0.98365E+05        -0.97600E+08         0.00000E+00
    0.00000E+00         0.00000E+00        -0.44957E+08
 
   -0.44580E+08         0.99442E+05         0.00000E+00
    0.99442E+05        -0.97600E+08         0.00000E+00
    0.00000E+00         0.00000E+00        -0.44816E+08
 
   -0.44437E+08         0.10051E+06         0.00000E+00
    0.10051E+06        -0.97600E+08         0.00000E+00
    0.00000E+00         0.00000E+00        -0.44674E+08
 
   -0.44293E+08         0.10158E+06         0.00000E+00
    0.10158E+06        -0.97600E+08         0.00000E+00
    0.00000E+00         0.00000E+00        -0.44530E+08
 
   -0.44147E+08         0.10263E+06         0.00000E+00
    0.10263E+06        -0.97600E+08         0.00000E+00
    0.00000E+00         0.00000E+00        -0.44384E+08
 
   -0.44000E+08         0.10367E+06         0.00000E+00
    0.10367E+06        -0.97600E+08         0.00000E+00
    0.00000E+00         0.00000E+00        -0.44236E+08
 
   -0.43851E+08         0.10471E+06         0.00000E+00
    0.10471E+06        -0.97600E+08         0.00000E+00
    0.00000E+00         0.00000E+00        -0.44086E+08
 
   -0.43701E+08         0.10572E+06         0.00000E+00
    0.10572E+06        -0.97600E+08         0.00000E+00
    0.00000E+00         0.00000E+00        -0.43935E+08
 
   -0.43549E+08         0.10673E+06         0.00000E+00
    0.10673E+06        -0.97600E+08         0.00000E+00
    0.00000E+00         0.00000E+00        -0.43782E+08
 
   -0.43396E+08         0.10771E+06         0.00000E+00
    0.10771E+06        -0.97600E+08         0.00000E+00
    0.00000E+00         0.00000E+00        -0.43627E+08
 
   -0.43241E+08         0.10867E+06         0.00000E+00
    0.10867E+06        -0.97600E+08         0.00000E+00
    0.00000E+00         0.00000E+00        -0.43470E+08
 
   -0.43086E+08         0.10961E+06         0.00000E+00
    0.10961E+06        -0.97600E+08         0.00000E+00
    0.00000E+00         0.00000E+00        -0.43311E+08
 
   -0.42928E+08         0.11052E+06         0.00000E+00
    0.11052E+06        -0.97600E+08         0.00000E+00
    0.00000E+00         0.00000E+00        -0.43151E+08
 
   -0.42770E+08         0.11140E+06         0.00000E+00
    0.11140E+06        -0.97600E+08         0.00000E+00
    0.00000E+00         0.00000E+00        -0.42988E+08
 
   -0.42610E+08         0.11225E+06         0.00000E+00
    0.11225E+06        -0.97600E+08         0.00000E+00
    0.00000E+00         0.00000E+00        -0.42824E+08
 
   -0.42449E+08         0.11305E+06         0.00000E+00
    0.11305E+06        -0.97600E+08         0.00000E+00
    0.00000E+00         0.00000E+00        -0.42658E+08
 
   -0.42287E+08         0.11381E+06         0.00000E+00
    0.11381E+06        -0.97600E+08         0.00000E+00
    0.00000E+00         0.00000E+00        -0.42491E+08
 
   -0.42124E+08         0.11452E+06         0.00000E+00
    0.11452E+06        -0.97600E+08         0.00000E+00
    0.00000E+00         0.00000E+00        -0.42321E+08
 
   -0.41960E+08         0.11518E+06         0.00000E+00
    0.11518E+06        -0.97600E+08         0.00000E+00
    0.00000E+00         0.00000E+00        -0.42150E+08
 
   -0.41795E+08         0.11577E+06         0.00000E+00
    0.11577E+06        -0.97600E+08         0.00000E+00
    0.00000E+00         0.00000E+00        -0.41977E+08
 
   -0.41629E+08         0.11629E+06         0.00000E+00
    0.11629E+06        -0.97600E+08         0.00000E+00
    0.00000E+00         0.00000E+00        -0.41802E+08
 
   -0.41463E+08         0.11673E+06         0.00000E+00
    0.11673E+06        -0.97600E+08         0.00000E+00
    0.00000E+00         0.00000E+00        -0.41626E+08
 
   -0.41295E+08         0.11708E+06         0.00000E+00
    0.11708E+06        -0.97600E+08         0.00000E+00
    0.00000E+00         0.00000E+00        -0.41448E+08
 
   -0.41128E+08         0.11733E+06         0.00000E+00
    0.11733E+06        -0.97600E+08         0.00000E+00
    0.00000E+00         0.00000E+00        -0.41268E+08
 
   -0.40960E+08         0.11747E+06         0.00000E+00
    0.11747E+06        -0.97600E+08         0.00000E+00
    0.00000E+00         0.00000E+00        -0.41087E+08
 
   -0.40792E+08         0.11749E+06         0.00000E+00
    0.11749E+06        -0.97600E+08         0.00000E+00
    0.00000E+00         0.00000E+00        -0.40904E+08
 
   -0.40625E+08         0.11735E+06         0.00000E+00
    0.11735E+06        -0.97600E+08         0.00000E+00
    0.00000E+00         0.00000E+00        -0.40719E+08
 
   -0.40457E+08         0.11706E+06         0.00000E+00
    0.11706E+06        -0.97600E+08         0.00000E+00
    0.00000E+00         0.00000E+00        -0.40533E+08
 
   -0.40290E+08         0.11658E+06         0.00000E+00
    0.11658E+06        -0.97600E+08         0.00000E+00
    0.00000E+00         0.00000E+00        -0.40345E+08
 
   -0.40124E+08         0.11588E+06         0.00000E+00
    0.11588E+06        -0.97600E+08         0.00000E+00
    0.00000E+00         0.00000E+00        -0.40156E+08
 
   -0.39959E+08         0.11495E+06         0.00000E+00
    0.11495E+06        -0.97600E+08         0.00000E+00
    0.00000E+00         0.00000E+00        -0.39966E+08
 
   -0.39796E+08         0.11373E+06         0.00000E+00
    0.11373E+06        -0.97600E+08         0.00000E+00
    0.00000E+00         0.00000E+00        -0.39774E+08
 
   -0.39634E+08         0.11220E+06         0.00000E+00
    0.11220E+06        -0.97601E+08         0.00000E+00
    0.00000E+00         0.00000E+00        -0.39580E+08
 
   -0.39475E+08         0.11031E+06         0.00000E+00
    0.11031E+06        -0.97601E+08         0.00000E+00
    0.00000E+00         0.00000E+00        -0.39386E+08
 
   -0.39319E+08         0.10800E+06         0.00000E+00
    0.10800E+06        -0.97601E+08         0.00000E+00
    0.00000E+00         0.00000E+00        -0.39190E+08
 
   -0.39167E+08         0.10521E+06         0.00000E+00
    0.10521E+06        -0.97601E+08         0.00000E+00
    0.00000E+00         0.00000E+00        -0.38993E+08
 
   -0.39018E+08         0.10187E+06         0.00000E+00
    0.10187E+06        -0.97601E+08         0.00000E+00
    0.00000E+00         0.00000E+00        -0.38795E+08
 
   -0.38875E+08         0.97901E+05         0.00000E+00
    0.97901E+05        -0.97602E+08         0.00000E+00
    0.00000E+00         0.00000E+00        -0.38596E+08
 
   -0.38738E+08         0.93222E+05         0.00000E+00
    0.93222E+05        -0.97602E+08         0.00000E+00
    0.00000E+00         0.00000E+00        -0.38395E+08
 
   -0.38608E+08         0.87734E+05         0.00000E+00
    0.87734E+05        -0.97602E+08         0.00000E+00
    0.00000E+00         0.00000E+00        -0.38194E+08
 
   -0.38486E+08         0.81340E+05         0.00000E+00
    0.81340E+05        -0.97602E+08         0.00000E+00
    0.00000E+00         0.00000E+00        -0.37992E+08
 
   -0.38373E+08         0.73938E+05         0.00000E+00
    0.73938E+05        -0.97603E+08         0.00000E+00
    0.00000E+00         0.00000E+00        -0.37789E+08
 
   -0.38272E+08         0.65429E+05         0.00000E+00
    0.65429E+05        -0.97603E+08         0.00000E+00
    0.00000E+00         0.00000E+00        -0.37585E+08
 
   -0.38182E+08         0.55728E+05         0.00000E+00
    0.55728E+05        -0.97604E+08         0.00000E+00
    0.00000E+00         0.00000E+00        -0.37381E+08
 
   -0.38106E+08         0.44769E+05         0.00000E+00
    0.44769E+05        -0.97604E+08         0.00000E+00
    0.00000E+00         0.00000E+00        -0.37175E+08
 
   -0.38046E+08         0.32523E+05         0.00000E+00
    0.32523E+05        -0.97605E+08         0.00000E+00
    0.00000E+00         0.00000E+00        -0.36970E+08
 
   -0.38002E+08         0.19012E+05         0.00000E+00
    0.19012E+05        -0.97605E+08         0.00000E+00
    0.00000E+00         0.00000E+00        -0.36763E+08
 
   -0.37976E+08         0.43282E+04         0.00000E+00
    0.43282E+04        -0.97606E+08         0.00000E+00
    0.00000E+00         0.00000E+00        -0.36557E+08
 
   -0.37970E+08        -0.11343E+05         0.00000E+00
   -0.11343E+05        -0.97606E+08         0.00000E+00
    0.00000E+00         0.00000E+00        -0.36349E+08
 
   -0.37983E+08        -0.27692E+05         0.00000E+00
   -0.27692E+05        -0.97606E+08         0.00000E+00
    0.00000E+00         0.00000E+00        -0.36142E+08
 
   -0.38016E+08        -0.44270E+05         0.00000E+00
   -0.44270E+05        -0.97606E+08         0.00000E+00
    0.00000E+00         0.00000E+00        -0.35934E+08
 
   -0.38067E+08        -0.60161E+05         0.00000E+00
   -0.60161E+05        -0.97606E+08         0.00000E+00
    0.00000E+00         0.00000E+00        -0.35727E+08
 
   -0.38130E+08        -0.74336E+05         0.00000E+00
   -0.74336E+05        -0.97606E+08         0.00000E+00
    0.00000E+00         0.00000E+00        -0.35519E+08
 
   -0.38191E+08        -0.80487E+05         0.00000E+00
   -0.80487E+05        -0.97606E+08         0.00000E+00
    0.00000E+00         0.00000E+00        -0.35311E+08
 
   -0.38221E+08        -0.43205E+05         0.00000E+00
   -0.43205E+05        -0.97566E+08         0.00000E+00
    0.00000E+00         0.00000E+00        -0.35104E+08
 
   -0.48384E+08        -0.19366E+05         0.00000E+00
   -0.19366E+05        -0.97609E+08         0.00000E+00
    0.00000E+00         0.00000E+00        -0.49952E+08
 
   -0.48407E+08        -0.31050E+05         0.00000E+00
   -0.31050E+05        -0.97597E+08         0.00000E+00
    0.00000E+00         0.00000E+00        -0.49855E+08
 
   -0.48444E+08        -0.25921E+05         0.00000E+00
   -0.25921E+05        -0.97598E+08         0.00000E+00
    0.00000E+00         0.00000E+00        -0.49759E+08
 
   -0.48478E+08        -0.19934E+05         0.00000E+00
   -0.19934E+05        -0.97598E+08         0.00000E+00
    0.00000E+00         0.00000E+00        -0.49662E+08
 
   -0.48502E+08        -0.13619E+05         0.00000E+00
   -0.13619E+05        -0.97598E+08         0.00000E+00
    0.00000E+00         0.00000E+00        -0.49566E+08
 
   -0.48517E+08        -0.72618E+04         0.00000E+00
   -0.72618E+04        -0.97598E+08         0.00000E+00
    0.00000E+00         0.00000E+00        -0.49470E+08
 
   -0.48520E+08        -0.10860E+04         0.00000E+00
   -0.10860E+04        -0.97598E+08         0.00000E+00
    0.00000E+00         0.00000E+00        -0.49373E+08
 
   -0.48512E+08         0.47997E+04         0.00000E+00
    0.47997E+04        -0.97598E+08         0.00000E+00
    0.00000E+00         0.00000E+00        -0.49276E+08
 
   -0.48494E+08         0.10312E+05         0.00000E+00
    0.10312E+05        -0.97599E+08         0.00000E+00
    0.00000E+00         0.00000E+00        -0.49179E+08
 
   -0.48466E+08         0.15405E+05         0.00000E+00
    0.15405E+05        -0.97599E+08         0.00000E+00
    0.00000E+00         0.00000E+00        -0.49082E+08
 
   -0.48429E+08         0.20057E+05         0.00000E+00
    0.20057E+05        -0.97599E+08         0.00000E+00
    0.00000E+00         0.00000E+00        -0.48984E+08
 
   -0.48383E+08         0.24269E+05         0.00000E+00
    0.24269E+05        -0.97599E+08         0.00000E+00
    0.00000E+00         0.00000E+00        -0.48886E+08
 
   -0.48330E+08         0.28058E+05         0.00000E+00
    0.28058E+05        -0.97599E+08         0.00000E+00
    0.00000E+00         0.00000E+00        -0.48787E+08
 
   -0.48270E+08         0.31452E+05         0.00000E+00
    0.31452E+05        -0.97599E+08         0.00000E+00
    0.00000E+00         0.00000E+00        -0.48688E+08
 
   -0.48204E+08         0.34485E+05         0.00000E+00
    0.34485E+05        -0.97599E+08         0.00000E+00
    0.00000E+00         0.00000E+00        -0.48588E+08
 
   -0.48132E+08         0.37191E+05         0.00000E+00
    0.37191E+05        -0.97599E+08         0.00000E+00
    0.00000E+00         0.00000E+00        -0.48487E+08
 
   -0.48055E+08         0.39610E+05         0.00000E+00
    0.39610E+05        -0.97599E+08         0.00000E+00
    0.00000E+00         0.00000E+00        -0.48386E+08
 
   -0.47974E+08         0.41777E+05         0.00000E+00
    0.41777E+05        -0.97599E+08         0.00000E+00
    0.00000E+00         0.00000E+00        -0.48284E+08
 
   -0.47889E+08         0.43724E+05         0.00000E+00
    0.43724E+05        -0.97599E+08         0.00000E+00
    0.00000E+00         0.00000E+00        -0.48181E+08
 
   -0.47800E+08         0.45483E+05         0.00000E+00
    0.45483E+05        -0.97600E+08         0.00000E+00
    0.00000E+00         0.00000E+00        -0.48078E+08
 
   -0.47707E+08         0.47081E+05         0.00000E+00
    0.47081E+05        -0.97600E+08         0.00000E+00
    0.00000E+00         0.00000E+00        -0.47973E+08
 
   -0.47612E+08         0.48543E+05         0.00000E+00
    0.48543E+05        -0.97600E+08         0.00000E+00
    0.00000E+00         0.00000E+00        -0.47868E+08
 
   -0.47514E+08         0.49888E+05         0.00000E+00
    0.49888E+05        -0.97600E+08         0.00000E+00
    0.00000E+00         0.00000E+00        -0.47762E+08
 
   -0.47413E+08         0.51136E+05         0.00000E+00
    0.51136E+05        -0.97600E+08         0.00000E+00
    0.00000E+00         0.00000E+00        -0.47654E+08
 
   -0.47310E+08         0.52302E+05         0.00000E+00
    0.52302E+05        -0.97600E+08         0.00000E+00
    0.00000E+00         0.00000E+00        -0.47546E+08
 
   -0.47204E+08         0.53398E+05         0.00000E+00
    0.53398E+05        -0.97600E+08         0.00000E+00
    0.00000E+00         0.00000E+00        -0.47436E+08
 
   -0.47097E+08         0.54438E+05         0.00000E+00
    0.54438E+05        -0.97600E+08         0.00000E+00
    0.00000E+00         0.00000E+00        -0.47326E+08
 
   -0.46987E+08         0.55430E+05         0.00000E+00
    0.55430E+05        -0.97600E+08         0.00000E+00
    0.00000E+00         0.00000E+00        -0.47214E+08
 
   -0.46875E+08         0.56382E+05         0.00000E+00
    0.56382E+05        -0.97600E+08         0.00000E+00
    0.00000E+00         0.00000E+00        -0.47101E+08
 
   -0.46762E+08         0.57301E+05         0.00000E+00
    0.57301E+05        -0.97600E+08         0.00000E+00
    0.00000E+00         0.00000E+00        -0.46986E+08
 
   -0.46646E+08         0.58194E+05         0.00000E+00
    0.58194E+05        -0.97600E+08         0.00000E+00
    0.00000E+00         0.00000E+00        -0.46871E+08
 
   -0.46529E+08         0.59064E+05         0.00000E+00
    0.59064E+05        -0.97600E+08         0.00000E+00
    0.00000E+00         0.00000E+00        -0.46754E+08
 
   -0.46411E+08         0.59916E+05         0.00000E+00
    0.59916E+05        -0.97600E+08         0.00000E+00
    0.00000E+00         0.00000E+00        -0.46635E+08
 
   -0.46290E+08         0.60753E+05         0.00000E+00
    0.60753E+05        -0.97600E+08         0.00000E+00
    0.00000E+00         0.00000E+00        -0.46515E+08
 
   -0.46168E+08         0.61578E+05         0.00000E+00
    0.61578E+05        -0.97600E+08         0.00000E+00
    0.00000E+00         0.00000E+00        -0.46394E+08
 
   -0.46044E+08         0.62394E+05         0.00000E+00
    0.62394E+05        -0.97600E+08         0.00000E+00
    0.00000E+00         0.00000E+00        -0.46271E+08
 
   -0.45918E+08         0.63202E+05         0.00000E+00
    0.63202E+05        -0.97600E+08         0.00000E+00
    0.00000E+00         0.00000E+00        -0.46147E+08
 
   -0.45791E+08         0.64003E+05         0.00000E+00
    0.64003E+05        -0.97600E+08         0.00000E+00
    0.00000E+00         0.00000E+00        -0.46021E+08
 
   -0.45663E+08         0.64799E+05         0.00000E+00
    0.64799E+05        -0.97600E+08         0.00000E+00
    0.00000E+00         0.00000E+00        -0.45894E+08
 
   -0.45532E+08         0.65591E+05         0.00000E+00
    0.65591E+05        -0.97600E+08         0.00000E+00
    0.00000E+00         0.00000E+00        -0.45765E+08
 
   -0.45401E+08         0.66379E+05         0.00000E+00
    0.66379E+05        -0.97600E+08         0.00000E+00
    0.00000E+00         0.00000E+00        -0.45635E+08
 
   -0.45267E+08         0.67164E+05         0.00000E+00
    0.67164E+05        -0.97600E+08         0.00000E+00
    0.00000E+00         0.00000E+00        -0.45503E+08
 
   -0.45132E+08         0.67946E+05         0.00000E+00
    0.67946E+05        -0.97600E+08         0.00000E+00
    0.00000E+00         0.00000E+00        -0.45369E+08
 
   -0.44995E+08         0.68725E+05         0.00000E+00
    0.68725E+05        -0.97600E+08         0.00000E+00
    0.00000E+00         0.00000E+00        -0.45233E+08
 
   -0.44857E+08         0.69501E+05         0.00000E+00
    0.69501E+05        -0.97600E+08         0.00000E+00
    0.00000E+00         0.00000E+00        -0.45096E+08
 
   -0.44718E+08         0.70273E+05         0.00000E+00
    0.70273E+05        -0.97600E+08         0.00000E+00
    0.00000E+00         0.00000E+00        -0.44957E+08
 
   -0.44576E+08         0.71041E+05         0.00000E+00
    0.71041E+05        -0.97600E+08         0.00000E+00
    0.00000E+00         0.00000E+00        -0.44816E+08
 
   -0.44434E+08         0.71805E+05         0.00000E+00
    0.71805E+05        -0.97600E+08         0.00000E+00
    0.00000E+00         0.00000E+00        -0.44674E+08
 
   -0.44289E+08         0.72564E+05         0.00000E+00
    0.72564E+05        -0.97600E+08         0.00000E+00
    0.00000E+00         0.00000E+00        -0.44530E+08
 
   -0.44143E+08         0.73316E+05         0.00000E+00
    0.73316E+05        -0.97600E+08         0.00000E+00
    0.00000E+00         0.00000E+00        -0.44384E+08
 
   -0.43996E+08         0.74060E+05         0.00000E+00
    0.74060E+05        -0.97600E+08         0.00000E+00
    0.00000E+00         0.00000E+00        -0.44236E+08
 
   -0.43847E+08         0.74797E+05         0.00000E+00
    0.74797E+05        -0.97600E+08         0.00000E+00
    0.00000E+00         0.00000E+00        -0.44086E+08
 
   -0.43697E+08         0.75523E+05         0.00000E+00
    0.75523E+05        -0.97600E+08         0.00000E+00
    0.00000E+00         0.00000E+00        -0.43935E+08
 
   -0.43545E+08         0.76237E+05         0.00000E+00
    0.76237E+05        -0.97600E+08         0.00000E+00
    0.00000E+00         0.00000E+00        -0.43782E+08
 
   -0.43392E+08         0.76939E+05         0.00000E+00
    0.76939E+05        -0.97600E+08         0.00000E+00
    0.00000E+00         0.00000E+00        -0.43627E+08
 
   -0.43238E+08         0.77625E+05         0.00000E+00
    0.77625E+05        -0.97600E+08         0.00000E+00
    0.00000E+00         0.00000E+00        -0.43470E+08
 
   -0.43082E+08         0.78294E+05         0.00000E+00
    0.78294E+05        -0.97600E+08         0.00000E+00
    0.00000E+00         0.00000E+00        -0.43311E+08
 
   -0.42924E+08         0.78944E+05         0.00000E+00
    0.78944E+05        -0.97600E+08         0.00000E+00
    0.00000E+00         0.00000E+00        -0.43151E+08
 
   -0.42766E+08         0.79571E+05         0.00000E+00
    0.79571E+05        -0.97600E+08         0.00000E+00
    0.00000E+00         0.00000E+00        -0.42988E+08
 
   -0.42606E+08         0.80174E+05         0.00000E+00
    0.80174E+05        -0.97600E+08         0.00000E+00
    0.00000E+00         0.00000E+00        -0.42824E+08
 
   -0.42445E+08         0.80748E+05         0.00000E+00
    0.80748E+05        -0.97600E+08         0.00000E+00
    0.00000E+00         0.00000E+00        -0.42658E+08
 
   -0.42283E+08         0.81291E+05         0.00000E+00
    0.81291E+05        -0.97600E+08         0.00000E+00
    0.00000E+00         0.00000E+00        -0.42491E+08
 
   -0.42120E+08         0.81798E+05         0.00000E+00
    0.81798E+05        -0.97600E+08         0.00000E+00
    0.00000E+00         0.00000E+00        -0.42321E+08
 
   -0.41956E+08         0.82265E+05         0.00000E+00
    0.82265E+05        -0.97600E+08         0.00000E+00
    0.00000E+00         0.00000E+00        -0.42150E+08
 
   -0.41791E+08         0.82687E+05         0.00000E+00
    0.82687E+05        -0.97600E+08         0.00000E+00
    0.00000E+00         0.00000E+00        -0.41977E+08
 
   -0.41625E+08         0.83059E+05         0.00000E+00
    0.83059E+05        -0.97600E+08         0.00000E+00
    0.00000E+00         0.00000E+00        -0.41802E+08
 
   -0.41459E+08         0.83374E+05         0.00000E+00
    0.83374E+05        -0.97600E+08         0.00000E+00
    0.00000E+00         0.00000E+00        -0.41626E+08
 
   -0.41292E+08         0.83626E+05         0.00000E+00
    0.83626E+05        -0.97600E+08         0.00000E+00
    0.00000E+00         0.00000E+00        -0.41448E+08
 
   -0.41124E+08         0.83807E+05         0.00000E+00
    0.83807E+05        -0.97600E+08         0.00000E+00
    0.00000E+00         0.00000E+00        -0.41268E+08
 
   -0.40957E+08         0.83907E+05         0.00000E+00
    0.83907E+05        -0.97600E+08         0.00000E+00
    0.00000E+00         0.00000E+00        -0.41087E+08
 
   -0.40789E+08         0.83916E+05         0.00000E+00
    0.83916E+05        -0.97600E+08         0.00000E+00
    0.00000E+00         0.00000E+00        -0.40904E+08
 
   -0.40621E+08         0.83822E+05         0.00000E+00
    0.83822E+05        -0.97600E+08         0.00000E+00
    0.00000E+00         0.00000E+00        -0.40719E+08
 
   -0.40453E+08         0.83611E+05         0.00000E+00
    0.83611E+05        -0.97600E+08         0.00000E+00
    0.00000E+00         0.00000E+00        -0.40533E+08
 
   -0.40287E+08         0.83268E+05         0.00000E+00
    0.83268E+05        -0.97600E+08         0.00000E+00
    0.00000E+00         0.00000E+00        -0.40345E+08
 
   -0.40121E+08         0.82773E+05         0.00000E+00
    0.82773E+05        -0.97600E+08         0.00000E+00
    0.00000E+00         0.00000E+00        -0.40156E+08
 
   -0.39956E+08         0.82104E+05         0.00000E+00
    0.82104E+05        -0.97600E+08         0.00000E+00
    0.00000E+00         0.00000E+00        -0.39966E+08
 
   -0.39792E+08         0.81237E+05         0.00000E+00
    0.81237E+05        -0.97600E+08         0.00000E+00
    0.00000E+00         0.00000E+00        -0.39774E+08
 
   -0.39631E+08         0.80142E+05         0.00000E+00
    0.80142E+05        -0.97600E+08         0.00000E+00
    0.00000E+00         0.00000E+00        -0.39580E+08
 
   -0.39472E+08         0.78786E+05         0.00000E+00
    0.78786E+05        -0.97600E+08         0.00000E+00
    0.00000E+00         0.00000E+00        -0.39386E+08
 
   -0.39316E+08         0.77129E+05         0.00000E+00
    0.77129E+05        -0.97600E+08         0.00000E+00
    0.00000E+00         0.00000E+00        -0.39190E+08
 
   -0.39164E+08         0.75126E+05         0.00000E+00
    0.75126E+05        -0.97601E+08         0.00000E+00
    0.00000E+00         0.00000E+00        -0.38993E+08
 
   -0.39016E+08         0.72726E+05         0.00000E+00
    0.72726E+05        -0.97601E+08         0.00000E+00
    0.00000E+00         0.00000E+00        -0.38795E+08
 
   -0.38873E+08         0.69872E+05         0.00000E+00
    0.69872E+05        -0.97601E+08         0.00000E+00
    0.00000E+00         0.00000E+00        -0.38596E+08
 
   -0.38736E+08         0.66499E+05         0.00000E+00
    0.66499E+05        -0.97601E+08         0.00000E+00
    0.00000E+00         0.00000E+00        -0.38395E+08
 
   -0.38606E+08         0.62537E+05         0.00000E+00
    0.62537E+05        -0.97601E+08         0.00000E+00
    0.00000E+00         0.00000E+00        -0.38194E+08
 
   -0.38485E+08         0.57913E+05         0.00000E+00
    0.57913E+05        -0.97601E+08         0.00000E+00
    0.00000E+00         0.00000E+00        -0.37992E+08
 
   -0.38373E+08         0.52549E+05         0.00000E+00
    0.52549E+05        -0.97602E+08         0.00000E+00
    0.00000E+00         0.00000E+00        -0.37789E+08
 
   -0.38273E+08         0.46370E+05         0.00000E+00
    0.46370E+05        -0.97602E+08         0.00000E+00
    0.00000E+00         0.00000E+00        -0.37585E+08
 
   -0.38184E+08         0.39310E+05         0.00000E+00
    0.39310E+05        -0.97602E+08         0.00000E+00
    0.00000E+00         0.00000E+00        -0.37381E+08
 
   -0.38111E+08         0.31314E+05         0.00000E+00
    0.31314E+05        -0.97602E+08         0.00000E+00
    0.00000E+00         0.00000E+00        -0.37175E+08
 
   -0.38053E+08         0.22355E+05         0.00000E+00
    0.22355E+05        -0.97603E+08         0.00000E+00
    0.00000E+00         0.00000E+00        -0.36970E+08
 
   -0.38013E+08         0.12436E+05         0.00000E+00
    0.12436E+05        -0.97603E+08         0.00000E+00
    0.00000E+00         0.00000E+00        -0.36763E+08
 
   -0.37991E+08         0.16121E+04         0.00000E+00
    0.16121E+04        -0.97603E+08         0.00000E+00
    0.00000E+00         0.00000E+00        -0.36557E+08
 
   -0.37991E+08        -0.10007E+05         0.00000E+00
   -0.10007E+05        -0.97603E+08         0.00000E+00
    0.00000E+00         0.00000E+00        -0.36349E+08
 
   -0.38011E+08        -0.22230E+05         0.00000E+00
   -0.22230E+05        -0.97603E+08         0.00000E+00
    0.00000E+00         0.00000E+00        -0.36142E+08
 
   -0.38053E+08        -0.34810E+05         0.00000E+00
   -0.34810E+05        -0.97604E+08         0.00000E+00
    0.00000E+00         0.00000E+00        -0.35934E+08
 
   -0.38116E+08        -0.47250E+05         0.00000E+00
   -0.47250E+05        -0.97604E+08         0.00000E+00
    0.00000E+00         0.00000E+00        -0.35727E+08
 
   -0.38195E+08        -0.58916E+05         0.00000E+00
   -0.58916E+05        -0.97603E+08         0.00000E+00
    0.00000E+00         0.00000E+00        -0.35519E+08
 
   -0.38279E+08        -0.68644E+05         0.00000E+00
   -0.68644E+05        -0.97606E+08         0.00000E+00
    0.00000E+00         0.00000E+00        -0.35311E+08
 
   -0.38331E+08        -0.42225E+05         0.00000E+00
   -0.42225E+05        -0.97580E+08         0.00000E+00
    0.00000E+00         0.00000E+00        -0.35104E+08
 
   -0.48327E+08        -0.18127E+05         0.00000E+00
   -0.18127E+05        -0.97603E+08         0.00000E+00
    0.00000E+00         0.00000E+00        -0.49952E+08
 
   -0.48365E+08        -0.22805E+05         0.00000E+00
   -0.22805E+05        -0.97598E+08         0.00000E+00
    0.00000E+00         0.00000E+00        -0.49855E+08
 
   -0.48415E+08        -0.17490E+05         0.00000E+00
   -0.17490E+05        -0.97599E+08         0.00000E+00
    0.00000E+00         0.00000E+00        -0.49759E+08
 
   -0.48456E+08        -0.13459E+05         0.00000E+00
   -0.13459E+05        -0.97599E+08         0.00000E+00
    0.00000E+00         0.00000E+00        -0.49662E+08
 
   -0.48486E+08        -0.92335E+04         0.00000E+00
   -0.92335E+04        -0.97599E+08         0.00000E+00
    0.00000E+00         0.00000E+00        -0.49566E+08
 
   -0.48504E+08        -0.51674E+04         0.00000E+00
   -0.51674E+04        -0.97599E+08         0.00000E+00
    0.00000E+00         0.00000E+00        -0.49470E+08
 
   -0.48510E+08        -0.12632E+04         0.00000E+00
   -0.12632E+04        -0.97599E+08         0.00000E+00
    0.00000E+00         0.00000E+00        -0.49373E+08
 
   -0.48505E+08         0.24179E+04         0.00000E+00
    0.24179E+04        -0.97599E+08         0.00000E+00
    0.00000E+00         0.00000E+00        -0.49276E+08
 
   -0.48489E+08         0.58440E+04         0.00000E+00
    0.58440E+04        -0.97599E+08         0.00000E+00
    0.00000E+00         0.00000E+00        -0.49179E+08
 
   -0.48462E+08         0.89930E+04         0.00000E+00
    0.89930E+04        -0.97599E+08         0.00000E+00
    0.00000E+00         0.00000E+00        -0.49082E+08
 
   -0.48426E+08         0.11858E+05         0.00000E+00
    0.11858E+05        -0.97600E+08         0.00000E+00
    0.00000E+00         0.00000E+00        -0.48984E+08
 
   -0.48381E+08         0.14443E+05         0.00000E+00
    0.14443E+05        -0.97600E+08         0.00000E+00
    0.00000E+00         0.00000E+00        -0.48886E+08
 
   -0.48329E+08         0.16760E+05         0.00000E+00
    0.16760E+05        -0.97600E+08         0.00000E+00
    0.00000E+00         0.00000E+00        -0.48787E+08
 
   -0.48269E+08         0.18830E+05         0.00000E+00
    0.18830E+05        -0.97600E+08         0.00000E+00
    0.00000E+00         0.00000E+00        -0.48688E+08
 
   -0.48203E+08         0.20674E+05         0.00000E+00
    0.20674E+05        -0.97600E+08         0.00000E+00
    0.00000E+00         0.00000E+00        -0.48588E+08
 
   -0.48131E+08         0.22316E+05         0.00000E+00
    0.22316E+05        -0.97600E+08         0.00000E+00
    0.00000E+00         0.00000E+00        -0.48487E+08
 
   -0.48054E+08         0.23780E+05         0.00000E+00
    0.23780E+05        -0.97600E+08         0.00000E+00
    0.00000E+00         0.00000E+00        -0.48386E+08
 
   -0.47973E+08         0.25089E+05         0.00000E+00
    0.25089E+05        -0.97600E+08         0.00000E+00
    0.00000E+00         0.00000E+00        -0.48284E+08
 
   -0.47888E+08         0.26263E+05         0.00000E+00
    0.26263E+05        -0.97600E+08         0.00000E+00
    0.00000E+00         0.00000E+00        -0.48181E+08
 
   -0.47798E+08         0.27322E+05         0.00000E+00
    0.27322E+05        -0.97600E+08         0.00000E+00
    0.00000E+00         0.00000E+00        -0.48078E+08
 
   -0.47706E+08         0.28283E+05         0.00000E+00
    0.28283E+05        -0.97600E+08         0.00000E+00
    0.00000E+00         0.00000E+00        -0.47973E+08
 
   -0.47610E+08         0.29160E+05         0.00000E+00
    0.29160E+05        -0.97600E+08         0.00000E+00
    0.00000E+00         0.00000E+00        -0.47868E+08
 
   -0.47512E+08         0.29967E+05         0.00000E+00
    0.29967E+05        -0.97600E+08         0.00000E+00
    0.00000E+00         0.00000E+00        -0.47762E+08
 
   -0.47411E+08         0.30715E+05         0.00000E+00
    0.30715E+05        -0.97600E+08         0.00000E+00
    0.00000E+00         0.00000E+00        -0.47654E+08
 
   -0.47308E+08         0.31413E+05         0.00000E+00
    0.31413E+05        -0.97600E+08         0.00000E+00
    0.00000E+00         0.00000E+00        -0.47546E+08
 
   -0.47202E+08         0.32070E+05         0.00000E+00
    0.32070E+05        -0.97600E+08         0.00000E+00
    0.00000E+00         0.00000E+00        -0.47436E+08
 
   -0.47094E+08         0.32692E+05         0.00000E+00
    0.32692E+05        -0.97600E+08         0.00000E+00
    0.00000E+00         0.00000E+00        -0.47326E+08
 
   -0.46985E+08         0.33286E+05         0.00000E+00
    0.33286E+05        -0.97600E+08         0.00000E+00
    0.00000E+00         0.00000E+00        -0.47214E+08
 
   -0.46873E+08         0.33856E+05         0.00000E+00
    0.33856E+05        -0.97600E+08         0.00000E+00
    0.00000E+00         0.00000E+00        -0.47101E+08
 
   -0.46759E+08         0.34406E+05         0.00000E+00
    0.34406E+05        -0.97600E+08         0.00000E+00
    0.00000E+00         0.00000E+00        -0.46986E+08
 
   -0.46644E+08         0.34940E+05         0.00000E+00
    0.34940E+05        -0.97600E+08         0.00000E+00
    0.00000E+00         0.00000E+00        -0.46871E+08
 
   -0.46527E+08         0.35461E+05         0.00000E+00
    0.35461E+05        -0.97600E+08         0.00000E+00
    0.00000E+00         0.00000E+00        -0.46754E+08
 
   -0.46408E+08         0.35971E+05         0.00000E+00
    0.35971E+05        -0.97600E+08         0.00000E+00
    0.00000E+00         0.00000E+00        -0.46635E+08
 
   -0.46287E+08         0.36472E+05         0.00000E+00
    0.36472E+05        -0.97600E+08         0.00000E+00
    0.00000E+00         0.00000E+00        -0.46515E+08
 
   -0.46165E+08         0.36966E+05         0.00000E+00
    0.36966E+05        -0.97600E+08         0.00000E+00
    0.00000E+00         0.00000E+00        -0.46394E+08
 
   -0.46041E+08         0.37454E+05         0.00000E+00
    0.37454E+05        -0.97600E+08         0.00000E+00
    0.00000E+00         0.00000E+00        -0.46271E+08
 
   -0.45915E+08         0.37938E+05         0.00000E+00
    0.37938E+05        -0.97600E+08         0.00000E+00
    0.00000E+00         0.00000E+00        -0.46147E+08
 
   -0.45788E+08         0.38418E+05         0.00000E+00
    0.38418E+05        -0.97600E+08         0.00000E+00
    0.00000E+00         0.00000E+00        -0.46021E+08
 
   -0.45659E+08         0.38895E+05         0.00000E+00
    0.38895E+05        -0.97600E+08         0.00000E+00
    0.00000E+00         0.00000E+00        -0.45894E+08
 
   -0.45529E+08         0.39369E+05         0.00000E+00
    0.39369E+05        -0.97600E+08         0.00000E+00
    0.00000E+00         0.00000E+00        -0.45765E+08
 
   -0.45397E+08         0.39841E+05         0.00000E+00
    0.39841E+05        -0.97600E+08         0.00000E+00
    0.00000E+00         0.00000E+00        -0.45635E+08
 
   -0.45264E+08         0.40311E+05         0.00000E+00
    0.40311E+05        -0.97600E+08         0.00000E+00
    0.00000E+00         0.00000E+00        -0.45503E+08
 
   -0.45129E+08         0.40779E+05         0.00000E+00
    0.40779E+05        -0.97600E+08         0.00000E+00
    0.00000E+00         0.00000E+00        -0.45369E+08
 
   -0.44992E+08         0.41246E+05         0.00000E+00
    0.41246E+05        -0.97600E+08         0.00000E+00
    0.00000E+00         0.00000E+00        -0.45233E+08
 
   -0.44854E+08         0.41711E+05         0.00000E+00
    0.41711E+05        -0.97600E+08         0.00000E+00
    0.00000E+00         0.00000E+00        -0.45096E+08
 
   -0.44714E+08         0.42173E+05         0.00000E+00
    0.42173E+05        -0.97600E+08         0.00000E+00
    0.00000E+00         0.00000E+00        -0.44957E+08
 
   -0.44573E+08         0.42633E+05         0.00000E+00
    0.42633E+05        -0.97600E+08         0.00000E+00
    0.00000E+00         0.00000E+00        -0.44816E+08
 
   -0.44430E+08         0.43091E+05         0.00000E+00
    0.43091E+05        -0.97600E+08         0.00000E+00
    0.00000E+00         0.00000E+00        -0.44674E+08
 
   -0.44286E+08         0.43545E+05         0.00000E+00
    0.43545E+05        -0.97600E+08         0.00000E+00
    0.00000E+00         0.00000E+00        -0.44530E+08
 
   -0.44140E+08         0.43996E+05         0.00000E+00
    0.43996E+05        -0.97600E+08         0.00000E+00
    0.00000E+00         0.00000E+00        -0.44384E+08
 
   -0.43992E+08         0.44442E+05         0.00000E+00
    0.44442E+05        -0.97600E+08         0.00000E+00
    0.00000E+00         0.00000E+00        -0.44236E+08
 
   -0.43843E+08         0.44883E+05         0.00000E+00
    0.44883E+05        -0.97600E+08         0.00000E+00
    0.00000E+00         0.00000E+00        -0.44086E+08
 
   -0.43693E+08         0.45318E+05         0.00000E+00
    0.45318E+05        -0.97600E+08         0.00000E+00
    0.00000E+00         0.00000E+00        -0.43935E+08
 
   -0.43541E+08         0.45746E+05         0.00000E+00
    0.45746E+05        -0.97600E+08         0.00000E+00
    0.00000E+00         0.00000E+00        -0.43782E+08
 
   -0.43388E+08         0.46166E+05         0.00000E+00
    0.46166E+05        -0.97600E+08         0.00000E+00
    0.00000E+00         0.00000E+00        -0.43627E+08
 
   -0.43234E+08         0.46577E+05         0.00000E+00
    0.46577E+05        -0.97600E+08         0.00000E+00
    0.00000E+00         0.00000E+00        -0.43470E+08
 
   -0.43078E+08         0.46978E+05         0.00000E+00
    0.46978E+05        -0.97600E+08         0.00000E+00
    0.00000E+00         0.00000E+00        -0.43311E+08
 
   -0.42921E+08         0.47367E+05         0.00000E+00
    0.47367E+05        -0.97600E+08         0.00000E+00
    0.00000E+00         0.00000E+00        -0.43151E+08
 
   -0.42762E+08         0.47743E+05         0.00000E+00
    0.47743E+05        -0.97600E+08         0.00000E+00
    0.00000E+00         0.00000E+00        -0.42988E+08
 
   -0.42602E+08         0.48104E+05         0.00000E+00
    0.48104E+05        -0.97600E+08         0.00000E+00
    0.00000E+00         0.00000E+00        -0.42824E+08
 
   -0.42441E+08         0.48448E+05         0.00000E+00
    0.48448E+05        -0.97600E+08         0.00000E+00
    0.00000E+00         0.00000E+00        -0.42658E+08
 
   -0.42279E+08         0.48773E+05         0.00000E+00
    0.48773E+05        -0.97600E+08         0.00000E+00
    0.00000E+00         0.00000E+00        -0.42491E+08
 
   -0.42116E+08         0.49077E+05         0.00000E+00
    0.49077E+05        -0.97600E+08         0.00000E+00
    0.00000E+00         0.00000E+00        -0.42321E+08
 
   -0.41952E+08         0.49357E+05         0.00000E+00
    0.49357E+05        -0.97600E+08         0.00000E+00
    0.00000E+00         0.00000E+00        -0.42150E+08
 
   -0.41787E+08         0.49611E+05         0.00000E+00
    0.49611E+05        -0.97600E+08         0.00000E+00
    0.00000E+00         0.00000E+00        -0.41977E+08
 
   -0.41621E+08         0.49834E+05         0.00000E+00
    0.49834E+05        -0.97600E+08         0.00000E+00
    0.00000E+00         0.00000E+00        -0.41802E+08
 
   -0.41455E+08         0.50023E+05         0.00000E+00
    0.50023E+05        -0.97600E+08         0.00000E+00
    0.00000E+00         0.00000E+00        -0.41626E+08
 
   -0.41288E+08         0.50175E+05         0.00000E+00
    0.50175E+05        -0.97600E+08         0.00000E+00
    0.00000E+00         0.00000E+00        -0.41448E+08
 
   -0.41121E+08         0.50284E+05         0.00000E+00
    0.50284E+05        -0.97600E+08         0.00000E+00
    0.00000E+00         0.00000E+00        -0.41268E+08
 
   -0.40953E+08         0.50344E+05         0.00000E+00
    0.50344E+05        -0.97600E+08         0.00000E+00
    0.00000E+00         0.00000E+00        -0.41087E+08
 
   -0.40785E+08         0.50350E+05         0.00000E+00
    0.50350E+05        -0.97600E+08         0.00000E+00
    0.00000E+00         0.00000E+00        -0.40904E+08
 
   -0.40617E+08         0.50295E+05         0.00000E+00
    0.50295E+05        -0.97600E+08         0.00000E+00
    0.00000E+00         0.00000E+00        -0.40719E+08
 
   -0.40450E+08         0.50169E+05         0.00000E+00
    0.50169E+05        -0.97600E+08         0.00000E+00
    0.00000E+00         0.00000E+00        -0.40533E+08
 
   -0.40283E+08         0.49964E+05         0.00000E+00
    0.49964E+05        -0.97600E+08         0.00000E+00
    0.00000E+00         0.00000E+00        -0.40345E+08
 
   -0.40117E+08         0.49668E+05         0.00000E+00
    0.49668E+05        -0.97600E+08         0.00000E+00
    0.00000E+00         0.00000E+00        -0.40156E+08
 
   -0.39952E+08         0.49268E+05         0.00000E+00
    0.49268E+05        -0.97600E+08         0.00000E+00
    0.00000E+00         0.00000E+00        -0.39966E+08
 
   -0.39789E+08         0.48748E+05         0.00000E+00
    0.48748E+05        -0.97600E+08         0.00000E+00
    0.00000E+00         0.00000E+00        -0.39774E+08
 
   -0.39627E+08         0.48091E+05         0.00000E+00
    0.48091E+05        -0.97600E+08         0.00000E+00
    0.00000E+00         0.00000E+00        -0.39580E+08
 
   -0.39468E+08         0.47275E+05         0.00000E+00
    0.47275E+05        -0.97600E+08         0.00000E+00
    0.00000E+00         0.00000E+00        -0.39386E+08
 
   -0.39312E+08         0.46278E+05         0.00000E+00
    0.46278E+05        -0.97600E+08         0.00000E+00
    0.00000E+00         0.00000E+00        -0.39190E+08
 
   -0.39160E+08         0.45070E+05         0.00000E+00
    0.45070E+05        -0.97600E+08         0.00000E+00
    0.00000E+00         0.00000E+00        -0.38993E+08
 
   -0.39012E+08         0.43621E+05         0.00000E+00
    0.43621E+05        -0.97600E+08         0.00000E+00
    0.00000E+00         0.00000E+00        -0.38795E+08
 
   -0.38869E+08         0.41894E+05         0.00000E+00
    0.41894E+05        -0.97600E+08         0.00000E+00
    0.00000E+00         0.00000E+00        -0.38596E+08
 
   -0.38733E+08         0.39849E+05         0.00000E+00
    0.39849E+05        -0.97600E+08         0.00000E+00
    0.00000E+00         0.00000E+00        -0.38395E+08
 
   -0.38604E+08         0.37443E+05         0.00000E+00
    0.37443E+05        -0.97600E+08         0.00000E+00
    0.00000E+00         0.00000E+00        -0.38194E+08
 
   -0.38483E+08         0.34627E+05         0.00000E+00
    0.34627E+05        -0.97600E+08         0.00000E+00
    0.00000E+00         0.00000E+00        -0.37992E+08
 
   -0.38372E+08         0.31354E+05         0.00000E+00
    0.31354E+05        -0.97601E+08         0.00000E+00
    0.00000E+00         0.00000E+00        -0.37789E+08
 
   -0.38272E+08         0.27573E+05         0.00000E+00
    0.27573E+05        -0.97601E+08         0.00000E+00
    0.00000E+00         0.00000E+00        -0.37585E+08
 
   -0.38186E+08         0.23241E+05         0.00000E+00
    0.23241E+05        -0.97601E+08         0.00000E+00
    0.00000E+00         0.00000E+00        -0.37381E+08
 
   -0.38114E+08         0.18319E+05         0.00000E+00
    0.18319E+05        -0.97601E+08         0.00000E+00
    0.00000E+00         0.00000E+00        -0.37175E+08
 
   -0.38059E+08         0.12784E+05         0.00000E+00
    0.12784E+05        -0.97601E+08         0.00000E+00
    0.00000E+00         0.00000E+00        -0.36970E+08
 
   -0.38022E+08         0.66322E+04         0.00000E+00
    0.66322E+04        -0.97601E+08         0.00000E+00
    0.00000E+00         0.00000E+00        -0.36763E+08
 
   -0.38005E+08        -0.11669E+03         0.00000E+00
   -0.11669E+03        -0.97601E+08         0.00000E+00
    0.00000E+00         0.00000E+00        -0.36557E+08
 
   -0.38010E+08        -0.74081E+04         0.00000E+00
   -0.74081E+04        -0.97601E+08         0.00000E+00
    0.00000E+00         0.00000E+00        -0.36349E+08
 
   -0.38038E+08        -0.15166E+05         0.00000E+00
   -0.15166E+05        -0.97601E+08         0.00000E+00
    0.00000E+00         0.00000E+00        -0.36142E+08
 
   -0.38089E+08        -0.23250E+05         0.00000E+00
   -0.23250E+05        -0.97601E+08         0.00000E+00
    0.00000E+00         0.00000E+00        -0.35934E+08
 
   -0.38163E+08        -0.31644E+05         0.00000E+00
   -0.31644E+05        -0.97602E+08         0.00000E+00
    0.00000E+00         0.00000E+00        -0.35727E+08
 
   -0.38259E+08        -0.39574E+05         0.00000E+00
   -0.39574E+05        -0.97601E+08         0.00000E+00
    0.00000E+00         0.00000E+00        -0.35519E+08
 
   -0.38370E+08        -0.50187E+05         0.00000E+00
   -0.50187E+05        -0.97604E+08         0.00000E+00
    0.00000E+00         0.00000E+00        -0.35311E+08
 
   -0.38455E+08        -0.39298E+05         0.00000E+00
   -0.39298E+05        -0.97593E+08         0.00000E+00
    0.00000E+00         0.00000E+00        -0.35104E+08
 
   -0.48261E+08        -0.15258E+05         0.00000E+00
   -0.15258E+05        -0.97598E+08         0.00000E+00
    0.00000E+00         0.00000E+00        -0.49952E+08
 
   -0.48324E+08        -0.10280E+05         0.00000E+00
   -0.10280E+05        -0.97600E+08         0.00000E+00
    0.00000E+00         0.00000E+00        -0.49855E+08
 
   -0.48386E+08        -0.74927E+04         0.00000E+00
   -0.74927E+04        -0.97600E+08         0.00000E+00
    0.00000E+00         0.00000E+00        -0.49759E+08
 
   -0.48434E+08        -0.56391E+04         0.00000E+00
   -0.56391E+04        -0.97600E+08         0.00000E+00
    0.00000E+00         0.00000E+00        -0.49662E+08
 
   -0.48470E+08        -0.39207E+04         0.00000E+00
   -0.39207E+04        -0.97600E+08         0.00000E+00
    0.00000E+00         0.00000E+00        -0.49566E+08
 
   -0.48492E+08        -0.23536E+04         0.00000E+00
   -0.23536E+04        -0.97600E+08         0.00000E+00
    0.00000E+00         0.00000E+00        -0.49470E+08
 
   -0.48502E+08        -0.89695E+03         0.00000E+00
   -0.89695E+03        -0.97600E+08         0.00000E+00
    0.00000E+00         0.00000E+00        -0.49373E+08
 
   -0.48499E+08         0.45052E+03         0.00000E+00
    0.45052E+03        -0.97600E+08         0.00000E+00
    0.00000E+00         0.00000E+00        -0.49276E+08
 
   -0.48484E+08         0.16866E+04         0.00000E+00
    0.16866E+04        -0.97600E+08         0.00000E+00
    0.00000E+00         0.00000E+00        -0.49179E+08
 
   -0.48459E+08         0.28104E+04         0.00000E+00
    0.28104E+04        -0.97600E+08         0.00000E+00
    0.00000E+00         0.00000E+00        -0.49082E+08
 
   -0.48424E+08         0.38232E+04         0.00000E+00
    0.38232E+04        -0.97600E+08         0.00000E+00
    0.00000E+00         0.00000E+00        -0.48984E+08
 
   -0.48380E+08         0.47296E+04         0.00000E+00
    0.47296E+04        -0.97600E+08         0.00000E+00
    0.00000E+00         0.00000E+00        -0.48886E+08
 
   -0.48328E+08         0.55363E+04         0.00000E+00
    0.55363E+04        -0.97600E+08         0.00000E+00
    0.00000E+00         0.00000E+00        -0.48787E+08
 
   -0.48268E+08         0.62518E+04         0.00000E+00
    0.62518E+04        -0.97600E+08         0.00000E+00
    0.00000E+00         0.00000E+00        -0.48688E+08
 
   -0.48202E+08         0.68853E+04         0.00000E+00
    0.68853E+04        -0.97600E+08         0.00000E+00
    0.00000E+00         0.00000E+00        -0.48588E+08
 
   -0.48130E+08         0.74461E+04         0.00000E+00
    0.74461E+04        -0.97600E+08         0.00000E+00
    0.00000E+00         0.00000E+00        -0.48487E+08
 
   -0.48054E+08         0.79434E+04         0.00000E+00
    0.79434E+04        -0.97600E+08         0.00000E+00
    0.00000E+00         0.00000E+00        -0.48386E+08
 
   -0.47972E+08         0.83858E+04         0.00000E+00
    0.83858E+04        -0.97600E+08         0.00000E+00
    0.00000E+00         0.00000E+00        -0.48284E+08
 
   -0.47887E+08         0.87811E+04         0.00000E+00
    0.87811E+04        -0.97600E+08         0.00000E+00
    0.00000E+00         0.00000E+00        -0.48181E+08
 
   -0.47797E+08         0.91361E+04         0.00000E+00
    0.91361E+04        -0.97600E+08         0.00000E+00
    0.00000E+00         0.00000E+00        -0.48078E+08
 
   -0.47705E+08         0.94572E+04         0.00000E+00
    0.94572E+04        -0.97600E+08         0.00000E+00
    0.00000E+00         0.00000E+00        -0.47973E+08
 
   -0.47609E+08         0.97497E+04         0.00000E+00
    0.97497E+04        -0.97600E+08         0.00000E+00
    0.00000E+00         0.00000E+00        -0.47868E+08
 
   -0.47511E+08         0.10018E+05         0.00000E+00
    0.10018E+05        -0.97600E+08         0.00000E+00
    0.00000E+00         0.00000E+00        -0.47762E+08
 
   -0.47409E+08         0.10266E+05         0.00000E+00
    0.10266E+05        -0.97600E+08         0.00000E+00
    0.00000E+00         0.00000E+00        -0.47654E+08
 
   -0.47306E+08         0.10498E+05         0.00000E+00
    0.10498E+05        -0.97600E+08         0.00000E+00
    0.00000E+00         0.00000E+00        -0.47546E+08
 
   -0.47200E+08         0.10716E+05         0.00000E+00
    0.10716E+05        -0.97600E+08         0.00000E+00
    0.00000E+00         0.00000E+00        -0.47436E+08
 
   -0.47092E+08         0.10922E+05         0.00000E+00
    0.10922E+05        -0.97600E+08         0.00000E+00
    0.00000E+00         0.00000E+00        -0.47326E+08
 
   -0.46982E+08         0.11118E+05         0.00000E+00
    0.11118E+05        -0.97600E+08         0.00000E+00
    0.00000E+00         0.00000E+00        -0.47214E+08
 
   -0.46871E+08         0.11307E+05         0.00000E+00
    0.11307E+05        -0.97600E+08         0.00000E+00
    0.00000E+00         0.00000E+00        -0.47101E+08
 
   -0.46757E+08         0.11489E+05         0.00000E+00
    0.11489E+05        -0.97600E+08         0.00000E+00
    0.00000E+00         0.00000E+00        -0.46986E+08
 
   -0.46641E+08         0.11666E+05         0.00000E+00
    0.11666E+05        -0.97600E+08         0.00000E+00
    0.00000E+00         0.00000E+00        -0.46871E+08
 
   -0.46524E+08         0.11839E+05         0.00000E+00
    0.11839E+05        -0.97600E+08         0.00000E+00
    0.00000E+00         0.00000E+00        -0.46754E+08
 
   -0.46405E+08         0.12008E+05         0.00000E+00
    0.12008E+05        -0.97600E+08         0.00000E+00
    0.00000E+00         0.00000E+00        -0.46635E+08
 
   -0.46284E+08         0.12174E+05         0.00000E+00
    0.12174E+05        -0.97600E+08         0.00000E+00
    0.00000E+00         0.00000E+00        -0.46515E+08
 
   -0.46162E+08         0.12337E+05         0.00000E+00
    0.12337E+05        -0.97600E+08         0.00000E+00
    0.00000E+00         0.00000E+00        -0.46394E+08
 
   -0.46038E+08         0.12499E+05         0.00000E+00
    0.12499E+05        -0.97600E+08         0.00000E+00
    0.00000E+00         0.00000E+00        -0.46271E+08
 
   -0.45912E+08         0.12660E+05         0.00000E+00
    0.12660E+05        -0.97600E+08         0.00000E+00
    0.00000E+00         0.00000E+00        -0.46147E+08
 
   -0.45785E+08         0.12819E+05         0.00000E+00
    0.12819E+05        -0.97600E+08         0.00000E+00
    0.00000E+00         0.00000E+00        -0.46021E+08
 
   -0.45656E+08         0.12977E+05         0.00000E+00
    0.12977E+05        -0.97600E+08         0.00000E+00
    0.00000E+00         0.00000E+00        -0.45894E+08
 
   -0.45526E+08         0.13134E+05         0.00000E+00
    0.13134E+05        -0.97600E+08         0.00000E+00
    0.00000E+00         0.00000E+00        -0.45765E+08
 
   -0.45394E+08         0.13291E+05         0.00000E+00
    0.13291E+05        -0.97600E+08         0.00000E+00
    0.00000E+00         0.00000E+00        -0.45635E+08
 
   -0.45260E+08         0.13447E+05         0.00000E+00
    0.13447E+05        -0.97600E+08         0.00000E+00
    0.00000E+00         0.00000E+00        -0.45503E+08
 
   -0.45125E+08         0.13603E+05         0.00000E+00
    0.13603E+05        -0.97600E+08         0.00000E+00
    0.00000E+00         0.00000E+00        -0.45369E+08
 
   -0.44988E+08         0.13757E+05         0.00000E+00
    0.13757E+05        -0.97600E+08         0.00000E+00
    0.00000E+00         0.00000E+00        -0.45233E+08
 
   -0.44850E+08         0.13912E+05         0.00000E+00
    0.13912E+05        -0.97600E+08         0.00000E+00
    0.00000E+00         0.00000E+00        -0.45096E+08
 
   -0.44710E+08         0.14065E+05         0.00000E+00
    0.14065E+05        -0.97600E+08         0.00000E+00
    0.00000E+00         0.00000E+00        -0.44957E+08
 
   -0.44569E+08         0.14218E+05         0.00000E+00
    0.14218E+05        -0.97600E+08         0.00000E+00
    0.00000E+00         0.00000E+00        -0.44816E+08
 
   -0.44426E+08         0.14370E+05         0.00000E+00
    0.14370E+05        -0.97600E+08         0.00000E+00
    0.00000E+00         0.00000E+00        -0.44674E+08
 
   -0.44282E+08         0.14521E+05         0.00000E+00
    0.14521E+05        -0.97600E+08         0.00000E+00
    0.00000E+00         0.00000E+00        -0.44530E+08
 
   -0.44136E+08         0.14670E+05         0.00000E+00
    0.14670E+05        -0.97600E+08         0.00000E+00
    0.00000E+00         0.00000E+00        -0.44384E+08
 
   -0.43989E+08         0.14819E+05         0.00000E+00
    0.14819E+05        -0.97600E+08         0.00000E+00
    0.00000E+00         0.00000E+00        -0.44236E+08
 
   -0.43840E+08         0.14965E+05         0.00000E+00
    0.14965E+05        -0.97600E+08         0.00000E+00
    0.00000E+00         0.00000E+00        -0.44086E+08
 
   -0.43689E+08         0.15109E+05         0.00000E+00
    0.15109E+05        -0.97600E+08         0.00000E+00
    0.00000E+00         0.00000E+00        -0.43935E+08
 
   -0.43538E+08         0.15252E+05         0.00000E+00
    0.15252E+05        -0.97600E+08         0.00000E+00
    0.00000E+00         0.00000E+00        -0.43782E+08
 
   -0.43384E+08         0.15391E+05         0.00000E+00
    0.15391E+05        -0.97600E+08         0.00000E+00
    0.00000E+00         0.00000E+00        -0.43627E+08
 
   -0.43230E+08         0.15528E+05         0.00000E+00
    0.15528E+05        -0.97600E+08         0.00000E+00
    0.00000E+00         0.00000E+00        -0.43470E+08
 
   -0.43074E+08         0.15661E+05         0.00000E+00
    0.15661E+05        -0.97600E+08         0.00000E+00
    0.00000E+00         0.00000E+00        -0.43311E+08
 
   -0.42917E+08         0.15790E+05         0.00000E+00
    0.15790E+05        -0.97600E+08         0.00000E+00
    0.00000E+00         0.00000E+00        -0.43151E+08
 
   -0.42758E+08         0.15915E+05         0.00000E+00
    0.15915E+05        -0.97600E+08         0.00000E+00
    0.00000E+00         0.00000E+00        -0.42988E+08
 
   -0.42598E+08         0.16035E+05         0.00000E+00
    0.16035E+05        -0.97600E+08         0.00000E+00
    0.00000E+00         0.00000E+00        -0.42824E+08
 
   -0.42438E+08         0.16150E+05         0.00000E+00
    0.16150E+05        -0.97600E+08         0.00000E+00
    0.00000E+00         0.00000E+00        -0.42658E+08
 
   -0.42275E+08         0.16258E+05         0.00000E+00
    0.16258E+05        -0.97600E+08         0.00000E+00
    0.00000E+00         0.00000E+00        -0.42491E+08
 
   -0.42112E+08         0.16359E+05         0.00000E+00
    0.16359E+05        -0.97600E+08         0.00000E+00
    0.00000E+00         0.00000E+00        -0.42321E+08
 
   -0.41948E+08         0.16452E+05         0.00000E+00
    0.16452E+05        -0.97600E+08         0.00000E+00
    0.00000E+00         0.00000E+00        -0.42150E+08
 
   -0.41783E+08         0.16536E+05         0.00000E+00
    0.16536E+05        -0.97600E+08         0.00000E+00
    0.00000E+00         0.00000E+00        -0.41977E+08
 
   -0.41618E+08         0.16611E+05         0.00000E+00
    0.16611E+05        -0.97600E+08         0.00000E+00
    0.00000E+00         0.00000E+00        -0.41802E+08
 
   -0.41451E+08         0.16674E+05         0.00000E+00
    0.16674E+05        -0.97600E+08         0.00000E+00
    0.00000E+00         0.00000E+00        -0.41626E+08
 
   -0.41284E+08         0.16725E+05         0.00000E+00
    0.16725E+05        -0.97600E+08         0.00000E+00
    0.00000E+00         0.00000E+00        -0.41448E+08
 
   -0.41117E+08         0.16762E+05         0.00000E+00
    0.16762E+05        -0.97600E+08         0.00000E+00
    0.00000E+00         0.00000E+00        -0.41268E+08
 
   -0.40949E+08         0.16783E+05         0.00000E+00
    0.16783E+05        -0.97600E+08         0.00000E+00
    0.00000E+00         0.00000E+00        -0.41087E+08
 
   -0.40781E+08         0.16786E+05         0.00000E+00
    0.16786E+05        -0.97600E+08         0.00000E+00
    0.00000E+00         0.00000E+00        -0.40904E+08
 
   -0.40613E+08         0.16768E+05         0.00000E+00
    0.16768E+05        -0.97600E+08         0.00000E+00
    0.00000E+00         0.00000E+00        -0.40719E+08
 
   -0.40446E+08         0.16728E+05         0.00000E+00
    0.16728E+05        -0.97600E+08         0.00000E+00
    0.00000E+00         0.00000E+00        -0.40533E+08
 
   -0.40279E+08         0.16660E+05         0.00000E+00
    0.16660E+05        -0.97600E+08         0.00000E+00
    0.00000E+00         0.00000E+00        -0.40345E+08
 
   -0.40113E+08         0.16563E+05         0.00000E+00
    0.16563E+05        -0.97600E+08         0.00000E+00
    0.00000E+00         0.00000E+00        -0.40156E+08
 
   -0.39948E+08         0.16431E+05         0.00000E+00
    0.16431E+05        -0.97600E+08         0.00000E+00
    0.00000E+00         0.00000E+00        -0.39966E+08
 
   -0.39785E+08         0.16258E+05         0.00000E+00
    0.16258E+05        -0.97600E+08         0.00000E+00
    0.00000E+00         0.00000E+00        -0.39774E+08
 
   -0.39623E+08         0.16039E+05         0.00000E+00
    0.16039E+05        -0.97600E+08         0.00000E+00
    0.00000E+00         0.00000E+00        -0.39580E+08
 
   -0.39464E+08         0.15767E+05         0.00000E+00
    0.15767E+05        -0.97600E+08         0.00000E+00
    0.00000E+00         0.00000E+00        -0.39386E+08
 
   -0.39309E+08         0.15433E+05         0.00000E+00
    0.15433E+05        -0.97600E+08         0.00000E+00
    0.00000E+00         0.00000E+00        -0.39190E+08
 
   -0.39156E+08         0.15027E+05         0.00000E+00
    0.15027E+05        -0.97600E+08         0.00000E+00
    0.00000E+00         0.00000E+00        -0.38993E+08
 
   -0.39008E+08         0.14537E+05         0.00000E+00
    0.14537E+05        -0.97600E+08         0.00000E+00
    0.00000E+00         0.00000E+00        -0.38795E+08
 
   -0.38866E+08         0.13952E+05         0.00000E+00
    0.13952E+05        -0.97600E+08         0.00000E+00
    0.00000E+00         0.00000E+00        -0.38596E+08
 
   -0.38729E+08         0.13255E+05         0.00000E+00
    0.13255E+05        -0.97600E+08         0.00000E+00
    0.00000E+00         0.00000E+00        -0.38395E+08
 
   -0.38600E+08         0.12431E+05         0.00000E+00
    0.12431E+05        -0.97600E+08         0.00000E+00
    0.00000E+00         0.00000E+00        -0.38194E+08
 
   -0.38480E+08         0.11462E+05         0.00000E+00
    0.11462E+05        -0.97600E+08         0.00000E+00
    0.00000E+00         0.00000E+00        -0.37992E+08
 
   -0.38370E+08         0.10329E+05         0.00000E+00
    0.10329E+05        -0.97600E+08         0.00000E+00
    0.00000E+00         0.00000E+00        -0.37789E+08
 
   -0.38271E+08         0.90126E+04         0.00000E+00
    0.90126E+04        -0.97600E+08         0.00000E+00
    0.00000E+00         0.00000E+00        -0.37585E+08
 
   -0.38186E+08         0.74938E+04         0.00000E+00
    0.74938E+04        -0.97600E+08         0.00000E+00
    0.00000E+00         0.00000E+00        -0.37381E+08
 
   -0.38116E+08         0.57560E+04         0.00000E+00
    0.57560E+04        -0.97600E+08         0.00000E+00
    0.00000E+00         0.00000E+00        -0.37175E+08
 
   -0.38063E+08         0.37858E+04         0.00000E+00
    0.37858E+04        -0.97600E+08         0.00000E+00
    0.00000E+00         0.00000E+00        -0.36970E+08
 
   -0.38029E+08         0.15755E+04         0.00000E+00
    0.15755E+04        -0.97600E+08         0.00000E+00
    0.00000E+00         0.00000E+00        -0.36763E+08
 
   -0.38017E+08        -0.87603E+03         0.00000E+00
   -0.87603E+03        -0.97600E+08         0.00000E+00
    0.00000E+00         0.00000E+00        -0.36557E+08
 
   -0.38027E+08        -0.35643E+04         0.00000E+00
   -0.35643E+04        -0.97600E+08         0.00000E+00
    0.00000E+00         0.00000E+00        -0.36349E+08
 
   -0.38062E+08        -0.64817E+04         0.00000E+00
   -0.64817E+04        -0.97600E+08         0.00000E+00
    0.00000E+00         0.00000E+00        -0.36142E+08
 
   -0.38122E+08        -0.96276E+04         0.00000E+00
   -0.96276E+04        -0.97600E+08         0.00000E+00
    0.00000E+00         0.00000E+00        -0.35934E+08
 
   -0.38209E+08        -0.13085E+05         0.00000E+00
   -0.13085E+05        -0.97600E+08         0.00000E+00
    0.00000E+00         0.00000E+00        -0.35727E+08
 
   -0.38321E+08        -0.16814E+05         0.00000E+00
   -0.16814E+05        -0.97601E+08         0.00000E+00
    0.00000E+00         0.00000E+00        -0.35519E+08
 
   -0.38459E+08        -0.22517E+05         0.00000E+00
   -0.22517E+05        -0.97600E+08         0.00000E+00
    0.00000E+00         0.00000E+00        -0.35311E+08
 
   -0.38596E+08        -0.32864E+05         0.00000E+00
   -0.32864E+05        -0.97603E+08         0.00000E+00
    0.00000E+00         0.00000E+00        -0.35104E+08
 
SCALARS stresss double 
LOOKUP_TABLE default
  -65767131.7975610     
  -65687436.3461541     
  -65612072.2988376     
  -65540459.7552520     
  -65472342.0576127     
  -65407034.9432250     
  -65343920.9041514     
  -65282381.4179452     
  -65221872.3803103     
  -65161926.2589751     
  -65102159.0818555     
  -65042263.8538137     
  -64982001.8084569     
  -64921191.5971727     
  -64859698.7697961     
  -64797426.1014087     
  -64734305.2081211     
  -64670289.5072489     
  -64605348.4692238     
  -64539463.0256767     
  -64472621.9760948     
  -64404819.2320559     
  -64336051.7491024     
  -64266318.0125785     
  -64195616.9622229     
  -64123947.2585439     
  -64051306.8109796     
  -63977692.5029733     
  -63903100.0621916     
  -63827524.0351972     
  -63750957.8350814     
  -63673393.8380709     
  -63594823.5111478     
  -63515237.5575026     
  -63434626.0703621     
  -63352978.6886052     
  -63270284.7497595     
  -63186533.4375863     
  -63101713.9226616     
  -63015815.4952117     
  -62928827.6900684     
  -62840740.4040185     
  -62751544.0060960     
  -62661229.4415317     
  -62569788.3301808     
  -62477213.0603015     
  -62383496.8785776     
  -62288633.9772911     
  -62192619.5795481     
  -62095450.0234625     
  -61997122.8462089     
  -61897636.8688755     
  -61796992.2830639     
  -61695190.7402325     
  -61592235.4448248     
  -61488131.2522909     
  -61382884.7731794     
  -61276504.4845565     
  -61169000.8500880     
  -61060386.4501803     
  -60950676.1236257     
  -60839887.1221928     
  -60728039.2795286     
  -60615155.1955662     
  -60501260.4372971     
  -60386383.7562171     
  -60270557.3218995     
  -60153816.9698956     
  -60036202.4603473     
  -59917757.7411844     
  -59798531.2063340     
  -59678575.9347458     
  -59557949.8899378     
  -59436716.0518238     
  -59314942.4424045     
  -59192701.9940299     
  -59070072.1929003     
  -58947134.4108090     
  -58823972.8143931     
  -58700672.7130616     
  -58577318.1743026     
  -58453988.6985580     
  -58330754.7065434     
  -58207671.5519857     
  -58084771.7373860     
  -57962054.9859966     
  -57839475.8295182     
  -57716928.4168290     
  -57594228.4250950     
  -57471092.1830594     
  -57347113.9450582     
  -57221742.4828963     
  -57094262.0310679     
  -56963777.7299757     
  -56829230.0918114     
  -56689398.5877909     
  -56543062.8680344     
  -56388853.7981003     
  -56226317.1567588     
  -56054283.9148966     
  -65757220.1743387     
  -65681256.0364586     
  -65606824.0324857     
  -65536058.0974070     
  -65468425.9974980     
  -65403498.6382235     
  -65340665.6889203     
  -65279357.2715689     
  -65219044.3165169     
  -65159272.9097642     
  -65099665.3507178     
  -65039918.4432314     
  -64979795.0780036     
  -64919114.5846997     
  -64857742.6383525     
  -64795581.9428321     
  -64732564.0175219     
  -64668642.2558046     
  -64603786.2154640     
  -64537977.0348617     
  -64471203.8293424     
  -64403460.9167856     
  -64334745.7276818     
  -64265057.2694366     
  -64194395.0314532     
  -64122758.2348753     
  -64050145.3472483     
  -63976553.7971365     
  -63901979.8366428     
  -63826418.5107709     
  -63749863.7017383     
  -63672308.2238683     
  -63593743.9507541     
  -63514161.9612074     
  -63433552.6942778     
  -63351906.1065475     
  -63269211.8271236     
  -63185459.3074097     
  -63100637.9639645     
  -63014737.3136376     
  -62927747.1007956     
  -62839657.4168862     
  -62750458.8128677     
  -62660142.4052141     
  -62568699.9763183     
  -62476124.0701725     
  -62382408.0842335     
  -62287546.3583934     
  -62191534.2619785     
  -62094368.2797018     
  -61996046.0975024     
  -61896566.6892250     
  -61795930.4051130     
  -61694139.0631341     
  -61591196.0442075     
  -61487106.3924637     
  -61381876.9217403     
  -61275516.3295926     
  -61168035.3201763     
  -61059446.7374140     
  -60949765.7099017     
  -60839009.8089963     
  -60727199.2214433     
  -60614356.9377070     
  -60500508.9568167     
  -60385684.5079543     
  -60269916.2881279     
  -60153240.7139619     
  -60035698.1837750     
  -59917333.3435269     
  -59798195.3466951     
  -59678338.0934255     
  -59557820.4281017     
  -59436706.2664342     
  -59315064.6128958     
  -59192969.4163779     
  -59070499.1958864     
  -58947736.3484779     
  -58824766.0280977     
  -58701674.4563121     
  -58578546.4941895     
  -58455462.2693814     
  -58332492.6150971     
  -58209693.0412405     
  -58087095.9267971     
  -57964700.6080367     
  -57842461.0479805     
  -57720270.8558229     
  -57597945.5649279     
  -57475202.5231794     
  -57351639.0814746     
  -57226711.6899268     
  -57099717.5459668     
  -56969790.5497978     
  -56835902.9443443     
  -56696938.4152877     
  -56551691.1526700     
  -56399342.0609173     
  -56238840.5855382     
  -56074878.4084427     
  -65748026.0975963     
  -65674703.8476453     
  -65601510.7473954     
  -65531496.3915582     
  -65464406.8127783     
  -65399869.7464818     
  -65337344.2550711     
  -65276285.4244489     
  -65216185.9484517     
  -65156602.8367386     
  -65097165.6873643     
  -65037575.1580861     
  -64977596.3059526     
  -64917049.5176849     
  -64855800.9842290     
  -64793753.6655950     
  -64730839.2646921     
  -64667011.3790856     
  -64602239.8371352     
  -64536506.1275172     
  -64469799.7918862     
  -64402115.6375267     
  -64333451.6309330     
  -64263807.3451319     
  -64193182.8491113     
  -64121577.9441185     
  -64048991.6674119     
  -63975421.9984908     
  -63900865.7155466     
  -63825318.3607763     
  -63748774.2823375     
  -63671226.7282475     
  -63592667.9736195     
  -63513089.4674856     
  -63432481.9892718     
  -63350835.8079463     
  -63268140.8391192     
  -63184386.7970615     
  -63099563.3398699     
  -63013660.2069038     
  -62926667.3482708     
  -62838575.0465788     
  -62749374.0314712     
  -62659055.5876521     
  -62567611.6572261     
  -62475034.9372412     
  -62381318.9733571     
  -62286458.2505737     
  -62190448.2819637     
  -62093285.6963531     
  -61994968.3259058     
  -61895495.2945881     
  -61794867.1085108     
  -61693085.7491919     
  -61590154.7708339     
  -61486079.4027701     
  -61380866.6583107     
  -61274525.4512875     
  -61167066.7216768     
  -61058503.5717302     
  -60948851.4140805     
  -60838128.1332701     
  -60726354.2620510     
  -60613553.1736030     
  -60499751.2904378     
  -60384978.3101511     
  -60269267.4472663     
  -60152655.6890617     
  -60035184.0613590     
  -59916897.8976077     
  -59797847.1009994     
  -59678086.3845616     
  -59557675.4678861     
  -59436679.2010218     
  -59315167.5757081     
  -59193215.5711209     
  -59070902.7652329     
  -58948312.6233525     
  -58825531.3520648     
  -58702646.1795459     
  -58579742.8922229     
  -58456902.4237418     
  -58334196.2568658     
  -58211680.3653004     
  -58089387.3965388     
  -57967316.7874004     
  -57845422.5307080     
  -57723598.3943661     
  -57601660.6013534     
  -57479328.3247571     
  -57356203.0990399     
  -57231749.1589766     
  -57105278.8743390     
  -56975949.0839432     
  -56842778.3062440     
  -56704703.3317611     
  -56560667.3297538     
  -56409973.0046544     
  -56252169.8627029     
  -56093927.4219130     
  -65739354.0577177     
  -65667982.0100101     
  -65596076.8095310     
  -65526810.6790801     
  -65460279.6954848     
  -65396155.2852951     
  -65333957.4722438     
  -65273167.7707248     
  -65213298.0984333     
  -65153916.8140467     
  -65094660.6392241     
  -65035234.4915021     
  -64975405.9351067     
  -64914996.8217191     
  -64853874.2205473     
  -64791941.6741900     
  -64729131.3437639     
  -64665397.2582352     
  -64600709.6990989     
  -64535050.6492456     
  -64468410.1876227     
  -64400783.6947182     
  -64332169.7347718     
  -64262568.4906197     
  -64191980.6412882     
  -64120406.5880255     
  -64047845.9497350     
  -63974297.2628989     
  -63899757.8336011     
  -63824223.7000696     
  -63747689.6732480     
  -63670149.4304345     
  -63591595.6431299     
  -63512020.1251219     
  -63431413.9906875     
  -63349767.8157766     
  -63267071.7973318     
  -63183315.9076226     
  -63098490.0417441     
  -63012584.1573613     
  -62925588.4064399     
  -62837493.2591628     
  -62748289.6205389     
  -62657968.9404121     
  -62566523.3176983     
  -62473945.5997523     
  -62380229.4777969     
  -62285369.5793703     
  -62189361.5587503     
  -62092202.1863211     
  -61993889.4378629     
  -61894422.5847569     
  -61793802.2861321     
  -61692030.6840184     
  -61589111.5026241     
  -61485050.1529174     
  -61379853.8437664     
  -61273531.7009602     
  -61166094.8955118     
  -61057556.7826899     
  -60947933.0532645     
  -60837241.8984163     
  -60725504.1896612     
  -60612743.6749203     
  -60498987.1914700     
  -60384264.8958842     
  -60268610.5101254     
  -60152061.5815607     
  -60034659.7527197     
  -59916451.0339140     
  -59797486.0681782     
  -59677820.3731429     
  -59557514.5380794     
  -59436634.3461658     
  -59315250.7816013     
  -59193439.8681634     
  -59071282.2697333     
  -58948862.5638630     
  -58826268.0763380     
  -58703587.1378322     
  -58580906.5934682     
  -58458308.3632446     
  -58335864.8177560     
  -58213632.7028802     
  -58091645.3252644     
  -57969902.7079342     
  -57848359.4600257     
  -57726910.2046786     
  -57605372.6267662     
  -57483468.5937470     
  -57360804.5472170     
  -57236853.3714788     
  -57110942.2223856     
  -56982251.7955941     
  -56849841.4137341     
  -56712704.1710075     
  -56569914.0770777     
  -56420867.3779493     
  -56265868.9291143     
  -56111853.7909991     
  -65731073.4203328     
  -65661192.4937104     
  -65590518.0765037     
  -65522013.2650997     
  -65456049.2740588     
  -65392358.5604050     
  -65330507.7017469     
  -65270005.7974065     
  -65210381.9034642     
  -65151215.6642780     
  -65092150.8830825     
  -65032897.0162172     
  -64973224.4837882     
  -64912956.9786993     
  -64851962.8051830     
  -64790146.4062964     
  -64727440.6731927     
  -64663800.2913962     
  -64599196.1775426     
  -64533610.9525873     
  -64467035.3440958     
  -64399465.3900298     
  -64330900.3146259     
  -64261340.9551913     
  -64190788.6316522     
  -64119244.3654796     
  -64046708.3693989     
  -63973179.7430898     
  -63898656.3224358     
  -63823134.6405798     
  -63746609.9681004     
  -63669076.4071322     
  -63590527.0203738     
  -63510953.9808307     
  -63430348.7320200     
  -63348702.1513747     
  -63266004.7119055     
  -63182246.6389150     
  -63097418.0598636     
  -63011509.1464264     
  -62924510.2484574     
  -62836412.0200455     
  -62747205.5381663     
  -62656882.4146372     
  -62565434.9022136     
  -62472855.9957378     
  -62379139.5292891     
  -62284280.2703078     
  -62188274.0116690     
  -62091117.6626955     
  -61992809.3401066     
  -61893348.4599221     
  -61792735.8313671     
  -61690973.7538675     
  -61588066.1182773     
  -61484018.5135429     
  -61378838.3400799     
  -61272534.9312121     
  -61165119.6840918     
  -61056606.2015722     
  -60947010.4465285     
  -60836350.9100922     
  -60724648.7951505     
  -60611928.2162334     
  -60498216.4165013     
  -60383544.0019049     
  -60267945.1916056     
  -60151458.0823397     
  -60034124.9224122     
  -59915992.3882592     
  -59797111.8528191     
  -59677539.6300366     
  -59557337.1734022     
  -59436571.1981805     
  -59315313.6865143     
  -59193641.7215369     
  -59071637.0805825     
  -58949385.4982242     
  -58826975.4869703     
  -58704496.5769891     
  -58582036.8066221     
  -58459679.2636834     
  -58337497.4456977     
  -58215549.1790612     
  -58093868.8191059     
  -57972457.4563447     
  -57851270.8966640     
  -57730205.2965369     
  -57609080.5630763     
  -57487622.0591382     
  -57365441.8743188     
  -57242022.1337787     
  -57116704.6810782     
  -56988693.9323161     
  -56857085.5247196     
  -56720931.3909191     
  -56579405.3358954     
  -56432034.7172918     
  -56279718.2156434     
  -56128940.2035000     
  -65723092.2702888     
  -65654385.8390585     
  -65584847.3037010     
  -65517110.4101757     
  -65451721.4866168     
  -65388482.5535669     
  -65326997.4048223     
  -65266801.1122973     
  -65207438.6029972     
  -65148500.3317220     
  -65089637.1937717     
  -65030563.3936798     
  -64971052.5411542     
  -64910930.5278358     
  -64850067.2401060     
  -64788368.3329439     
  -64725767.6957374     
  -64662220.8938009     
  -64597699.6600360     
  -64532187.3970740     
  -64465675.5925264     
  -64398161.0263717     
  -64329643.6454252     
  -64260124.9864495     
  -64189607.0414108     
  -64118091.4724487     
  -64045579.0984470     
  -63972069.5886014     
  -63897561.3105522     
  -63822051.2912496     
  -63745535.2577291     
  -63668007.7324647     
  -63589462.1640917     
  -63509891.0792094     
  -63429286.2448708     
  -63347638.8343984     
  -63264939.5915069     
  -63181178.9894703     
  -63096347.3833873     
  -63010435.1545570     
  -62923432.8466653     
  -62835331.2939567     
  -62746121.7418964     
  -62655795.9610354     
  -62564346.3549260     
  -62471766.0630110     
  -62378049.0594535     
  -62283190.2488950     
  -62187185.5601368     
  -62090032.0387550     
  -61991727.9396659     
  -61892272.8206833     
  -61791667.6381347     
  -61689914.8456509     
  -61587018.4972915     
  -61482984.3562375     
  -61377820.0103485     
  -61271534.9959586     
  -61164140.9313527     
  -61055651.6614155     
  -60946083.4149675     
  -60835454.9762639     
  -60723787.8720218     
  -60611106.5750905     
  -60497438.7254700     
  -60382815.3687169     
  -60267271.2107816     
  -60150844.8868855     
  -60033579.2400215     
  -59915521.6018803     
  -59796724.0652630     
  -59677243.7320835     
  -59557142.9145953     
  -59436489.2591916     
  -59315355.7516234     
  -59193820.5494324     
  -59071966.5713788     
  -58949880.7543992     
  -58827652.8659416     
  -58705373.7334538     
  -58583132.7238273     
  -58461014.2748420     
  -58339093.2503695     
  -58217428.8652522     
  -58096056.9112327     
  -57974980.0235346     
  -57854155.7774919     
  -57733482.5272890     
  -57612783.1419519     
  -57491787.2404480     
  -57370113.2691349     
  -57247253.0353089     
  -57122563.0857395     
  -56995270.5315095     
  -56864504.6021655     
  -56729372.6242836     
  -56589128.1018073     
  -56443448.0562424     
  -56293609.1915794     
  -56145385.6982629     
  -65715342.9740740     
  -65647585.4871719     
  -65579080.4978448     
  -65512107.5602369     
  -65447301.7486229     
  -65384530.4323031     
  -65323428.9927154     
  -65263555.4609137     
  -65204469.5323562     
  -65145771.8756101     
  -65087120.4438885     
  -65028234.3714155     
  -64968890.7668757     
  -64908918.0649427     
  -64848188.0712462     
  -64786607.9583759     
  -64724112.8784510     
  -64660659.4977714     
  -64596220.5455467     
  -64530780.3492349     
  -64464331.2678076     
  -64396870.9078769     
  -64328400.0015713     
  -64258920.8302654     
  -64188436.0892603     
  -64116948.1019279     
  -64044458.3057253     
  -63970966.9457187     
  -63896472.9232626     
  -63820973.7579752     
  -63744465.6301150     
  -63666943.4779236     
  -63588401.1306238     
  -63508831.4626900     
  -63428226.5589058     
  -63346577.8827873     
  -63263876.4432897     
  -63180112.9564984     
  -63095278.0003287     
  -63009362.1612280     
  -62922356.1725725     
  -62834251.0449310     
  -62745038.1887054     
  -62654709.5298681     
  -62563257.6196561     
  -62470675.7391598     
  -62376957.9997896     
  -62282099.4406243     
  -62186096.1236577     
  -62088945.2279714     
  -61990645.1438724     
  -61891195.5680575     
  -61790597.6008943     
  -61688853.8469535     
  -61585968.5199822     
  -61481947.5535685     
  -61376798.7188206     
  -61270531.7504602     
  -61163158.4827906     
  -61054692.9970589     
  -60945151.7817424     
  -60834553.9072574     
  -60722921.2164620     
  -60610278.5320789     
  -60496653.8817365     
  -60382078.7406547     
  -60266588.2909873     
  -60150221.6953803     
  -60033022.3802579     
  -59915038.3215374     
  -59796322.3217062     
  -59676932.2621985     
  -59556931.3085177     
  -59436388.0372260     
  -59315376.4434211     
  -59193975.7742624     
  -59072270.1181618     
  -58950347.6601085     
  -58828299.4911349     
  -58706217.8342249     
  -58584193.5205873     
  -58462312.5203837     
  -58340651.3031180     
  -58219270.7791227     
  -58098208.5620553     
  -57977469.3047922     
  -57857012.9169425     
  -57736740.6024382     
  -57616478.9103844     
  -57495962.4481955     
  -57374816.6753697     
  -57252543.4626138     
  -57128513.9792657     
  -57001976.7439335     
  -56872092.2127755     
  -56738016.6356805     
  -56599071.1290652     
  -56455073.3962831     
  -56307491.8239134     
  -56161336.8529726     
  -65707773.8258548     
  -65640800.2700583     
  -65573231.9693954     
  -65507010.3834884     
  -65442794.8180672     
  -65380505.4606247     
  -65319804.8714420     
  -65260270.6892432     
  -65201476.1300453     
  -65143031.4616279     
  -65084601.6033216     
  -65025910.7809251     
  -64966739.8904502     
  -64906920.2418320     
  -64846325.8882059     
  -64784865.8198706     
  -64722476.7125870     
  -64659116.5526624     
  -64594759.2444008     
  -64529390.1825607     
  -64463002.7084653     
  -64395595.3398547     
  -64327169.6568851     
  -64257728.7307213     
  -64187275.9913228     
  -64115814.4438743     
  -64043346.1568149     
  -63969871.9574071     
  -63895391.2826244     
  -63819902.1435436     
  -63743401.1703260     
  -63665883.7123119     
  -63587343.9738599     
  -63507775.1714923     
  -63427169.7018115     
  -63345519.3127247     
  -63262815.2728604     
  -63179048.5358564     
  -63094209.8975286     
  -63008290.1449077     
  -62921280.1968344     
  -62833171.2362912     
  -62743954.8349888     
  -62653623.0709381     
  -62562168.6398818     
  -62469584.9615407     
  -62375866.2816732     
  -62281007.7709705     
  -62185005.6218244     
  -62087857.1440134     
  -61989560.8603667     
  -61890116.6034893     
  -61789525.6146582     
  -61687790.6460489     
  -61584916.0675014     
  -61480907.9791010     
  -61375774.3309218     
  -61269525.0513531     
  -61162172.1854975     
  -61053730.0451808     
  -60944215.3721258     
  -60833647.5158106     
  -60722048.6274002     
  -60609443.8708876     
  -60495861.6521527     
  -60381333.8659604     
  -60265896.1598995     
  -60149588.2127934     
  -60032454.0230540     
  -59914542.1996159     
  -59795906.2443059     
  -59676604.8094798     
  -59556701.9082538     
  -59436267.0463171     
  -59315375.2338134     
  -59194106.8227481     
  -59072547.0994852     
  -58950785.5428846     
  -58828914.6363714     
  -58707028.0968780     
  -58585218.3557682     
  -58463573.0978565     
  -58342170.6369918     
  -58221073.8847110     
  -58100322.6595117     
  -57979924.1003097     
  -57859841.0082105     
  -57739978.0770047     
  -57620166.2350954     
  -57500145.7847758     
  -57379549.8098098     
  -57257890.5833726     
  -57134553.6923362     
  -57008807.7367630     
  -56879841.7194788     
  -56746853.6123485     
  -56609222.6906364     
  -56466880.3919156     
  -56321347.6077228     
  -56176905.8312484     
  -65700343.9856921     
  -65634031.0084662     
  -65567312.9169729     
  -65501824.6028173     
  -65438204.9682867     
  -65376410.8768595     
  -65316127.4727469     
  -65256948.7229643     
  -65198459.9371829     
  -65140280.3576819     
  -65082081.7373048     
  -65023593.5362451     
  -64964600.7102526     
  -64904937.7657270     
  -64844481.3238703     
  -64783142.4874988     
  -64720859.7134353     
  -64657592.5247470     
  -64593316.1781919     
  -64528017.2774251     
  -64461690.2565847     
  -64394334.6287178     
  -64325952.8845318     
  -64256548.9300343     
  -64186126.9610706     
  -64114690.6851315     
  -64042242.8139590     
  -63968784.7632412     
  -63894316.5073729     
  -63818836.5475686     
  -63742341.9604567     
  -63664828.5016886     
  -63586290.7451873     
  -63506722.2435774     
  -63426115.6992534     
  -63344463.1385996     
  -63261756.0842444     
  -63177985.7220190     
  -63093143.0606292     
  -63007219.0830350     
  -62920204.8892327     
  -62832091.8306305     
  -62742871.6365467     
  -62652536.5335785     
  -62561079.3587302     
  -62468493.6672727     
  -62374773.8363524     
  -62279915.1653890     
  -62183913.9743192     
  -62086767.7007503     
  -61988474.9971051     
  -61889035.8288589     
  -61788451.5750034     
  -61686725.1319138     
  -61583861.0218548     
  -61479865.5074201     
  -61374746.7132796     
  -61268514.7566776     
  -61161181.8881945     
  -61052762.6443388     
  -60943274.0135450     
  -60832735.6171219     
  -60721169.9065623     
  -60608602.3783704     
  -60495061.8071323     
  -60380580.4968605     
  -60265194.5496213     
  -60148944.1489715     
  -60031873.8536623     
  -59914032.8942307     
  -59795475.4612909     
  -59676260.9693232     
  -59556454.2732330     
  -59436125.8066240     
  -59315351.6002392     
  -59194213.1260345     
  -59072796.8965263     
  -58951193.7301749     
  -58829497.5715058     
  -58707803.7296552     
  -58586206.3716911     
  -58464795.0788046     
  -58343650.2468996     
  -58222837.0926822     
  -58102398.0194865     
  -57982343.1159095     
  -57862638.6243979     
  -57743193.3574453     
  -57623843.3055066     
  -57504335.1485100     
  -57384310.1712960     
  -57263291.3474350     
  -57140678.3880858     
  -57015758.6264958     
  -56887746.5450289     
  -56755874.7907052     
  -56619570.9398185     
  -56478845.4083738     
  -56335175.3211594     
  -56192181.3183155     
  -65693020.2759545     
  -65627274.0888468     
  -65561331.3709810     
  -65496555.6276213     
  -65433536.1237213     
  -65372249.8286668     
  -65312399.2582310     
  -65253591.5597491     
  -65195422.5933279     
  -65137519.9313975     
  -65079562.0042379     
  -65021283.6326407     
  -64962474.0925461     
  -64902971.3986171     
  -64842655.0539519     
  -64781438.5638082     
  -64719262.4200919     
  -64656087.8970416     
  -64591891.7796406     
  -64526662.0209642     
  -64460394.2577009     
  -64393089.0818807     
  -64324749.9569255     
  -64255381.6684647     
  -64184989.2092379     
  -64113577.0093458     
  -64041148.4359822     
  -63967705.4993293     
  -63893248.7128496     
  -63817777.0664244     
  -63741288.0795674     
  -63663777.9093127     
  -63585241.4934396     
  -63505672.7146014     
  -63425064.5748335     
  -63343409.3729681     
  -63260698.8798521     
  -63176924.5080483     
  -63092077.4740473     
  -63006148.9519966     
  -62919130.2186570     
  -62831012.7897972     
  -62741788.5485708     
  -62651449.8666423     
  -62559989.7189689     
  -62467401.7932310     
  -62373680.5949443     
  -62278821.5493155     
  -62182821.1009155     
  -62085676.8122557     
  -61987387.4623649     
  -61887953.1464914     
  -61787375.3780826     
  -61685657.1942423     
  -61582803.2659197     
  -61478820.0141510     
  -61373715.7337487     
  -61267500.7259075     
  -61160187.4412645     
  -61051790.6350064     
  -60942327.5356258     
  -60831818.0288996     
  -60720284.8585262     
  -60607753.8446063     
  -60494254.1207178     
  -60379818.3896412     
  -60264483.1967662     
  -60148289.2187297     
  -60031281.5627550     
  -59913510.0693339     
  -59795029.6070772     
  -59675900.3435447     
  -59556187.9693571     
  -59435963.8445659     
  -59315305.0258086     
  -59194294.1198326     
  -59073018.8932315     
  -58951571.5494896     
  -58830047.5625785     
  -58708543.9316288     
  -58587156.6943159     
  -58465977.5089866     
  -58345089.0898936     
  -58224559.2607230     
  -58104433.3863814     
  -57984724.9639091     
  -57865404.2197760     
  -57746384.7036484     
  -57627508.1364074     
  -57508528.2381897     
  -57389095.0459533     
  -57268742.4956479     
  -57146884.0785349     
  -57022824.4698360     
  -56895800.3121571     
  -56765072.1629917     
  -56630104.7052549     
  -56490951.6442790     
  -56348983.3039332     
  -56207235.4426297     
  -65685775.0707562     
  -65620523.4451189     
  -65555292.5952301     
  -65491208.2703820     
  -65428791.9189167     
  -65368025.3505315     
  -65308622.7120826     
  -65250201.2663910     
  -65192365.8322969     
  -65134751.6480073     
  -65077043.6537450     
  -65018982.1453018     
  -64960360.9704974     
  -64901021.9565506     
  -64840847.7964709     
  -64779754.6834365     
  -64717685.3951642     
  -64654603.1690721     
  -64590486.4924022     
  -64525324.8069127     
  -64459115.0606558     
  -64391859.0076312     
  -64323561.1456106     
  -64254227.1842074     
  -64183862.9437197     
  -64112473.5968716     
  -64040063.1782035     
  -63966634.2982324     
  -63892188.0109283     
  -63816723.7931777     
  -63740239.6036219     
  -63662731.9955859     
  -63584196.2648458     
  -63504626.6178685     
  -63424016.3500489     
  -63342358.0265179     
  -63259643.6604466     
  -63175864.8855654     
  -63091013.1209501     
  -63005079.7271054     
  -62918056.1530850     
  -62829934.0748782     
  -62740705.5256314     
  -62650363.0184912     
  -62558899.6629981     
  -62466309.2760417     
  -62372586.4884315     
  -62277726.8481638     
  -62181726.9214785     
  -62084584.3928104     
  -61986298.1647508     
  -61886868.4591645     
  -61786296.9206356     
  -61684586.7234598     
  -61581742.6834618     
  -61477771.3759794     
  -61372681.2614337     
  -61266482.8199768     
  -61159188.6967845     
  -61050813.8596098     
  -60941375.7702332     
  -60830894.5714082     
  -60719393.2907749     
  -60606898.0629602     
  -60493438.3706487     
  -60379047.3047228     
  -60263761.8425405     
  -60147623.1419443     
  -60030676.8465245     
  -59912973.3948250     
  -59794568.3223864     
  -59675522.5405099     
  -59555902.5691405     
  -59435780.6929710     
  -59315234.9994622     
  -59194349.2445899     
  -59073212.4764966     
  -58951918.3285954     
  -58830563.8720280     
  -58709247.8929369     
  -58588068.4335111     
  -58467119.4087012     
  -58346486.0855770     
  -58226239.1940712     
  -58106427.4338329     
  -57987068.1641147     
  -57868136.1311755     
  -57749550.2309120     
  -57631158.5706130     
  -57512722.5570968     
  -57393901.5115706     
  -57274240.5687063     
  -57153166.6306111     
  -57030000.2792254     
  -56903996.8920442     
  -56774438.3497666     
  -56640814.1031411     
  -56503188.2653864     
  -56362785.1803483     
  -56222128.3362613     
  -65678584.8540217     
  -65613771.6738508     
  -65549199.5855032     
  -65485786.5915279     
  -65423975.7089861     
  -65363740.3611463     
  -65304800.3329005     
  -65246779.9770690     
  -65189291.4790710     
  -65131977.0683948     
  -65074528.0250032     
  -65016690.2280543     
  -64958262.3431872     
  -64899090.3088732     
  -64839060.3111723     
  -64778091.5126574     
  -64716129.2244106     
  -64653138.8565833     
  -64589100.7708258     
  -64524006.0354000     
  -64457853.0174206     
  -64390644.7149741     
  -64322386.7211235     
  -64253085.7132661     
  -64182748.3694586     
  -64111380.6246694     
  -64038987.1923431     
  -63965571.2888794     
  -63891134.5099374     
  -63815676.8175174     
  -63739196.6054243     
  -63661690.8179961     
  -63583155.1029788     
  -63503583.9842854     
  -63422971.0442518     
  -63341309.1080311     
  -63258590.4251111     
  -63174806.8447222     
  -63089949.9832297     
  -63004011.3825790     
  -62916982.6595647     
  -62828855.6461836     
  -62739622.5216638     
  -62649275.9369854     
  -62557809.1328423     
  -62465216.0520759     
  -62371491.4476585     
  -62276630.9873252     
  -62180631.3559664     
  -62083490.3569060     
  -61985207.0131999     
  -61885781.6701170     
  -61785216.0999992     
  -61683513.6107356     
  -61580679.1591505     
  -61476719.4706708     
  -61371643.1667125     
  -61265460.9013068     
  -61158185.5085556     
  -61049832.1625633     
  -60940418.5515125     
  -60829965.0675151     
  -60718495.0137490     
  -60606034.8301409     
  -60492614.3384267     
  -60378267.0067348     
  -60263030.2328254     
  -60146945.6436432     
  -60030059.4067847     
  -59912422.5466627     
  -59794091.2543708     
  -59675127.1752701     
  -59555597.6518591     
  -59435575.8912412     
  -59315141.0161500     
  -59194377.9456856     
  -59073377.0363849     
  -58952233.3957577     
  -58831045.7589612     
  -58709914.7950919     
  -58588940.6834139     
  -58468219.7732163     
  -58347840.1166290     
  -58227875.6461794     
  -58108378.7655704     
  -57989371.1449460     
  -57870832.5794825     
  -57752687.9119198     
  -57634792.2815749     
  -57516915.4164348     
  -57398726.4416404     
  -57279781.9136514     
  -57159521.7697314     
  -57037281.0403648     
  -56912330.4098955     
  -56783966.5773240     
  -56651690.8725414     
  -56515549.3290696     
  -56376597.4534189     
  -56236911.2507998     
  -65671429.2015977     
  -65607010.6660846     
  -65543053.5316749     
  -65480293.8474603     
  -65419090.5611722     
  -65359397.6676552     
  -65300934.6285778     
  -65243329.8919941     
  -65186201.4477964     
  -65129197.8473891     
  -65072016.5452824     
  -65014409.1121208     
  -64956179.2746092     
  -64897177.3774198     
  -64837293.3988789     
  -64776449.7488599     
  -64714594.5163187     
  -64651695.4911904     
  -64587735.0796632     
  -64522706.1127028     
  -64456608.4828845     
  -64389446.5134471     
  -64321226.9528306     
  -64251957.4893115     
  -64181645.6883183     
  -64110298.2661920     
  -64037920.6264211     
  -63964516.5964773     
  -63890088.3145801     
  -63814636.2256829     
  -63738159.1545542     
  -63660654.4310599     
  -63582118.0487044     
  -63502544.8423161     
  -63421928.6746078     
  -63340262.6243485     
  -63257539.1712182     
  -63173750.3741736     
  -63088888.0414793     
  -63002943.8915186     
  -62915909.7041968     
  -62827777.4632319     
  -62738539.4899565     
  -62648188.5694741     
  -62556718.0701430     
  -62464122.0574441     
  -62370395.4033285     
  -62275533.8921671     
  -62179534.3244312     
  -62082394.6192482     
  -61984113.9169874     
  -61884692.6830557     
  -61784132.8141177     
  -61682437.7479965     
  -61579612.5785758     
  -61475664.1770887     
  -61370601.3212580     
  -61264434.8338318     
  -61157177.7321338     
  -61048845.3903036     
  -60939455.7159283     
  -60829029.3427351     
  -60717589.8408966     
  -60605163.9462596     
  -60491781.8093813     
  -60377477.2645877     
  -60262288.1182600     
  -60146256.4540988     
  -60029428.9510752     
  -59911857.2069808     
  -59793598.0567418     
  -59674713.8697064     
  -59555272.8037108     
  -59435348.9855296     
  -59315022.5770325     
  -59194379.6736564     
  -59073511.9663784     
  -58952516.0800266     
  -58831492.4794819     
  -58710543.8113607     
  -58589772.5228771     
  -58469277.5733012     
  -58349150.0294531     
  -58229467.3195131     
  -58110285.9164103     
  -57991632.2446903     
  -57873491.6712296     
  -57755795.5787359     
  -57638406.7758777     
  -57521103.9382915     
  -57403566.5088523     
  -57285362.6880061     
  -57165945.0825684     
  -57044661.7231597     
  -56920795.2357528     
  -56793650.6960223     
  -56662728.4880594     
  -56528032.7875614     
  -56390438.1425069     
  -56251628.7571170     
  -65664290.0411418     
  -65600231.9630639     
  -65536854.2038254     
  -65474732.5063857     
  -65414139.2457659     
  -65354999.9717160     
  -65297028.1148476     
  -65239853.2766979     
  -65183097.7406661     
  -65126415.7324060     
  -65069510.7286632     
  -65012140.1049391     
  -64954112.8926548     
  -64895284.1356596     
  -64835547.9007828     
  -64774830.1199629     
  -64713081.9016194     
  -64650273.6199750     
  -64586389.8937298     
  -64521425.4509588     
  -64455381.8146098     
  -64388264.7129107     
  -64320082.1087470     
  -64250842.7435226     
  -64180555.0989454     
  -64109226.6912642     
  -64036863.6246515     
  -63963470.3424166     
  -63889049.5258506     
  -63813602.1003902     
  -63737127.3173020     
  -63659622.8862646     
  -63581085.1401298     
  -63501509.2179369     
  -63420889.2560571     
  -63339218.5803350     
  -63256489.8943982     
  -63172695.4610506     
  -63087827.2749702     
  -63001877.2258895     
  -62914837.2521169     
  -62826699.4847351     
  -62737456.3831394     
  -62647100.8627852     
  -62555626.4161510     
  -62463027.2279909     
  -62369298.2860001     
  -62274435.4880321     
  -62178435.7470197     
  -62081297.0947591     
  -61983018.7857315     
  -61883601.4021636     
  -61783046.9615523     
  -61681359.0279382     
  -61578542.8282621     
  -61474605.3752134     
  -61369555.5980595     
  -61263404.4830233     
  -61156165.2248578     
  -61047853.3913227     
  -60938487.1023022     
  -60828087.2252735     
  -60716677.5887239     
  -60604285.2148850     
  -60490940.5727329     
  -60376677.8515461     
  -60261535.2543229     
  -60145555.3089207     
  -60028785.1927644     
  -59911277.0642060     
  -59793088.3899026     
  -59674282.2526791     
  -59554927.6179857     
  -59435099.5289346     
  -59314879.1896993     
  -59194353.8844467     
  -59073616.6636677     
  -58952765.7115695     
  -58831903.2870767     
  -58711134.1072174     
  -58590563.0160026     
  -58470291.7558637     
  -58350414.6349401     
  -58231012.8664755     
  -58112147.3533867     
  -57993849.7128830     
  -57876111.4002764     
  -57758870.9248177     
  -57641999.3955996     
  -57525285.0582122     
  -57408418.1878302     
  -57290978.8620111     
  -57172432.0184461     
  -57052137.2847847     
  -56929385.9714305     
  -56803485.2000907     
  -56673922.1261849     
  -56540639.6553352     
  -56404326.0169322     
  -56266320.3449680     
  -65657151.0991950     
  -65593426.9509404     
  -65530600.2595143     
  -65469104.3030788     
  -65409124.2348251     
  -65350549.8764707     
  -65293083.3169851     
  -65236352.4623171     
  -65179982.4475275     
  -65123632.5624728     
  -65067012.1749179     
  -65009884.5890405     
  -64952064.3880863     
  -64893411.6077974     
  -64833824.6976764     
  -64773233.3837644     
  -64711592.0327402     
  -64648873.8050246     
  -64585065.6975167     
  -64520164.4678380     
  -64454173.3725529     
  -64387099.6233106     
  -64318952.4553323     
  -64249741.7044120     
  -64179476.7966181     
  -64108166.0659513     
  -64035816.3273279     
  -63962432.6441725     
  -63888018.2409477     
  -63812574.5207563     
  -63736101.1566024     
  -63658596.2320101     
  -63580056.4125532     
  -63500477.1345908     
  -63419852.8012745     
  -63338176.9788444     
  -63255442.5885100     
  -63171642.0909341     
  -63086767.6616283     
  -63000811.3565011     
  -62913765.2674793     
  -62825621.6685853     
  -62736373.1531711     
  -62646012.7632160     
  -62554534.1117190     
  -62461931.4992903     
  -62368200.0260841     
  -62273335.7002362     
  -62177335.5439742     
  -62080197.6985801     
  -61981921.5293985     
  -61882507.7321061     
  -61781958.4414907     
  -61680277.3440378     
  -61577469.7956830     
  -61473542.9461581     
  -61368505.8714427     
  -61262369.7159147     
  -61155147.8458774     
  -61046856.0162000     
  -60937512.5518501     
  -60827138.5460688     
  -60715758.0768423     
  -60603398.4430990     
  -60490090.4216559     
  -60375868.5452996     
  -60260771.4014127     
  -60144841.9491468     
  -60028127.8511558     
  -59910681.8131776     
  -59792561.9210858     
  -59673831.9601859     
  -59554561.6952464     
  -59434827.0817069     
  -59314710.3684097     
  -59194300.0396870     
  -59073690.5294736     
  -58952981.6220488     
  -58832277.4330592     
  -58711684.8408657     
  -58591311.2127612     
  -58471261.2446862     
  -58351632.7093488     
  -58232510.8904620     
  -58113961.4770135     
  -57996021.7118127     
  -57878689.6495793     
  -57761911.5070461     
  -57645567.3205358     
  -57529455.5274085     
  -57413277.7570371     
  -57296626.2192924     
  -57178977.8885932     
  -57059702.6659615     
  -56938097.4355455     
  -56813465.2306717     
  -56685268.5476607     
  -56553373.3467362     
  -56418280.1770933     
  -56281021.6181509     
  -65649997.4774533     
  -65586586.9598952     
  -65524289.4820655     
  -65463410.3127293     
  -65404047.7111413     
  -65346049.8950228     
  -65289102.7740511     
  -65232829.8470753     
  -65176857.7461460     
  -65120850.2676296     
  -65064522.5685502     
  -65007644.0209794     
  -64950035.0134967     
  -64891560.8678283     
  -64832124.7091226     
  -64771660.3272290     
  -64710125.5831977     
  -64647496.6229185     
  -64583762.9847552     
  -64518923.5861750     
  -64452983.5187529     
  -64385951.5544132     
  -64317838.2572666     
  -64248654.5976345     
  -64178410.9730833     
  -64107116.5524200     
  -64034778.8707038     
  -63961403.6152013     
  -63886994.5531855     
  -63811553.5622220     
  -63735080.7319671     
  -63657574.5135510     
  -63579031.8984122     
  -63499448.6131434     
  -63418819.3206314     
  -63337137.8206870     
  -63254397.2456108     
  -63170590.2478298     
  -63085709.1780130     
  -62999746.2529878     
  -62912693.7134404     
  -62824543.9718398     
  -62735289.7513287     
  -62644924.2165246     
  -62553441.0972954     
  -62460834.8066400     
  -62367100.5538406     
  -62272234.4540681     
  -62176233.6356329     
  -62079096.3460750     
  -61980822.0583067     
  -61881411.5780384     
  -61780867.1537557     
  -61679192.5905642     
  -61576393.3692752     
  -61472476.7721866     
  -61367452.0170898     
  -61261330.4011234     
  -61154125.4561793     
  -61045853.1176334     
  -60936531.9082175     
  -60826183.1388332     
  -60714831.1280161     
  -60602503.4415501     
  -60489231.1533401     
  -60375049.1280333     
  -60259996.3249295     
  -60144116.1213375     
  -60027456.6515938     
  -59910071.1552708     
  -59792018.3244952     
  -59673362.6355260     
  -59554174.6435186     
  -59434531.2114724     
  -59314515.6343521     
  -59194217.6069983     
  -59073732.9694068     
  -58953163.1450454     
  -58832614.1670694     
  -58712195.1638325     
  -58592016.1496969     
  -58472184.9412639     
  -58352802.9953029     
  -58233959.9470431     
  -58115726.6226785     
  -57998146.3181479     
  -57881224.1930511     
  -57764914.7477753     
  -57649107.5702988     
  -57533611.9146159     
  -57418141.2998576     
  -57302300.3561097     
  -57185577.8628192     
  -57067352.7817723     
  -56946924.6453390     
  -56823586.5568139     
  -56696765.9387126     
  -56566239.1625680     
  -56432319.8418231     
  -56295765.2104900     
  -65642815.3199754     
  -65579703.3056695     
  -65517918.9626395     
  -65457651.0315178     
  -65398911.5869109     
  -65341502.4612545     
  -65285089.0452564     
  -65229287.8990160     
  -65173725.9030952     
  -65118070.8686849     
  -65062043.6779887     
  -65005419.9303112     
  -64948026.0822550     
  -64889733.0385458     
  -64830448.8925657     
  -64770111.7657100     
  -64708683.2469286     
  -64646142.6641572     
  -64582482.2579339     
  -64517703.2335605     
  -64451812.6169873     
  -64384820.8155157     
  -64316739.7772054     
  -64247581.6457803     
  -64177357.8163815     
  -64106078.3087889     
  -64033751.3868661     
  -63960383.3648332     
  -63885978.5519017     
  -63810539.2964725     
  -63734066.0994170     
  -63656557.7729374     
  -63578011.6272339     
  -63498423.6718400     
  -63417788.8221571     
  -63336101.1045950     
  -63253353.8559279     
  -63169539.9141426     
  -63084651.7992950     
  -62998681.8837909     
  -62911622.5521434     
  -62823466.3507096     
  -62734206.1281966     
  -62643835.1679205     
  -62552347.3129161     
  -62459737.0850570     
  -62365999.7993756     
  -62271131.6747877     
  -62175129.9424310     
  -62077992.9528324     
  -61979720.2831316     
  -61880312.8456107     
  -61779772.9988137     
  -61678104.6625893     
  -61575313.4384509     
  -61471406.7367277     
  -61366393.9120574     
  -61260286.4088732     
  -61153097.9186136     
  -61044844.5504682     
  -60935545.0175131     
  -60825220.8400917     
  -60713896.5682073     
  -60601600.0245055     
  -60488362.5690503     
  -60374219.3864975     
  -60259209.7953545     
  -60143377.5776674     
  -60026771.3255720     
  -59909444.7985207     
  -59791457.2814516     
  -59672873.9294700     
  -59553766.0784922     
  -59434211.4934679     
  -59314294.5159233     
  -59194106.0603229     
  -59073743.3938598     
  -58953309.6165246     
  -58832912.7376303     
  -58712664.2216300     
  -58592676.8507157     
  -58473061.7257421     
  -58353924.2029008     
  -58235358.5452712     
  -58117441.0621684     
  -58000221.5246866     
  -57883712.6975129     
  -57767877.9369032     
  -57652617.0063071     
  -57537750.6076103     
  -57423004.7049100     
  -57307996.6792488     
  -57192226.9634992     
  -57075082.5079188     
  -56955862.7934953     
  -56833845.5355724     
  -56708413.7378042     
  -56579243.8980508     
  -56446464.2599628     
  -56310581.5053073     
  -65635591.5453443     
  -65572767.2959526     
  -65511485.2381193     
  -65451826.4568855     
  -65393717.5304207     
  -65336909.9435667     
  -65281044.7182169     
  -65225729.1599431     
  -65170589.2752562     
  -65115296.4772951     
  -65059577.3549231     
  -65003213.9186076     
  -64946038.9674339     
  -64887929.2905036     
  -64828798.2423822     
  -64768588.5421107     
  -64707265.7375629     
  -64644812.5325400     
  -64581224.0277694     
  -64516503.8418944     
  -64450661.0323956     
  -64383707.7151292     
  -64315657.2755143     
  -64246523.0681523     
  -64176317.5106593     
  -64105051.4889725     
  -64032734.0036028     
  -63959371.9981595     
  -63884970.3223620     
  -63809531.7913574     
  -63733057.3114135     
  -63655546.0489560     
  -63576995.6255836     
  -63497402.3262602     
  -63416761.3115014     
  -63335066.8271912     
  -63252312.4078313     
  -63168491.0706535     
  -63083595.4992363     
  -62997618.2161410     
  -62910551.7447031     
  -62822388.7605454     
  -62733122.2336560     
  -62642745.5620567     
  -62551252.6981996     
  -62458638.2692728     
  -62364897.6926386     
  -62270027.2876251     
  -62174024.3849010     
  -62076887.4346670     
  -61978616.1149090     
  -61879211.4409754     
  -61778675.8777824     
  -61677013.4559975     
  -61574229.8936113     
  -61470332.7243912     
  -61365331.4347951     
  -61259237.6110150     
  -61152065.0979175     
  -61043830.1717259     
  -60934551.7283428     
  -60824251.4892209     
  -60712954.2266195     
  -60600688.0099024     
  -60487484.4741864     
  -60373379.1120750     
  -60258411.5883293     
  -60142626.0760180     
  -60026071.6108404     
  -59908802.4577508     
  -59790878.4805421     
  -59672365.5004377     
  -59553335.6237308     
  -59433867.5107916     
  -59314046.5490264     
  -59193964.8802800     
  -59073721.2184340     
  -58953420.3753482     
  -58833172.3927597     
  -58713091.1544878     
  -58593292.3279581     
  -58473890.4579530     
  -58354995.0109392     
  -58236705.1491131     
  -58119103.0053242     
  -58002245.2422290     
  -57886152.7247400     
  -57770798.2339708     
  -57656092.3336789     
  -57541867.8144051     
  -57427863.6656478     
  -57313710.4025980     
  -57198920.0569529     
  -57082886.6629192     
  -56964907.2186905     
  -56844239.0548695     
  -56720212.4631144     
  -56592395.5461750     
  -56460732.6977050     
  -56325499.2145190     
  -65628313.6256444     
  -65565770.2150595     
  -65504984.3949716     
  -65445936.1639388     
  -65388466.9988756     
  -65332274.6618021     
  -65276972.4189843     
  -65222156.2504904     
  -65167450.3118955     
  -65112529.2963391     
  -65057125.5337669     
  -65001027.6585033     
  -64944075.1007147     
  -64886150.8409269     
  -64827173.7888701     
  -64767091.5259807     
  -64705873.7876348     
  -64643506.8444869     
  -64579988.8126302     
  -64515325.8468991     
  -64449529.1310701     
  -64382612.5606373     
  -64314591.0099833     
  -64245479.0805281     
  -64175290.2359714     
  -64104036.2425144     
  -64031726.8442645     
  -63958369.6159178     
  -63883969.9456633     
  -63808531.1108078     
  -63732054.4167887     
  -63654539.3770717     
  -63575983.9170151     
  -63496384.5892771     
  -63415736.7918986     
  -63334034.9829571     
  -63251272.8878054     
  -63167443.6964957     
  -63082540.2501696     
  -62996555.2160406     
  -62909481.2511916     
  -62821311.1558264     
  -62732038.0168744     
  -62641655.3430218     
  -62550157.1923399     
  -62457538.2937289     
  -62363794.1634195     
  -62268921.2177795     
  -62172916.8836729     
  -62075779.7076232     
  -61977509.4650401     
  -61878107.2707919     
  -61777575.6924387     
  -61675918.8674962     
  -61573142.6261569     
  -61469254.6209817     
  -61364264.4651615     
  -61258183.8810463     
  -61151026.8607387     
  -61042809.8406316     
  -60933551.8918401     
  -60823274.9284847     
  -60712003.9357411     
  -60599767.2193968     
  -60486596.6783391     
  -60372528.1008492     
  -60257601.4847350     
  -60141861.3800701     
  -60025357.2515149     
  -59908143.8547010     
  -59790281.6177742     
  -59671837.0146808     
  -59552882.9108909     
  -59433498.8546653     
  -59313771.2773878     
  -59193793.5545494     
  -59073665.8643993     
  -58953494.7638282     
  -58833392.3806366     
  -58713475.0981505     
  -58593861.5827531     
  -58474669.9785484     
  -58356014.0682490     
  -58237998.1790069     
  -58120710.6018257     
  -58004215.3015741     
  -57888541.7336061     
  -57773672.6703009     
  -57659530.1030506     
  -57545959.5641635     
  -57432713.6793153     
  -57319436.5424655     
  -57205651.8423921     
  -57090759.9864865     
  -56974053.3693079     
  -56854764.4631510     
  -56732163.5484051     
  -56605703.0745145     
  -56475144.4727221     
  -56340545.8565427     
  -65620969.3992436     
  -65558703.2949942     
  -65498412.1472757     
  -65439979.3766139     
  -65383161.2757549     
  -65327598.9073448     
  -65272874.8237827     
  -65218571.8762218     
  -65164311.5572814     
  -65109771.6205542     
  -65054690.2312304     
  -64998862.8927626     
  -64942135.9712652     
  -64884398.9525712     
  -64825576.5971767     
  -64765621.6125516     
  -64704508.1477368     
  -64642226.2283095     
  -64578777.1379152     
  -64514169.6875953     
  -64448417.2796174     
  -64381535.6579287     
  -64313541.2355216     
  -64244449.8949060     
  -64174276.1680704     
  -64103032.7144138     
  -64030730.0276199     
  -63957376.3143707     
  -63882977.4986336     
  -63807537.3147536     
  -63731057.4606757     
  -63653537.7893681     
  -63574976.5220208     
  -63495370.4710135     
  -63414715.2641302     
  -63333005.5642022     
  -63250235.2804238     
  -63166397.7691319     
  -63081486.0229793     
  -62995492.8482480     
  -62908411.0306244     
  -62820233.4901481     
  -62730953.4262972     
  -62640564.4543312     
  -62549060.7341002     
  -62456437.0925721     
  -62362689.1413452     
  -62267813.3904173     
  -62171807.3594749     
  -62074669.6879756     
  -61976400.2452938     
  -61877000.2422322     
  -61776472.3452255     
  -61674820.7946239     
  -61572051.5285003     
  -61468172.3135122     
  -61363192.8844408     
  -61257125.0941311     
  -61149983.0756573     
  -61041783.4186392     
  -60932545.3616969     
  -60822291.0030700     
  -60711045.5313852     
  -60598837.4784118     
  -60485698.9953479     
  -60371666.1536698     
  -60256779.2707696     
  -60141083.2593963     
  -60024627.9981874     
  -59907468.7181591     
  -59789666.3967327     
  -59671288.1464726     
  -59552407.5799508     
  -59433105.1247123     
  -59313468.2528925     
  -59193591.5782758     
  -59073576.7591879     
  -58953532.1283233     
  -58833571.9503207     
  -58713815.1847460     
  -58594383.6066549     
  -58475399.1102309     
  -58356979.9951427     
  -58239236.0135428     
  -58122261.9431084     
  -58006129.4556442     
  -57890877.0823316     
  -57776498.1511858     
  -57662926.7123400     
  -57550021.7078629     
  -57437550.0453292     
  -57325169.9117275     
  -57212416.8386373     
  -57098697.1142403     
  -56983296.7603303     
  -56865419.4893185     
  -56744269.1902569     
  -56619176.2578148     
  -56489719.0176179     
  -56355748.1611221     
  -65613546.9077730     
  -65551557.6777783     
  -65491763.8953924     
  -65433955.0335286     
  -65377801.5114921     
  -65322884.9662304     
  -65268754.6723783     
  -65214978.8346626     
  -65161175.6537843     
  -65107025.8373993     
  -65052273.5459799     
  -64996721.4333541     
  -64940223.1245826     
  -64882674.9325275     
  -64824007.7661634     
  -64764179.7217062     
  -64703169.5856129     
  -64640971.3234277     
  -64577589.5353864     
  -64513035.8057392     
  -64447325.8446861     
  -64380477.3110059     
  -64312508.2038331     
  -64243435.7192385     
  -64173275.4781860     
  -64102041.0449434     
  -64029743.6677060     
  -63956392.1851833     
  -63881993.0537294     
  -63806550.4590378     
  -63730066.4844380     
  -63652541.3144888     
  -63573973.4579820     
  -63494359.9788009     
  -63413696.7264911     
  -63331978.5610342     
  -63249199.5683231     
  -63165353.2643335     
  -63080432.7870833     
  -62994431.0762616     
  -62907341.0409467     
  -62819155.7162111     
  -62729868.4096372     
  -62639472.8389211     
  -62547963.2618084     
  -62455334.5996513     
  -62361582.5558786     
  -62266703.7306721     
  -62170695.7331338     
  -62073557.2922316     
  -61975288.3678108     
  -61875890.2629856     
  -61775365.7392583     
  -61673719.1357589     
  -61570956.4940750     
  -61467085.6902160     
  -61362116.5753578     
  -61256061.1271165     
  -61148933.6132076     
  -61040750.7694564     
  -60931531.9941922     
  -60821299.5611204     
  -60710078.8527303     
  -60597898.6161837     
  -60484791.2433541     
  -60370793.0762170     
  -60255944.7380245     
  -60140291.4895519     
  -60023883.6080348     
  -59906776.7840930     
  -59789032.5287402     
  -59670718.5783025     
  -59551909.2794476     
  -59432685.9292460     
  -59313137.0359374     
  -59193358.4545013     
  -59073453.3369177     
  -58953531.8198769     
  -58833710.3525269     
  -58714110.5437155     
  -58594857.3825585     
  -58476076.6590796     
  -58357891.3849729     
  -58240416.9912675     
  -58123755.0644104     
  -58007985.3817370     
  -57893156.0308428     
  -57779271.4581391     
  -57666278.4084799     
  -57554049.9187581     
  -57442367.8631553     
  -57330905.1129242     
  -57219209.3688256     
  -57106692.5488999     
  -56992632.9237617     
  -56876202.1555373     
  -56756532.2068243     
  -56632825.5523910     
  -56504475.9621777     
  -56371132.4218220     
  -65606034.2499911     
  -65544324.3719543     
  -65485034.7703767     
  -65427861.8492200     
  -65372388.7666923     
  -65318135.1450209     
  -65264614.7829853     
  -65211380.0231553     
  -65158045.3453946     
  -65104294.4281051     
  -65049877.6583627     
  -64994605.1605213     
  -64938338.1612965     
  -64880980.1309677     
  -64822468.4272053     
  -64762766.7968872     
  -64701858.8851932     
  -64639742.7795346     
  -64576426.5424579     
  -64511924.6452225     
  -64446255.1924665     
  -64379437.8215688     
  -64311492.1630734     
  -64242436.7571486     
  -64172288.3327934     
  -64101061.3694603     
  -64028767.8736729     
  -63955417.3152951     
  -63881016.6789316     
  -63805570.5953314     
  -63729081.5255981     
  -63651549.9775784     
  -63572974.7391199     
  -63493353.1171382     
  -63412681.1747537     
  -63330953.9613296     
  -63248165.7321791     
  -63164310.1561587     
  -63079380.5104148     
  -62993369.8623045     
  -62906271.2390218     
  -62818077.7858114     
  -62728782.9138672     
  -62638380.4391405     
  -62546864.7133501     
  -62454230.7485124     
  -62360474.3363140     
  -62265592.1636423     
  -62169581.9255747     
  -62072442.4371332     
  -61974173.7451059     
  -61874777.2412637     
  -61774255.7783316     
  -61672613.7901274     
  -61569857.4173462     
  -61465994.6405596     
  -61361035.4220920     
  -61254991.8585503     
  -61147878.3458974     
  -61039711.7590678     
  -60930511.6482194     
  -60820300.4537680     
  -60709103.7423569     
  -60596950.4658067     
  -60483873.2448552     
  -60369908.6790652     
  -60255097.6835613     
  -60139485.8521671     
  -60023123.8449302     
  -59906067.7957852     
  -59788379.7330203     
  -59670128.0010760     
  -59551387.6667225     
  -59432240.8855711     
  -59312777.1958005     
  -59193093.6946184     
  -59073295.0389501     
  -58953493.1948968     
  -58833806.8404494     
  -58714360.3028122     
  -58595281.8858966     
  -58476701.4159704     
  -58358746.8058007     
  -58241539.4126134     
  -58125187.9469528     
  -58009780.6839132     
  -57895375.7432494     
  -57781989.2512261     
  -57669581.2891489     
  -57558039.6926916     
  -57447162.0297677     
  -57336636.5304350     
  -57226023.5433289     
  -57114740.6281688     
  -57002057.3531080     
  -56887110.6846170     
  -56768955.9066124     
  -56646662.0013269     
  -56519435.2281503     
  -56386724.8119962     
  -65598419.4467510     
  -65536994.2049497     
  -65478219.6681943     
  -65421698.3718993     
  -65366924.0574633     
  -65313351.7991727     
  -65260458.0685761     
  -65207778.4474267     
  -65154923.4815890     
  -65101579.9688705     
  -65047504.8301685     
  -64992516.0218346     
  -64936482.7359216     
  -64879315.9398276     
  -64820959.7429244     
  -64761383.8039385     
  -64700576.8455696     
  -64638541.2557091     
  -64575288.7014386     
  -64510836.6514359     
  -64445205.6881594     
  -64378417.4885757     
  -64310493.3574876     
  -64241453.2076340     
  -64171314.8933715     
  -64100093.8182079     
  -64027802.7496231     
  -63954451.7867900     
  -63880048.4376390     
  -63804597.7710457     
  -63728102.6177669     
  -63650563.8002238     
  -63571980.3764474     
  -63492349.8876513     
  -63411668.6021350     
  -63329931.7507056     
  -63247133.7506819     
  -63163268.4169330     
  -63078329.1594059     
  -62992309.1673110     
  -62905201.5806177     
  -62816999.6498292     
  -62727696.8852103     
  -62637287.1967452     
  -62545765.0261647     
  -62453125.4723951     
  -62359364.4117765     
  -62264478.6143912     
  -62168465.8578216     
  -62071325.0396576     
  -61973056.2900719     
  -61873661.0858036     
  -61773142.3669243     
  -61671504.6578105     
  -61568754.1938197     
  -61464899.0552531     
  -61359949.3102902     
  -61253917.1686965     
  -61146817.1482257     
  -61038666.2557572     
  -60929484.1853117     
  -60819293.5351639     
  -60708120.0462847     
  -60595992.8642763     
  -60482944.8267550     
  -60369012.7777443     
  -60254237.9099849     
  -60138666.1350366     
  -60022348.4795534     
  -59905341.5039678     
  -59787707.7368648     
  -59669516.1143201     
  -59550842.4081744     
  -59431769.6202968     
  -59312388.3110286     
  -59192796.8188478     
  -59073101.3144757     
  -58953415.6158737     
  -58833860.6706382     
  -58714563.5891608     
  -58595656.0859121     
  -58477272.1580924     
  -58359544.8021734     
  -58242601.5419498     
  -58126558.5202552     
  -58011512.8955195     
  -57897533.2904487     
  -57784648.0714895     
  -57672831.3045315     
  -57561986.3483096     
  -57451927.2367797     
  -57342358.3218959     
  -57232853.2411255     
  -57122835.4895844     
  -57011565.4424967     
  -56898143.4028771     
  -56781543.9648328     
  -56660697.1617178     
  -56534617.1329355     
  -56402551.6767011     
  -65590690.3123121     
  -65529557.7722244     
  -65471313.2770543     
  -65415463.0391076     
  -65361408.4027342     
  -65308537.3636358     
  -65256287.5544362     
  -65204177.2307444     
  -65151813.0214609     
  -65098885.1321566     
  -65045157.4044050     
  -64990456.0312093     
  -64934658.5555542     
  -64877683.7914223     
  -64819482.9058544     
  -64760031.7298826     
  -64699324.2799122     
  -64637367.4194774     
  -64574176.5587328     
  -64509772.2705964     
  -64444177.6954155     
  -64377416.6077798     
  -64309512.0270309     
  -64240485.2647573     
  -64170355.3161507     
  -64099138.5161128     
  -64026848.3944466     
  -63953495.6767621     
  -63879088.3885602     
  -63803632.0292452     
  -63727129.7905716     
  -63649582.8003960     
  -63570990.3777206     
  -63491350.2890542     
  -63410658.9992642     
  -63328911.9124931     
  -63246103.6005140     
  -63162228.0172302     
  -63077278.6989708     
  -62991248.9509120     
  -62904132.0203965     
  -62815921.2582204     
  -62726610.2691334     
  -62636193.0528907     
  -62544664.1372398     
  -62452018.7042293     
  -62358252.7112179     
  -62263363.0079442     
  -62167347.4509969     
  -62070205.0170192     
  -61971935.9159811     
  -61872541.7058731     
  -61772025.4102051     
  -61670391.6397511     
  -61567646.7200499     
  -61463798.8262604     
  -61358858.1270801     
  -61252836.9395499     
  -61145749.8967018     
  -61037614.1301274     
  -60928449.4696674     
  -60818278.6625078     
  -60707127.6140062     
  -60595025.6525303     
  -60482005.8204146     
  -60368105.1928009     
  -60253365.2255184     
  -60137832.1322102     
  -60021557.2895000     
  -59904597.6669590     
  -59787016.2758013     
  -59668882.6263927     
  -59550273.1795203     
  -59431271.7696613     
  -59311969.9698395     
  -59192467.3567372     
  -59072871.6211312     
  -58953298.4521384     
  -58833871.1039250     
  -58714719.5303820     
  -58595978.9470115     
  -58477787.6505545     
  -58360283.8970117     
  -58243601.6097597     
  -58127864.6645857     
  -58013179.4818548     
  -57899625.6528664     
  -57787244.3434882     
  -57676024.2591385     
  -57565885.0272349     
  -57456657.9673439     
  -57348064.4090219     
  -57239692.0898854     
  -57130971.0326783     
  -57021152.4209941     
  -56909298.6387710     
  -56794300.3043611     
  -56674943.0468240     
  -56550042.5001934     
  -56418639.8108370     
  -65582834.3278713     
  -65522005.3836497     
  -65464310.1006648     
  -65409154.2328114     
  -65355842.8736560     
  -65303694.3854414     
  -65252106.3967690     
  -65200579.6235293     
  -65148717.0380343     
  -65096212.6880313     
  -65042837.8050545     
  -64988427.2678724     
  -64932867.3785026     
  -64876085.1569910     
  -64818039.1370338     
  -64758711.5816313     
  -64698102.0143254     
  -64636221.9458224     
  -64573090.6639974     
  -64508731.9490377     
  -64443171.5757468     
  -64376435.4712448     
  -64308548.4069720     
  -64239533.1173233     
  -64169409.7518522     
  -64098195.5825732     
  -64025904.9016512     
  -63952549.0571798     
  -63878136.5856032     
  -63802673.4085585     
  -63726163.0695845     
  -63648606.9923920     
  -63570004.7473924     
  -63490354.3171097     
  -63409652.3541502     
  -63327894.4277099     
  -63245075.2563282     
  -63161188.9258533     
  -63076229.0924911     
  -62990189.1714230     
  -62903062.5119039     
  -62814842.5600070     
  -62725523.0103388     
  -62635097.9481270     
  -62543561.9831065     
  -62450910.3766313     
  -62357139.1634159     
  -62262245.2692895     
  -62166226.6263221     
  -62069082.2866699     
  -61970812.5364877     
  -61871419.0112727     
  -61770904.8140368     
  -61669274.6377600     
  -61566534.8936478     
  -61462693.8468089     
  -61357761.7610803     
  -61251751.0548499     
  -61144676.4698603     
  -61036555.2551202     
  -60927407.3681721     
  -60817255.6960747     
  -60706126.2985208     
  -60594048.6754882     
  -60481056.0616995     
  -60367185.7498553     
  -60252479.4440735     
  -60136983.6440803     
  -60020750.0593928     
  -59903836.0507997     
  -59786305.0937655     
  -59668227.2546967     
  -59549679.6660632     
  -59430746.9798664     
  -59311521.7705404     
  -59192104.8476812     
  -59072605.4256441     
  -58953141.0806580     
  -58833837.4063982     
  -58714827.2557776     
  -58596249.4301906     
  -58478246.6480853     
  -58360962.5936054     
  -58244537.8149405     
  -58129104.2135504     
  -58014777.8429819     
  -57901649.7233452     
  -57789774.3779691     
  -57679155.8137231     
  -57569730.6942631     
  -57461348.4929285     
  -57353748.4680175     
  -57246533.4450513     
  -57139140.8788558     
  -57030813.2826429     
  -56920574.6170607     
  -56807228.9779874     
  -56689412.0770938     
  -56565732.7764218     
  -56435016.7324105     
  -65574838.5135426     
  -65514327.0072784     
  -65457204.4799199     
  -65402770.3355836     
  -65350228.6453395     
  -65298825.5580442     
  -65247917.9021315     
  -65196989.0132769     
  -65145638.7226684     
  -65093565.5055100     
  -65040548.5367848     
  -64986431.8752645     
  -64931111.0128411     
  -64874521.5451642     
  -64816629.6845262     
  -64757424.3846292     
  -64696910.8866466     
  -64635105.5161425     
  -64572031.5692550     
  -64507716.1324683     
  -64442187.6879094     
  -64375474.3668371     
  -64307602.7274785     
  -64238596.9485435     
  -64168478.3454170     
  -64097265.1312421     
  -64024972.3591877     
  -63951611.9947460     
  -63877193.0777649     
  -63801721.9430895     
  -63725202.4762516     
  -63647636.3867777     
  -63569023.4865657     
  -63489361.9645922     
  -63408648.6521510     
  -63326879.2750362     
  -63244048.6907263     
  -63160151.1098185     
  -63075180.3018013     
  -62989129.7858316     
  -62901993.0075586     
  -62813763.5032689     
  -62724435.0527581     
  -62634001.8223925     
  -62542458.4998354     
  -62449800.4219012     
  -62356023.6969712     
  -62261125.3233754     
  -62165103.3051169     
  -62067956.7663012     
  -61969686.0656305     
  -61870292.9123399     
  -61769780.4849815     
  -61668153.5545215     
  -61565418.6132878     
  -61461584.0113975     
  -61356660.1024118     
  -61250659.4000922     
  -61143596.7482760     
  -61035489.5060341     
  -60926357.7504200     
  -60816224.4992410     
  -60705115.9563642     
  -60593061.7820897     
  -60480095.3910262     
  -60366254.2796600     
  -60251580.3853218     
  -60136120.4774710     
  -60019926.5809909     
  -59903056.4293913     
  -59785573.9432730     
  -59667549.7258980     
  -59549061.5629665     
  -59430194.9074221     
  -59311043.3219594     
  -59191708.8414625     
  -59072302.2045056     
  -58952942.8868678     
  -58833758.8504252     
  -58714885.8975751     
  -58596466.4945376     
  -58478647.8968242     
  -58361579.3777172     
  -58245408.3272307     
  -58130274.9568233     
  -58016305.3166925     
  -57903602.3101885     
  -57792234.3746905     
  -57682221.4873281     
  -57573518.1376403     
  -57465992.8700789     
  -57359403.9197664     
  -57253370.3682295     
  -57147338.3294670     
  -57040542.7127125     
  -56931969.3479967     
  -56820334.0484115     
  -56704117.0346541     
  -56581710.1531636     
  -56451710.9590543     
  -65566689.2951146     
  -65506512.2105148     
  -65449990.6154209     
  -65396309.7896235     
  -65344567.0512837     
  -65293933.7571894     
  -65243725.5474539     
  -65193408.9346321     
  -65142581.3894630     
  -65090946.5538407     
  -65038292.1845836     
  -64984472.0598555     
  -64929391.3148801     
  -64872994.5003492     
  -64815255.8218643     
  -64756171.1814290     
  -64695751.7451828     
  -64634018.8171594     
  -64570999.8279658     
  -64506725.2651919     
  -64441226.3872595     
  -64374533.5776975     
  -64306675.2131878     
  -64237676.9356885     
  -64167561.2357270     
  -64096347.2698036     
  -64024050.8492730     
  -63950684.5507568     
  -63876257.9090177     
  -63800777.6623278     
  -63724248.0278213     
  -63646670.9903305     
  -63568046.5929476     
  -63488373.2212505     
  -63407647.8759446     
  -63325866.4307894     
  -63243023.8742400     
  -63159114.5343371     
  -63074132.2871743     
  -62988070.7497861     
  -62900923.4586427     
  -62812684.0351360     
  -62723346.3395452     
  -62632904.6150095     
  -62541353.6230325     
  -62448688.7720189     
  -62354906.2403052     
  -62260003.0951101     
  -62163977.4087997     
  -62066828.3738435     
  -61968556.4178335     
  -61869163.3199512     
  -61768652.3303033     
  -61667028.2935981     
  -61564297.7787142     
  -61460469.2158050     
  -61355553.0427060     
  -61249561.8625413     
  -61142510.6145782     
  -61034416.7605400     
  -60925300.4887343     
  -60815184.9385077     
  -60704096.4476388     
  -60592064.8253290     
  -60479123.6534060     
  -60365310.6181527     
  -60250667.8747627     
  -60135242.4457226     
  -60019086.6532979     
  -59902258.5846331     
  -59784822.5855944     
  -59666849.7761460     
  -59548418.5755329     
  -59429615.2195006     
  -59310534.2438935     
  -59191278.8988119     
  -59071961.4446691     
  -58952703.2655382     
  -58833634.7157198     
  -58714894.5922326     
  -58596629.0988087     
  -58478990.1362017     
  -58362132.7197945     
  -58246211.2897620     
  -58131374.6430191     
  -58017759.1816301     
  -57905480.1403744     
  -57794620.4254177     
  -57685216.6595017     
  -57577241.9694937     
  -57470584.9372788     
  -57365023.9199951     
  -57260195.6052204     
  -57155556.3225883     
  -57050335.0106584     
  -56943480.5107323     
  -56833619.4622176     
  -56719071.0161169     
  -56597997.6948468     
  -56468752.2957111     
  -65558372.3618116     
  -65498550.0986378     
  -65442662.5932963     
  -65389771.1604801     
  -65338859.6408914     
  -65289022.0780462     
  -65239533.0003729     
  -65189843.0794499     
  -65139548.4795658     
  -65088358.9036795     
  -65036071.4132841     
  -64982550.0898603     
  -64927710.1875422     
  -64871505.6010293     
  -64813918.8464163     
  -64754953.0301972     
  -64694625.4473892     
  -64632962.5397752     
  -64569995.9940582     
  -64505759.7892978     
  -64440288.0250823     
  -64373613.3816925     
  -64305766.0827615     
  -64236773.2497301     
  -64166658.5553179     
  -64095442.0997450     
  -64023140.4482081     
  -63949766.7809580     
  -63875331.1181974     
  -63799840.5910598     
  -63723299.7372743     
  -63645710.8059838     
  -63567074.0608054     
  -63487388.0737732     
  -63406650.0054992     
  -63324855.8689017     
  -63242000.7753113     
  -63158079.1628016     
  -63073085.0073103     
  -62987012.0175853     
  -62899853.8152936     
  -62811604.1017816     
  -62722256.8130710     
  -62631806.2646784     
  -62540247.2878347     
  -62447575.3586418     
  -62353786.7216585     
  -62258878.5093600     
  -62162848.8588864     
  -62065697.0274678     
  -61967423.5079081     
  -61868030.1455246     
  -61767520.2579724     
  -61665898.7594352     
  -61563172.2907462     
  -61459349.3570967     
  -61354440.4751152     
  -61248458.3312394     
  -61141417.9534623     
  -61033336.8986970     
  -60924235.4581845     
  -60814136.8835238     
  -60703067.6360407     
  -60591057.6622901     
  -60478140.6984873     
  -60364354.6065107     
  -60249741.7437908     
  -60134349.3687779     
  -60018230.0826700     
  -59901442.3065596     
  -59784050.7909301     
  -59666127.1512971     
  -59547750.4194911     
  -59429007.5942989     
  -59309994.1675649     
  -59190814.5919855     
  -59071582.6442761     
  -58952421.6216773     
  -58833464.2904564     
  -58714852.4817997     
  -58596736.2030753     
  -58479272.1009092     
  -58362621.0772865     
  -58246944.8217357     
  -58132400.9827106     
  -58019136.6605753     
  -57907279.8629497     
  -57796928.5171131     
  -57688136.5727159     
  -57580896.6264732     
  -57475118.3120299     
  -57370601.3496186     
  -57267001.5640461     
  -57163787.3890973     
  -57060184.0103280     
  -56955105.3301167     
  -56847088.9138184     
  -56734287.3784023     
  -56614619.4723587     
  -56486172.1416084     
  -65549872.5109489     
  -65490429.2506851     
  -65435214.4170349     
  -65383153.2074784     
  -65333108.2404560     
  -65284093.8733057     
  -65235344.1395790     
  -65186295.3066688     
  -65136543.5652863     
  -65085805.7280974     
  -65033888.9669523     
  -64980668.2938354     
  -64926069.5786318     
  -64870056.4579695     
  -64812620.0776686     
  -64753771.0031497     
  -64693532.8584871     
  -64631937.3778804     
  -64569020.6209176     
  -64504820.1438149     
  -64439372.9478956     
  -64372714.0508456     
  -64304875.5484252     
  -64235886.0549706     
  -64165770.4300846     
  -64094549.7161220     
  -64022241.2261937     
  -63948858.7354000     
  -63874412.7388874     
  -63798910.7492787     
  -63722357.6132525     
  -63644755.8327713     
  -63566105.8809226     
  -63486406.5057529     
  -63405655.0180473     
  -63323847.5608978     
  -63240979.3602752     
  -63157044.9567704     
  -63072038.4193228     
  -62985953.5421688     
  -62898784.0264957     
  -62810523.6484147     
  -62721166.4149171     
  -62630706.7094741     
  -62539139.4289073     
  -62446460.1131028     
  -62352665.0690890     
  -62257751.4909489     
  -62161717.5769911     
  -62064562.6455856     
  -61966287.2510540     
  -61866893.3010215     
  -61766384.1766674     
  -61664764.8573647     
  -61562042.0512837     
  -61458224.3336300     
  -61353322.2943169     
  -61247348.6970164     
  -61140318.6517012     
  -61032249.8029656     
  -60923162.5366040     
  -60813080.2071057     
  -60702029.3888845     
  -60590040.1541783     
  -60477146.3805961     
  -60363386.0912008     
  -60248801.8297602     
  -60133441.0732636     
  -60017356.6829222     
  -59900607.3934772     
  -59783258.3385871     
  -59665381.6071419     
  -59547056.8212843     
  -59428371.7214090     
  -59309422.7360944     
  -59190315.5053617     
  -59071165.3134029     
  -58952097.3714641     
  -58833246.8724253     
  -58714758.7153357     
  -58596786.7704437     
  -58479492.5229548     
  -58363042.8970698     
  -58247607.0212296     
  -58133351.6515965     
  -58020434.9239028     
  -57908998.0526130     
  -57799154.5353405     
  -57690976.3350314     
  -57584476.3706761     
  -57479586.3882623     
  -57376128.8054729     
  -57273780.2933432     
  -57172023.6086707     
  -57070082.9980629     
  -56966840.4460357     
  -56860745.6950698     
  -56749779.6717615     
  -56631600.7023710     
  -56504003.8253708     
  -65541173.4748076     
  -65482137.6528545     
  -65427640.0484841     
  -65376454.9629959     
  -65327315.0179223     
  -65279152.7918624     
  -65231163.0748615     
  -65182769.6518192     
  -65133570.3539163     
  -65083290.3033683     
  -65031747.6681061     
  -64978829.0591393     
  -64924471.4789942     
  -64868648.7123261     
  -64811360.8554283     
  -64752626.1849158     
  -64692474.8500214     
  -64630944.0271106     
  -64568074.2603349     
  -64503906.7638365     
  -64438481.4967285     
  -64371835.8507487     
  -64304003.8154941     
  -64235015.5086642     
  -64164896.9789792     
  -64093670.2073214     
  -64021353.2471423     
  -63947960.4582906     
  -63873502.7993061     
  -63797988.1520951     
  -63721421.6599896     
  -63643806.0657738     
  -63565142.0405573     
  -63485428.4976543     
  -63404662.8880582     
  -63322841.4758740     
  -63239959.5933427     
  -63156011.8759545     
  -63070992.4787301     
  -62984895.2751072     
  -62897714.0400727     
  -62809442.6192749     
  -62720075.0858713     
  -62629605.8868414     
  -62538029.9804403     
  -62445342.9664059     
  -62351541.2104695     
  -62256621.9646566     
  -62160583.4848245     
  -62063425.1468485     
  -61965147.5628596     
  -61865752.6989484     
  -61765243.9957780     
  -61663626.4936079     
  -61560906.9633097     
  -61457094.0450598     
  -61352198.3965232     
  -61246232.8524975     
  -61139212.5981551     
  -61031155.3582192     
  -60922081.6046038     
  -60812014.7852557     
  -60700981.5771272     
  -60589012.1663483     
  -60476140.5587720     
  -60362404.9240284     
  -60247847.9760469     
  -60132517.3925719     
  -60016466.2754340     
  -59899753.6521008     
  -59782445.0171540     
  -59664612.9096323     
  -59546337.5183651     
  -59427707.3021948     
  -59308819.6049810     
  -59189781.2360519     
  -59070708.9748336     
  -58951729.9432147     
  -58832981.7702309     
  -58714612.4503797     
  -58596779.7688411     
  -58479650.1338087     
  -58363396.6179796     
  -58248195.9681297     
  -58134224.2938166     
  -58021651.0932111     
  -57910631.2135028     
  -57801294.2679036     
  -57693730.9230374     
  -57587975.2909167     
  -57483982.3341994     
  -57381598.5916471     
  -57280523.4614990     
  -57180256.5663890     
  -57080024.6295025     
  -56978681.7746343     
  -56874592.5259388     
  -56765561.5532393     
  -56648967.8920889     
  -56522282.9783206     
  -65532257.7241960     
  -65473662.6298862     
  -65419933.4618458     
  -65369675.8229034     
  -65321482.5515707     
  -65274202.8175962     
  -65226994.1665080     
  -65179270.3359895     
  -65130632.6911608     
  -65080816.0094813     
  -65029650.4167339     
  -64977034.8302408     
  -64922917.9205479     
  -64867284.0336533     
  -64810142.5379365     
  -64751519.6708293     
  -64691452.2983588     
  -64629983.1835551     
  -64567157.4614162     
  -64503020.0796121     
  -64437614.0063755     
  -64370979.0399579     
  -64303151.0818855     
  -64234161.7606279     
  -64164038.3137030     
  -64092803.6548177     
  -64020476.5684895     
  -63947071.9878480     
  -63872601.3221913     
  -63797072.8096488     
  -63720491.8772435     
  -63642861.4960653     
  -63564182.5234003     
  -63484454.0267816     
  -63403673.5872138     
  -63321837.5804792     
  -63238941.4365858     
  -63154979.8782052     
  -63069947.1394434     
  -62983837.1665952     
  -62896643.8026813     
  -62808360.9576258     
  -62718982.7659230     
  -62628503.7335920     
  -62536918.8761454     
  -62444223.8492262     
  -62350415.0734866     
  -62255489.8552183     
  -62159446.5041944     
  -62062284.4501495     
  -61964004.3593038     
  -61864608.2523578     
  -61764099.6254066     
  -61662483.5752786     
  -61559766.9308958     
  -61455958.3923433     
  -61351068.6794849     
  -61245110.6921094     
  -61138099.6837794     
  -61030053.4517555     
  -60920992.5455862     
  -60810940.4971798     
  -60699924.0753897     
  -60587973.5683336     
  -60475123.0968061     
  -60361410.9621831     
  -60246880.0321096     
  -60131578.1669392     
  -60015558.6892512     
  -59898880.8976882     
  -59781610.6246783     
  -59663820.8351108     
  -59545592.2594918     
  -59427014.0501760     
  -59308184.4425954     
  -59189211.3945278     
  -59070213.1648529     
  -58951318.7783772     
  -58832668.3045296     
  -58714412.8544765     
  -58596714.1728725     
  -58479743.6666300     
  -58363680.6734448     
  -58248709.7271897     
  -58135016.5254225     
  -58022782.2451360     
  -57912175.7831989     
  -57803343.4087410     
  -57696395.1851092     
  -57591387.3044057     
  -57488299.0907875     
  -57387002.7116194     
  -57287222.3369110     
  -57188477.3106688     
  -57090000.8461168     
  -56990624.3610909     
  -56888631.3612569     
  -56781646.6723634     
  -56666748.9884561     
  -56541047.9578638     
  -65523106.2419467     
  -65464990.7753942     
  -65412088.7154484     
  -65362815.6506191     
  -65315613.9025139     
  -65269248.3076426     
  -65222842.0437075     
  -65175801.7740720     
  -65127734.5640799     
  -65078386.3303258     
  -65027600.1890870     
  -64975288.1068584     
  -64921410.9741886     
  -64865964.1178017     
  -64808966.4998939     
  -64750452.5651466     
  -64690466.0831238     
  -64629055.5424165     
  -64566270.7694526     
  -64502160.5156098     
  -64436770.8046278     
  -64370143.8693689     
  -64302317.5376187     
  -64233324.9528423     
  -64163194.5383922     
  -64091950.1329277     
  -64019611.2410016     
  -63946193.3561516     
  -63871708.3246853     
  -63796164.7270208     
  -63719568.2602282     
  -63641922.1106615     
  -63563227.3095363     
  -63483483.0672481     
  -63402687.0843851     
  -63320835.8388959     
  -63237924.8499232     
  -63153948.9195030     
  -63068902.3537588     
  -62982779.1654440     
  -62895573.2598059     
  -62807278.6057521     
  -62717889.3942599     
  -62627400.1859002     
  -62535806.0492531     
  -62443102.6919063     
  -62349286.5856395     
  -62254355.0873230     
  -62158306.5570046     
  -62061140.4746218     
  -61962857.5567547     
  -61863459.8748495     
  -61762950.9763691     
  -61661336.0103842     
  -61558621.8592026     
  -61454817.2777425     
  -61349933.0424952     
  -61243982.1120866     
  -61136979.8016323     
  -61028943.9733043     
  -60919895.2457566     
  -60809857.2253011     
  -60698856.7619753     
  -60586924.2338702     
  -60474093.8632722     
  -60360404.0682820     
  -60245897.8535460     
  -60130623.2435225     
  -60014633.7611873     
  -59897988.9541730     
  -59780754.9688410     
  -59663005.1705405     
  -59544820.8050283     
  -59426291.6914157     
  -59307516.9306792     
  -59188605.6052610     
  -59069677.4340580     
  -58950863.3325550     
  -58832305.8093059     
  -58714159.1067498     
  -58596588.9657400     
  -58479771.8585799     
  -58363893.4942292     
  -58249146.3512202     
  -58135725.9380032     
  -58023825.4153488     
  -57913628.1369462     
  -57805297.5620951     
  -57698963.8450129     
  -57594706.1588998     
  -57492529.3708037     
  -57392332.8614072     
  -57293867.7697450     
  -57196676.3132753     
  -57100002.7927673     
  -57002662.2241628     
  -56902863.1682872     
  -56798048.5188167     
  -56684973.5297698     
  -56560340.3354654     
  -65513698.2579024     
  -65456107.8829303     
  -65404100.0473896     
  -65355874.8973131     
  -65309712.6905196     
  -65264294.0294022     
  -65218711.6216084     
  -65172368.5821185     
  -65124880.1034513     
  -65076004.8535012     
  -65025600.0362185     
  -64973591.4419154     
  -64919952.7475476     
  -64864690.6847051     
  -64807834.1303951     
  -64749425.9791907     
  -64689517.0855770     
  -64628161.7966216     
  -64565414.7247532     
  -64501328.4895492     
  -64435952.2114821     
  -64369330.5815779     
  -64301503.3643033     
  -64232505.2190475     
  -64162365.7492993     
  -64091109.7085607     
  -64018757.3085823     
  -63945324.5889934     
  -63870823.8182215     
  -63795263.9041460     
  -63718650.7995467     
  -63640987.8924700     
  -63562276.3754047     
  -63482515.5899471     
  -63401703.3456097     
  -63319836.2128245     
  -63236909.7911064     
  -63152918.9539474     
  -63067858.0723492     
  -62981721.2190739     
  -62894502.3557519     
  -62806195.5049531     
  -62716794.9092635     
  -62626295.1793016     
  -62534691.4325113     
  -62441979.4244547     
  -62348155.6742372     
  -62253217.5856124     
  -62157163.5652537     
  -62059993.1396388     
  -61961707.0719710     
  -61862307.4805701     
  -61761797.9601972     
  -61660183.7078283     
  -61557471.6544835     
  -61453670.6048269     
  -61348791.3863943     
  -61242847.0104755     
  -61135852.8468796     
  -61027826.8150355     
  -60918789.5941325     
  -60808764.8552732     
  -60697779.5188868     
  -60585864.0409197     
  -60473052.7315581     
  -60359384.1104114     
  -60244901.3021497     
  -60129652.4764727     
  -60013691.3359230     
  -59897077.6542968     
  -59779877.8671312     
  -59662165.7137348     
  -59544022.9272453     
  -59425539.9649136     
  -59306816.7648539     
  -59187963.5073772     
  -59069101.3481916     
  -58950363.0765565     
  -58831893.6331846     
  -58713850.3995265     
  -58596403.1412286     
  -58479733.4532159     
  -58364033.5112752     
  -58249503.8844061     
  -58136350.1024672     
  -58024777.6027483     
  -57914984.5921184     
  -57807152.2469769     
  -57701431.5058953     
  -57597925.4353789     
  -57496665.6587441     
  -57397580.4239291     
  -57300450.1755555     
  -57204843.4321620     
  -57110020.7378984     
  -57014788.1935316     
  -56917287.6696538     
  -56814780.2190309     
  -56703672.7959113     
  -56580205.4673623     
  -65504010.9345918     
  -65446998.8808579     
  -65395962.0028950     
  -65348854.7407347     
  -65303783.1721314     
  -65259345.1954001     
  -65214608.1166904     
  -65168975.5836401     
  -65122073.5854597     
  -65073675.2697051     
  -65023653.0822399     
  -64971947.4392981     
  -64918545.3826071     
  -64863465.4760512     
  -64806746.8307696     
  -64748441.0294177     
  -64688606.1869305     
  -64627302.6353852     
  -64564589.8614396     
  -64500524.4114051     
  -64435158.5383290     
  -64368539.4102270     
  -64300708.7346160     
  -64231702.6843290     
  -64161552.0344690     
  -64090282.4409677     
  -64017914.8080797     
  -63944465.7057303     
  -63869947.8084115     
  -63794370.3357272     
  -63717739.4811285     
  -63640058.8202408     
  -63561329.6937651     
  -63481551.5625257     
  -63400722.3340723     
  -63318838.6614662     
  -63235896.2157091     
  -63151889.9337472     
  -63066814.2442564     
  -62980663.2735101     
  -62893431.0336425     
  -62805111.5955410     
  -62715699.2485068     
  -62625188.6486892     
  -62533574.9581823     
  -62440853.9765444     
  -62347022.2663981     
  -62252077.2746799     
  -62156017.4510350     
  -62058842.3648134     
  -61960552.8221007     
  -61861150.9842142     
  -61760640.4891374     
  -61659026.5774097     
  -61556316.2240840     
  -61452518.2784757     
  -61347643.6135704     
  -61241705.2871368     
  -61134718.7168000     
  -61026701.8715652     
  -60917675.4825519     
  -60807663.2759913     
  -60696692.2318423     
  -60584792.8716903     
  -60471999.5798925     
  -60358350.9621643     
  -60243890.2459603     
  -60128665.7270059     
  -60012731.2661004     
  -59896146.8397373     
  -59778979.1470177     
  -59661302.2735861     
  -59543198.4106235     
  -59424758.6230034     
  -59306083.6551360     
  -59187284.7553182     
  -59068484.4889887     
  -58949817.4974699     
  -58831431.1407774     
  -58713485.9400070     
  -58596155.7057527     
  -58479627.2029654     
  -58364099.1586508     
  -58249780.3657515     
  -58136886.5729862     
  -58025635.7738491     
  -57916241.4129221     
  -57808902.9019397     
  -57703792.6546853     
  -57601038.5513069     
  -57500700.2115937     
  -57402736.4647734     
  -57306959.5211239     
  -57212967.8778503     
  -57120043.9982515     
  -57026993.7421267     
  -56931903.0463093     
  -56831854.2648859     
  -56722879.9506245     
  -56600693.1712043     
  -65494018.9895288     
  -65437647.7761589     
  -65387669.6035663     
  -65341757.2448078     
  -65297830.3193414     
  -65254407.4950042     
  -65210537.0601601     
  -65165627.8146910     
  -65119319.4326325     
  -65071401.3716602     
  -65021762.5222797     
  -64970358.7514004     
  -64917191.0531528     
  -64862290.2528293     
  -64805706.0123264     
  -64747498.8354115     
  -64687734.2666056     
  -64626478.7427262     
  -64563796.7062051     
  -64499748.6823856     
  -64434390.0871204     
  -64367770.5793346     
  -64299933.8117691     
  -64230917.4646980     
  -64160753.4734103     
  -64089468.3814872     
  -64017083.7690901     
  -63943616.7191337     
  -63869080.2949318     
  -63793484.0111518     
  -63716834.2861645     
  -63639134.8685208     
  -63560387.2336597     
  -63480590.9493579     
  -63399744.0100841     
  -63317843.1415098     
  -63234884.0771159     
  -63150861.8092142     
  -63065770.8168868     
  -62979605.2733778     
  -62892359.2354150     
  -62804026.8168368     
  -62714602.3487516     
  -62624080.5283120     
  -62532456.5580417     
  -62439726.2775114     
  -62345886.2890491     
  -62250934.0790702     
  -62154868.1365349     
  -62057688.0699972     
  -61959394.7246810     
  -61859990.3010230     
  -61759478.4761511     
  -61657864.5298238     
  -61555155.4764438     
  -61451360.2048784     
  -61346489.6279620     
  -61240556.8437483     
  -61133577.3107870     
  -61025569.0399588     
  -60916552.8056787     
  -60806552.3796004     
  -60695594.7902857     
  -60583710.6126528     
  -60470934.2913717     
  -60357304.5026763     
  -60242864.5593135     
  -60127662.8634698     
  -60011753.4124167     
  -59895196.3612347     
  -59778058.6461208     
  -59660414.6702950     
  -59542347.0521554     
  -59423947.4317491     
  -59305317.3264569     
  -59186569.0195176     
  -59067826.4550419     
  -58949226.0997596     
  -58830917.7140630     
  -58713064.9519799     
  -58595845.6804626     
  -58479451.8716802     
  -58364088.8765962     
  -58249973.8326543     
  -58137332.8910989     
  -58026396.8673722     
  -57917394.8153597     
  -57810544.8901832     
  -57706041.6669371     
  -57604038.7645233     
  -57504625.0605597     
  -57407791.7295510     
  -57313385.3128539     
  -57221038.1839850     
  -57130060.8702119     
  -57039268.8171515     
  -56946705.5959153     
  -56849282.1527075     
  -56742630.1649117     
  -56621858.5388261     
  -65483694.2354883     
  -65428037.6155408     
  -65379218.5717173     
  -65334585.5413227     
  -65291859.8961378     
  -65249487.1219894     
  -65206504.3091158     
  -65162330.5275707     
  -65116622.2139420     
  -65069187.0525434     
  -65019931.6201148     
  -64968828.0764480     
  -64915891.9620688     
  -64861166.7927561     
  -64804713.0940027     
  -64746600.5177978     
  -64686902.2004290     
  -64625690.7959380     
  -64563035.7770393     
  -64499001.6938821     
  -64433647.1495178     
  -64367024.3026133     
  -64299178.7489682     
  -64230149.6666674     
  -64159970.1367670     
  -64088667.5732911     
  -64016264.2137647     
  -63942777.6352442     
  -63868221.2714140     
  -63792604.9144076     
  -63715935.1910468     
  -63638216.0076076     
  -63559448.9603834     
  -63479633.7115205     
  -63398768.3310666     
  -63316849.6071196     
  -63233873.3265138     
  -63149834.5287543     
  -63064727.7360050     
  -62978547.1618976     
  -62891286.9018175     
  -62802941.1071683     
  -62713504.1459466     
  -62622970.7517736     
  -62531336.1633769     
  -62438596.2563533     
  -62344747.6689233     
  -62249787.9232770     
  -62153715.5440333     
  -62056530.1752802     
  -61958232.6976377     
  -61858825.3467841     
  -61758311.8349143     
  -61656697.4766612     
  -61553989.3210949     
  -61450196.2915333     
  -61345329.3350573     
  -61239401.5838051     
  -61132428.5303510     
  -61024428.2197346     
  -60915421.4610074     
  -60805432.0615021     
  -60694487.0873990     
  -60582617.1545580     
  -60469856.7539804     
  -60356244.6166561     
  -60241824.1228869     
  -60126643.7614103     
  -60010757.6437132     
  -59894226.0787148     
  -59777116.2123776     
  -59659502.7355942     
  -59541468.6616477     
  -59423106.1713468     
  -59304517.5191879     
  -59185815.9870809     
  -59067126.8626781     
  -58948588.4063843     
  -58830352.7537958     
  -58712586.6775791     
  -58595472.1034082     
  -58479206.2372662     
  -58364001.1146720     
  -58250082.3246095     
  -58137686.5899784     
  -58027057.7990426     
  -57918440.9724516     
  -57812073.5049990     
  -57708172.8121423     
  -57606919.1778098     
  -57508432.0138458     
  -57412736.6429928     
  -57319716.5880724     
  -57229042.1825903     
  -57140058.5699568     
  -57051601.6755244     
  -56961689.3437520     
  -56867073.9042624     
  -56762960.7036577     
  -56643762.9251769     
  -65473005.0136129     
  -65418150.4773798     
  -65370605.6268716     
  -65327344.0334254     
  -65285878.5291460     
  -65244590.7970557     
  -65202516.0552961     
  -65159089.1929848     
  -65113986.6440211     
  -65067036.3038890     
  -65018163.7054619     
  -64967358.1555871     
  -64914650.3384583     
  -64860096.8875712     
  -64803769.4999124     
  -64745747.1960845     
  -64686110.8587700     
  -64624939.4640135     
  -64562307.5819163     
  -64498283.8263959     
  -64432930.0060246     
  -64366300.7827740     
  -64298443.6888633     
  -64229399.3868207     
  -64159202.0859842     
  -64087880.0511282     
  -64015456.1566148     
  -63941948.4532244     
  -63867370.7253349     
  -63791733.0240034     
  -63715042.1673094     
  -63637302.2035064     
  -63558514.8354509     
  -63478679.8067726     
  -63397795.2515364     
  -63315858.0099236     
  -63232863.9128840     
  -63148808.0388643     
  -63063684.9457304     
  -62977488.8808839     
  -62890213.9724068     
  -62801854.4038692     
  -62712404.5752268     
  -62621859.2520308     
  -62530213.7049853     
  -62437463.8417282     
  -62343606.3325598     
  -62248638.7317431     
  -62152559.5959007     
  -62055368.6009888     
  -61957066.6592842     
  -61857656.0378302     
  -61757140.4798157     
  -61655525.3304075     
  -61552817.6686615     
  -61449026.4472486     
  -61344162.6418937     
  -61238239.4126189     
  -61131272.2791181     
  -61023279.3128643     
  -60914281.3488661     
  -60804302.2203588     
  -60693369.0201087     
  -60581512.3924476     
  -60468766.8606112     
  -60355171.1944165     
  -60240768.8237412     
  -60125608.3036295     
  -60009743.8370616     
  -59893235.8614085     
  -59776151.7042089     
  -59658566.3129745     
  -59540563.0620219     
  -59422234.6365242     
  -59303683.9896675     
  -59185025.3624737     
  -59066385.3468474     
  -58947903.9599338     
  -58829735.6809434     
  -58712050.3790811     
  -58595034.0317596     
  -58478889.0943862     
  -58363834.3350060     
  -58250103.8870383     
  -58137945.1988634     
  -58027615.4665964     
  -57919376.0197326     
  -57813483.9755736     
  -57710180.2595296     
  -57609672.7441765     
  -57512112.6605350     
  -57417561.3099221     
  -57325941.9095895     
  -57236966.9844325     
  -57150023.1843018     
  -57063978.7318125     
  -56976845.6067603     
  -56885237.4331468     
  -56783910.9465179     
  -56666475.1673867     
  -65461915.4848239     
  -65407967.5164132     
  -65361828.8762707     
  -65320038.6176230     
  -65279893.7674023     
  -65239725.7847460     
  -65198578.8312363     
  -65155909.5004851     
  -65111417.5814468     
  -65064953.2129381     
  -65016462.1709124     
  -64965951.7697347     
  -64913468.4345939     
  -64859082.3402026     
  -64802876.6567960     
  -64744939.9864231     
  -64685361.1046198     
  -64624225.4060261     
  -64561612.6174537     
  -64497595.4484398     
  -64432238.9250991     
  -64365600.2108223     
  -64297728.7629931     
  -64228666.7113792     
  -64158449.3729727     
  -64087105.8410702     
  -64014659.6043187     
  -63941129.1652133     
  -63866528.6379103     
  -63790868.3128901     
  -63714155.1815714     
  -63636393.4178909     
  -63557584.8165686     
  -63477729.1895340     
  -63396824.7230901     
  -63314868.2990048     
  -63231855.7829959     
  -63147782.2841261     
  -63062642.3885347     
  -62976430.3707425     
  -62889140.3855479     
  -62800766.6432767     
  -62711303.5709114     
  -62620745.9613920     
  -62529089.1131746     
  -62436328.9619544     
  -62342462.2063030     
  -62247486.4288581     
  -62151400.2145983     
  -62054203.2676857     
  -61955896.5283185     
  -61856482.2910376     
  -61755964.3259562     
  -61654348.0044401     
  -61551640.4308573     
  -61447850.5821384     
  -61342989.4570555     
  -61237070.2373164     
  -61130108.4628306     
  -61022122.2237717     
  -60913132.3724147     
  -60803162.7580967     
  -60692240.4890917     
  -60580396.2256640     
  -60467664.5090811     
  -60354084.1318977     
  -60239698.5553595     
  -60124556.3802440     
  -60008711.8778444     
  -59892225.5879665     
  -59775164.9906772     
  -59657605.2579025     
  -59539630.0896122     
  -59421332.6369392     
  -59302816.5107302     
  -59184196.8682164     
  -59065601.5620226     
  -58947172.3237828     
  -58829065.9381497     
  -58711455.3407392     
  -58594530.5440781     
  -58478499.2572384     
  -58363587.0156345     
  -58250036.5752465     
  -58138106.2476553     
  -58028066.7550012     
  -57920196.0610228     
  -57814771.4731600     
  -57712058.0843715     
  -57612292.2728972     
  -57515658.3756320     
  -57422255.5181799     
  -57332049.3638863     
  -57244798.9648535     
  -57159939.6334281     
  -57076384.4292645     
  -56992162.5176829     
  -56903777.7097143     
  -56805522.2961890     
  -56690073.1080517     
  -65450384.7312574     
  -65397469.0967644     
  -65352888.3267712     
  -65312676.9159370     
  -65273914.1253349     
  -65234899.9048289     
  -65194699.5136118     
  -65152797.3570350     
  -65108920.0260867     
  -65062941.9594092     
  -65014830.4684990     
  -64964611.7361780     
  -64912348.5226859     
  -64858124.9617987     
  -64802035.9913672     
  -64744179.9992939     
  -64684653.7916119     
  -64623549.2694665     
  -64560951.3675368     
  -64496936.9154195     
  -64431574.1622550     
  -64364922.7653402     
  -64297034.0912219     
  -64227951.7157655     
  -64157712.0397759     
  -64086344.9602558     
  -64013874.5555306     
  -63940319.7561866     
  -63865694.9839892     
  -63790010.7483851     
  -63713274.1954830     
  -63635489.6080637     
  -63556658.8576083     
  -63476781.8108675     
  -63395856.6943929     
  -63313880.4208924     
  -63230848.8814018     
  -63146757.2072052     
  -63061600.0052399     
  -62975371.5704690     
  -62888066.0784120     
  -62799677.7607322     
  -62710201.0665044     
  -62619630.8115188     
  -62527962.3177621     
  -62435191.5450086     
  -62341315.2163004     
  -62246330.9389589     
  -62150237.3226762     
  -62053034.0961665     
  -61954722.2238234     
  -61855304.0238236     
  -61754783.2891455     
  -61653165.4130270     
  -61550457.5204828     
  -61446668.6076209     
  -61341809.6906708     
  -61235893.9668367     
  -61128936.9893421     
  -61020956.8593311     
  -60911974.4376457     
  -60802013.5799053     
  -60691101.3987772     
  -60579268.5578581     
  -60466549.6021445     
  -60352983.3306917     
  -60238613.2176821     
  -60123487.8887370     
  -60007661.6598333     
  -59891195.1465701     
  -59774155.9516437     
  -59656619.4380376     
  -59538669.5944604     
  -59420399.9975789     
  -59301914.8722368     
  -59183330.2455801     
  -59064775.1831049     
  -58946393.0832565     
  -58828342.9912216     
  -58710800.8706539     
  -58593960.7426388     
  -58478035.5624003     
  -58363257.6539392     
  -58249878.4585075     
  -58138167.2716800     
  -58028408.5418936     
  -57920897.1744852     
  -57815931.1176275     
  -57713800.2748147     
  -57614770.4363163     
  -57519060.3263253     
  -57426808.7435319     
  -57338026.5632747     
  -57252523.7555610     
  -57169791.6453419     
  -57088801.1466144     
  -57007624.5271824     
  -56922695.6658144     
  -56827837.8978619     
  -56714645.5263373     
  -65438365.5988237     
  -65386635.0716670     
  -65343786.5510712     
  -65305268.5015100     
  -65267949.1028972     
  -65230121.5390940     
  -65190885.3233057     
  -65149758.8835895     
  -65106499.1155153     
  -65061006.8116624     
  -65013272.1058901     
  -64963340.9049215     
  -64911292.8914667     
  -64857226.5686250     
  -64801248.9275591     
  -64743468.3371153     
  -64683989.7619849     
  -64622911.6885378     
  -64560324.3019151     
  -64496308.5684911     
  -64430935.9591459     
  -64364268.6117648     
  -64296359.7811741     
  -64227254.4641655     
  -64156990.1182329     
  -64085597.4166374     
  -64013101.0006908     
  -63939520.2038146     
  -63864869.7319537     
  -63789160.2920986     
  -63712399.1656731     
  -63634590.7269209     
  -63555736.9085830     
  -63475837.6184638     
  -63394891.1111693     
  -63312894.3195573     
  -63229843.1504345     
  -63145732.7488474     
  -63060557.7350178     
  -62974312.4176506     
  -62886990.9869782     
  -62798587.6905820     
  -62709096.9946950     
  -62618513.7334246     
  -62526833.2480735     
  -62434051.5185267     
  -62340165.2885034     
  -62245172.1863277     
  -62149070.8427725     
  -62051861.0074606     
  -61953543.6652645     
  -61854121.1541461     
  -61753597.2859001     
  -61651977.4713232     
  -61549268.8514234     
  -61445480.4364146     
  -61340623.2544081     
  -61234710.5119252     
  -61127757.7686136     
  -61019783.1288621     
  -60910807.4533796     
  -60800854.5942351     
  -60689951.6573478     
  -60578129.2969920     
  -60465422.0475030     
  -60351868.6980577     
  -60237512.7171366     
  -60122402.7340065     
  -60006593.0852603     
  -59890144.4350381     
  -59773124.4779193     
  -59655608.7334431     
  -59537681.4406070     
  -59419436.5591525     
  -59300978.8816007     
  -59182425.2552849     
  -59063905.9063395     
  -58945565.8468128     
  -58827566.3306345     
  -58710086.3026728     
  -58593323.7557992     
  -58477496.8717423     
  -58362844.7701777     
  -58249627.6242698     
  -58138125.8166154     
  -58028637.7032338     
  -57921475.4189685     
  -57816957.9844019     
  -57715400.7392467     
  -57617099.7774401     
  -57522309.4795273     
  -57431210.1565304     
  -57343860.6522511     
  -57260126.2433434     
  -57179561.7400388     
  -57101209.1536123     
  -57023211.9196233     
  -56941986.7686840     
  -56850902.0448835     
  -56740294.6247221     
  -65425803.1803528     
  -65375445.3068339     
  -65334529.5446333     
  -65297825.0880700     
  -65262009.1786634     
  -65225399.6353973     
  -65187143.8213413     
  -65146800.4097659     
  -65104160.1205095     
  -65059152.1222322     
  -65011790.6422167     
  -64962142.1547737     
  -64910303.8425942     
  -64856388.9788241     
  -64800516.8836674     
  -64742806.0917738     
  -64683369.8444899     
  -64622313.2824113     
  -64559731.8747681     
  -64495710.7334026     
  -64430324.5426399     
  -64363637.9016548     
  -64295705.9276643     
  -64226575.0090889     
  -64156283.6296454     
  -64084863.2087305     
  -64012338.9218389     
  -63938730.4783264     
  -63864052.8436192     
  -63788316.8998644     
  -63711530.0437022     
  -63633696.7229194     
  -63554818.9156244     
  -63474896.5566273     
  -63393927.9161943     
  -63311909.9364064     
  -63228838.5302045     
  -63144708.8478799     
  -63059515.5153909     
  -62973252.8484645     
  -62885915.0460344     
  -62797496.3661771     
  -62707991.2873572     
  -62617394.6574749     
  -62525701.8329442     
  -62432908.8098031     
  -62339012.3486666     
  -62244010.0951913     
  -62147900.6976118     
  -62050683.9228275     
  -61952360.7724860     
  -61852933.6004979     
  -61752406.2334399     
  -61650784.0953667     
  -61548074.3386424     
  -61444285.9825321     
  -61339430.0614694     
  -61233519.7851301     
  -61126570.7127090     
  -61018600.9441248     
  -60909631.3312597     
  -60799685.7127943     
  -60688791.1767366     
  -60576978.3553410     
  -60464281.7578110     
  -60350740.1469388     
  -60236396.9666646     
  -60121300.8284086     
  -60005506.0648869     
  -59889073.3609259     
  -59772070.4714094     
  -59654573.0367920     
  -59536665.5063759     
  -59418442.1784825     
  -59300008.3643146     
  -59181481.6781979     
  -59062993.4502303     
  -58944690.2472311     
  -58826735.4730583     
  -58709310.9983211     
  -58592618.7404129     
  -58476882.0754047     
  -58362346.9111004     
  -58249282.1824873     
  -58137979.4435836     
  -58028751.1191820     
  -57921926.8406411     
  -57817847.1117946     
  -57716853.3142115     
  -57619272.7183052     
  -57525396.6107452     
  -57435448.6313182     
  -57349538.3178995     
  -57267590.5775726     
  -57189231.2194233     
  -57113586.6242504     
  -57038900.4058455     
  -56961639.1859264     
  -56874759.0629692     
  -56767139.2870278     
  -65412632.7890249     
  -65363880.6112561     
  -65325127.8055923     
  -65290360.6349423     
  -65256105.7775409     
  -65220743.7109701     
  -65183482.8992554     
  -65143928.4669800     
  -65101908.4395576     
  -65057382.3227278     
  -65010389.6835375     
  -64961018.3891664     
  -64909383.6868648     
  -64855614.0090363     
  -64799841.2693907     
  -64742194.3420825     
  -64682794.8522416     
  -64621754.6534410     
  -64559174.5232464     
  -64495143.7193145     
  -64429740.1238803     
  -64363030.7719555     
  -64295072.6121239     
  -64225913.3909298     
  -64155592.5844438     
  -64084142.3253641     
  -64011588.2924313     
  -63937950.5423766     
  -63863244.2741394     
  -63787480.5216732     
  -63710666.7760150     
  -63632807.5400470     
  -63553904.8209657     
  -63473958.5662649     
  -63392967.0492870     
  -63310927.2102815     
  -63227834.9586006     
  -63143685.4412121     
  -63058473.2822340     
  -62972192.7976832     
  -62884838.1891779     
  -62796403.7198754     
  -62706883.8755526     
  -62616273.5133893     
  -62524568.0007196     
  -62431763.3457905     
  -62337856.3223458     
  -62242844.5897201     
  -62146726.8100034     
  -62049502.7637551     
  -61951173.4657103     
  -61851741.2819068     
  -61751210.0496844     
  -61649585.2020748     
  -61546873.8981789     
  -61443085.1612773     
  -61338230.0265866     
  -61232321.7007937     
  -61125375.7357851     
  -61017410.2193113     
  -60908445.9857433     
  -60798506.8505403     
  -60687619.8726224     
  -60575815.6494910     
  -60463128.6506795     
  -60349597.5959713     
  -60235265.8857435     
  -60120182.0917957     
  -60004400.5180641     
  -59887981.8416198     
  -59770993.8452534     
  -59653512.2535651     
  -59535621.6846544     
  -59417416.7288883     
  -59299003.1644717     
  -59180499.3160318     
  -59062037.5564591     
  -58943765.9428072     
  -58825849.9628952     
  -58708474.3487587     
  -58591844.8842831     
  -58476190.0948341     
  -58361762.6536571     
  -58248840.2700706     
  -58137725.7344080     
  -58028745.6801932     
  -57922247.4799256     
  -57818593.5087293     
  -57718151.7728919     
  -57621281.5691081     
  -57528312.3142892     
  -57439512.7565157     
  -57355045.8035235     
  -57274900.1895301     
  -57198780.1586789     
  -57125909.7041257     
  -57054660.8963507     
  -56981631.4722159     
  -56899451.3221139     
  -56795319.4301215     
  -65398777.1911708     
  -65351924.3576907     
  -65315597.6454025     
  -65282891.2953175     
  -65250251.2274691     
  -65216163.8547793     
  -65179910.7623517     
  -65141149.7808570     
  -65099749.5921442     
  -65055701.9181682     
  -65009072.8779381     
  -64959972.5317051     
  -64908534.7402470     
  -64854903.4708826     
  -64799223.4827701     
  -64741634.1511610     
  -64682265.5805174     
  -64621236.3853419     
  -64558652.6659856     
  -64494607.8176079     
  -64429182.8973408     
  -64362447.3442556     
  -64294459.9020297     
  -64225269.6375306     
  -64154916.9818600     
  -64083434.7454364     
  -64010849.0771605     
  -63937180.3509164     
  -63862443.9719157     
  -63786651.1016098     
  -63709809.3039005     
  -63631923.1177945     
  -63552994.5629236     
  -63473023.5848776     
  -63392008.4473081     
  -63309946.0774577     
  -63226832.3712903     
  -63142662.4638380     
  -63057430.9697765     
  -62971132.1986744     
  -62883760.3488203     
  -62795309.6830446     
  -62705774.6895320     
  -62615150.2302418     
  -62523431.6792555     
  -62430615.0531007     
  -62336697.1348994     
  -62241675.5940268     
  -62145549.1028395     
  -62048317.4519582     
  -61949981.6655342     
  -61850544.1179291     
  -61750008.6532488     
  -61648380.7092387     
  -61545667.4471396     
  -61441877.8892361     
  -61337023.0660108     
  -61231116.1750457     
  -61124172.7540849     
  -61016210.8710364     
  -60907251.3340946     
  -60797317.9256715     
  -60686437.6644216     
  -60574641.1003331     
  -60461962.6486745     
  -60348440.9694920     
  -60234119.4004034     
  -60119046.4515505     
  -60003276.3727899     
  -59886869.8044272     
  -59769894.5239563     
  -59652426.3022451     
  -59534549.8831648     
  -59416360.1005640     
  -59297963.1452796     
  -59179477.9920346     
  -59061037.9908044     
  -58942792.6185570     
  -58824909.3738332     
  -58707575.7767580     
  -58591001.4086547     
  -58475419.8858779     
  -58361090.6087858     
  -58248300.0554562     
  -58137362.2970342     
  -58028618.2933333     
  -57922433.3787282     
  -57819192.1628584     
  -57719289.8341611     
  -57623118.5381102     
  -57531047.0146720     
  -57443390.8486991     
  -57360368.9237923     
  -57282037.8269068     
  -57208187.3995294     
  -57138152.6011840     
  -57070459.6097039     
  -57001929.7608153     
  -56925015.7714971     
  -56825001.9444805     
  -65384142.7329088     
  -65339565.2906448     
  -65305962.6630333     
  -65275435.1131860     
  -65244458.7417809     
  -65211670.7211797     
  -65176435.9058490     
  -65138471.2638043     
  -65097689.2103811     
  -65054115.4809461     
  -65007843.9102115     
  -64959007.5214669     
  -64907759.3197239     
  -64854259.1673042     
  -64798664.9070257     
  -64741126.5637422     
  -64681782.8045019     
  -64620759.0413318     
  -64558166.7015987     
  -64494103.3006753     
  -64428653.0398689     
  -64361887.7240451     
  -64293867.8503294     
  -64224643.7637465     
  -64154256.8095975     
  -64082740.4376733     
  -64010121.2317815     
  -63936419.8510684     
  -63861651.8785095     
  -63785828.5777939     
  -63708957.5634526     
  -63631043.3911339     
  -63552088.0758861     
  -63472091.5465530     
  -63391052.0441575     
  -63308966.4716452     
  -63225830.7017245     
  -63141639.8488399     
  -63056388.5106079     
  -62970070.9834070     
  -62882681.4561895     
  -62794214.1860653     
  -62704663.6587368     
  -62614024.7364641     
  -62522292.7959196     
  -62429463.8580038     
  -62335534.7114874     
  -62240503.0321662     
  -62144367.4990955     
  -62047127.9093759     
  -61948785.2929259     
  -61849342.0286488     
  -61748801.9634392     
  -61647170.5355181     
  -61544454.9036943     
  -61440664.0842697     
  -61335809.0975067     
  -61229903.1257924     
  -61122961.6859262     
  -61015002.8183267     
  -60906047.2963708     
  -60796118.8596161     
  -60685244.4752765     
  -60573454.6330553     
  -60460783.6793125     
  -60347270.1975387     
  -60232957.4432400     
  -60117893.8426124     
  -60002133.5657582     
  -59885737.1866548     
  -59768772.4435149     
  -59651315.1144987     
  -59533450.0247284     
  -59415272.2009484     
  -59296888.1895710     
  -59178417.5516796     
  -59059994.5440560     
  -58941769.9874178     
  -58823913.3104048     
  -58706614.7387028     
  -58590087.5707377     
  -58474570.4419325     
  -58360329.4252809     
  -58247659.7432906     
  -58136886.7711092     
  -58028365.8888135     
  -57922480.5879706     
  -57819638.0490796     
  -57720261.1721733     
  -57624775.7424297     
  -57533590.9787906     
  -57447070.9693962     
  -57365493.0794930     
  -57288985.6034533     
  -57217430.5620199     
  -57150287.6212738     
  -57086258.7187553     
  -57022484.6034598     
  -56951477.9308249     
  -56856389.0074246     
  -65368613.7626451     
  -65326802.4226512     
  -65296255.1210578     
  -65268011.3801599     
  -65238742.4936630     
  -65207275.4907221     
  -65173067.0898986     
  -65135900.0071901     
  -65095733.0287596     
  -65052627.6446774     
  -65006706.4960134     
  -64958126.3080924     
  -64907059.7389367     
  -64853682.8887727     
  -64798166.9072942     
  -64740672.6034081     
  -64681347.2769834     
  -64620323.1622407     
  -64557717.0071452     
  -64493630.4207007     
  -64428150.7097288     
  -64361351.9999682     
  -64293296.4948718     
  -64224035.7710120     
  -64153612.0435140     
  -64082059.3603936     
  -64009404.7029412     
  -63935668.9820076     
  -63860867.9285607     
  -63785012.8823256     
  -63708111.4855351     
  -63630168.2904960     
  -63551185.2903016     
  -63471162.3819639     
  -63390097.7707750     
  -63307988.3239921     
  -63224829.8811406     
  -63140617.5273935     
  -63055345.8356821     
  -62969009.0824553     
  -62881601.4413350     
  -62793117.1583339     
  -62703550.7118029     
  -62612896.9598462     
  -62521151.2775927     
  -62428309.6864308     
  -62334368.9770710     
  -62239326.8281337     
  -62143181.9218249     
  -62045934.0581685     
  -61947584.2692212     
  -61848134.9346704     
  -61747589.9002465     
  -61645954.6004352     
  -61543236.1870671     
  -61439443.6655068     
  -61334588.0403408     
  -61228682.4727067     
  -61121742.4516905     
  -61013785.9826078     
  -60904833.7954093     
  -60794909.5770171     
  -60684040.2320444     
  -60572256.1771302     
  -60459591.6750528     
  -60346085.2158496     
  -60231779.9534218     
  -60116724.2075006     
  -60000972.0424023     
  -59884583.9356855     
  -59767627.5515328     
  -59650178.6353528     
  -59532322.0475205     
  -59414152.9550860     
  -59295778.2003003     
  -59177317.8633425     
  -59058907.0329273     
  -58940697.7914520     
  -58822861.4095547     
  -58705590.7266009     
  -58589102.6662633     
  -58473640.7971404     
  -58359477.7937413     
  -58246917.5792259     
  -58136296.8337240     
  -58027985.4267441     
  -57922385.1754109     
  -57819926.1384876     
  -57721059.4263914     
  -57626245.2199480     
  -57535934.3283330     
  -57450540.9460803     
  -57370403.2730816     
  -57295725.0509824     
  -57226486.1265113     
  -57162285.0062105     
  -57102017.7249302     
  -57043228.0186037     
  -56978841.4080610     
  -56889730.0510809     
  -65352044.3357915     
  -65313653.6948750     
  -65286516.4890426     
  -65260639.6776149     
  -65233117.8624735     
  -65202989.7505653     
  -65169813.3325372     
  -65133443.2673897     
  -65093886.8735284     
  -65051243.0977329     
  -65005664.3754801     
  -64957331.8467201     
  -64906438.3035986     
  -64853176.4093735     
  -64797730.8272584     
  -64740273.2697555     
  -64680959.7260003     
  -64619929.2645863     
  -64557303.9365830     
  -64493189.4084299     
  -64427676.0456348     
  -64360840.2430794     
  -64292745.8578385     
  -64223445.6469170     
  -64152982.6473028     
  -64081391.4612782     
  -64008699.4280147     
  -63934927.6748464     
  -63860092.0497104     
  -63784203.9412362     
  -63707270.9957520     
  -63629297.7417557     
  -63550286.1326718     
  -63470236.0183649     
  -63389145.5551432     
  -63307011.5630910     
  -63223829.8385699     
  -63139595.4287760     
  -63054302.8743243     
  -62967946.4250052     
  -62880520.2331323     
  -62792018.5282672     
  -62702435.7765650     
  -62611766.8275394     
  -62520007.0506700     
  -62427152.4639725     
  -62333199.8564131     
  -62238146.9058646     
  -62141992.2941607     
  -62044735.8207158     
  -61946378.5161214     
  -61846922.7571164     
  -61746372.3843428     
  -61644732.8243670     
  -61542011.2175296     
  -61438216.5533344     
  -61333359.8152730     
  -61227454.1372154     
  -61120514.9738078     
  -61012560.2876888     
  -60903610.7568124     
  -60793690.0057167     
  -60682824.8652783     
  -60571045.6663011     
  -60458386.5732851     
  -60344885.9658552     
  -60230586.8766915     
  -60115537.4963294     
  -59999791.7569320     
  -59883410.0090425     
  -59766459.8073294     
  -59649016.8233613     
  -59531165.9053148     
  -59413002.3059758     
  -59294633.1010346     
  -59176178.8189726     
  -59057775.3009547     
  -58939575.8030441     
  -58821753.3422080     
  -58704503.2701104     
  -58588046.0320638     
  -58472630.0296330     
  -58358534.4505851     
  -58246071.8548253     
  -58135590.2053029     
  -58027473.9041199     
  -57922143.2337272     
  -57820051.4078095     
  -57721678.2119465     
  -57627518.9423650     
  -57538067.0528582     
  -57453788.3939438     
  -57375084.1373305     
  -57302237.1328974     
  -57235329.6877589     
  -57174112.4034813     
  -57117695.5062760     
  -57064072.3210292     
  -57007069.3523918     
  -56925339.5581101     
  -65334245.4175164     
  -65300171.6132104     
  -65276795.3007374     
  -65253339.0758575     
  -65227601.8315809     
  -65198825.2471966     
  -65166683.9538438     
  -65131108.4304662     
  -65092156.6577953     
  -65049966.5743792     
  -65004721.3069925     
  -64956627.0925751     
  -64905897.3067328     
  -64852741.4827650     
  -64797357.9856744     
  -64739929.5354961     
  -64680620.8524390     
  -64619577.8386230     
  -64556927.8192015     
  -64492780.4719321     
  -64427229.1657877     
  -64360352.5061001     
  -64292215.9451797     
  -64222873.3647831     
  -64152368.5721838     
  -64080736.6771475     
  -64008005.3349479     
  -63934195.8525272     
  -63859324.1625291     
  -63783401.6744423     
  -63706436.0144215     
  -63628431.6662175     
  -63549390.5255490     
  -63469312.3795962     
  -63388195.3222941     
  -63306036.1149854     
  -63222830.5008451     
  -63138573.4803725     
  -63053259.5542387     
  -62966882.9388609     
  -62879437.7592905     
  -62790918.2233088     
  -62701318.7800588     
  -62610634.2660606     
  -62518860.0410647     
  -62425992.1158819     
  -62332027.2740782     
  -62236963.1892330     
  -62140798.5393119     
  -62043533.1196126     
  -61945167.9556871     
  -61845705.4176208     
  -61745149.3370732     
  -61643505.1285394     
  -61540779.9163910     
  -61436982.6693864     
  -61332124.3445420     
  -61226218.0424875     
  -61119279.1767433     
  -61011325.6597461     
  -60902378.1089276     
  -60792460.0767367     
  -60681598.3092090     
  -60569823.0385618     
  -60457168.3163119     
  -60343672.3946667     
  -60229378.1653628     
  -60114333.6668178     
  -59998592.6723616     
  -59882215.3744474     
  -59765269.1820382     
  -59647829.6507585     
  -59529981.5677167     
  -59411820.2149091     
  -59293452.8364292     
  -59175000.3347518     
  -59056599.2193944     
  -58938403.8260939     
  -58820588.8148368     
  -58703351.9385734     
  -58586917.0486740     
  -58471537.2648145     
  -58357498.1821342     
  -58245120.9125766     
  -58134764.6556424     
  -58026828.3620299     
  -57921750.8888797     
  -57820008.8492232     
  -57722111.1307438     
  -57628588.8279359     
  -57539979.0279820     
  -57456800.7253925     
  -57379520.0097054     
  -57308502.1479777     
  -57243936.4824294     
  -57185734.0110402     
  -57133252.0291928     
  -57084914.7026745     
  -57036050.9619996     
  -56963624.5096725     
  -65314964.3183173     
  -65286472.1993185     
  -65267137.8505900     
  -65246129.3365771     
  -65222212.9851660     
  -65194793.6285298     
  -65163688.6669649     
  -65128902.9435537     
  -65090548.3914106     
  -65048802.8388948     
  -65003881.0631973     
  -64956014.9943512     
  -64905439.0240764     
  -64852379.8378808     
  -64797049.6728433     
  -64739642.3434762     
  -64680331.3275933     
  -64619269.3463613     
  -64556588.9580423     
  -64492403.7953553     
  -64426810.1669073     
  -64359888.8226799     
  -64291706.7460578     
  -64222318.8832519     
  -64151769.7566027     
  -64080094.9337454     
  -64007322.3421064     
  -63933473.4297200     
  -63858564.1804511     
  -63782605.9957063     
  -63705606.4565547     
  -63627569.9806079     
  -63548498.3875329     
  -63468391.3860877     
  -63387246.9943151     
  -63305061.9031785     
  -63221831.7926106     
  -63137551.6076872     
  -63052215.8015177     
  -62965818.5504544     
  -62878353.9463581     
  -62789816.1699333     
  -62700199.6485269     
  -62609499.2012941     
  -62517710.1742088     
  -62424828.5670749     
  -62330851.1544325     
  -62235775.6020514     
  -62139600.5805618     
  -62042325.8776677     
  -61943952.5103359     
  -61844482.8383251     
  -61743920.6804494     
  -61642271.4350175     
  -61539542.2059892     
  -61435741.9365332     
  -61330881.5518551     
  -61224974.1134169     
  -61118034.9869801     
  -61010082.0273054     
  -60901135.7828302     
  -60791219.7242572     
  -60680360.5017236     
  -60568588.2361346     
  -60455936.8513298     
  -60342444.4550611     
  -60228153.7783123     
  -60113112.6842924     
  -59997374.7605332     
  -59881000.0098707     
  -59764055.6586961     
  -59646617.1036063     
  -59528769.0203837     
  -59410606.6617957     
  -59292237.3726902     
  -59173782.3517375     
  -59055378.6880999     
  -58937181.6971984     
  -58819367.5710261     
  -58702136.3430536     
  -58585715.1429504     
  -58470361.6786814     
  -58356367.8287647     
  -58244063.1509942     
  -58133818.0101228     
  -58026045.8929937     
  -57921204.3090209     
  -57819793.4798246     
  -57722351.7851479     
  -57629446.7493672     
  -57541660.0486017     
  -57459565.1278618     
  -57383695.0780405     
  -57314499.5336854     
  -57252281.9393818     
  -57197110.5806301     
  -57148645.7694557     
  -57105657.1493380     
  -57065539.4633924     
  -57005128.4840825     
  -65293850.1483612     
  -65272790.1503935     
  -65257561.1197958     
  -65239039.8215272     
  -65216968.6314575     
  -65190907.1234601     
  -65160837.3857782     
  -65126834.3194905     
  -65089068.1745361     
  -65047756.6706775     
  -65003147.4277971     
  -64955498.4863934     
  -64905065.7098571     
  -64852093.1742292     
  -64796807.1471098     
  -64739412.6035807     
  -64680091.7907037     
  -64619004.2195553     
  -64556287.6283078     
  -64492059.5376778     
  -64426419.1232711     
  -64359449.2066630     
  -64291218.2322980     
  -64221782.1458785     
  -64151186.1259367     
  -64079466.1455317     
  -64006650.3581335     
  -63932760.3127284     
  -63857812.0097146     
  -63781816.8126016     
  -63704782.2318370     
  -63626712.5970699     
  -63547609.6332763     
  -63467472.9548668     
  -63386300.4903613     
  -63304088.8486465     
  -63220833.6363352     
  -63136529.7343538     
  -63051171.5406523     
  -62964753.1848524     
  -62877268.7197315     
  -62788712.2936542     
  -62699078.3074248     
  -62608361.5584970     
  -62516557.3750561     
  -62423661.7421320     
  -62329671.4216441     
  -62234584.0680689     
  -62138398.3412657     
  -62041114.0178994     
  -61942732.1028371     
  -61843254.9418715     
  -61742686.3371442     
  -61641031.6666980     
  -61538298.0096806     
  -61434494.2788700     
  -61329631.3623729     
  -61223722.2766082     
  -61116782.3330011     
  -61008829.3212212     
  -60899883.7122985     
  -60789968.8855932     
  -60679111.3843384     
  -60567341.2054468     
  -60454692.1304040     
  -60341202.1054578     
  -60226913.6809627     
  -60111874.5216834     
  -59996138.0021279     
  -59879763.9035706     
  -59762819.2323210     
  -59645379.1819234     
  -59527528.2652338     
  -59409361.6454714     
  -59290986.6980229     
  -59172524.8364916     
  -59054113.6363873     
  -58935909.2868187     
  -58818089.3930260     
  -58700856.1383710     
  -58584439.7907049     
  -58469102.5011632     
  -58355142.2891303     
  -58242897.0297698     
  -58132748.1561809     
  -58025123.6482387     
  -57920499.7142786     
  -57819400.3502966     
  -57722393.7942402     
  -57630084.5400667     
  -57543099.8599991     
  -57462068.5765408     
  -57387593.3693332     
  -57320208.2762886     
  -57260340.2220637     
  -57208205.5756872     
  -57163814.6266124     
  -57126264.4217751     
  -57095033.9356254     
  -57050605.7237874     
  -65270393.0045740     
  -65259587.1996778     
  -65247982.8952667     
  -65232142.1496679     
  -65211870.5451816     
  -65187184.2202499     
  -65158137.9374582     
  -65124910.9883024     
  -65087721.8552445     
  -65046832.9795329     
  -65002524.1418823     
  -64955080.4997374     
  -64904779.5851955     
  -64851883.1597620     
  -64796631.6302671     
  -64739241.1899457     
  -64679902.8463219     
  -64618782.8577174     
  -64556024.0757485     
  -64491747.8314655     
  -64426056.0857516     
  -64359033.6513623     
  -64290750.3578457     
  -64221263.0807367     
  -64150617.5922116     
  -64078850.2154844     
  -64005989.2818160     
  -63932056.3994016     
  -63857067.5493091     
  -63781034.0264844     
  -63703963.2446191     
  -63625859.4231632     
  -63546724.1734908     
  -63466556.9995692     
  -63385355.7266678     
  -63303116.8698517     
  -63219835.9523242     
  -63135507.7821490     
  -63050126.6945436     
  -62963686.7657690     
  -62876182.0036629     
  -62787606.5190305     
  -62697954.6814248     
  -62607221.2623030     
  -62515401.5680862     
  -62422491.5652994     
  -62328487.9996837     
  -62233388.5109718     
  -62137191.7448500     
  -62039897.4635324     
  -61941506.6563071     
  -61842021.6513970     
  -61741446.2304819     
  -61639785.7472997     
  -61537047.2518289     
  -61433239.6217033     
  -61328373.7026948     
  -61222462.4603597     
  -61115521.1452706     
  -61007567.4746544     
  -60898621.8337903     
  -60788707.5011667     
  -60677850.9021715     
  -60566081.8970985     
  -60453434.1104398     
  -60339945.3098934     
  -60225657.8452637     
  -60110619.1595142     
  -59994882.3866741     
  -59878507.0541231     
  -59761559.9099788     
  -59644115.8998073     
  -59526259.3206379     
  -59408085.1839936     
  -59289700.8230597     
  -59171227.7816921     
  -59052804.0238847     
  -58934586.5004373     
  -58816754.1032945     
  -58699511.0251391     
  -58583090.5193312     
  -58467759.0195317     
  -58353820.5243334     
  -58241621.0753041     
  -58131553.0491203     
  -58024058.8473352     
  -57919633.3810389     
  -57818824.5693801     
  -57722230.7696937     
  -57630494.1084637     
  -57544287.9101056     
  -57464298.5667078     
  -57391196.9246238     
  -57325611.8085348     
  -57268072.0634479     
  -57219015.7070199     
  -57178605.9668320     
  -57146913.7372625     
  -57123547.1461692     
  -57101151.4993838     
